 <VTKFile type="UnstructuredGrid"  version="0.1"   >
 <UnstructuredGrid>
 <Piece  NumberOfPoints="          1600 "  NumberOfCells="         1024 ">
 <Points>
 <DataArray  type="Float64" NumberOfComponents="3"  format="ascii" >
   0.0000000000000000        0.0000000000000000        0.0000000000000000     
   3.1250000000000000E-002   0.0000000000000000        0.0000000000000000     
   6.2500000000000000E-002   0.0000000000000000        0.0000000000000000     
   9.3750000000000000E-002   0.0000000000000000        0.0000000000000000     
  0.12500000000000000        0.0000000000000000        0.0000000000000000     
   0.0000000000000000        3.1250000000000000E-002   0.0000000000000000     
   3.1250000000000000E-002   3.1250000000000000E-002   0.0000000000000000     
   6.2500000000000000E-002   3.1250000000000000E-002   0.0000000000000000     
   9.3750000000000000E-002   3.1250000000000000E-002   0.0000000000000000     
  0.12500000000000000        3.1250000000000000E-002   0.0000000000000000     
   0.0000000000000000        6.2500000000000000E-002   0.0000000000000000     
   3.1250000000000000E-002   6.2500000000000000E-002   0.0000000000000000     
   6.2500000000000000E-002   6.2500000000000000E-002   0.0000000000000000     
   9.3750000000000000E-002   6.2500000000000000E-002   0.0000000000000000     
  0.12500000000000000        6.2500000000000000E-002   0.0000000000000000     
   0.0000000000000000        9.3750000000000000E-002   0.0000000000000000     
   3.1250000000000000E-002   9.3750000000000000E-002   0.0000000000000000     
   6.2500000000000000E-002   9.3750000000000000E-002   0.0000000000000000     
   9.3750000000000000E-002   9.3750000000000000E-002   0.0000000000000000     
  0.12500000000000000        9.3750000000000000E-002   0.0000000000000000     
   0.0000000000000000       0.12500000000000000        0.0000000000000000     
   3.1250000000000000E-002  0.12500000000000000        0.0000000000000000     
   6.2500000000000000E-002  0.12500000000000000        0.0000000000000000     
   9.3750000000000000E-002  0.12500000000000000        0.0000000000000000     
  0.12500000000000000       0.12500000000000000        0.0000000000000000     
  0.12500000000000000        0.0000000000000000        0.0000000000000000     
  0.15625000000000000        0.0000000000000000        0.0000000000000000     
  0.18750000000000000        0.0000000000000000        0.0000000000000000     
  0.21875000000000000        0.0000000000000000        0.0000000000000000     
  0.25000000000000000        0.0000000000000000        0.0000000000000000     
  0.12500000000000000        3.1250000000000000E-002   0.0000000000000000     
  0.15625000000000000        3.1250000000000000E-002   0.0000000000000000     
  0.18750000000000000        3.1250000000000000E-002   0.0000000000000000     
  0.21875000000000000        3.1250000000000000E-002   0.0000000000000000     
  0.25000000000000000        3.1250000000000000E-002   0.0000000000000000     
  0.12500000000000000        6.2500000000000000E-002   0.0000000000000000     
  0.15625000000000000        6.2500000000000000E-002   0.0000000000000000     
  0.18750000000000000        6.2500000000000000E-002   0.0000000000000000     
  0.21875000000000000        6.2500000000000000E-002   0.0000000000000000     
  0.25000000000000000        6.2500000000000000E-002   0.0000000000000000     
  0.12500000000000000        9.3750000000000000E-002   0.0000000000000000     
  0.15625000000000000        9.3750000000000000E-002   0.0000000000000000     
  0.18750000000000000        9.3750000000000000E-002   0.0000000000000000     
  0.21875000000000000        9.3750000000000000E-002   0.0000000000000000     
  0.25000000000000000        9.3750000000000000E-002   0.0000000000000000     
  0.12500000000000000       0.12500000000000000        0.0000000000000000     
  0.15625000000000000       0.12500000000000000        0.0000000000000000     
  0.18750000000000000       0.12500000000000000        0.0000000000000000     
  0.21875000000000000       0.12500000000000000        0.0000000000000000     
  0.25000000000000000       0.12500000000000000        0.0000000000000000     
  0.25000000000000000        0.0000000000000000        0.0000000000000000     
  0.28125000000000000        0.0000000000000000        0.0000000000000000     
  0.31250000000000000        0.0000000000000000        0.0000000000000000     
  0.34375000000000000        0.0000000000000000        0.0000000000000000     
  0.37500000000000000        0.0000000000000000        0.0000000000000000     
  0.25000000000000000        3.1250000000000000E-002   0.0000000000000000     
  0.28125000000000000        3.1250000000000000E-002   0.0000000000000000     
  0.31250000000000000        3.1250000000000000E-002   0.0000000000000000     
  0.34375000000000000        3.1250000000000000E-002   0.0000000000000000     
  0.37500000000000000        3.1250000000000000E-002   0.0000000000000000     
  0.25000000000000000        6.2500000000000000E-002   0.0000000000000000     
  0.28125000000000000        6.2500000000000000E-002   0.0000000000000000     
  0.31250000000000000        6.2500000000000000E-002   0.0000000000000000     
  0.34375000000000000        6.2500000000000000E-002   0.0000000000000000     
  0.37500000000000000        6.2500000000000000E-002   0.0000000000000000     
  0.25000000000000000        9.3750000000000000E-002   0.0000000000000000     
  0.28125000000000000        9.3750000000000000E-002   0.0000000000000000     
  0.31250000000000000        9.3750000000000000E-002   0.0000000000000000     
  0.34375000000000000        9.3750000000000000E-002   0.0000000000000000     
  0.37500000000000000        9.3750000000000000E-002   0.0000000000000000     
  0.25000000000000000       0.12500000000000000        0.0000000000000000     
  0.28125000000000000       0.12500000000000000        0.0000000000000000     
  0.31250000000000000       0.12500000000000000        0.0000000000000000     
  0.34375000000000000       0.12500000000000000        0.0000000000000000     
  0.37500000000000000       0.12500000000000000        0.0000000000000000     
  0.37500000000000000        0.0000000000000000        0.0000000000000000     
  0.40625000000000000        0.0000000000000000        0.0000000000000000     
  0.43750000000000000        0.0000000000000000        0.0000000000000000     
  0.46875000000000000        0.0000000000000000        0.0000000000000000     
  0.50000000000000000        0.0000000000000000        0.0000000000000000     
  0.37500000000000000        3.1250000000000000E-002   0.0000000000000000     
  0.40625000000000000        3.1250000000000000E-002   0.0000000000000000     
  0.43750000000000000        3.1250000000000000E-002   0.0000000000000000     
  0.46875000000000000        3.1250000000000000E-002   0.0000000000000000     
  0.50000000000000000        3.1250000000000000E-002   0.0000000000000000     
  0.37500000000000000        6.2500000000000000E-002   0.0000000000000000     
  0.40625000000000000        6.2500000000000000E-002   0.0000000000000000     
  0.43750000000000000        6.2500000000000000E-002   0.0000000000000000     
  0.46875000000000000        6.2500000000000000E-002   0.0000000000000000     
  0.50000000000000000        6.2500000000000000E-002   0.0000000000000000     
  0.37500000000000000        9.3750000000000000E-002   0.0000000000000000     
  0.40625000000000000        9.3750000000000000E-002   0.0000000000000000     
  0.43750000000000000        9.3750000000000000E-002   0.0000000000000000     
  0.46875000000000000        9.3750000000000000E-002   0.0000000000000000     
  0.50000000000000000        9.3750000000000000E-002   0.0000000000000000     
  0.37500000000000000       0.12500000000000000        0.0000000000000000     
  0.40625000000000000       0.12500000000000000        0.0000000000000000     
  0.43750000000000000       0.12500000000000000        0.0000000000000000     
  0.46875000000000000       0.12500000000000000        0.0000000000000000     
  0.50000000000000000       0.12500000000000000        0.0000000000000000     
  0.50000000000000000        0.0000000000000000        0.0000000000000000     
  0.53125000000000000        0.0000000000000000        0.0000000000000000     
  0.56250000000000000        0.0000000000000000        0.0000000000000000     
  0.59375000000000000        0.0000000000000000        0.0000000000000000     
  0.62500000000000000        0.0000000000000000        0.0000000000000000     
  0.50000000000000000        3.1250000000000000E-002   0.0000000000000000     
  0.53125000000000000        3.1250000000000000E-002   0.0000000000000000     
  0.56250000000000000        3.1250000000000000E-002   0.0000000000000000     
  0.59375000000000000        3.1250000000000000E-002   0.0000000000000000     
  0.62500000000000000        3.1250000000000000E-002   0.0000000000000000     
  0.50000000000000000        6.2500000000000000E-002   0.0000000000000000     
  0.53125000000000000        6.2500000000000000E-002   0.0000000000000000     
  0.56250000000000000        6.2500000000000000E-002   0.0000000000000000     
  0.59375000000000000        6.2500000000000000E-002   0.0000000000000000     
  0.62500000000000000        6.2500000000000000E-002   0.0000000000000000     
  0.50000000000000000        9.3750000000000000E-002   0.0000000000000000     
  0.53125000000000000        9.3750000000000000E-002   0.0000000000000000     
  0.56250000000000000        9.3750000000000000E-002   0.0000000000000000     
  0.59375000000000000        9.3750000000000000E-002   0.0000000000000000     
  0.62500000000000000        9.3750000000000000E-002   0.0000000000000000     
  0.50000000000000000       0.12500000000000000        0.0000000000000000     
  0.53125000000000000       0.12500000000000000        0.0000000000000000     
  0.56250000000000000       0.12500000000000000        0.0000000000000000     
  0.59375000000000000       0.12500000000000000        0.0000000000000000     
  0.62500000000000000       0.12500000000000000        0.0000000000000000     
  0.62500000000000000        0.0000000000000000        0.0000000000000000     
  0.65625000000000000        0.0000000000000000        0.0000000000000000     
  0.68750000000000000        0.0000000000000000        0.0000000000000000     
  0.71875000000000000        0.0000000000000000        0.0000000000000000     
  0.75000000000000000        0.0000000000000000        0.0000000000000000     
  0.62500000000000000        3.1250000000000000E-002   0.0000000000000000     
  0.65625000000000000        3.1250000000000000E-002   0.0000000000000000     
  0.68750000000000000        3.1250000000000000E-002   0.0000000000000000     
  0.71875000000000000        3.1250000000000000E-002   0.0000000000000000     
  0.75000000000000000        3.1250000000000000E-002   0.0000000000000000     
  0.62500000000000000        6.2500000000000000E-002   0.0000000000000000     
  0.65625000000000000        6.2500000000000000E-002   0.0000000000000000     
  0.68750000000000000        6.2500000000000000E-002   0.0000000000000000     
  0.71875000000000000        6.2500000000000000E-002   0.0000000000000000     
  0.75000000000000000        6.2500000000000000E-002   0.0000000000000000     
  0.62500000000000000        9.3750000000000000E-002   0.0000000000000000     
  0.65625000000000000        9.3750000000000000E-002   0.0000000000000000     
  0.68750000000000000        9.3750000000000000E-002   0.0000000000000000     
  0.71875000000000000        9.3750000000000000E-002   0.0000000000000000     
  0.75000000000000000        9.3750000000000000E-002   0.0000000000000000     
  0.62500000000000000       0.12500000000000000        0.0000000000000000     
  0.65625000000000000       0.12500000000000000        0.0000000000000000     
  0.68750000000000000       0.12500000000000000        0.0000000000000000     
  0.71875000000000000       0.12500000000000000        0.0000000000000000     
  0.75000000000000000       0.12500000000000000        0.0000000000000000     
  0.75000000000000000        0.0000000000000000        0.0000000000000000     
  0.78125000000000000        0.0000000000000000        0.0000000000000000     
  0.81250000000000000        0.0000000000000000        0.0000000000000000     
  0.84375000000000000        0.0000000000000000        0.0000000000000000     
  0.87500000000000000        0.0000000000000000        0.0000000000000000     
  0.75000000000000000        3.1250000000000000E-002   0.0000000000000000     
  0.78125000000000000        3.1250000000000000E-002   0.0000000000000000     
  0.81250000000000000        3.1250000000000000E-002   0.0000000000000000     
  0.84375000000000000        3.1250000000000000E-002   0.0000000000000000     
  0.87500000000000000        3.1250000000000000E-002   0.0000000000000000     
  0.75000000000000000        6.2500000000000000E-002   0.0000000000000000     
  0.78125000000000000        6.2500000000000000E-002   0.0000000000000000     
  0.81250000000000000        6.2500000000000000E-002   0.0000000000000000     
  0.84375000000000000        6.2500000000000000E-002   0.0000000000000000     
  0.87500000000000000        6.2500000000000000E-002   0.0000000000000000     
  0.75000000000000000        9.3750000000000000E-002   0.0000000000000000     
  0.78125000000000000        9.3750000000000000E-002   0.0000000000000000     
  0.81250000000000000        9.3750000000000000E-002   0.0000000000000000     
  0.84375000000000000        9.3750000000000000E-002   0.0000000000000000     
  0.87500000000000000        9.3750000000000000E-002   0.0000000000000000     
  0.75000000000000000       0.12500000000000000        0.0000000000000000     
  0.78125000000000000       0.12500000000000000        0.0000000000000000     
  0.81250000000000000       0.12500000000000000        0.0000000000000000     
  0.84375000000000000       0.12500000000000000        0.0000000000000000     
  0.87500000000000000       0.12500000000000000        0.0000000000000000     
  0.87500000000000000        0.0000000000000000        0.0000000000000000     
  0.90625000000000000        0.0000000000000000        0.0000000000000000     
  0.93750000000000000        0.0000000000000000        0.0000000000000000     
  0.96875000000000000        0.0000000000000000        0.0000000000000000     
   1.0000000000000000        0.0000000000000000        0.0000000000000000     
  0.87500000000000000        3.1250000000000000E-002   0.0000000000000000     
  0.90625000000000000        3.1250000000000000E-002   0.0000000000000000     
  0.93750000000000000        3.1250000000000000E-002   0.0000000000000000     
  0.96875000000000000        3.1250000000000000E-002   0.0000000000000000     
   1.0000000000000000        3.1250000000000000E-002   0.0000000000000000     
  0.87500000000000000        6.2500000000000000E-002   0.0000000000000000     
  0.90625000000000000        6.2500000000000000E-002   0.0000000000000000     
  0.93750000000000000        6.2500000000000000E-002   0.0000000000000000     
  0.96875000000000000        6.2500000000000000E-002   0.0000000000000000     
   1.0000000000000000        6.2500000000000000E-002   0.0000000000000000     
  0.87500000000000000        9.3750000000000000E-002   0.0000000000000000     
  0.90625000000000000        9.3750000000000000E-002   0.0000000000000000     
  0.93750000000000000        9.3750000000000000E-002   0.0000000000000000     
  0.96875000000000000        9.3750000000000000E-002   0.0000000000000000     
   1.0000000000000000        9.3750000000000000E-002   0.0000000000000000     
  0.87500000000000000       0.12500000000000000        0.0000000000000000     
  0.90625000000000000       0.12500000000000000        0.0000000000000000     
  0.93750000000000000       0.12500000000000000        0.0000000000000000     
  0.96875000000000000       0.12500000000000000        0.0000000000000000     
   1.0000000000000000       0.12500000000000000        0.0000000000000000     
   0.0000000000000000       0.12500000000000000        0.0000000000000000     
   3.1250000000000000E-002  0.12500000000000000        0.0000000000000000     
   6.2500000000000000E-002  0.12500000000000000        0.0000000000000000     
   9.3750000000000000E-002  0.12500000000000000        0.0000000000000000     
  0.12500000000000000       0.12500000000000000        0.0000000000000000     
   0.0000000000000000       0.15625000000000000        0.0000000000000000     
   3.1250000000000000E-002  0.15625000000000000        0.0000000000000000     
   6.2500000000000000E-002  0.15625000000000000        0.0000000000000000     
   9.3750000000000000E-002  0.15625000000000000        0.0000000000000000     
  0.12500000000000000       0.15625000000000000        0.0000000000000000     
   0.0000000000000000       0.18750000000000000        0.0000000000000000     
   3.1250000000000000E-002  0.18750000000000000        0.0000000000000000     
   6.2500000000000000E-002  0.18750000000000000        0.0000000000000000     
   9.3750000000000000E-002  0.18750000000000000        0.0000000000000000     
  0.12500000000000000       0.18750000000000000        0.0000000000000000     
   0.0000000000000000       0.21875000000000000        0.0000000000000000     
   3.1250000000000000E-002  0.21875000000000000        0.0000000000000000     
   6.2500000000000000E-002  0.21875000000000000        0.0000000000000000     
   9.3750000000000000E-002  0.21875000000000000        0.0000000000000000     
  0.12500000000000000       0.21875000000000000        0.0000000000000000     
   0.0000000000000000       0.25000000000000000        0.0000000000000000     
   3.1250000000000000E-002  0.25000000000000000        0.0000000000000000     
   6.2500000000000000E-002  0.25000000000000000        0.0000000000000000     
   9.3750000000000000E-002  0.25000000000000000        0.0000000000000000     
  0.12500000000000000       0.25000000000000000        0.0000000000000000     
  0.12500000000000000       0.12500000000000000        0.0000000000000000     
  0.15625000000000000       0.12500000000000000        0.0000000000000000     
  0.18750000000000000       0.12500000000000000        0.0000000000000000     
  0.21875000000000000       0.12500000000000000        0.0000000000000000     
  0.25000000000000000       0.12500000000000000        0.0000000000000000     
  0.12500000000000000       0.15625000000000000        0.0000000000000000     
  0.15625000000000000       0.15625000000000000        0.0000000000000000     
  0.18750000000000000       0.15625000000000000        0.0000000000000000     
  0.21875000000000000       0.15625000000000000        0.0000000000000000     
  0.25000000000000000       0.15625000000000000        0.0000000000000000     
  0.12500000000000000       0.18750000000000000        0.0000000000000000     
  0.15625000000000000       0.18750000000000000        0.0000000000000000     
  0.18750000000000000       0.18750000000000000        0.0000000000000000     
  0.21875000000000000       0.18750000000000000        0.0000000000000000     
  0.25000000000000000       0.18750000000000000        0.0000000000000000     
  0.12500000000000000       0.21875000000000000        0.0000000000000000     
  0.15625000000000000       0.21875000000000000        0.0000000000000000     
  0.18750000000000000       0.21875000000000000        0.0000000000000000     
  0.21875000000000000       0.21875000000000000        0.0000000000000000     
  0.25000000000000000       0.21875000000000000        0.0000000000000000     
  0.12500000000000000       0.25000000000000000        0.0000000000000000     
  0.15625000000000000       0.25000000000000000        0.0000000000000000     
  0.18750000000000000       0.25000000000000000        0.0000000000000000     
  0.21875000000000000       0.25000000000000000        0.0000000000000000     
  0.25000000000000000       0.25000000000000000        0.0000000000000000     
  0.25000000000000000       0.12500000000000000        0.0000000000000000     
  0.28125000000000000       0.12500000000000000        0.0000000000000000     
  0.31250000000000000       0.12500000000000000        0.0000000000000000     
  0.34375000000000000       0.12500000000000000        0.0000000000000000     
  0.37500000000000000       0.12500000000000000        0.0000000000000000     
  0.25000000000000000       0.15625000000000000        0.0000000000000000     
  0.28125000000000000       0.15625000000000000        0.0000000000000000     
  0.31250000000000000       0.15625000000000000        0.0000000000000000     
  0.34375000000000000       0.15625000000000000        0.0000000000000000     
  0.37500000000000000       0.15625000000000000        0.0000000000000000     
  0.25000000000000000       0.18750000000000000        0.0000000000000000     
  0.28125000000000000       0.18750000000000000        0.0000000000000000     
  0.31250000000000000       0.18750000000000000        0.0000000000000000     
  0.34375000000000000       0.18750000000000000        0.0000000000000000     
  0.37500000000000000       0.18750000000000000        0.0000000000000000     
  0.25000000000000000       0.21875000000000000        0.0000000000000000     
  0.28125000000000000       0.21875000000000000        0.0000000000000000     
  0.31250000000000000       0.21875000000000000        0.0000000000000000     
  0.34375000000000000       0.21875000000000000        0.0000000000000000     
  0.37500000000000000       0.21875000000000000        0.0000000000000000     
  0.25000000000000000       0.25000000000000000        0.0000000000000000     
  0.28125000000000000       0.25000000000000000        0.0000000000000000     
  0.31250000000000000       0.25000000000000000        0.0000000000000000     
  0.34375000000000000       0.25000000000000000        0.0000000000000000     
  0.37500000000000000       0.25000000000000000        0.0000000000000000     
  0.37500000000000000       0.12500000000000000        0.0000000000000000     
  0.40625000000000000       0.12500000000000000        0.0000000000000000     
  0.43750000000000000       0.12500000000000000        0.0000000000000000     
  0.46875000000000000       0.12500000000000000        0.0000000000000000     
  0.50000000000000000       0.12500000000000000        0.0000000000000000     
  0.37500000000000000       0.15625000000000000        0.0000000000000000     
  0.40625000000000000       0.15625000000000000        0.0000000000000000     
  0.43750000000000000       0.15625000000000000        0.0000000000000000     
  0.46875000000000000       0.15625000000000000        0.0000000000000000     
  0.50000000000000000       0.15625000000000000        0.0000000000000000     
  0.37500000000000000       0.18750000000000000        0.0000000000000000     
  0.40625000000000000       0.18750000000000000        0.0000000000000000     
  0.43750000000000000       0.18750000000000000        0.0000000000000000     
  0.46875000000000000       0.18750000000000000        0.0000000000000000     
  0.50000000000000000       0.18750000000000000        0.0000000000000000     
  0.37500000000000000       0.21875000000000000        0.0000000000000000     
  0.40625000000000000       0.21875000000000000        0.0000000000000000     
  0.43750000000000000       0.21875000000000000        0.0000000000000000     
  0.46875000000000000       0.21875000000000000        0.0000000000000000     
  0.50000000000000000       0.21875000000000000        0.0000000000000000     
  0.37500000000000000       0.25000000000000000        0.0000000000000000     
  0.40625000000000000       0.25000000000000000        0.0000000000000000     
  0.43750000000000000       0.25000000000000000        0.0000000000000000     
  0.46875000000000000       0.25000000000000000        0.0000000000000000     
  0.50000000000000000       0.25000000000000000        0.0000000000000000     
  0.50000000000000000       0.12500000000000000        0.0000000000000000     
  0.53125000000000000       0.12500000000000000        0.0000000000000000     
  0.56250000000000000       0.12500000000000000        0.0000000000000000     
  0.59375000000000000       0.12500000000000000        0.0000000000000000     
  0.62500000000000000       0.12500000000000000        0.0000000000000000     
  0.50000000000000000       0.15625000000000000        0.0000000000000000     
  0.53125000000000000       0.15625000000000000        0.0000000000000000     
  0.56250000000000000       0.15625000000000000        0.0000000000000000     
  0.59375000000000000       0.15625000000000000        0.0000000000000000     
  0.62500000000000000       0.15625000000000000        0.0000000000000000     
  0.50000000000000000       0.18750000000000000        0.0000000000000000     
  0.53125000000000000       0.18750000000000000        0.0000000000000000     
  0.56250000000000000       0.18750000000000000        0.0000000000000000     
  0.59375000000000000       0.18750000000000000        0.0000000000000000     
  0.62500000000000000       0.18750000000000000        0.0000000000000000     
  0.50000000000000000       0.21875000000000000        0.0000000000000000     
  0.53125000000000000       0.21875000000000000        0.0000000000000000     
  0.56250000000000000       0.21875000000000000        0.0000000000000000     
  0.59375000000000000       0.21875000000000000        0.0000000000000000     
  0.62500000000000000       0.21875000000000000        0.0000000000000000     
  0.50000000000000000       0.25000000000000000        0.0000000000000000     
  0.53125000000000000       0.25000000000000000        0.0000000000000000     
  0.56250000000000000       0.25000000000000000        0.0000000000000000     
  0.59375000000000000       0.25000000000000000        0.0000000000000000     
  0.62500000000000000       0.25000000000000000        0.0000000000000000     
  0.62500000000000000       0.12500000000000000        0.0000000000000000     
  0.65625000000000000       0.12500000000000000        0.0000000000000000     
  0.68750000000000000       0.12500000000000000        0.0000000000000000     
  0.71875000000000000       0.12500000000000000        0.0000000000000000     
  0.75000000000000000       0.12500000000000000        0.0000000000000000     
  0.62500000000000000       0.15625000000000000        0.0000000000000000     
  0.65625000000000000       0.15625000000000000        0.0000000000000000     
  0.68750000000000000       0.15625000000000000        0.0000000000000000     
  0.71875000000000000       0.15625000000000000        0.0000000000000000     
  0.75000000000000000       0.15625000000000000        0.0000000000000000     
  0.62500000000000000       0.18750000000000000        0.0000000000000000     
  0.65625000000000000       0.18750000000000000        0.0000000000000000     
  0.68750000000000000       0.18750000000000000        0.0000000000000000     
  0.71875000000000000       0.18750000000000000        0.0000000000000000     
  0.75000000000000000       0.18750000000000000        0.0000000000000000     
  0.62500000000000000       0.21875000000000000        0.0000000000000000     
  0.65625000000000000       0.21875000000000000        0.0000000000000000     
  0.68750000000000000       0.21875000000000000        0.0000000000000000     
  0.71875000000000000       0.21875000000000000        0.0000000000000000     
  0.75000000000000000       0.21875000000000000        0.0000000000000000     
  0.62500000000000000       0.25000000000000000        0.0000000000000000     
  0.65625000000000000       0.25000000000000000        0.0000000000000000     
  0.68750000000000000       0.25000000000000000        0.0000000000000000     
  0.71875000000000000       0.25000000000000000        0.0000000000000000     
  0.75000000000000000       0.25000000000000000        0.0000000000000000     
  0.75000000000000000       0.12500000000000000        0.0000000000000000     
  0.78125000000000000       0.12500000000000000        0.0000000000000000     
  0.81250000000000000       0.12500000000000000        0.0000000000000000     
  0.84375000000000000       0.12500000000000000        0.0000000000000000     
  0.87500000000000000       0.12500000000000000        0.0000000000000000     
  0.75000000000000000       0.15625000000000000        0.0000000000000000     
  0.78125000000000000       0.15625000000000000        0.0000000000000000     
  0.81250000000000000       0.15625000000000000        0.0000000000000000     
  0.84375000000000000       0.15625000000000000        0.0000000000000000     
  0.87500000000000000       0.15625000000000000        0.0000000000000000     
  0.75000000000000000       0.18750000000000000        0.0000000000000000     
  0.78125000000000000       0.18750000000000000        0.0000000000000000     
  0.81250000000000000       0.18750000000000000        0.0000000000000000     
  0.84375000000000000       0.18750000000000000        0.0000000000000000     
  0.87500000000000000       0.18750000000000000        0.0000000000000000     
  0.75000000000000000       0.21875000000000000        0.0000000000000000     
  0.78125000000000000       0.21875000000000000        0.0000000000000000     
  0.81250000000000000       0.21875000000000000        0.0000000000000000     
  0.84375000000000000       0.21875000000000000        0.0000000000000000     
  0.87500000000000000       0.21875000000000000        0.0000000000000000     
  0.75000000000000000       0.25000000000000000        0.0000000000000000     
  0.78125000000000000       0.25000000000000000        0.0000000000000000     
  0.81250000000000000       0.25000000000000000        0.0000000000000000     
  0.84375000000000000       0.25000000000000000        0.0000000000000000     
  0.87500000000000000       0.25000000000000000        0.0000000000000000     
  0.87500000000000000       0.12500000000000000        0.0000000000000000     
  0.90625000000000000       0.12500000000000000        0.0000000000000000     
  0.93750000000000000       0.12500000000000000        0.0000000000000000     
  0.96875000000000000       0.12500000000000000        0.0000000000000000     
   1.0000000000000000       0.12500000000000000        0.0000000000000000     
  0.87500000000000000       0.15625000000000000        0.0000000000000000     
  0.90625000000000000       0.15625000000000000        0.0000000000000000     
  0.93750000000000000       0.15625000000000000        0.0000000000000000     
  0.96875000000000000       0.15625000000000000        0.0000000000000000     
   1.0000000000000000       0.15625000000000000        0.0000000000000000     
  0.87500000000000000       0.18750000000000000        0.0000000000000000     
  0.90625000000000000       0.18750000000000000        0.0000000000000000     
  0.93750000000000000       0.18750000000000000        0.0000000000000000     
  0.96875000000000000       0.18750000000000000        0.0000000000000000     
   1.0000000000000000       0.18750000000000000        0.0000000000000000     
  0.87500000000000000       0.21875000000000000        0.0000000000000000     
  0.90625000000000000       0.21875000000000000        0.0000000000000000     
  0.93750000000000000       0.21875000000000000        0.0000000000000000     
  0.96875000000000000       0.21875000000000000        0.0000000000000000     
   1.0000000000000000       0.21875000000000000        0.0000000000000000     
  0.87500000000000000       0.25000000000000000        0.0000000000000000     
  0.90625000000000000       0.25000000000000000        0.0000000000000000     
  0.93750000000000000       0.25000000000000000        0.0000000000000000     
  0.96875000000000000       0.25000000000000000        0.0000000000000000     
   1.0000000000000000       0.25000000000000000        0.0000000000000000     
   0.0000000000000000       0.25000000000000000        0.0000000000000000     
   3.1250000000000000E-002  0.25000000000000000        0.0000000000000000     
   6.2500000000000000E-002  0.25000000000000000        0.0000000000000000     
   9.3750000000000000E-002  0.25000000000000000        0.0000000000000000     
  0.12500000000000000       0.25000000000000000        0.0000000000000000     
   0.0000000000000000       0.28125000000000000        0.0000000000000000     
   3.1250000000000000E-002  0.28125000000000000        0.0000000000000000     
   6.2500000000000000E-002  0.28125000000000000        0.0000000000000000     
   9.3750000000000000E-002  0.28125000000000000        0.0000000000000000     
  0.12500000000000000       0.28125000000000000        0.0000000000000000     
   0.0000000000000000       0.31250000000000000        0.0000000000000000     
   3.1250000000000000E-002  0.31250000000000000        0.0000000000000000     
   6.2500000000000000E-002  0.31250000000000000        0.0000000000000000     
   9.3750000000000000E-002  0.31250000000000000        0.0000000000000000     
  0.12500000000000000       0.31250000000000000        0.0000000000000000     
   0.0000000000000000       0.34375000000000000        0.0000000000000000     
   3.1250000000000000E-002  0.34375000000000000        0.0000000000000000     
   6.2500000000000000E-002  0.34375000000000000        0.0000000000000000     
   9.3750000000000000E-002  0.34375000000000000        0.0000000000000000     
  0.12500000000000000       0.34375000000000000        0.0000000000000000     
   0.0000000000000000       0.37500000000000000        0.0000000000000000     
   3.1250000000000000E-002  0.37500000000000000        0.0000000000000000     
   6.2500000000000000E-002  0.37500000000000000        0.0000000000000000     
   9.3750000000000000E-002  0.37500000000000000        0.0000000000000000     
  0.12500000000000000       0.37500000000000000        0.0000000000000000     
  0.12500000000000000       0.25000000000000000        0.0000000000000000     
  0.15625000000000000       0.25000000000000000        0.0000000000000000     
  0.18750000000000000       0.25000000000000000        0.0000000000000000     
  0.21875000000000000       0.25000000000000000        0.0000000000000000     
  0.25000000000000000       0.25000000000000000        0.0000000000000000     
  0.12500000000000000       0.28125000000000000        0.0000000000000000     
  0.15625000000000000       0.28125000000000000        0.0000000000000000     
  0.18750000000000000       0.28125000000000000        0.0000000000000000     
  0.21875000000000000       0.28125000000000000        0.0000000000000000     
  0.25000000000000000       0.28125000000000000        0.0000000000000000     
  0.12500000000000000       0.31250000000000000        0.0000000000000000     
  0.15625000000000000       0.31250000000000000        0.0000000000000000     
  0.18750000000000000       0.31250000000000000        0.0000000000000000     
  0.21875000000000000       0.31250000000000000        0.0000000000000000     
  0.25000000000000000       0.31250000000000000        0.0000000000000000     
  0.12500000000000000       0.34375000000000000        0.0000000000000000     
  0.15625000000000000       0.34375000000000000        0.0000000000000000     
  0.18750000000000000       0.34375000000000000        0.0000000000000000     
  0.21875000000000000       0.34375000000000000        0.0000000000000000     
  0.25000000000000000       0.34375000000000000        0.0000000000000000     
  0.12500000000000000       0.37500000000000000        0.0000000000000000     
  0.15625000000000000       0.37500000000000000        0.0000000000000000     
  0.18750000000000000       0.37500000000000000        0.0000000000000000     
  0.21875000000000000       0.37500000000000000        0.0000000000000000     
  0.25000000000000000       0.37500000000000000        0.0000000000000000     
  0.25000000000000000       0.25000000000000000        0.0000000000000000     
  0.28125000000000000       0.25000000000000000        0.0000000000000000     
  0.31250000000000000       0.25000000000000000        0.0000000000000000     
  0.34375000000000000       0.25000000000000000        0.0000000000000000     
  0.37500000000000000       0.25000000000000000        0.0000000000000000     
  0.25000000000000000       0.28125000000000000        0.0000000000000000     
  0.28125000000000000       0.28125000000000000        0.0000000000000000     
  0.31250000000000000       0.28125000000000000        0.0000000000000000     
  0.34375000000000000       0.28125000000000000        0.0000000000000000     
  0.37500000000000000       0.28125000000000000        0.0000000000000000     
  0.25000000000000000       0.31250000000000000        0.0000000000000000     
  0.28125000000000000       0.31250000000000000        0.0000000000000000     
  0.31250000000000000       0.31250000000000000        0.0000000000000000     
  0.34375000000000000       0.31250000000000000        0.0000000000000000     
  0.37500000000000000       0.31250000000000000        0.0000000000000000     
  0.25000000000000000       0.34375000000000000        0.0000000000000000     
  0.28125000000000000       0.34375000000000000        0.0000000000000000     
  0.31250000000000000       0.34375000000000000        0.0000000000000000     
  0.34375000000000000       0.34375000000000000        0.0000000000000000     
  0.37500000000000000       0.34375000000000000        0.0000000000000000     
  0.25000000000000000       0.37500000000000000        0.0000000000000000     
  0.28125000000000000       0.37500000000000000        0.0000000000000000     
  0.31250000000000000       0.37500000000000000        0.0000000000000000     
  0.34375000000000000       0.37500000000000000        0.0000000000000000     
  0.37500000000000000       0.37500000000000000        0.0000000000000000     
  0.37500000000000000       0.25000000000000000        0.0000000000000000     
  0.40625000000000000       0.25000000000000000        0.0000000000000000     
  0.43750000000000000       0.25000000000000000        0.0000000000000000     
  0.46875000000000000       0.25000000000000000        0.0000000000000000     
  0.50000000000000000       0.25000000000000000        0.0000000000000000     
  0.37500000000000000       0.28125000000000000        0.0000000000000000     
  0.40625000000000000       0.28125000000000000        0.0000000000000000     
  0.43750000000000000       0.28125000000000000        0.0000000000000000     
  0.46875000000000000       0.28125000000000000        0.0000000000000000     
  0.50000000000000000       0.28125000000000000        0.0000000000000000     
  0.37500000000000000       0.31250000000000000        0.0000000000000000     
  0.40625000000000000       0.31250000000000000        0.0000000000000000     
  0.43750000000000000       0.31250000000000000        0.0000000000000000     
  0.46875000000000000       0.31250000000000000        0.0000000000000000     
  0.50000000000000000       0.31250000000000000        0.0000000000000000     
  0.37500000000000000       0.34375000000000000        0.0000000000000000     
  0.40625000000000000       0.34375000000000000        0.0000000000000000     
  0.43750000000000000       0.34375000000000000        0.0000000000000000     
  0.46875000000000000       0.34375000000000000        0.0000000000000000     
  0.50000000000000000       0.34375000000000000        0.0000000000000000     
  0.37500000000000000       0.37500000000000000        0.0000000000000000     
  0.40625000000000000       0.37500000000000000        0.0000000000000000     
  0.43750000000000000       0.37500000000000000        0.0000000000000000     
  0.46875000000000000       0.37500000000000000        0.0000000000000000     
  0.50000000000000000       0.37500000000000000        0.0000000000000000     
  0.50000000000000000       0.25000000000000000        0.0000000000000000     
  0.53125000000000000       0.25000000000000000        0.0000000000000000     
  0.56250000000000000       0.25000000000000000        0.0000000000000000     
  0.59375000000000000       0.25000000000000000        0.0000000000000000     
  0.62500000000000000       0.25000000000000000        0.0000000000000000     
  0.50000000000000000       0.28125000000000000        0.0000000000000000     
  0.53125000000000000       0.28125000000000000        0.0000000000000000     
  0.56250000000000000       0.28125000000000000        0.0000000000000000     
  0.59375000000000000       0.28125000000000000        0.0000000000000000     
  0.62500000000000000       0.28125000000000000        0.0000000000000000     
  0.50000000000000000       0.31250000000000000        0.0000000000000000     
  0.53125000000000000       0.31250000000000000        0.0000000000000000     
  0.56250000000000000       0.31250000000000000        0.0000000000000000     
  0.59375000000000000       0.31250000000000000        0.0000000000000000     
  0.62500000000000000       0.31250000000000000        0.0000000000000000     
  0.50000000000000000       0.34375000000000000        0.0000000000000000     
  0.53125000000000000       0.34375000000000000        0.0000000000000000     
  0.56250000000000000       0.34375000000000000        0.0000000000000000     
  0.59375000000000000       0.34375000000000000        0.0000000000000000     
  0.62500000000000000       0.34375000000000000        0.0000000000000000     
  0.50000000000000000       0.37500000000000000        0.0000000000000000     
  0.53125000000000000       0.37500000000000000        0.0000000000000000     
  0.56250000000000000       0.37500000000000000        0.0000000000000000     
  0.59375000000000000       0.37500000000000000        0.0000000000000000     
  0.62500000000000000       0.37500000000000000        0.0000000000000000     
  0.62500000000000000       0.25000000000000000        0.0000000000000000     
  0.65625000000000000       0.25000000000000000        0.0000000000000000     
  0.68750000000000000       0.25000000000000000        0.0000000000000000     
  0.71875000000000000       0.25000000000000000        0.0000000000000000     
  0.75000000000000000       0.25000000000000000        0.0000000000000000     
  0.62500000000000000       0.28125000000000000        0.0000000000000000     
  0.65625000000000000       0.28125000000000000        0.0000000000000000     
  0.68750000000000000       0.28125000000000000        0.0000000000000000     
  0.71875000000000000       0.28125000000000000        0.0000000000000000     
  0.75000000000000000       0.28125000000000000        0.0000000000000000     
  0.62500000000000000       0.31250000000000000        0.0000000000000000     
  0.65625000000000000       0.31250000000000000        0.0000000000000000     
  0.68750000000000000       0.31250000000000000        0.0000000000000000     
  0.71875000000000000       0.31250000000000000        0.0000000000000000     
  0.75000000000000000       0.31250000000000000        0.0000000000000000     
  0.62500000000000000       0.34375000000000000        0.0000000000000000     
  0.65625000000000000       0.34375000000000000        0.0000000000000000     
  0.68750000000000000       0.34375000000000000        0.0000000000000000     
  0.71875000000000000       0.34375000000000000        0.0000000000000000     
  0.75000000000000000       0.34375000000000000        0.0000000000000000     
  0.62500000000000000       0.37500000000000000        0.0000000000000000     
  0.65625000000000000       0.37500000000000000        0.0000000000000000     
  0.68750000000000000       0.37500000000000000        0.0000000000000000     
  0.71875000000000000       0.37500000000000000        0.0000000000000000     
  0.75000000000000000       0.37500000000000000        0.0000000000000000     
  0.75000000000000000       0.25000000000000000        0.0000000000000000     
  0.78125000000000000       0.25000000000000000        0.0000000000000000     
  0.81250000000000000       0.25000000000000000        0.0000000000000000     
  0.84375000000000000       0.25000000000000000        0.0000000000000000     
  0.87500000000000000       0.25000000000000000        0.0000000000000000     
  0.75000000000000000       0.28125000000000000        0.0000000000000000     
  0.78125000000000000       0.28125000000000000        0.0000000000000000     
  0.81250000000000000       0.28125000000000000        0.0000000000000000     
  0.84375000000000000       0.28125000000000000        0.0000000000000000     
  0.87500000000000000       0.28125000000000000        0.0000000000000000     
  0.75000000000000000       0.31250000000000000        0.0000000000000000     
  0.78125000000000000       0.31250000000000000        0.0000000000000000     
  0.81250000000000000       0.31250000000000000        0.0000000000000000     
  0.84375000000000000       0.31250000000000000        0.0000000000000000     
  0.87500000000000000       0.31250000000000000        0.0000000000000000     
  0.75000000000000000       0.34375000000000000        0.0000000000000000     
  0.78125000000000000       0.34375000000000000        0.0000000000000000     
  0.81250000000000000       0.34375000000000000        0.0000000000000000     
  0.84375000000000000       0.34375000000000000        0.0000000000000000     
  0.87500000000000000       0.34375000000000000        0.0000000000000000     
  0.75000000000000000       0.37500000000000000        0.0000000000000000     
  0.78125000000000000       0.37500000000000000        0.0000000000000000     
  0.81250000000000000       0.37500000000000000        0.0000000000000000     
  0.84375000000000000       0.37500000000000000        0.0000000000000000     
  0.87500000000000000       0.37500000000000000        0.0000000000000000     
  0.87500000000000000       0.25000000000000000        0.0000000000000000     
  0.90625000000000000       0.25000000000000000        0.0000000000000000     
  0.93750000000000000       0.25000000000000000        0.0000000000000000     
  0.96875000000000000       0.25000000000000000        0.0000000000000000     
   1.0000000000000000       0.25000000000000000        0.0000000000000000     
  0.87500000000000000       0.28125000000000000        0.0000000000000000     
  0.90625000000000000       0.28125000000000000        0.0000000000000000     
  0.93750000000000000       0.28125000000000000        0.0000000000000000     
  0.96875000000000000       0.28125000000000000        0.0000000000000000     
   1.0000000000000000       0.28125000000000000        0.0000000000000000     
  0.87500000000000000       0.31250000000000000        0.0000000000000000     
  0.90625000000000000       0.31250000000000000        0.0000000000000000     
  0.93750000000000000       0.31250000000000000        0.0000000000000000     
  0.96875000000000000       0.31250000000000000        0.0000000000000000     
   1.0000000000000000       0.31250000000000000        0.0000000000000000     
  0.87500000000000000       0.34375000000000000        0.0000000000000000     
  0.90625000000000000       0.34375000000000000        0.0000000000000000     
  0.93750000000000000       0.34375000000000000        0.0000000000000000     
  0.96875000000000000       0.34375000000000000        0.0000000000000000     
   1.0000000000000000       0.34375000000000000        0.0000000000000000     
  0.87500000000000000       0.37500000000000000        0.0000000000000000     
  0.90625000000000000       0.37500000000000000        0.0000000000000000     
  0.93750000000000000       0.37500000000000000        0.0000000000000000     
  0.96875000000000000       0.37500000000000000        0.0000000000000000     
   1.0000000000000000       0.37500000000000000        0.0000000000000000     
   0.0000000000000000       0.37500000000000000        0.0000000000000000     
   3.1250000000000000E-002  0.37500000000000000        0.0000000000000000     
   6.2500000000000000E-002  0.37500000000000000        0.0000000000000000     
   9.3750000000000000E-002  0.37500000000000000        0.0000000000000000     
  0.12500000000000000       0.37500000000000000        0.0000000000000000     
   0.0000000000000000       0.40625000000000000        0.0000000000000000     
   3.1250000000000000E-002  0.40625000000000000        0.0000000000000000     
   6.2500000000000000E-002  0.40625000000000000        0.0000000000000000     
   9.3750000000000000E-002  0.40625000000000000        0.0000000000000000     
  0.12500000000000000       0.40625000000000000        0.0000000000000000     
   0.0000000000000000       0.43750000000000000        0.0000000000000000     
   3.1250000000000000E-002  0.43750000000000000        0.0000000000000000     
   6.2500000000000000E-002  0.43750000000000000        0.0000000000000000     
   9.3750000000000000E-002  0.43750000000000000        0.0000000000000000     
  0.12500000000000000       0.43750000000000000        0.0000000000000000     
   0.0000000000000000       0.46875000000000000        0.0000000000000000     
   3.1250000000000000E-002  0.46875000000000000        0.0000000000000000     
   6.2500000000000000E-002  0.46875000000000000        0.0000000000000000     
   9.3750000000000000E-002  0.46875000000000000        0.0000000000000000     
  0.12500000000000000       0.46875000000000000        0.0000000000000000     
   0.0000000000000000       0.50000000000000000        0.0000000000000000     
   3.1250000000000000E-002  0.50000000000000000        0.0000000000000000     
   6.2500000000000000E-002  0.50000000000000000        0.0000000000000000     
   9.3750000000000000E-002  0.50000000000000000        0.0000000000000000     
  0.12500000000000000       0.50000000000000000        0.0000000000000000     
  0.12500000000000000       0.37500000000000000        0.0000000000000000     
  0.15625000000000000       0.37500000000000000        0.0000000000000000     
  0.18750000000000000       0.37500000000000000        0.0000000000000000     
  0.21875000000000000       0.37500000000000000        0.0000000000000000     
  0.25000000000000000       0.37500000000000000        0.0000000000000000     
  0.12500000000000000       0.40625000000000000        0.0000000000000000     
  0.15625000000000000       0.40625000000000000        0.0000000000000000     
  0.18750000000000000       0.40625000000000000        0.0000000000000000     
  0.21875000000000000       0.40625000000000000        0.0000000000000000     
  0.25000000000000000       0.40625000000000000        0.0000000000000000     
  0.12500000000000000       0.43750000000000000        0.0000000000000000     
  0.15625000000000000       0.43750000000000000        0.0000000000000000     
  0.18750000000000000       0.43750000000000000        0.0000000000000000     
  0.21875000000000000       0.43750000000000000        0.0000000000000000     
  0.25000000000000000       0.43750000000000000        0.0000000000000000     
  0.12500000000000000       0.46875000000000000        0.0000000000000000     
  0.15625000000000000       0.46875000000000000        0.0000000000000000     
  0.18750000000000000       0.46875000000000000        0.0000000000000000     
  0.21875000000000000       0.46875000000000000        0.0000000000000000     
  0.25000000000000000       0.46875000000000000        0.0000000000000000     
  0.12500000000000000       0.50000000000000000        0.0000000000000000     
  0.15625000000000000       0.50000000000000000        0.0000000000000000     
  0.18750000000000000       0.50000000000000000        0.0000000000000000     
  0.21875000000000000       0.50000000000000000        0.0000000000000000     
  0.25000000000000000       0.50000000000000000        0.0000000000000000     
  0.25000000000000000       0.37500000000000000        0.0000000000000000     
  0.28125000000000000       0.37500000000000000        0.0000000000000000     
  0.31250000000000000       0.37500000000000000        0.0000000000000000     
  0.34375000000000000       0.37500000000000000        0.0000000000000000     
  0.37500000000000000       0.37500000000000000        0.0000000000000000     
  0.25000000000000000       0.40625000000000000        0.0000000000000000     
  0.28125000000000000       0.40625000000000000        0.0000000000000000     
  0.31250000000000000       0.40625000000000000        0.0000000000000000     
  0.34375000000000000       0.40625000000000000        0.0000000000000000     
  0.37500000000000000       0.40625000000000000        0.0000000000000000     
  0.25000000000000000       0.43750000000000000        0.0000000000000000     
  0.28125000000000000       0.43750000000000000        0.0000000000000000     
  0.31250000000000000       0.43750000000000000        0.0000000000000000     
  0.34375000000000000       0.43750000000000000        0.0000000000000000     
  0.37500000000000000       0.43750000000000000        0.0000000000000000     
  0.25000000000000000       0.46875000000000000        0.0000000000000000     
  0.28125000000000000       0.46875000000000000        0.0000000000000000     
  0.31250000000000000       0.46875000000000000        0.0000000000000000     
  0.34375000000000000       0.46875000000000000        0.0000000000000000     
  0.37500000000000000       0.46875000000000000        0.0000000000000000     
  0.25000000000000000       0.50000000000000000        0.0000000000000000     
  0.28125000000000000       0.50000000000000000        0.0000000000000000     
  0.31250000000000000       0.50000000000000000        0.0000000000000000     
  0.34375000000000000       0.50000000000000000        0.0000000000000000     
  0.37500000000000000       0.50000000000000000        0.0000000000000000     
  0.37500000000000000       0.37500000000000000        0.0000000000000000     
  0.40625000000000000       0.37500000000000000        0.0000000000000000     
  0.43750000000000000       0.37500000000000000        0.0000000000000000     
  0.46875000000000000       0.37500000000000000        0.0000000000000000     
  0.50000000000000000       0.37500000000000000        0.0000000000000000     
  0.37500000000000000       0.40625000000000000        0.0000000000000000     
  0.40625000000000000       0.40625000000000000        0.0000000000000000     
  0.43750000000000000       0.40625000000000000        0.0000000000000000     
  0.46875000000000000       0.40625000000000000        0.0000000000000000     
  0.50000000000000000       0.40625000000000000        0.0000000000000000     
  0.37500000000000000       0.43750000000000000        0.0000000000000000     
  0.40625000000000000       0.43750000000000000        0.0000000000000000     
  0.43750000000000000       0.43750000000000000        0.0000000000000000     
  0.46875000000000000       0.43750000000000000        0.0000000000000000     
  0.50000000000000000       0.43750000000000000        0.0000000000000000     
  0.37500000000000000       0.46875000000000000        0.0000000000000000     
  0.40625000000000000       0.46875000000000000        0.0000000000000000     
  0.43750000000000000       0.46875000000000000        0.0000000000000000     
  0.46875000000000000       0.46875000000000000        0.0000000000000000     
  0.50000000000000000       0.46875000000000000        0.0000000000000000     
  0.37500000000000000       0.50000000000000000        0.0000000000000000     
  0.40625000000000000       0.50000000000000000        0.0000000000000000     
  0.43750000000000000       0.50000000000000000        0.0000000000000000     
  0.46875000000000000       0.50000000000000000        0.0000000000000000     
  0.50000000000000000       0.50000000000000000        0.0000000000000000     
  0.50000000000000000       0.37500000000000000        0.0000000000000000     
  0.53125000000000000       0.37500000000000000        0.0000000000000000     
  0.56250000000000000       0.37500000000000000        0.0000000000000000     
  0.59375000000000000       0.37500000000000000        0.0000000000000000     
  0.62500000000000000       0.37500000000000000        0.0000000000000000     
  0.50000000000000000       0.40625000000000000        0.0000000000000000     
  0.53125000000000000       0.40625000000000000        0.0000000000000000     
  0.56250000000000000       0.40625000000000000        0.0000000000000000     
  0.59375000000000000       0.40625000000000000        0.0000000000000000     
  0.62500000000000000       0.40625000000000000        0.0000000000000000     
  0.50000000000000000       0.43750000000000000        0.0000000000000000     
  0.53125000000000000       0.43750000000000000        0.0000000000000000     
  0.56250000000000000       0.43750000000000000        0.0000000000000000     
  0.59375000000000000       0.43750000000000000        0.0000000000000000     
  0.62500000000000000       0.43750000000000000        0.0000000000000000     
  0.50000000000000000       0.46875000000000000        0.0000000000000000     
  0.53125000000000000       0.46875000000000000        0.0000000000000000     
  0.56250000000000000       0.46875000000000000        0.0000000000000000     
  0.59375000000000000       0.46875000000000000        0.0000000000000000     
  0.62500000000000000       0.46875000000000000        0.0000000000000000     
  0.50000000000000000       0.50000000000000000        0.0000000000000000     
  0.53125000000000000       0.50000000000000000        0.0000000000000000     
  0.56250000000000000       0.50000000000000000        0.0000000000000000     
  0.59375000000000000       0.50000000000000000        0.0000000000000000     
  0.62500000000000000       0.50000000000000000        0.0000000000000000     
  0.62500000000000000       0.37500000000000000        0.0000000000000000     
  0.65625000000000000       0.37500000000000000        0.0000000000000000     
  0.68750000000000000       0.37500000000000000        0.0000000000000000     
  0.71875000000000000       0.37500000000000000        0.0000000000000000     
  0.75000000000000000       0.37500000000000000        0.0000000000000000     
  0.62500000000000000       0.40625000000000000        0.0000000000000000     
  0.65625000000000000       0.40625000000000000        0.0000000000000000     
  0.68750000000000000       0.40625000000000000        0.0000000000000000     
  0.71875000000000000       0.40625000000000000        0.0000000000000000     
  0.75000000000000000       0.40625000000000000        0.0000000000000000     
  0.62500000000000000       0.43750000000000000        0.0000000000000000     
  0.65625000000000000       0.43750000000000000        0.0000000000000000     
  0.68750000000000000       0.43750000000000000        0.0000000000000000     
  0.71875000000000000       0.43750000000000000        0.0000000000000000     
  0.75000000000000000       0.43750000000000000        0.0000000000000000     
  0.62500000000000000       0.46875000000000000        0.0000000000000000     
  0.65625000000000000       0.46875000000000000        0.0000000000000000     
  0.68750000000000000       0.46875000000000000        0.0000000000000000     
  0.71875000000000000       0.46875000000000000        0.0000000000000000     
  0.75000000000000000       0.46875000000000000        0.0000000000000000     
  0.62500000000000000       0.50000000000000000        0.0000000000000000     
  0.65625000000000000       0.50000000000000000        0.0000000000000000     
  0.68750000000000000       0.50000000000000000        0.0000000000000000     
  0.71875000000000000       0.50000000000000000        0.0000000000000000     
  0.75000000000000000       0.50000000000000000        0.0000000000000000     
  0.75000000000000000       0.37500000000000000        0.0000000000000000     
  0.78125000000000000       0.37500000000000000        0.0000000000000000     
  0.81250000000000000       0.37500000000000000        0.0000000000000000     
  0.84375000000000000       0.37500000000000000        0.0000000000000000     
  0.87500000000000000       0.37500000000000000        0.0000000000000000     
  0.75000000000000000       0.40625000000000000        0.0000000000000000     
  0.78125000000000000       0.40625000000000000        0.0000000000000000     
  0.81250000000000000       0.40625000000000000        0.0000000000000000     
  0.84375000000000000       0.40625000000000000        0.0000000000000000     
  0.87500000000000000       0.40625000000000000        0.0000000000000000     
  0.75000000000000000       0.43750000000000000        0.0000000000000000     
  0.78125000000000000       0.43750000000000000        0.0000000000000000     
  0.81250000000000000       0.43750000000000000        0.0000000000000000     
  0.84375000000000000       0.43750000000000000        0.0000000000000000     
  0.87500000000000000       0.43750000000000000        0.0000000000000000     
  0.75000000000000000       0.46875000000000000        0.0000000000000000     
  0.78125000000000000       0.46875000000000000        0.0000000000000000     
  0.81250000000000000       0.46875000000000000        0.0000000000000000     
  0.84375000000000000       0.46875000000000000        0.0000000000000000     
  0.87500000000000000       0.46875000000000000        0.0000000000000000     
  0.75000000000000000       0.50000000000000000        0.0000000000000000     
  0.78125000000000000       0.50000000000000000        0.0000000000000000     
  0.81250000000000000       0.50000000000000000        0.0000000000000000     
  0.84375000000000000       0.50000000000000000        0.0000000000000000     
  0.87500000000000000       0.50000000000000000        0.0000000000000000     
  0.87500000000000000       0.37500000000000000        0.0000000000000000     
  0.90625000000000000       0.37500000000000000        0.0000000000000000     
  0.93750000000000000       0.37500000000000000        0.0000000000000000     
  0.96875000000000000       0.37500000000000000        0.0000000000000000     
   1.0000000000000000       0.37500000000000000        0.0000000000000000     
  0.87500000000000000       0.40625000000000000        0.0000000000000000     
  0.90625000000000000       0.40625000000000000        0.0000000000000000     
  0.93750000000000000       0.40625000000000000        0.0000000000000000     
  0.96875000000000000       0.40625000000000000        0.0000000000000000     
   1.0000000000000000       0.40625000000000000        0.0000000000000000     
  0.87500000000000000       0.43750000000000000        0.0000000000000000     
  0.90625000000000000       0.43750000000000000        0.0000000000000000     
  0.93750000000000000       0.43750000000000000        0.0000000000000000     
  0.96875000000000000       0.43750000000000000        0.0000000000000000     
   1.0000000000000000       0.43750000000000000        0.0000000000000000     
  0.87500000000000000       0.46875000000000000        0.0000000000000000     
  0.90625000000000000       0.46875000000000000        0.0000000000000000     
  0.93750000000000000       0.46875000000000000        0.0000000000000000     
  0.96875000000000000       0.46875000000000000        0.0000000000000000     
   1.0000000000000000       0.46875000000000000        0.0000000000000000     
  0.87500000000000000       0.50000000000000000        0.0000000000000000     
  0.90625000000000000       0.50000000000000000        0.0000000000000000     
  0.93750000000000000       0.50000000000000000        0.0000000000000000     
  0.96875000000000000       0.50000000000000000        0.0000000000000000     
   1.0000000000000000       0.50000000000000000        0.0000000000000000     
   0.0000000000000000       0.50000000000000000        0.0000000000000000     
   3.1250000000000000E-002  0.50000000000000000        0.0000000000000000     
   6.2500000000000000E-002  0.50000000000000000        0.0000000000000000     
   9.3750000000000000E-002  0.50000000000000000        0.0000000000000000     
  0.12500000000000000       0.50000000000000000        0.0000000000000000     
   0.0000000000000000       0.53125000000000000        0.0000000000000000     
   3.1250000000000000E-002  0.53125000000000000        0.0000000000000000     
   6.2500000000000000E-002  0.53125000000000000        0.0000000000000000     
   9.3750000000000000E-002  0.53125000000000000        0.0000000000000000     
  0.12500000000000000       0.53125000000000000        0.0000000000000000     
   0.0000000000000000       0.56250000000000000        0.0000000000000000     
   3.1250000000000000E-002  0.56250000000000000        0.0000000000000000     
   6.2500000000000000E-002  0.56250000000000000        0.0000000000000000     
   9.3750000000000000E-002  0.56250000000000000        0.0000000000000000     
  0.12500000000000000       0.56250000000000000        0.0000000000000000     
   0.0000000000000000       0.59375000000000000        0.0000000000000000     
   3.1250000000000000E-002  0.59375000000000000        0.0000000000000000     
   6.2500000000000000E-002  0.59375000000000000        0.0000000000000000     
   9.3750000000000000E-002  0.59375000000000000        0.0000000000000000     
  0.12500000000000000       0.59375000000000000        0.0000000000000000     
   0.0000000000000000       0.62500000000000000        0.0000000000000000     
   3.1250000000000000E-002  0.62500000000000000        0.0000000000000000     
   6.2500000000000000E-002  0.62500000000000000        0.0000000000000000     
   9.3750000000000000E-002  0.62500000000000000        0.0000000000000000     
  0.12500000000000000       0.62500000000000000        0.0000000000000000     
  0.12500000000000000       0.50000000000000000        0.0000000000000000     
  0.15625000000000000       0.50000000000000000        0.0000000000000000     
  0.18750000000000000       0.50000000000000000        0.0000000000000000     
  0.21875000000000000       0.50000000000000000        0.0000000000000000     
  0.25000000000000000       0.50000000000000000        0.0000000000000000     
  0.12500000000000000       0.53125000000000000        0.0000000000000000     
  0.15625000000000000       0.53125000000000000        0.0000000000000000     
  0.18750000000000000       0.53125000000000000        0.0000000000000000     
  0.21875000000000000       0.53125000000000000        0.0000000000000000     
  0.25000000000000000       0.53125000000000000        0.0000000000000000     
  0.12500000000000000       0.56250000000000000        0.0000000000000000     
  0.15625000000000000       0.56250000000000000        0.0000000000000000     
  0.18750000000000000       0.56250000000000000        0.0000000000000000     
  0.21875000000000000       0.56250000000000000        0.0000000000000000     
  0.25000000000000000       0.56250000000000000        0.0000000000000000     
  0.12500000000000000       0.59375000000000000        0.0000000000000000     
  0.15625000000000000       0.59375000000000000        0.0000000000000000     
  0.18750000000000000       0.59375000000000000        0.0000000000000000     
  0.21875000000000000       0.59375000000000000        0.0000000000000000     
  0.25000000000000000       0.59375000000000000        0.0000000000000000     
  0.12500000000000000       0.62500000000000000        0.0000000000000000     
  0.15625000000000000       0.62500000000000000        0.0000000000000000     
  0.18750000000000000       0.62500000000000000        0.0000000000000000     
  0.21875000000000000       0.62500000000000000        0.0000000000000000     
  0.25000000000000000       0.62500000000000000        0.0000000000000000     
  0.25000000000000000       0.50000000000000000        0.0000000000000000     
  0.28125000000000000       0.50000000000000000        0.0000000000000000     
  0.31250000000000000       0.50000000000000000        0.0000000000000000     
  0.34375000000000000       0.50000000000000000        0.0000000000000000     
  0.37500000000000000       0.50000000000000000        0.0000000000000000     
  0.25000000000000000       0.53125000000000000        0.0000000000000000     
  0.28125000000000000       0.53125000000000000        0.0000000000000000     
  0.31250000000000000       0.53125000000000000        0.0000000000000000     
  0.34375000000000000       0.53125000000000000        0.0000000000000000     
  0.37500000000000000       0.53125000000000000        0.0000000000000000     
  0.25000000000000000       0.56250000000000000        0.0000000000000000     
  0.28125000000000000       0.56250000000000000        0.0000000000000000     
  0.31250000000000000       0.56250000000000000        0.0000000000000000     
  0.34375000000000000       0.56250000000000000        0.0000000000000000     
  0.37500000000000000       0.56250000000000000        0.0000000000000000     
  0.25000000000000000       0.59375000000000000        0.0000000000000000     
  0.28125000000000000       0.59375000000000000        0.0000000000000000     
  0.31250000000000000       0.59375000000000000        0.0000000000000000     
  0.34375000000000000       0.59375000000000000        0.0000000000000000     
  0.37500000000000000       0.59375000000000000        0.0000000000000000     
  0.25000000000000000       0.62500000000000000        0.0000000000000000     
  0.28125000000000000       0.62500000000000000        0.0000000000000000     
  0.31250000000000000       0.62500000000000000        0.0000000000000000     
  0.34375000000000000       0.62500000000000000        0.0000000000000000     
  0.37500000000000000       0.62500000000000000        0.0000000000000000     
  0.37500000000000000       0.50000000000000000        0.0000000000000000     
  0.40625000000000000       0.50000000000000000        0.0000000000000000     
  0.43750000000000000       0.50000000000000000        0.0000000000000000     
  0.46875000000000000       0.50000000000000000        0.0000000000000000     
  0.50000000000000000       0.50000000000000000        0.0000000000000000     
  0.37500000000000000       0.53125000000000000        0.0000000000000000     
  0.40625000000000000       0.53125000000000000        0.0000000000000000     
  0.43750000000000000       0.53125000000000000        0.0000000000000000     
  0.46875000000000000       0.53125000000000000        0.0000000000000000     
  0.50000000000000000       0.53125000000000000        0.0000000000000000     
  0.37500000000000000       0.56250000000000000        0.0000000000000000     
  0.40625000000000000       0.56250000000000000        0.0000000000000000     
  0.43750000000000000       0.56250000000000000        0.0000000000000000     
  0.46875000000000000       0.56250000000000000        0.0000000000000000     
  0.50000000000000000       0.56250000000000000        0.0000000000000000     
  0.37500000000000000       0.59375000000000000        0.0000000000000000     
  0.40625000000000000       0.59375000000000000        0.0000000000000000     
  0.43750000000000000       0.59375000000000000        0.0000000000000000     
  0.46875000000000000       0.59375000000000000        0.0000000000000000     
  0.50000000000000000       0.59375000000000000        0.0000000000000000     
  0.37500000000000000       0.62500000000000000        0.0000000000000000     
  0.40625000000000000       0.62500000000000000        0.0000000000000000     
  0.43750000000000000       0.62500000000000000        0.0000000000000000     
  0.46875000000000000       0.62500000000000000        0.0000000000000000     
  0.50000000000000000       0.62500000000000000        0.0000000000000000     
  0.50000000000000000       0.50000000000000000        0.0000000000000000     
  0.53125000000000000       0.50000000000000000        0.0000000000000000     
  0.56250000000000000       0.50000000000000000        0.0000000000000000     
  0.59375000000000000       0.50000000000000000        0.0000000000000000     
  0.62500000000000000       0.50000000000000000        0.0000000000000000     
  0.50000000000000000       0.53125000000000000        0.0000000000000000     
  0.53125000000000000       0.53125000000000000        0.0000000000000000     
  0.56250000000000000       0.53125000000000000        0.0000000000000000     
  0.59375000000000000       0.53125000000000000        0.0000000000000000     
  0.62500000000000000       0.53125000000000000        0.0000000000000000     
  0.50000000000000000       0.56250000000000000        0.0000000000000000     
  0.53125000000000000       0.56250000000000000        0.0000000000000000     
  0.56250000000000000       0.56250000000000000        0.0000000000000000     
  0.59375000000000000       0.56250000000000000        0.0000000000000000     
  0.62500000000000000       0.56250000000000000        0.0000000000000000     
  0.50000000000000000       0.59375000000000000        0.0000000000000000     
  0.53125000000000000       0.59375000000000000        0.0000000000000000     
  0.56250000000000000       0.59375000000000000        0.0000000000000000     
  0.59375000000000000       0.59375000000000000        0.0000000000000000     
  0.62500000000000000       0.59375000000000000        0.0000000000000000     
  0.50000000000000000       0.62500000000000000        0.0000000000000000     
  0.53125000000000000       0.62500000000000000        0.0000000000000000     
  0.56250000000000000       0.62500000000000000        0.0000000000000000     
  0.59375000000000000       0.62500000000000000        0.0000000000000000     
  0.62500000000000000       0.62500000000000000        0.0000000000000000     
  0.62500000000000000       0.50000000000000000        0.0000000000000000     
  0.65625000000000000       0.50000000000000000        0.0000000000000000     
  0.68750000000000000       0.50000000000000000        0.0000000000000000     
  0.71875000000000000       0.50000000000000000        0.0000000000000000     
  0.75000000000000000       0.50000000000000000        0.0000000000000000     
  0.62500000000000000       0.53125000000000000        0.0000000000000000     
  0.65625000000000000       0.53125000000000000        0.0000000000000000     
  0.68750000000000000       0.53125000000000000        0.0000000000000000     
  0.71875000000000000       0.53125000000000000        0.0000000000000000     
  0.75000000000000000       0.53125000000000000        0.0000000000000000     
  0.62500000000000000       0.56250000000000000        0.0000000000000000     
  0.65625000000000000       0.56250000000000000        0.0000000000000000     
  0.68750000000000000       0.56250000000000000        0.0000000000000000     
  0.71875000000000000       0.56250000000000000        0.0000000000000000     
  0.75000000000000000       0.56250000000000000        0.0000000000000000     
  0.62500000000000000       0.59375000000000000        0.0000000000000000     
  0.65625000000000000       0.59375000000000000        0.0000000000000000     
  0.68750000000000000       0.59375000000000000        0.0000000000000000     
  0.71875000000000000       0.59375000000000000        0.0000000000000000     
  0.75000000000000000       0.59375000000000000        0.0000000000000000     
  0.62500000000000000       0.62500000000000000        0.0000000000000000     
  0.65625000000000000       0.62500000000000000        0.0000000000000000     
  0.68750000000000000       0.62500000000000000        0.0000000000000000     
  0.71875000000000000       0.62500000000000000        0.0000000000000000     
  0.75000000000000000       0.62500000000000000        0.0000000000000000     
  0.75000000000000000       0.50000000000000000        0.0000000000000000     
  0.78125000000000000       0.50000000000000000        0.0000000000000000     
  0.81250000000000000       0.50000000000000000        0.0000000000000000     
  0.84375000000000000       0.50000000000000000        0.0000000000000000     
  0.87500000000000000       0.50000000000000000        0.0000000000000000     
  0.75000000000000000       0.53125000000000000        0.0000000000000000     
  0.78125000000000000       0.53125000000000000        0.0000000000000000     
  0.81250000000000000       0.53125000000000000        0.0000000000000000     
  0.84375000000000000       0.53125000000000000        0.0000000000000000     
  0.87500000000000000       0.53125000000000000        0.0000000000000000     
  0.75000000000000000       0.56250000000000000        0.0000000000000000     
  0.78125000000000000       0.56250000000000000        0.0000000000000000     
  0.81250000000000000       0.56250000000000000        0.0000000000000000     
  0.84375000000000000       0.56250000000000000        0.0000000000000000     
  0.87500000000000000       0.56250000000000000        0.0000000000000000     
  0.75000000000000000       0.59375000000000000        0.0000000000000000     
  0.78125000000000000       0.59375000000000000        0.0000000000000000     
  0.81250000000000000       0.59375000000000000        0.0000000000000000     
  0.84375000000000000       0.59375000000000000        0.0000000000000000     
  0.87500000000000000       0.59375000000000000        0.0000000000000000     
  0.75000000000000000       0.62500000000000000        0.0000000000000000     
  0.78125000000000000       0.62500000000000000        0.0000000000000000     
  0.81250000000000000       0.62500000000000000        0.0000000000000000     
  0.84375000000000000       0.62500000000000000        0.0000000000000000     
  0.87500000000000000       0.62500000000000000        0.0000000000000000     
  0.87500000000000000       0.50000000000000000        0.0000000000000000     
  0.90625000000000000       0.50000000000000000        0.0000000000000000     
  0.93750000000000000       0.50000000000000000        0.0000000000000000     
  0.96875000000000000       0.50000000000000000        0.0000000000000000     
   1.0000000000000000       0.50000000000000000        0.0000000000000000     
  0.87500000000000000       0.53125000000000000        0.0000000000000000     
  0.90625000000000000       0.53125000000000000        0.0000000000000000     
  0.93750000000000000       0.53125000000000000        0.0000000000000000     
  0.96875000000000000       0.53125000000000000        0.0000000000000000     
   1.0000000000000000       0.53125000000000000        0.0000000000000000     
  0.87500000000000000       0.56250000000000000        0.0000000000000000     
  0.90625000000000000       0.56250000000000000        0.0000000000000000     
  0.93750000000000000       0.56250000000000000        0.0000000000000000     
  0.96875000000000000       0.56250000000000000        0.0000000000000000     
   1.0000000000000000       0.56250000000000000        0.0000000000000000     
  0.87500000000000000       0.59375000000000000        0.0000000000000000     
  0.90625000000000000       0.59375000000000000        0.0000000000000000     
  0.93750000000000000       0.59375000000000000        0.0000000000000000     
  0.96875000000000000       0.59375000000000000        0.0000000000000000     
   1.0000000000000000       0.59375000000000000        0.0000000000000000     
  0.87500000000000000       0.62500000000000000        0.0000000000000000     
  0.90625000000000000       0.62500000000000000        0.0000000000000000     
  0.93750000000000000       0.62500000000000000        0.0000000000000000     
  0.96875000000000000       0.62500000000000000        0.0000000000000000     
   1.0000000000000000       0.62500000000000000        0.0000000000000000     
   0.0000000000000000       0.62500000000000000        0.0000000000000000     
   3.1250000000000000E-002  0.62500000000000000        0.0000000000000000     
   6.2500000000000000E-002  0.62500000000000000        0.0000000000000000     
   9.3750000000000000E-002  0.62500000000000000        0.0000000000000000     
  0.12500000000000000       0.62500000000000000        0.0000000000000000     
   0.0000000000000000       0.65625000000000000        0.0000000000000000     
   3.1250000000000000E-002  0.65625000000000000        0.0000000000000000     
   6.2500000000000000E-002  0.65625000000000000        0.0000000000000000     
   9.3750000000000000E-002  0.65625000000000000        0.0000000000000000     
  0.12500000000000000       0.65625000000000000        0.0000000000000000     
   0.0000000000000000       0.68750000000000000        0.0000000000000000     
   3.1250000000000000E-002  0.68750000000000000        0.0000000000000000     
   6.2500000000000000E-002  0.68750000000000000        0.0000000000000000     
   9.3750000000000000E-002  0.68750000000000000        0.0000000000000000     
  0.12500000000000000       0.68750000000000000        0.0000000000000000     
   0.0000000000000000       0.71875000000000000        0.0000000000000000     
   3.1250000000000000E-002  0.71875000000000000        0.0000000000000000     
   6.2500000000000000E-002  0.71875000000000000        0.0000000000000000     
   9.3750000000000000E-002  0.71875000000000000        0.0000000000000000     
  0.12500000000000000       0.71875000000000000        0.0000000000000000     
   0.0000000000000000       0.75000000000000000        0.0000000000000000     
   3.1250000000000000E-002  0.75000000000000000        0.0000000000000000     
   6.2500000000000000E-002  0.75000000000000000        0.0000000000000000     
   9.3750000000000000E-002  0.75000000000000000        0.0000000000000000     
  0.12500000000000000       0.75000000000000000        0.0000000000000000     
  0.12500000000000000       0.62500000000000000        0.0000000000000000     
  0.15625000000000000       0.62500000000000000        0.0000000000000000     
  0.18750000000000000       0.62500000000000000        0.0000000000000000     
  0.21875000000000000       0.62500000000000000        0.0000000000000000     
  0.25000000000000000       0.62500000000000000        0.0000000000000000     
  0.12500000000000000       0.65625000000000000        0.0000000000000000     
  0.15625000000000000       0.65625000000000000        0.0000000000000000     
  0.18750000000000000       0.65625000000000000        0.0000000000000000     
  0.21875000000000000       0.65625000000000000        0.0000000000000000     
  0.25000000000000000       0.65625000000000000        0.0000000000000000     
  0.12500000000000000       0.68750000000000000        0.0000000000000000     
  0.15625000000000000       0.68750000000000000        0.0000000000000000     
  0.18750000000000000       0.68750000000000000        0.0000000000000000     
  0.21875000000000000       0.68750000000000000        0.0000000000000000     
  0.25000000000000000       0.68750000000000000        0.0000000000000000     
  0.12500000000000000       0.71875000000000000        0.0000000000000000     
  0.15625000000000000       0.71875000000000000        0.0000000000000000     
  0.18750000000000000       0.71875000000000000        0.0000000000000000     
  0.21875000000000000       0.71875000000000000        0.0000000000000000     
  0.25000000000000000       0.71875000000000000        0.0000000000000000     
  0.12500000000000000       0.75000000000000000        0.0000000000000000     
  0.15625000000000000       0.75000000000000000        0.0000000000000000     
  0.18750000000000000       0.75000000000000000        0.0000000000000000     
  0.21875000000000000       0.75000000000000000        0.0000000000000000     
  0.25000000000000000       0.75000000000000000        0.0000000000000000     
  0.25000000000000000       0.62500000000000000        0.0000000000000000     
  0.28125000000000000       0.62500000000000000        0.0000000000000000     
  0.31250000000000000       0.62500000000000000        0.0000000000000000     
  0.34375000000000000       0.62500000000000000        0.0000000000000000     
  0.37500000000000000       0.62500000000000000        0.0000000000000000     
  0.25000000000000000       0.65625000000000000        0.0000000000000000     
  0.28125000000000000       0.65625000000000000        0.0000000000000000     
  0.31250000000000000       0.65625000000000000        0.0000000000000000     
  0.34375000000000000       0.65625000000000000        0.0000000000000000     
  0.37500000000000000       0.65625000000000000        0.0000000000000000     
  0.25000000000000000       0.68750000000000000        0.0000000000000000     
  0.28125000000000000       0.68750000000000000        0.0000000000000000     
  0.31250000000000000       0.68750000000000000        0.0000000000000000     
  0.34375000000000000       0.68750000000000000        0.0000000000000000     
  0.37500000000000000       0.68750000000000000        0.0000000000000000     
  0.25000000000000000       0.71875000000000000        0.0000000000000000     
  0.28125000000000000       0.71875000000000000        0.0000000000000000     
  0.31250000000000000       0.71875000000000000        0.0000000000000000     
  0.34375000000000000       0.71875000000000000        0.0000000000000000     
  0.37500000000000000       0.71875000000000000        0.0000000000000000     
  0.25000000000000000       0.75000000000000000        0.0000000000000000     
  0.28125000000000000       0.75000000000000000        0.0000000000000000     
  0.31250000000000000       0.75000000000000000        0.0000000000000000     
  0.34375000000000000       0.75000000000000000        0.0000000000000000     
  0.37500000000000000       0.75000000000000000        0.0000000000000000     
  0.37500000000000000       0.62500000000000000        0.0000000000000000     
  0.40625000000000000       0.62500000000000000        0.0000000000000000     
  0.43750000000000000       0.62500000000000000        0.0000000000000000     
  0.46875000000000000       0.62500000000000000        0.0000000000000000     
  0.50000000000000000       0.62500000000000000        0.0000000000000000     
  0.37500000000000000       0.65625000000000000        0.0000000000000000     
  0.40625000000000000       0.65625000000000000        0.0000000000000000     
  0.43750000000000000       0.65625000000000000        0.0000000000000000     
  0.46875000000000000       0.65625000000000000        0.0000000000000000     
  0.50000000000000000       0.65625000000000000        0.0000000000000000     
  0.37500000000000000       0.68750000000000000        0.0000000000000000     
  0.40625000000000000       0.68750000000000000        0.0000000000000000     
  0.43750000000000000       0.68750000000000000        0.0000000000000000     
  0.46875000000000000       0.68750000000000000        0.0000000000000000     
  0.50000000000000000       0.68750000000000000        0.0000000000000000     
  0.37500000000000000       0.71875000000000000        0.0000000000000000     
  0.40625000000000000       0.71875000000000000        0.0000000000000000     
  0.43750000000000000       0.71875000000000000        0.0000000000000000     
  0.46875000000000000       0.71875000000000000        0.0000000000000000     
  0.50000000000000000       0.71875000000000000        0.0000000000000000     
  0.37500000000000000       0.75000000000000000        0.0000000000000000     
  0.40625000000000000       0.75000000000000000        0.0000000000000000     
  0.43750000000000000       0.75000000000000000        0.0000000000000000     
  0.46875000000000000       0.75000000000000000        0.0000000000000000     
  0.50000000000000000       0.75000000000000000        0.0000000000000000     
  0.50000000000000000       0.62500000000000000        0.0000000000000000     
  0.53125000000000000       0.62500000000000000        0.0000000000000000     
  0.56250000000000000       0.62500000000000000        0.0000000000000000     
  0.59375000000000000       0.62500000000000000        0.0000000000000000     
  0.62500000000000000       0.62500000000000000        0.0000000000000000     
  0.50000000000000000       0.65625000000000000        0.0000000000000000     
  0.53125000000000000       0.65625000000000000        0.0000000000000000     
  0.56250000000000000       0.65625000000000000        0.0000000000000000     
  0.59375000000000000       0.65625000000000000        0.0000000000000000     
  0.62500000000000000       0.65625000000000000        0.0000000000000000     
  0.50000000000000000       0.68750000000000000        0.0000000000000000     
  0.53125000000000000       0.68750000000000000        0.0000000000000000     
  0.56250000000000000       0.68750000000000000        0.0000000000000000     
  0.59375000000000000       0.68750000000000000        0.0000000000000000     
  0.62500000000000000       0.68750000000000000        0.0000000000000000     
  0.50000000000000000       0.71875000000000000        0.0000000000000000     
  0.53125000000000000       0.71875000000000000        0.0000000000000000     
  0.56250000000000000       0.71875000000000000        0.0000000000000000     
  0.59375000000000000       0.71875000000000000        0.0000000000000000     
  0.62500000000000000       0.71875000000000000        0.0000000000000000     
  0.50000000000000000       0.75000000000000000        0.0000000000000000     
  0.53125000000000000       0.75000000000000000        0.0000000000000000     
  0.56250000000000000       0.75000000000000000        0.0000000000000000     
  0.59375000000000000       0.75000000000000000        0.0000000000000000     
  0.62500000000000000       0.75000000000000000        0.0000000000000000     
  0.62500000000000000       0.62500000000000000        0.0000000000000000     
  0.65625000000000000       0.62500000000000000        0.0000000000000000     
  0.68750000000000000       0.62500000000000000        0.0000000000000000     
  0.71875000000000000       0.62500000000000000        0.0000000000000000     
  0.75000000000000000       0.62500000000000000        0.0000000000000000     
  0.62500000000000000       0.65625000000000000        0.0000000000000000     
  0.65625000000000000       0.65625000000000000        0.0000000000000000     
  0.68750000000000000       0.65625000000000000        0.0000000000000000     
  0.71875000000000000       0.65625000000000000        0.0000000000000000     
  0.75000000000000000       0.65625000000000000        0.0000000000000000     
  0.62500000000000000       0.68750000000000000        0.0000000000000000     
  0.65625000000000000       0.68750000000000000        0.0000000000000000     
  0.68750000000000000       0.68750000000000000        0.0000000000000000     
  0.71875000000000000       0.68750000000000000        0.0000000000000000     
  0.75000000000000000       0.68750000000000000        0.0000000000000000     
  0.62500000000000000       0.71875000000000000        0.0000000000000000     
  0.65625000000000000       0.71875000000000000        0.0000000000000000     
  0.68750000000000000       0.71875000000000000        0.0000000000000000     
  0.71875000000000000       0.71875000000000000        0.0000000000000000     
  0.75000000000000000       0.71875000000000000        0.0000000000000000     
  0.62500000000000000       0.75000000000000000        0.0000000000000000     
  0.65625000000000000       0.75000000000000000        0.0000000000000000     
  0.68750000000000000       0.75000000000000000        0.0000000000000000     
  0.71875000000000000       0.75000000000000000        0.0000000000000000     
  0.75000000000000000       0.75000000000000000        0.0000000000000000     
  0.75000000000000000       0.62500000000000000        0.0000000000000000     
  0.78125000000000000       0.62500000000000000        0.0000000000000000     
  0.81250000000000000       0.62500000000000000        0.0000000000000000     
  0.84375000000000000       0.62500000000000000        0.0000000000000000     
  0.87500000000000000       0.62500000000000000        0.0000000000000000     
  0.75000000000000000       0.65625000000000000        0.0000000000000000     
  0.78125000000000000       0.65625000000000000        0.0000000000000000     
  0.81250000000000000       0.65625000000000000        0.0000000000000000     
  0.84375000000000000       0.65625000000000000        0.0000000000000000     
  0.87500000000000000       0.65625000000000000        0.0000000000000000     
  0.75000000000000000       0.68750000000000000        0.0000000000000000     
  0.78125000000000000       0.68750000000000000        0.0000000000000000     
  0.81250000000000000       0.68750000000000000        0.0000000000000000     
  0.84375000000000000       0.68750000000000000        0.0000000000000000     
  0.87500000000000000       0.68750000000000000        0.0000000000000000     
  0.75000000000000000       0.71875000000000000        0.0000000000000000     
  0.78125000000000000       0.71875000000000000        0.0000000000000000     
  0.81250000000000000       0.71875000000000000        0.0000000000000000     
  0.84375000000000000       0.71875000000000000        0.0000000000000000     
  0.87500000000000000       0.71875000000000000        0.0000000000000000     
  0.75000000000000000       0.75000000000000000        0.0000000000000000     
  0.78125000000000000       0.75000000000000000        0.0000000000000000     
  0.81250000000000000       0.75000000000000000        0.0000000000000000     
  0.84375000000000000       0.75000000000000000        0.0000000000000000     
  0.87500000000000000       0.75000000000000000        0.0000000000000000     
  0.87500000000000000       0.62500000000000000        0.0000000000000000     
  0.90625000000000000       0.62500000000000000        0.0000000000000000     
  0.93750000000000000       0.62500000000000000        0.0000000000000000     
  0.96875000000000000       0.62500000000000000        0.0000000000000000     
   1.0000000000000000       0.62500000000000000        0.0000000000000000     
  0.87500000000000000       0.65625000000000000        0.0000000000000000     
  0.90625000000000000       0.65625000000000000        0.0000000000000000     
  0.93750000000000000       0.65625000000000000        0.0000000000000000     
  0.96875000000000000       0.65625000000000000        0.0000000000000000     
   1.0000000000000000       0.65625000000000000        0.0000000000000000     
  0.87500000000000000       0.68750000000000000        0.0000000000000000     
  0.90625000000000000       0.68750000000000000        0.0000000000000000     
  0.93750000000000000       0.68750000000000000        0.0000000000000000     
  0.96875000000000000       0.68750000000000000        0.0000000000000000     
   1.0000000000000000       0.68750000000000000        0.0000000000000000     
  0.87500000000000000       0.71875000000000000        0.0000000000000000     
  0.90625000000000000       0.71875000000000000        0.0000000000000000     
  0.93750000000000000       0.71875000000000000        0.0000000000000000     
  0.96875000000000000       0.71875000000000000        0.0000000000000000     
   1.0000000000000000       0.71875000000000000        0.0000000000000000     
  0.87500000000000000       0.75000000000000000        0.0000000000000000     
  0.90625000000000000       0.75000000000000000        0.0000000000000000     
  0.93750000000000000       0.75000000000000000        0.0000000000000000     
  0.96875000000000000       0.75000000000000000        0.0000000000000000     
   1.0000000000000000       0.75000000000000000        0.0000000000000000     
   0.0000000000000000       0.75000000000000000        0.0000000000000000     
   3.1250000000000000E-002  0.75000000000000000        0.0000000000000000     
   6.2500000000000000E-002  0.75000000000000000        0.0000000000000000     
   9.3750000000000000E-002  0.75000000000000000        0.0000000000000000     
  0.12500000000000000       0.75000000000000000        0.0000000000000000     
   0.0000000000000000       0.78125000000000000        0.0000000000000000     
   3.1250000000000000E-002  0.78125000000000000        0.0000000000000000     
   6.2500000000000000E-002  0.78125000000000000        0.0000000000000000     
   9.3750000000000000E-002  0.78125000000000000        0.0000000000000000     
  0.12500000000000000       0.78125000000000000        0.0000000000000000     
   0.0000000000000000       0.81250000000000000        0.0000000000000000     
   3.1250000000000000E-002  0.81250000000000000        0.0000000000000000     
   6.2500000000000000E-002  0.81250000000000000        0.0000000000000000     
   9.3750000000000000E-002  0.81250000000000000        0.0000000000000000     
  0.12500000000000000       0.81250000000000000        0.0000000000000000     
   0.0000000000000000       0.84375000000000000        0.0000000000000000     
   3.1250000000000000E-002  0.84375000000000000        0.0000000000000000     
   6.2500000000000000E-002  0.84375000000000000        0.0000000000000000     
   9.3750000000000000E-002  0.84375000000000000        0.0000000000000000     
  0.12500000000000000       0.84375000000000000        0.0000000000000000     
   0.0000000000000000       0.87500000000000000        0.0000000000000000     
   3.1250000000000000E-002  0.87500000000000000        0.0000000000000000     
   6.2500000000000000E-002  0.87500000000000000        0.0000000000000000     
   9.3750000000000000E-002  0.87500000000000000        0.0000000000000000     
  0.12500000000000000       0.87500000000000000        0.0000000000000000     
  0.12500000000000000       0.75000000000000000        0.0000000000000000     
  0.15625000000000000       0.75000000000000000        0.0000000000000000     
  0.18750000000000000       0.75000000000000000        0.0000000000000000     
  0.21875000000000000       0.75000000000000000        0.0000000000000000     
  0.25000000000000000       0.75000000000000000        0.0000000000000000     
  0.12500000000000000       0.78125000000000000        0.0000000000000000     
  0.15625000000000000       0.78125000000000000        0.0000000000000000     
  0.18750000000000000       0.78125000000000000        0.0000000000000000     
  0.21875000000000000       0.78125000000000000        0.0000000000000000     
  0.25000000000000000       0.78125000000000000        0.0000000000000000     
  0.12500000000000000       0.81250000000000000        0.0000000000000000     
  0.15625000000000000       0.81250000000000000        0.0000000000000000     
  0.18750000000000000       0.81250000000000000        0.0000000000000000     
  0.21875000000000000       0.81250000000000000        0.0000000000000000     
  0.25000000000000000       0.81250000000000000        0.0000000000000000     
  0.12500000000000000       0.84375000000000000        0.0000000000000000     
  0.15625000000000000       0.84375000000000000        0.0000000000000000     
  0.18750000000000000       0.84375000000000000        0.0000000000000000     
  0.21875000000000000       0.84375000000000000        0.0000000000000000     
  0.25000000000000000       0.84375000000000000        0.0000000000000000     
  0.12500000000000000       0.87500000000000000        0.0000000000000000     
  0.15625000000000000       0.87500000000000000        0.0000000000000000     
  0.18750000000000000       0.87500000000000000        0.0000000000000000     
  0.21875000000000000       0.87500000000000000        0.0000000000000000     
  0.25000000000000000       0.87500000000000000        0.0000000000000000     
  0.25000000000000000       0.75000000000000000        0.0000000000000000     
  0.28125000000000000       0.75000000000000000        0.0000000000000000     
  0.31250000000000000       0.75000000000000000        0.0000000000000000     
  0.34375000000000000       0.75000000000000000        0.0000000000000000     
  0.37500000000000000       0.75000000000000000        0.0000000000000000     
  0.25000000000000000       0.78125000000000000        0.0000000000000000     
  0.28125000000000000       0.78125000000000000        0.0000000000000000     
  0.31250000000000000       0.78125000000000000        0.0000000000000000     
  0.34375000000000000       0.78125000000000000        0.0000000000000000     
  0.37500000000000000       0.78125000000000000        0.0000000000000000     
  0.25000000000000000       0.81250000000000000        0.0000000000000000     
  0.28125000000000000       0.81250000000000000        0.0000000000000000     
  0.31250000000000000       0.81250000000000000        0.0000000000000000     
  0.34375000000000000       0.81250000000000000        0.0000000000000000     
  0.37500000000000000       0.81250000000000000        0.0000000000000000     
  0.25000000000000000       0.84375000000000000        0.0000000000000000     
  0.28125000000000000       0.84375000000000000        0.0000000000000000     
  0.31250000000000000       0.84375000000000000        0.0000000000000000     
  0.34375000000000000       0.84375000000000000        0.0000000000000000     
  0.37500000000000000       0.84375000000000000        0.0000000000000000     
  0.25000000000000000       0.87500000000000000        0.0000000000000000     
  0.28125000000000000       0.87500000000000000        0.0000000000000000     
  0.31250000000000000       0.87500000000000000        0.0000000000000000     
  0.34375000000000000       0.87500000000000000        0.0000000000000000     
  0.37500000000000000       0.87500000000000000        0.0000000000000000     
  0.37500000000000000       0.75000000000000000        0.0000000000000000     
  0.40625000000000000       0.75000000000000000        0.0000000000000000     
  0.43750000000000000       0.75000000000000000        0.0000000000000000     
  0.46875000000000000       0.75000000000000000        0.0000000000000000     
  0.50000000000000000       0.75000000000000000        0.0000000000000000     
  0.37500000000000000       0.78125000000000000        0.0000000000000000     
  0.40625000000000000       0.78125000000000000        0.0000000000000000     
  0.43750000000000000       0.78125000000000000        0.0000000000000000     
  0.46875000000000000       0.78125000000000000        0.0000000000000000     
  0.50000000000000000       0.78125000000000000        0.0000000000000000     
  0.37500000000000000       0.81250000000000000        0.0000000000000000     
  0.40625000000000000       0.81250000000000000        0.0000000000000000     
  0.43750000000000000       0.81250000000000000        0.0000000000000000     
  0.46875000000000000       0.81250000000000000        0.0000000000000000     
  0.50000000000000000       0.81250000000000000        0.0000000000000000     
  0.37500000000000000       0.84375000000000000        0.0000000000000000     
  0.40625000000000000       0.84375000000000000        0.0000000000000000     
  0.43750000000000000       0.84375000000000000        0.0000000000000000     
  0.46875000000000000       0.84375000000000000        0.0000000000000000     
  0.50000000000000000       0.84375000000000000        0.0000000000000000     
  0.37500000000000000       0.87500000000000000        0.0000000000000000     
  0.40625000000000000       0.87500000000000000        0.0000000000000000     
  0.43750000000000000       0.87500000000000000        0.0000000000000000     
  0.46875000000000000       0.87500000000000000        0.0000000000000000     
  0.50000000000000000       0.87500000000000000        0.0000000000000000     
  0.50000000000000000       0.75000000000000000        0.0000000000000000     
  0.53125000000000000       0.75000000000000000        0.0000000000000000     
  0.56250000000000000       0.75000000000000000        0.0000000000000000     
  0.59375000000000000       0.75000000000000000        0.0000000000000000     
  0.62500000000000000       0.75000000000000000        0.0000000000000000     
  0.50000000000000000       0.78125000000000000        0.0000000000000000     
  0.53125000000000000       0.78125000000000000        0.0000000000000000     
  0.56250000000000000       0.78125000000000000        0.0000000000000000     
  0.59375000000000000       0.78125000000000000        0.0000000000000000     
  0.62500000000000000       0.78125000000000000        0.0000000000000000     
  0.50000000000000000       0.81250000000000000        0.0000000000000000     
  0.53125000000000000       0.81250000000000000        0.0000000000000000     
  0.56250000000000000       0.81250000000000000        0.0000000000000000     
  0.59375000000000000       0.81250000000000000        0.0000000000000000     
  0.62500000000000000       0.81250000000000000        0.0000000000000000     
  0.50000000000000000       0.84375000000000000        0.0000000000000000     
  0.53125000000000000       0.84375000000000000        0.0000000000000000     
  0.56250000000000000       0.84375000000000000        0.0000000000000000     
  0.59375000000000000       0.84375000000000000        0.0000000000000000     
  0.62500000000000000       0.84375000000000000        0.0000000000000000     
  0.50000000000000000       0.87500000000000000        0.0000000000000000     
  0.53125000000000000       0.87500000000000000        0.0000000000000000     
  0.56250000000000000       0.87500000000000000        0.0000000000000000     
  0.59375000000000000       0.87500000000000000        0.0000000000000000     
  0.62500000000000000       0.87500000000000000        0.0000000000000000     
  0.62500000000000000       0.75000000000000000        0.0000000000000000     
  0.65625000000000000       0.75000000000000000        0.0000000000000000     
  0.68750000000000000       0.75000000000000000        0.0000000000000000     
  0.71875000000000000       0.75000000000000000        0.0000000000000000     
  0.75000000000000000       0.75000000000000000        0.0000000000000000     
  0.62500000000000000       0.78125000000000000        0.0000000000000000     
  0.65625000000000000       0.78125000000000000        0.0000000000000000     
  0.68750000000000000       0.78125000000000000        0.0000000000000000     
  0.71875000000000000       0.78125000000000000        0.0000000000000000     
  0.75000000000000000       0.78125000000000000        0.0000000000000000     
  0.62500000000000000       0.81250000000000000        0.0000000000000000     
  0.65625000000000000       0.81250000000000000        0.0000000000000000     
  0.68750000000000000       0.81250000000000000        0.0000000000000000     
  0.71875000000000000       0.81250000000000000        0.0000000000000000     
  0.75000000000000000       0.81250000000000000        0.0000000000000000     
  0.62500000000000000       0.84375000000000000        0.0000000000000000     
  0.65625000000000000       0.84375000000000000        0.0000000000000000     
  0.68750000000000000       0.84375000000000000        0.0000000000000000     
  0.71875000000000000       0.84375000000000000        0.0000000000000000     
  0.75000000000000000       0.84375000000000000        0.0000000000000000     
  0.62500000000000000       0.87500000000000000        0.0000000000000000     
  0.65625000000000000       0.87500000000000000        0.0000000000000000     
  0.68750000000000000       0.87500000000000000        0.0000000000000000     
  0.71875000000000000       0.87500000000000000        0.0000000000000000     
  0.75000000000000000       0.87500000000000000        0.0000000000000000     
  0.75000000000000000       0.75000000000000000        0.0000000000000000     
  0.78125000000000000       0.75000000000000000        0.0000000000000000     
  0.81250000000000000       0.75000000000000000        0.0000000000000000     
  0.84375000000000000       0.75000000000000000        0.0000000000000000     
  0.87500000000000000       0.75000000000000000        0.0000000000000000     
  0.75000000000000000       0.78125000000000000        0.0000000000000000     
  0.78125000000000000       0.78125000000000000        0.0000000000000000     
  0.81250000000000000       0.78125000000000000        0.0000000000000000     
  0.84375000000000000       0.78125000000000000        0.0000000000000000     
  0.87500000000000000       0.78125000000000000        0.0000000000000000     
  0.75000000000000000       0.81250000000000000        0.0000000000000000     
  0.78125000000000000       0.81250000000000000        0.0000000000000000     
  0.81250000000000000       0.81250000000000000        0.0000000000000000     
  0.84375000000000000       0.81250000000000000        0.0000000000000000     
  0.87500000000000000       0.81250000000000000        0.0000000000000000     
  0.75000000000000000       0.84375000000000000        0.0000000000000000     
  0.78125000000000000       0.84375000000000000        0.0000000000000000     
  0.81250000000000000       0.84375000000000000        0.0000000000000000     
  0.84375000000000000       0.84375000000000000        0.0000000000000000     
  0.87500000000000000       0.84375000000000000        0.0000000000000000     
  0.75000000000000000       0.87500000000000000        0.0000000000000000     
  0.78125000000000000       0.87500000000000000        0.0000000000000000     
  0.81250000000000000       0.87500000000000000        0.0000000000000000     
  0.84375000000000000       0.87500000000000000        0.0000000000000000     
  0.87500000000000000       0.87500000000000000        0.0000000000000000     
  0.87500000000000000       0.75000000000000000        0.0000000000000000     
  0.90625000000000000       0.75000000000000000        0.0000000000000000     
  0.93750000000000000       0.75000000000000000        0.0000000000000000     
  0.96875000000000000       0.75000000000000000        0.0000000000000000     
   1.0000000000000000       0.75000000000000000        0.0000000000000000     
  0.87500000000000000       0.78125000000000000        0.0000000000000000     
  0.90625000000000000       0.78125000000000000        0.0000000000000000     
  0.93750000000000000       0.78125000000000000        0.0000000000000000     
  0.96875000000000000       0.78125000000000000        0.0000000000000000     
   1.0000000000000000       0.78125000000000000        0.0000000000000000     
  0.87500000000000000       0.81250000000000000        0.0000000000000000     
  0.90625000000000000       0.81250000000000000        0.0000000000000000     
  0.93750000000000000       0.81250000000000000        0.0000000000000000     
  0.96875000000000000       0.81250000000000000        0.0000000000000000     
   1.0000000000000000       0.81250000000000000        0.0000000000000000     
  0.87500000000000000       0.84375000000000000        0.0000000000000000     
  0.90625000000000000       0.84375000000000000        0.0000000000000000     
  0.93750000000000000       0.84375000000000000        0.0000000000000000     
  0.96875000000000000       0.84375000000000000        0.0000000000000000     
   1.0000000000000000       0.84375000000000000        0.0000000000000000     
  0.87500000000000000       0.87500000000000000        0.0000000000000000     
  0.90625000000000000       0.87500000000000000        0.0000000000000000     
  0.93750000000000000       0.87500000000000000        0.0000000000000000     
  0.96875000000000000       0.87500000000000000        0.0000000000000000     
   1.0000000000000000       0.87500000000000000        0.0000000000000000     
   0.0000000000000000       0.87500000000000000        0.0000000000000000     
   3.1250000000000000E-002  0.87500000000000000        0.0000000000000000     
   6.2500000000000000E-002  0.87500000000000000        0.0000000000000000     
   9.3750000000000000E-002  0.87500000000000000        0.0000000000000000     
  0.12500000000000000       0.87500000000000000        0.0000000000000000     
   0.0000000000000000       0.90625000000000000        0.0000000000000000     
   3.1250000000000000E-002  0.90625000000000000        0.0000000000000000     
   6.2500000000000000E-002  0.90625000000000000        0.0000000000000000     
   9.3750000000000000E-002  0.90625000000000000        0.0000000000000000     
  0.12500000000000000       0.90625000000000000        0.0000000000000000     
   0.0000000000000000       0.93750000000000000        0.0000000000000000     
   3.1250000000000000E-002  0.93750000000000000        0.0000000000000000     
   6.2500000000000000E-002  0.93750000000000000        0.0000000000000000     
   9.3750000000000000E-002  0.93750000000000000        0.0000000000000000     
  0.12500000000000000       0.93750000000000000        0.0000000000000000     
   0.0000000000000000       0.96875000000000000        0.0000000000000000     
   3.1250000000000000E-002  0.96875000000000000        0.0000000000000000     
   6.2500000000000000E-002  0.96875000000000000        0.0000000000000000     
   9.3750000000000000E-002  0.96875000000000000        0.0000000000000000     
  0.12500000000000000       0.96875000000000000        0.0000000000000000     
   0.0000000000000000        1.0000000000000000        0.0000000000000000     
   3.1250000000000000E-002   1.0000000000000000        0.0000000000000000     
   6.2500000000000000E-002   1.0000000000000000        0.0000000000000000     
   9.3750000000000000E-002   1.0000000000000000        0.0000000000000000     
  0.12500000000000000        1.0000000000000000        0.0000000000000000     
  0.12500000000000000       0.87500000000000000        0.0000000000000000     
  0.15625000000000000       0.87500000000000000        0.0000000000000000     
  0.18750000000000000       0.87500000000000000        0.0000000000000000     
  0.21875000000000000       0.87500000000000000        0.0000000000000000     
  0.25000000000000000       0.87500000000000000        0.0000000000000000     
  0.12500000000000000       0.90625000000000000        0.0000000000000000     
  0.15625000000000000       0.90625000000000000        0.0000000000000000     
  0.18750000000000000       0.90625000000000000        0.0000000000000000     
  0.21875000000000000       0.90625000000000000        0.0000000000000000     
  0.25000000000000000       0.90625000000000000        0.0000000000000000     
  0.12500000000000000       0.93750000000000000        0.0000000000000000     
  0.15625000000000000       0.93750000000000000        0.0000000000000000     
  0.18750000000000000       0.93750000000000000        0.0000000000000000     
  0.21875000000000000       0.93750000000000000        0.0000000000000000     
  0.25000000000000000       0.93750000000000000        0.0000000000000000     
  0.12500000000000000       0.96875000000000000        0.0000000000000000     
  0.15625000000000000       0.96875000000000000        0.0000000000000000     
  0.18750000000000000       0.96875000000000000        0.0000000000000000     
  0.21875000000000000       0.96875000000000000        0.0000000000000000     
  0.25000000000000000       0.96875000000000000        0.0000000000000000     
  0.12500000000000000        1.0000000000000000        0.0000000000000000     
  0.15625000000000000        1.0000000000000000        0.0000000000000000     
  0.18750000000000000        1.0000000000000000        0.0000000000000000     
  0.21875000000000000        1.0000000000000000        0.0000000000000000     
  0.25000000000000000        1.0000000000000000        0.0000000000000000     
  0.25000000000000000       0.87500000000000000        0.0000000000000000     
  0.28125000000000000       0.87500000000000000        0.0000000000000000     
  0.31250000000000000       0.87500000000000000        0.0000000000000000     
  0.34375000000000000       0.87500000000000000        0.0000000000000000     
  0.37500000000000000       0.87500000000000000        0.0000000000000000     
  0.25000000000000000       0.90625000000000000        0.0000000000000000     
  0.28125000000000000       0.90625000000000000        0.0000000000000000     
  0.31250000000000000       0.90625000000000000        0.0000000000000000     
  0.34375000000000000       0.90625000000000000        0.0000000000000000     
  0.37500000000000000       0.90625000000000000        0.0000000000000000     
  0.25000000000000000       0.93750000000000000        0.0000000000000000     
  0.28125000000000000       0.93750000000000000        0.0000000000000000     
  0.31250000000000000       0.93750000000000000        0.0000000000000000     
  0.34375000000000000       0.93750000000000000        0.0000000000000000     
  0.37500000000000000       0.93750000000000000        0.0000000000000000     
  0.25000000000000000       0.96875000000000000        0.0000000000000000     
  0.28125000000000000       0.96875000000000000        0.0000000000000000     
  0.31250000000000000       0.96875000000000000        0.0000000000000000     
  0.34375000000000000       0.96875000000000000        0.0000000000000000     
  0.37500000000000000       0.96875000000000000        0.0000000000000000     
  0.25000000000000000        1.0000000000000000        0.0000000000000000     
  0.28125000000000000        1.0000000000000000        0.0000000000000000     
  0.31250000000000000        1.0000000000000000        0.0000000000000000     
  0.34375000000000000        1.0000000000000000        0.0000000000000000     
  0.37500000000000000        1.0000000000000000        0.0000000000000000     
  0.37500000000000000       0.87500000000000000        0.0000000000000000     
  0.40625000000000000       0.87500000000000000        0.0000000000000000     
  0.43750000000000000       0.87500000000000000        0.0000000000000000     
  0.46875000000000000       0.87500000000000000        0.0000000000000000     
  0.50000000000000000       0.87500000000000000        0.0000000000000000     
  0.37500000000000000       0.90625000000000000        0.0000000000000000     
  0.40625000000000000       0.90625000000000000        0.0000000000000000     
  0.43750000000000000       0.90625000000000000        0.0000000000000000     
  0.46875000000000000       0.90625000000000000        0.0000000000000000     
  0.50000000000000000       0.90625000000000000        0.0000000000000000     
  0.37500000000000000       0.93750000000000000        0.0000000000000000     
  0.40625000000000000       0.93750000000000000        0.0000000000000000     
  0.43750000000000000       0.93750000000000000        0.0000000000000000     
  0.46875000000000000       0.93750000000000000        0.0000000000000000     
  0.50000000000000000       0.93750000000000000        0.0000000000000000     
  0.37500000000000000       0.96875000000000000        0.0000000000000000     
  0.40625000000000000       0.96875000000000000        0.0000000000000000     
  0.43750000000000000       0.96875000000000000        0.0000000000000000     
  0.46875000000000000       0.96875000000000000        0.0000000000000000     
  0.50000000000000000       0.96875000000000000        0.0000000000000000     
  0.37500000000000000        1.0000000000000000        0.0000000000000000     
  0.40625000000000000        1.0000000000000000        0.0000000000000000     
  0.43750000000000000        1.0000000000000000        0.0000000000000000     
  0.46875000000000000        1.0000000000000000        0.0000000000000000     
  0.50000000000000000        1.0000000000000000        0.0000000000000000     
  0.50000000000000000       0.87500000000000000        0.0000000000000000     
  0.53125000000000000       0.87500000000000000        0.0000000000000000     
  0.56250000000000000       0.87500000000000000        0.0000000000000000     
  0.59375000000000000       0.87500000000000000        0.0000000000000000     
  0.62500000000000000       0.87500000000000000        0.0000000000000000     
  0.50000000000000000       0.90625000000000000        0.0000000000000000     
  0.53125000000000000       0.90625000000000000        0.0000000000000000     
  0.56250000000000000       0.90625000000000000        0.0000000000000000     
  0.59375000000000000       0.90625000000000000        0.0000000000000000     
  0.62500000000000000       0.90625000000000000        0.0000000000000000     
  0.50000000000000000       0.93750000000000000        0.0000000000000000     
  0.53125000000000000       0.93750000000000000        0.0000000000000000     
  0.56250000000000000       0.93750000000000000        0.0000000000000000     
  0.59375000000000000       0.93750000000000000        0.0000000000000000     
  0.62500000000000000       0.93750000000000000        0.0000000000000000     
  0.50000000000000000       0.96875000000000000        0.0000000000000000     
  0.53125000000000000       0.96875000000000000        0.0000000000000000     
  0.56250000000000000       0.96875000000000000        0.0000000000000000     
  0.59375000000000000       0.96875000000000000        0.0000000000000000     
  0.62500000000000000       0.96875000000000000        0.0000000000000000     
  0.50000000000000000        1.0000000000000000        0.0000000000000000     
  0.53125000000000000        1.0000000000000000        0.0000000000000000     
  0.56250000000000000        1.0000000000000000        0.0000000000000000     
  0.59375000000000000        1.0000000000000000        0.0000000000000000     
  0.62500000000000000        1.0000000000000000        0.0000000000000000     
  0.62500000000000000       0.87500000000000000        0.0000000000000000     
  0.65625000000000000       0.87500000000000000        0.0000000000000000     
  0.68750000000000000       0.87500000000000000        0.0000000000000000     
  0.71875000000000000       0.87500000000000000        0.0000000000000000     
  0.75000000000000000       0.87500000000000000        0.0000000000000000     
  0.62500000000000000       0.90625000000000000        0.0000000000000000     
  0.65625000000000000       0.90625000000000000        0.0000000000000000     
  0.68750000000000000       0.90625000000000000        0.0000000000000000     
  0.71875000000000000       0.90625000000000000        0.0000000000000000     
  0.75000000000000000       0.90625000000000000        0.0000000000000000     
  0.62500000000000000       0.93750000000000000        0.0000000000000000     
  0.65625000000000000       0.93750000000000000        0.0000000000000000     
  0.68750000000000000       0.93750000000000000        0.0000000000000000     
  0.71875000000000000       0.93750000000000000        0.0000000000000000     
  0.75000000000000000       0.93750000000000000        0.0000000000000000     
  0.62500000000000000       0.96875000000000000        0.0000000000000000     
  0.65625000000000000       0.96875000000000000        0.0000000000000000     
  0.68750000000000000       0.96875000000000000        0.0000000000000000     
  0.71875000000000000       0.96875000000000000        0.0000000000000000     
  0.75000000000000000       0.96875000000000000        0.0000000000000000     
  0.62500000000000000        1.0000000000000000        0.0000000000000000     
  0.65625000000000000        1.0000000000000000        0.0000000000000000     
  0.68750000000000000        1.0000000000000000        0.0000000000000000     
  0.71875000000000000        1.0000000000000000        0.0000000000000000     
  0.75000000000000000        1.0000000000000000        0.0000000000000000     
  0.75000000000000000       0.87500000000000000        0.0000000000000000     
  0.78125000000000000       0.87500000000000000        0.0000000000000000     
  0.81250000000000000       0.87500000000000000        0.0000000000000000     
  0.84375000000000000       0.87500000000000000        0.0000000000000000     
  0.87500000000000000       0.87500000000000000        0.0000000000000000     
  0.75000000000000000       0.90625000000000000        0.0000000000000000     
  0.78125000000000000       0.90625000000000000        0.0000000000000000     
  0.81250000000000000       0.90625000000000000        0.0000000000000000     
  0.84375000000000000       0.90625000000000000        0.0000000000000000     
  0.87500000000000000       0.90625000000000000        0.0000000000000000     
  0.75000000000000000       0.93750000000000000        0.0000000000000000     
  0.78125000000000000       0.93750000000000000        0.0000000000000000     
  0.81250000000000000       0.93750000000000000        0.0000000000000000     
  0.84375000000000000       0.93750000000000000        0.0000000000000000     
  0.87500000000000000       0.93750000000000000        0.0000000000000000     
  0.75000000000000000       0.96875000000000000        0.0000000000000000     
  0.78125000000000000       0.96875000000000000        0.0000000000000000     
  0.81250000000000000       0.96875000000000000        0.0000000000000000     
  0.84375000000000000       0.96875000000000000        0.0000000000000000     
  0.87500000000000000       0.96875000000000000        0.0000000000000000     
  0.75000000000000000        1.0000000000000000        0.0000000000000000     
  0.78125000000000000        1.0000000000000000        0.0000000000000000     
  0.81250000000000000        1.0000000000000000        0.0000000000000000     
  0.84375000000000000        1.0000000000000000        0.0000000000000000     
  0.87500000000000000        1.0000000000000000        0.0000000000000000     
  0.87500000000000000       0.87500000000000000        0.0000000000000000     
  0.90625000000000000       0.87500000000000000        0.0000000000000000     
  0.93750000000000000       0.87500000000000000        0.0000000000000000     
  0.96875000000000000       0.87500000000000000        0.0000000000000000     
   1.0000000000000000       0.87500000000000000        0.0000000000000000     
  0.87500000000000000       0.90625000000000000        0.0000000000000000     
  0.90625000000000000       0.90625000000000000        0.0000000000000000     
  0.93750000000000000       0.90625000000000000        0.0000000000000000     
  0.96875000000000000       0.90625000000000000        0.0000000000000000     
   1.0000000000000000       0.90625000000000000        0.0000000000000000     
  0.87500000000000000       0.93750000000000000        0.0000000000000000     
  0.90625000000000000       0.93750000000000000        0.0000000000000000     
  0.93750000000000000       0.93750000000000000        0.0000000000000000     
  0.96875000000000000       0.93750000000000000        0.0000000000000000     
   1.0000000000000000       0.93750000000000000        0.0000000000000000     
  0.87500000000000000       0.96875000000000000        0.0000000000000000     
  0.90625000000000000       0.96875000000000000        0.0000000000000000     
  0.93750000000000000       0.96875000000000000        0.0000000000000000     
  0.96875000000000000       0.96875000000000000        0.0000000000000000     
   1.0000000000000000       0.96875000000000000        0.0000000000000000     
  0.87500000000000000        1.0000000000000000        0.0000000000000000     
  0.90625000000000000        1.0000000000000000        0.0000000000000000     
  0.93750000000000000        1.0000000000000000        0.0000000000000000     
  0.96875000000000000        1.0000000000000000        0.0000000000000000     
   1.0000000000000000        1.0000000000000000        0.0000000000000000     
 </DataArray>
 </Points>
 <Cells>
 <DataArray  type="Int32"  Name="connectivity"  format="ascii">
           0           1           6           5
           1           2           7           6
           2           3           8           7
           3           4           9           8
           5           6          11          10
           6           7          12          11
           7           8          13          12
           8           9          14          13
          10          11          16          15
          11          12          17          16
          12          13          18          17
          13          14          19          18
          15          16          21          20
          16          17          22          21
          17          18          23          22
          18          19          24          23
          25          26          31          30
          26          27          32          31
          27          28          33          32
          28          29          34          33
          30          31          36          35
          31          32          37          36
          32          33          38          37
          33          34          39          38
          35          36          41          40
          36          37          42          41
          37          38          43          42
          38          39          44          43
          40          41          46          45
          41          42          47          46
          42          43          48          47
          43          44          49          48
          50          51          56          55
          51          52          57          56
          52          53          58          57
          53          54          59          58
          55          56          61          60
          56          57          62          61
          57          58          63          62
          58          59          64          63
          60          61          66          65
          61          62          67          66
          62          63          68          67
          63          64          69          68
          65          66          71          70
          66          67          72          71
          67          68          73          72
          68          69          74          73
          75          76          81          80
          76          77          82          81
          77          78          83          82
          78          79          84          83
          80          81          86          85
          81          82          87          86
          82          83          88          87
          83          84          89          88
          85          86          91          90
          86          87          92          91
          87          88          93          92
          88          89          94          93
          90          91          96          95
          91          92          97          96
          92          93          98          97
          93          94          99          98
         100         101         106         105
         101         102         107         106
         102         103         108         107
         103         104         109         108
         105         106         111         110
         106         107         112         111
         107         108         113         112
         108         109         114         113
         110         111         116         115
         111         112         117         116
         112         113         118         117
         113         114         119         118
         115         116         121         120
         116         117         122         121
         117         118         123         122
         118         119         124         123
         125         126         131         130
         126         127         132         131
         127         128         133         132
         128         129         134         133
         130         131         136         135
         131         132         137         136
         132         133         138         137
         133         134         139         138
         135         136         141         140
         136         137         142         141
         137         138         143         142
         138         139         144         143
         140         141         146         145
         141         142         147         146
         142         143         148         147
         143         144         149         148
         150         151         156         155
         151         152         157         156
         152         153         158         157
         153         154         159         158
         155         156         161         160
         156         157         162         161
         157         158         163         162
         158         159         164         163
         160         161         166         165
         161         162         167         166
         162         163         168         167
         163         164         169         168
         165         166         171         170
         166         167         172         171
         167         168         173         172
         168         169         174         173
         175         176         181         180
         176         177         182         181
         177         178         183         182
         178         179         184         183
         180         181         186         185
         181         182         187         186
         182         183         188         187
         183         184         189         188
         185         186         191         190
         186         187         192         191
         187         188         193         192
         188         189         194         193
         190         191         196         195
         191         192         197         196
         192         193         198         197
         193         194         199         198
         200         201         206         205
         201         202         207         206
         202         203         208         207
         203         204         209         208
         205         206         211         210
         206         207         212         211
         207         208         213         212
         208         209         214         213
         210         211         216         215
         211         212         217         216
         212         213         218         217
         213         214         219         218
         215         216         221         220
         216         217         222         221
         217         218         223         222
         218         219         224         223
         225         226         231         230
         226         227         232         231
         227         228         233         232
         228         229         234         233
         230         231         236         235
         231         232         237         236
         232         233         238         237
         233         234         239         238
         235         236         241         240
         236         237         242         241
         237         238         243         242
         238         239         244         243
         240         241         246         245
         241         242         247         246
         242         243         248         247
         243         244         249         248
         250         251         256         255
         251         252         257         256
         252         253         258         257
         253         254         259         258
         255         256         261         260
         256         257         262         261
         257         258         263         262
         258         259         264         263
         260         261         266         265
         261         262         267         266
         262         263         268         267
         263         264         269         268
         265         266         271         270
         266         267         272         271
         267         268         273         272
         268         269         274         273
         275         276         281         280
         276         277         282         281
         277         278         283         282
         278         279         284         283
         280         281         286         285
         281         282         287         286
         282         283         288         287
         283         284         289         288
         285         286         291         290
         286         287         292         291
         287         288         293         292
         288         289         294         293
         290         291         296         295
         291         292         297         296
         292         293         298         297
         293         294         299         298
         300         301         306         305
         301         302         307         306
         302         303         308         307
         303         304         309         308
         305         306         311         310
         306         307         312         311
         307         308         313         312
         308         309         314         313
         310         311         316         315
         311         312         317         316
         312         313         318         317
         313         314         319         318
         315         316         321         320
         316         317         322         321
         317         318         323         322
         318         319         324         323
         325         326         331         330
         326         327         332         331
         327         328         333         332
         328         329         334         333
         330         331         336         335
         331         332         337         336
         332         333         338         337
         333         334         339         338
         335         336         341         340
         336         337         342         341
         337         338         343         342
         338         339         344         343
         340         341         346         345
         341         342         347         346
         342         343         348         347
         343         344         349         348
         350         351         356         355
         351         352         357         356
         352         353         358         357
         353         354         359         358
         355         356         361         360
         356         357         362         361
         357         358         363         362
         358         359         364         363
         360         361         366         365
         361         362         367         366
         362         363         368         367
         363         364         369         368
         365         366         371         370
         366         367         372         371
         367         368         373         372
         368         369         374         373
         375         376         381         380
         376         377         382         381
         377         378         383         382
         378         379         384         383
         380         381         386         385
         381         382         387         386
         382         383         388         387
         383         384         389         388
         385         386         391         390
         386         387         392         391
         387         388         393         392
         388         389         394         393
         390         391         396         395
         391         392         397         396
         392         393         398         397
         393         394         399         398
         400         401         406         405
         401         402         407         406
         402         403         408         407
         403         404         409         408
         405         406         411         410
         406         407         412         411
         407         408         413         412
         408         409         414         413
         410         411         416         415
         411         412         417         416
         412         413         418         417
         413         414         419         418
         415         416         421         420
         416         417         422         421
         417         418         423         422
         418         419         424         423
         425         426         431         430
         426         427         432         431
         427         428         433         432
         428         429         434         433
         430         431         436         435
         431         432         437         436
         432         433         438         437
         433         434         439         438
         435         436         441         440
         436         437         442         441
         437         438         443         442
         438         439         444         443
         440         441         446         445
         441         442         447         446
         442         443         448         447
         443         444         449         448
         450         451         456         455
         451         452         457         456
         452         453         458         457
         453         454         459         458
         455         456         461         460
         456         457         462         461
         457         458         463         462
         458         459         464         463
         460         461         466         465
         461         462         467         466
         462         463         468         467
         463         464         469         468
         465         466         471         470
         466         467         472         471
         467         468         473         472
         468         469         474         473
         475         476         481         480
         476         477         482         481
         477         478         483         482
         478         479         484         483
         480         481         486         485
         481         482         487         486
         482         483         488         487
         483         484         489         488
         485         486         491         490
         486         487         492         491
         487         488         493         492
         488         489         494         493
         490         491         496         495
         491         492         497         496
         492         493         498         497
         493         494         499         498
         500         501         506         505
         501         502         507         506
         502         503         508         507
         503         504         509         508
         505         506         511         510
         506         507         512         511
         507         508         513         512
         508         509         514         513
         510         511         516         515
         511         512         517         516
         512         513         518         517
         513         514         519         518
         515         516         521         520
         516         517         522         521
         517         518         523         522
         518         519         524         523
         525         526         531         530
         526         527         532         531
         527         528         533         532
         528         529         534         533
         530         531         536         535
         531         532         537         536
         532         533         538         537
         533         534         539         538
         535         536         541         540
         536         537         542         541
         537         538         543         542
         538         539         544         543
         540         541         546         545
         541         542         547         546
         542         543         548         547
         543         544         549         548
         550         551         556         555
         551         552         557         556
         552         553         558         557
         553         554         559         558
         555         556         561         560
         556         557         562         561
         557         558         563         562
         558         559         564         563
         560         561         566         565
         561         562         567         566
         562         563         568         567
         563         564         569         568
         565         566         571         570
         566         567         572         571
         567         568         573         572
         568         569         574         573
         575         576         581         580
         576         577         582         581
         577         578         583         582
         578         579         584         583
         580         581         586         585
         581         582         587         586
         582         583         588         587
         583         584         589         588
         585         586         591         590
         586         587         592         591
         587         588         593         592
         588         589         594         593
         590         591         596         595
         591         592         597         596
         592         593         598         597
         593         594         599         598
         600         601         606         605
         601         602         607         606
         602         603         608         607
         603         604         609         608
         605         606         611         610
         606         607         612         611
         607         608         613         612
         608         609         614         613
         610         611         616         615
         611         612         617         616
         612         613         618         617
         613         614         619         618
         615         616         621         620
         616         617         622         621
         617         618         623         622
         618         619         624         623
         625         626         631         630
         626         627         632         631
         627         628         633         632
         628         629         634         633
         630         631         636         635
         631         632         637         636
         632         633         638         637
         633         634         639         638
         635         636         641         640
         636         637         642         641
         637         638         643         642
         638         639         644         643
         640         641         646         645
         641         642         647         646
         642         643         648         647
         643         644         649         648
         650         651         656         655
         651         652         657         656
         652         653         658         657
         653         654         659         658
         655         656         661         660
         656         657         662         661
         657         658         663         662
         658         659         664         663
         660         661         666         665
         661         662         667         666
         662         663         668         667
         663         664         669         668
         665         666         671         670
         666         667         672         671
         667         668         673         672
         668         669         674         673
         675         676         681         680
         676         677         682         681
         677         678         683         682
         678         679         684         683
         680         681         686         685
         681         682         687         686
         682         683         688         687
         683         684         689         688
         685         686         691         690
         686         687         692         691
         687         688         693         692
         688         689         694         693
         690         691         696         695
         691         692         697         696
         692         693         698         697
         693         694         699         698
         700         701         706         705
         701         702         707         706
         702         703         708         707
         703         704         709         708
         705         706         711         710
         706         707         712         711
         707         708         713         712
         708         709         714         713
         710         711         716         715
         711         712         717         716
         712         713         718         717
         713         714         719         718
         715         716         721         720
         716         717         722         721
         717         718         723         722
         718         719         724         723
         725         726         731         730
         726         727         732         731
         727         728         733         732
         728         729         734         733
         730         731         736         735
         731         732         737         736
         732         733         738         737
         733         734         739         738
         735         736         741         740
         736         737         742         741
         737         738         743         742
         738         739         744         743
         740         741         746         745
         741         742         747         746
         742         743         748         747
         743         744         749         748
         750         751         756         755
         751         752         757         756
         752         753         758         757
         753         754         759         758
         755         756         761         760
         756         757         762         761
         757         758         763         762
         758         759         764         763
         760         761         766         765
         761         762         767         766
         762         763         768         767
         763         764         769         768
         765         766         771         770
         766         767         772         771
         767         768         773         772
         768         769         774         773
         775         776         781         780
         776         777         782         781
         777         778         783         782
         778         779         784         783
         780         781         786         785
         781         782         787         786
         782         783         788         787
         783         784         789         788
         785         786         791         790
         786         787         792         791
         787         788         793         792
         788         789         794         793
         790         791         796         795
         791         792         797         796
         792         793         798         797
         793         794         799         798
         800         801         806         805
         801         802         807         806
         802         803         808         807
         803         804         809         808
         805         806         811         810
         806         807         812         811
         807         808         813         812
         808         809         814         813
         810         811         816         815
         811         812         817         816
         812         813         818         817
         813         814         819         818
         815         816         821         820
         816         817         822         821
         817         818         823         822
         818         819         824         823
         825         826         831         830
         826         827         832         831
         827         828         833         832
         828         829         834         833
         830         831         836         835
         831         832         837         836
         832         833         838         837
         833         834         839         838
         835         836         841         840
         836         837         842         841
         837         838         843         842
         838         839         844         843
         840         841         846         845
         841         842         847         846
         842         843         848         847
         843         844         849         848
         850         851         856         855
         851         852         857         856
         852         853         858         857
         853         854         859         858
         855         856         861         860
         856         857         862         861
         857         858         863         862
         858         859         864         863
         860         861         866         865
         861         862         867         866
         862         863         868         867
         863         864         869         868
         865         866         871         870
         866         867         872         871
         867         868         873         872
         868         869         874         873
         875         876         881         880
         876         877         882         881
         877         878         883         882
         878         879         884         883
         880         881         886         885
         881         882         887         886
         882         883         888         887
         883         884         889         888
         885         886         891         890
         886         887         892         891
         887         888         893         892
         888         889         894         893
         890         891         896         895
         891         892         897         896
         892         893         898         897
         893         894         899         898
         900         901         906         905
         901         902         907         906
         902         903         908         907
         903         904         909         908
         905         906         911         910
         906         907         912         911
         907         908         913         912
         908         909         914         913
         910         911         916         915
         911         912         917         916
         912         913         918         917
         913         914         919         918
         915         916         921         920
         916         917         922         921
         917         918         923         922
         918         919         924         923
         925         926         931         930
         926         927         932         931
         927         928         933         932
         928         929         934         933
         930         931         936         935
         931         932         937         936
         932         933         938         937
         933         934         939         938
         935         936         941         940
         936         937         942         941
         937         938         943         942
         938         939         944         943
         940         941         946         945
         941         942         947         946
         942         943         948         947
         943         944         949         948
         950         951         956         955
         951         952         957         956
         952         953         958         957
         953         954         959         958
         955         956         961         960
         956         957         962         961
         957         958         963         962
         958         959         964         963
         960         961         966         965
         961         962         967         966
         962         963         968         967
         963         964         969         968
         965         966         971         970
         966         967         972         971
         967         968         973         972
         968         969         974         973
         975         976         981         980
         976         977         982         981
         977         978         983         982
         978         979         984         983
         980         981         986         985
         981         982         987         986
         982         983         988         987
         983         984         989         988
         985         986         991         990
         986         987         992         991
         987         988         993         992
         988         989         994         993
         990         991         996         995
         991         992         997         996
         992         993         998         997
         993         994         999         998
        1000        1001        1006        1005
        1001        1002        1007        1006
        1002        1003        1008        1007
        1003        1004        1009        1008
        1005        1006        1011        1010
        1006        1007        1012        1011
        1007        1008        1013        1012
        1008        1009        1014        1013
        1010        1011        1016        1015
        1011        1012        1017        1016
        1012        1013        1018        1017
        1013        1014        1019        1018
        1015        1016        1021        1020
        1016        1017        1022        1021
        1017        1018        1023        1022
        1018        1019        1024        1023
        1025        1026        1031        1030
        1026        1027        1032        1031
        1027        1028        1033        1032
        1028        1029        1034        1033
        1030        1031        1036        1035
        1031        1032        1037        1036
        1032        1033        1038        1037
        1033        1034        1039        1038
        1035        1036        1041        1040
        1036        1037        1042        1041
        1037        1038        1043        1042
        1038        1039        1044        1043
        1040        1041        1046        1045
        1041        1042        1047        1046
        1042        1043        1048        1047
        1043        1044        1049        1048
        1050        1051        1056        1055
        1051        1052        1057        1056
        1052        1053        1058        1057
        1053        1054        1059        1058
        1055        1056        1061        1060
        1056        1057        1062        1061
        1057        1058        1063        1062
        1058        1059        1064        1063
        1060        1061        1066        1065
        1061        1062        1067        1066
        1062        1063        1068        1067
        1063        1064        1069        1068
        1065        1066        1071        1070
        1066        1067        1072        1071
        1067        1068        1073        1072
        1068        1069        1074        1073
        1075        1076        1081        1080
        1076        1077        1082        1081
        1077        1078        1083        1082
        1078        1079        1084        1083
        1080        1081        1086        1085
        1081        1082        1087        1086
        1082        1083        1088        1087
        1083        1084        1089        1088
        1085        1086        1091        1090
        1086        1087        1092        1091
        1087        1088        1093        1092
        1088        1089        1094        1093
        1090        1091        1096        1095
        1091        1092        1097        1096
        1092        1093        1098        1097
        1093        1094        1099        1098
        1100        1101        1106        1105
        1101        1102        1107        1106
        1102        1103        1108        1107
        1103        1104        1109        1108
        1105        1106        1111        1110
        1106        1107        1112        1111
        1107        1108        1113        1112
        1108        1109        1114        1113
        1110        1111        1116        1115
        1111        1112        1117        1116
        1112        1113        1118        1117
        1113        1114        1119        1118
        1115        1116        1121        1120
        1116        1117        1122        1121
        1117        1118        1123        1122
        1118        1119        1124        1123
        1125        1126        1131        1130
        1126        1127        1132        1131
        1127        1128        1133        1132
        1128        1129        1134        1133
        1130        1131        1136        1135
        1131        1132        1137        1136
        1132        1133        1138        1137
        1133        1134        1139        1138
        1135        1136        1141        1140
        1136        1137        1142        1141
        1137        1138        1143        1142
        1138        1139        1144        1143
        1140        1141        1146        1145
        1141        1142        1147        1146
        1142        1143        1148        1147
        1143        1144        1149        1148
        1150        1151        1156        1155
        1151        1152        1157        1156
        1152        1153        1158        1157
        1153        1154        1159        1158
        1155        1156        1161        1160
        1156        1157        1162        1161
        1157        1158        1163        1162
        1158        1159        1164        1163
        1160        1161        1166        1165
        1161        1162        1167        1166
        1162        1163        1168        1167
        1163        1164        1169        1168
        1165        1166        1171        1170
        1166        1167        1172        1171
        1167        1168        1173        1172
        1168        1169        1174        1173
        1175        1176        1181        1180
        1176        1177        1182        1181
        1177        1178        1183        1182
        1178        1179        1184        1183
        1180        1181        1186        1185
        1181        1182        1187        1186
        1182        1183        1188        1187
        1183        1184        1189        1188
        1185        1186        1191        1190
        1186        1187        1192        1191
        1187        1188        1193        1192
        1188        1189        1194        1193
        1190        1191        1196        1195
        1191        1192        1197        1196
        1192        1193        1198        1197
        1193        1194        1199        1198
        1200        1201        1206        1205
        1201        1202        1207        1206
        1202        1203        1208        1207
        1203        1204        1209        1208
        1205        1206        1211        1210
        1206        1207        1212        1211
        1207        1208        1213        1212
        1208        1209        1214        1213
        1210        1211        1216        1215
        1211        1212        1217        1216
        1212        1213        1218        1217
        1213        1214        1219        1218
        1215        1216        1221        1220
        1216        1217        1222        1221
        1217        1218        1223        1222
        1218        1219        1224        1223
        1225        1226        1231        1230
        1226        1227        1232        1231
        1227        1228        1233        1232
        1228        1229        1234        1233
        1230        1231        1236        1235
        1231        1232        1237        1236
        1232        1233        1238        1237
        1233        1234        1239        1238
        1235        1236        1241        1240
        1236        1237        1242        1241
        1237        1238        1243        1242
        1238        1239        1244        1243
        1240        1241        1246        1245
        1241        1242        1247        1246
        1242        1243        1248        1247
        1243        1244        1249        1248
        1250        1251        1256        1255
        1251        1252        1257        1256
        1252        1253        1258        1257
        1253        1254        1259        1258
        1255        1256        1261        1260
        1256        1257        1262        1261
        1257        1258        1263        1262
        1258        1259        1264        1263
        1260        1261        1266        1265
        1261        1262        1267        1266
        1262        1263        1268        1267
        1263        1264        1269        1268
        1265        1266        1271        1270
        1266        1267        1272        1271
        1267        1268        1273        1272
        1268        1269        1274        1273
        1275        1276        1281        1280
        1276        1277        1282        1281
        1277        1278        1283        1282
        1278        1279        1284        1283
        1280        1281        1286        1285
        1281        1282        1287        1286
        1282        1283        1288        1287
        1283        1284        1289        1288
        1285        1286        1291        1290
        1286        1287        1292        1291
        1287        1288        1293        1292
        1288        1289        1294        1293
        1290        1291        1296        1295
        1291        1292        1297        1296
        1292        1293        1298        1297
        1293        1294        1299        1298
        1300        1301        1306        1305
        1301        1302        1307        1306
        1302        1303        1308        1307
        1303        1304        1309        1308
        1305        1306        1311        1310
        1306        1307        1312        1311
        1307        1308        1313        1312
        1308        1309        1314        1313
        1310        1311        1316        1315
        1311        1312        1317        1316
        1312        1313        1318        1317
        1313        1314        1319        1318
        1315        1316        1321        1320
        1316        1317        1322        1321
        1317        1318        1323        1322
        1318        1319        1324        1323
        1325        1326        1331        1330
        1326        1327        1332        1331
        1327        1328        1333        1332
        1328        1329        1334        1333
        1330        1331        1336        1335
        1331        1332        1337        1336
        1332        1333        1338        1337
        1333        1334        1339        1338
        1335        1336        1341        1340
        1336        1337        1342        1341
        1337        1338        1343        1342
        1338        1339        1344        1343
        1340        1341        1346        1345
        1341        1342        1347        1346
        1342        1343        1348        1347
        1343        1344        1349        1348
        1350        1351        1356        1355
        1351        1352        1357        1356
        1352        1353        1358        1357
        1353        1354        1359        1358
        1355        1356        1361        1360
        1356        1357        1362        1361
        1357        1358        1363        1362
        1358        1359        1364        1363
        1360        1361        1366        1365
        1361        1362        1367        1366
        1362        1363        1368        1367
        1363        1364        1369        1368
        1365        1366        1371        1370
        1366        1367        1372        1371
        1367        1368        1373        1372
        1368        1369        1374        1373
        1375        1376        1381        1380
        1376        1377        1382        1381
        1377        1378        1383        1382
        1378        1379        1384        1383
        1380        1381        1386        1385
        1381        1382        1387        1386
        1382        1383        1388        1387
        1383        1384        1389        1388
        1385        1386        1391        1390
        1386        1387        1392        1391
        1387        1388        1393        1392
        1388        1389        1394        1393
        1390        1391        1396        1395
        1391        1392        1397        1396
        1392        1393        1398        1397
        1393        1394        1399        1398
        1400        1401        1406        1405
        1401        1402        1407        1406
        1402        1403        1408        1407
        1403        1404        1409        1408
        1405        1406        1411        1410
        1406        1407        1412        1411
        1407        1408        1413        1412
        1408        1409        1414        1413
        1410        1411        1416        1415
        1411        1412        1417        1416
        1412        1413        1418        1417
        1413        1414        1419        1418
        1415        1416        1421        1420
        1416        1417        1422        1421
        1417        1418        1423        1422
        1418        1419        1424        1423
        1425        1426        1431        1430
        1426        1427        1432        1431
        1427        1428        1433        1432
        1428        1429        1434        1433
        1430        1431        1436        1435
        1431        1432        1437        1436
        1432        1433        1438        1437
        1433        1434        1439        1438
        1435        1436        1441        1440
        1436        1437        1442        1441
        1437        1438        1443        1442
        1438        1439        1444        1443
        1440        1441        1446        1445
        1441        1442        1447        1446
        1442        1443        1448        1447
        1443        1444        1449        1448
        1450        1451        1456        1455
        1451        1452        1457        1456
        1452        1453        1458        1457
        1453        1454        1459        1458
        1455        1456        1461        1460
        1456        1457        1462        1461
        1457        1458        1463        1462
        1458        1459        1464        1463
        1460        1461        1466        1465
        1461        1462        1467        1466
        1462        1463        1468        1467
        1463        1464        1469        1468
        1465        1466        1471        1470
        1466        1467        1472        1471
        1467        1468        1473        1472
        1468        1469        1474        1473
        1475        1476        1481        1480
        1476        1477        1482        1481
        1477        1478        1483        1482
        1478        1479        1484        1483
        1480        1481        1486        1485
        1481        1482        1487        1486
        1482        1483        1488        1487
        1483        1484        1489        1488
        1485        1486        1491        1490
        1486        1487        1492        1491
        1487        1488        1493        1492
        1488        1489        1494        1493
        1490        1491        1496        1495
        1491        1492        1497        1496
        1492        1493        1498        1497
        1493        1494        1499        1498
        1500        1501        1506        1505
        1501        1502        1507        1506
        1502        1503        1508        1507
        1503        1504        1509        1508
        1505        1506        1511        1510
        1506        1507        1512        1511
        1507        1508        1513        1512
        1508        1509        1514        1513
        1510        1511        1516        1515
        1511        1512        1517        1516
        1512        1513        1518        1517
        1513        1514        1519        1518
        1515        1516        1521        1520
        1516        1517        1522        1521
        1517        1518        1523        1522
        1518        1519        1524        1523
        1525        1526        1531        1530
        1526        1527        1532        1531
        1527        1528        1533        1532
        1528        1529        1534        1533
        1530        1531        1536        1535
        1531        1532        1537        1536
        1532        1533        1538        1537
        1533        1534        1539        1538
        1535        1536        1541        1540
        1536        1537        1542        1541
        1537        1538        1543        1542
        1538        1539        1544        1543
        1540        1541        1546        1545
        1541        1542        1547        1546
        1542        1543        1548        1547
        1543        1544        1549        1548
        1550        1551        1556        1555
        1551        1552        1557        1556
        1552        1553        1558        1557
        1553        1554        1559        1558
        1555        1556        1561        1560
        1556        1557        1562        1561
        1557        1558        1563        1562
        1558        1559        1564        1563
        1560        1561        1566        1565
        1561        1562        1567        1566
        1562        1563        1568        1567
        1563        1564        1569        1568
        1565        1566        1571        1570
        1566        1567        1572        1571
        1567        1568        1573        1572
        1568        1569        1574        1573
        1575        1576        1581        1580
        1576        1577        1582        1581
        1577        1578        1583        1582
        1578        1579        1584        1583
        1580        1581        1586        1585
        1581        1582        1587        1586
        1582        1583        1588        1587
        1583        1584        1589        1588
        1585        1586        1591        1590
        1586        1587        1592        1591
        1587        1588        1593        1592
        1588        1589        1594        1593
        1590        1591        1596        1595
        1591        1592        1597        1596
        1592        1593        1598        1597
        1593        1594        1599        1598
 </DataArray>
 <DataArray  type="Int32"  Name="offsets"  format="ascii"> 
           4
           8
          12
          16
          20
          24
          28
          32
          36
          40
          44
          48
          52
          56
          60
          64
          68
          72
          76
          80
          84
          88
          92
          96
         100
         104
         108
         112
         116
         120
         124
         128
         132
         136
         140
         144
         148
         152
         156
         160
         164
         168
         172
         176
         180
         184
         188
         192
         196
         200
         204
         208
         212
         216
         220
         224
         228
         232
         236
         240
         244
         248
         252
         256
         260
         264
         268
         272
         276
         280
         284
         288
         292
         296
         300
         304
         308
         312
         316
         320
         324
         328
         332
         336
         340
         344
         348
         352
         356
         360
         364
         368
         372
         376
         380
         384
         388
         392
         396
         400
         404
         408
         412
         416
         420
         424
         428
         432
         436
         440
         444
         448
         452
         456
         460
         464
         468
         472
         476
         480
         484
         488
         492
         496
         500
         504
         508
         512
         516
         520
         524
         528
         532
         536
         540
         544
         548
         552
         556
         560
         564
         568
         572
         576
         580
         584
         588
         592
         596
         600
         604
         608
         612
         616
         620
         624
         628
         632
         636
         640
         644
         648
         652
         656
         660
         664
         668
         672
         676
         680
         684
         688
         692
         696
         700
         704
         708
         712
         716
         720
         724
         728
         732
         736
         740
         744
         748
         752
         756
         760
         764
         768
         772
         776
         780
         784
         788
         792
         796
         800
         804
         808
         812
         816
         820
         824
         828
         832
         836
         840
         844
         848
         852
         856
         860
         864
         868
         872
         876
         880
         884
         888
         892
         896
         900
         904
         908
         912
         916
         920
         924
         928
         932
         936
         940
         944
         948
         952
         956
         960
         964
         968
         972
         976
         980
         984
         988
         992
         996
        1000
        1004
        1008
        1012
        1016
        1020
        1024
        1028
        1032
        1036
        1040
        1044
        1048
        1052
        1056
        1060
        1064
        1068
        1072
        1076
        1080
        1084
        1088
        1092
        1096
        1100
        1104
        1108
        1112
        1116
        1120
        1124
        1128
        1132
        1136
        1140
        1144
        1148
        1152
        1156
        1160
        1164
        1168
        1172
        1176
        1180
        1184
        1188
        1192
        1196
        1200
        1204
        1208
        1212
        1216
        1220
        1224
        1228
        1232
        1236
        1240
        1244
        1248
        1252
        1256
        1260
        1264
        1268
        1272
        1276
        1280
        1284
        1288
        1292
        1296
        1300
        1304
        1308
        1312
        1316
        1320
        1324
        1328
        1332
        1336
        1340
        1344
        1348
        1352
        1356
        1360
        1364
        1368
        1372
        1376
        1380
        1384
        1388
        1392
        1396
        1400
        1404
        1408
        1412
        1416
        1420
        1424
        1428
        1432
        1436
        1440
        1444
        1448
        1452
        1456
        1460
        1464
        1468
        1472
        1476
        1480
        1484
        1488
        1492
        1496
        1500
        1504
        1508
        1512
        1516
        1520
        1524
        1528
        1532
        1536
        1540
        1544
        1548
        1552
        1556
        1560
        1564
        1568
        1572
        1576
        1580
        1584
        1588
        1592
        1596
        1600
        1604
        1608
        1612
        1616
        1620
        1624
        1628
        1632
        1636
        1640
        1644
        1648
        1652
        1656
        1660
        1664
        1668
        1672
        1676
        1680
        1684
        1688
        1692
        1696
        1700
        1704
        1708
        1712
        1716
        1720
        1724
        1728
        1732
        1736
        1740
        1744
        1748
        1752
        1756
        1760
        1764
        1768
        1772
        1776
        1780
        1784
        1788
        1792
        1796
        1800
        1804
        1808
        1812
        1816
        1820
        1824
        1828
        1832
        1836
        1840
        1844
        1848
        1852
        1856
        1860
        1864
        1868
        1872
        1876
        1880
        1884
        1888
        1892
        1896
        1900
        1904
        1908
        1912
        1916
        1920
        1924
        1928
        1932
        1936
        1940
        1944
        1948
        1952
        1956
        1960
        1964
        1968
        1972
        1976
        1980
        1984
        1988
        1992
        1996
        2000
        2004
        2008
        2012
        2016
        2020
        2024
        2028
        2032
        2036
        2040
        2044
        2048
        2052
        2056
        2060
        2064
        2068
        2072
        2076
        2080
        2084
        2088
        2092
        2096
        2100
        2104
        2108
        2112
        2116
        2120
        2124
        2128
        2132
        2136
        2140
        2144
        2148
        2152
        2156
        2160
        2164
        2168
        2172
        2176
        2180
        2184
        2188
        2192
        2196
        2200
        2204
        2208
        2212
        2216
        2220
        2224
        2228
        2232
        2236
        2240
        2244
        2248
        2252
        2256
        2260
        2264
        2268
        2272
        2276
        2280
        2284
        2288
        2292
        2296
        2300
        2304
        2308
        2312
        2316
        2320
        2324
        2328
        2332
        2336
        2340
        2344
        2348
        2352
        2356
        2360
        2364
        2368
        2372
        2376
        2380
        2384
        2388
        2392
        2396
        2400
        2404
        2408
        2412
        2416
        2420
        2424
        2428
        2432
        2436
        2440
        2444
        2448
        2452
        2456
        2460
        2464
        2468
        2472
        2476
        2480
        2484
        2488
        2492
        2496
        2500
        2504
        2508
        2512
        2516
        2520
        2524
        2528
        2532
        2536
        2540
        2544
        2548
        2552
        2556
        2560
        2564
        2568
        2572
        2576
        2580
        2584
        2588
        2592
        2596
        2600
        2604
        2608
        2612
        2616
        2620
        2624
        2628
        2632
        2636
        2640
        2644
        2648
        2652
        2656
        2660
        2664
        2668
        2672
        2676
        2680
        2684
        2688
        2692
        2696
        2700
        2704
        2708
        2712
        2716
        2720
        2724
        2728
        2732
        2736
        2740
        2744
        2748
        2752
        2756
        2760
        2764
        2768
        2772
        2776
        2780
        2784
        2788
        2792
        2796
        2800
        2804
        2808
        2812
        2816
        2820
        2824
        2828
        2832
        2836
        2840
        2844
        2848
        2852
        2856
        2860
        2864
        2868
        2872
        2876
        2880
        2884
        2888
        2892
        2896
        2900
        2904
        2908
        2912
        2916
        2920
        2924
        2928
        2932
        2936
        2940
        2944
        2948
        2952
        2956
        2960
        2964
        2968
        2972
        2976
        2980
        2984
        2988
        2992
        2996
        3000
        3004
        3008
        3012
        3016
        3020
        3024
        3028
        3032
        3036
        3040
        3044
        3048
        3052
        3056
        3060
        3064
        3068
        3072
        3076
        3080
        3084
        3088
        3092
        3096
        3100
        3104
        3108
        3112
        3116
        3120
        3124
        3128
        3132
        3136
        3140
        3144
        3148
        3152
        3156
        3160
        3164
        3168
        3172
        3176
        3180
        3184
        3188
        3192
        3196
        3200
        3204
        3208
        3212
        3216
        3220
        3224
        3228
        3232
        3236
        3240
        3244
        3248
        3252
        3256
        3260
        3264
        3268
        3272
        3276
        3280
        3284
        3288
        3292
        3296
        3300
        3304
        3308
        3312
        3316
        3320
        3324
        3328
        3332
        3336
        3340
        3344
        3348
        3352
        3356
        3360
        3364
        3368
        3372
        3376
        3380
        3384
        3388
        3392
        3396
        3400
        3404
        3408
        3412
        3416
        3420
        3424
        3428
        3432
        3436
        3440
        3444
        3448
        3452
        3456
        3460
        3464
        3468
        3472
        3476
        3480
        3484
        3488
        3492
        3496
        3500
        3504
        3508
        3512
        3516
        3520
        3524
        3528
        3532
        3536
        3540
        3544
        3548
        3552
        3556
        3560
        3564
        3568
        3572
        3576
        3580
        3584
        3588
        3592
        3596
        3600
        3604
        3608
        3612
        3616
        3620
        3624
        3628
        3632
        3636
        3640
        3644
        3648
        3652
        3656
        3660
        3664
        3668
        3672
        3676
        3680
        3684
        3688
        3692
        3696
        3700
        3704
        3708
        3712
        3716
        3720
        3724
        3728
        3732
        3736
        3740
        3744
        3748
        3752
        3756
        3760
        3764
        3768
        3772
        3776
        3780
        3784
        3788
        3792
        3796
        3800
        3804
        3808
        3812
        3816
        3820
        3824
        3828
        3832
        3836
        3840
        3844
        3848
        3852
        3856
        3860
        3864
        3868
        3872
        3876
        3880
        3884
        3888
        3892
        3896
        3900
        3904
        3908
        3912
        3916
        3920
        3924
        3928
        3932
        3936
        3940
        3944
        3948
        3952
        3956
        3960
        3964
        3968
        3972
        3976
        3980
        3984
        3988
        3992
        3996
        4000
        4004
        4008
        4012
        4016
        4020
        4024
        4028
        4032
        4036
        4040
        4044
        4048
        4052
        4056
        4060
        4064
        4068
        4072
        4076
        4080
        4084
        4088
        4092
        4096
 </DataArray>
 <DataArray  type="UInt8"  Name="types"  format="ascii">
 9
 9
 9
 9
 9
 9
 9
 9
 9
 9
 9
 9
 9
 9
 9
 9
 9
 9
 9
 9
 9
 9
 9
 9
 9
 9
 9
 9
 9
 9
 9
 9
 9
 9
 9
 9
 9
 9
 9
 9
 9
 9
 9
 9
 9
 9
 9
 9
 9
 9
 9
 9
 9
 9
 9
 9
 9
 9
 9
 9
 9
 9
 9
 9
 9
 9
 9
 9
 9
 9
 9
 9
 9
 9
 9
 9
 9
 9
 9
 9
 9
 9
 9
 9
 9
 9
 9
 9
 9
 9
 9
 9
 9
 9
 9
 9
 9
 9
 9
 9
 9
 9
 9
 9
 9
 9
 9
 9
 9
 9
 9
 9
 9
 9
 9
 9
 9
 9
 9
 9
 9
 9
 9
 9
 9
 9
 9
 9
 9
 9
 9
 9
 9
 9
 9
 9
 9
 9
 9
 9
 9
 9
 9
 9
 9
 9
 9
 9
 9
 9
 9
 9
 9
 9
 9
 9
 9
 9
 9
 9
 9
 9
 9
 9
 9
 9
 9
 9
 9
 9
 9
 9
 9
 9
 9
 9
 9
 9
 9
 9
 9
 9
 9
 9
 9
 9
 9
 9
 9
 9
 9
 9
 9
 9
 9
 9
 9
 9
 9
 9
 9
 9
 9
 9
 9
 9
 9
 9
 9
 9
 9
 9
 9
 9
 9
 9
 9
 9
 9
 9
 9
 9
 9
 9
 9
 9
 9
 9
 9
 9
 9
 9
 9
 9
 9
 9
 9
 9
 9
 9
 9
 9
 9
 9
 9
 9
 9
 9
 9
 9
 9
 9
 9
 9
 9
 9
 9
 9
 9
 9
 9
 9
 9
 9
 9
 9
 9
 9
 9
 9
 9
 9
 9
 9
 9
 9
 9
 9
 9
 9
 9
 9
 9
 9
 9
 9
 9
 9
 9
 9
 9
 9
 9
 9
 9
 9
 9
 9
 9
 9
 9
 9
 9
 9
 9
 9
 9
 9
 9
 9
 9
 9
 9
 9
 9
 9
 9
 9
 9
 9
 9
 9
 9
 9
 9
 9
 9
 9
 9
 9
 9
 9
 9
 9
 9
 9
 9
 9
 9
 9
 9
 9
 9
 9
 9
 9
 9
 9
 9
 9
 9
 9
 9
 9
 9
 9
 9
 9
 9
 9
 9
 9
 9
 9
 9
 9
 9
 9
 9
 9
 9
 9
 9
 9
 9
 9
 9
 9
 9
 9
 9
 9
 9
 9
 9
 9
 9
 9
 9
 9
 9
 9
 9
 9
 9
 9
 9
 9
 9
 9
 9
 9
 9
 9
 9
 9
 9
 9
 9
 9
 9
 9
 9
 9
 9
 9
 9
 9
 9
 9
 9
 9
 9
 9
 9
 9
 9
 9
 9
 9
 9
 9
 9
 9
 9
 9
 9
 9
 9
 9
 9
 9
 9
 9
 9
 9
 9
 9
 9
 9
 9
 9
 9
 9
 9
 9
 9
 9
 9
 9
 9
 9
 9
 9
 9
 9
 9
 9
 9
 9
 9
 9
 9
 9
 9
 9
 9
 9
 9
 9
 9
 9
 9
 9
 9
 9
 9
 9
 9
 9
 9
 9
 9
 9
 9
 9
 9
 9
 9
 9
 9
 9
 9
 9
 9
 9
 9
 9
 9
 9
 9
 9
 9
 9
 9
 9
 9
 9
 9
 9
 9
 9
 9
 9
 9
 9
 9
 9
 9
 9
 9
 9
 9
 9
 9
 9
 9
 9
 9
 9
 9
 9
 9
 9
 9
 9
 9
 9
 9
 9
 9
 9
 9
 9
 9
 9
 9
 9
 9
 9
 9
 9
 9
 9
 9
 9
 9
 9
 9
 9
 9
 9
 9
 9
 9
 9
 9
 9
 9
 9
 9
 9
 9
 9
 9
 9
 9
 9
 9
 9
 9
 9
 9
 9
 9
 9
 9
 9
 9
 9
 9
 9
 9
 9
 9
 9
 9
 9
 9
 9
 9
 9
 9
 9
 9
 9
 9
 9
 9
 9
 9
 9
 9
 9
 9
 9
 9
 9
 9
 9
 9
 9
 9
 9
 9
 9
 9
 9
 9
 9
 9
 9
 9
 9
 9
 9
 9
 9
 9
 9
 9
 9
 9
 9
 9
 9
 9
 9
 9
 9
 9
 9
 9
 9
 9
 9
 9
 9
 9
 9
 9
 9
 9
 9
 9
 9
 9
 9
 9
 9
 9
 9
 9
 9
 9
 9
 9
 9
 9
 9
 9
 9
 9
 9
 9
 9
 9
 9
 9
 9
 9
 9
 9
 9
 9
 9
 9
 9
 9
 9
 9
 9
 9
 9
 9
 9
 9
 9
 9
 9
 9
 9
 9
 9
 9
 9
 9
 9
 9
 9
 9
 9
 9
 9
 9
 9
 9
 9
 9
 9
 9
 9
 9
 9
 9
 9
 9
 9
 9
 9
 9
 9
 9
 9
 9
 9
 9
 9
 9
 9
 9
 9
 9
 9
 9
 9
 9
 9
 9
 9
 9
 9
 9
 9
 9
 9
 9
 9
 9
 9
 9
 9
 9
 9
 9
 9
 9
 9
 9
 9
 9
 9
 9
 9
 9
 9
 9
 9
 9
 9
 9
 9
 9
 9
 9
 9
 9
 9
 9
 9
 9
 9
 9
 9
 9
 9
 9
 9
 9
 9
 9
 9
 9
 9
 9
 9
 9
 9
 9
 9
 9
 9
 9
 9
 9
 9
 9
 9
 9
 9
 9
 9
 9
 9
 9
 9
 9
 9
 9
 9
 9
 9
 9
 9
 9
 9
 9
 9
 9
 9
 9
 9
 9
 9
 9
 9
 9
 9
 9
 9
 9
 9
 9
 9
 9
 9
 9
 9
 9
 9
 9
 9
 9
 9
 9
 9
 9
 9
 9
 9
 9
 9
 9
 9
 9
 9
 9
 9
 9
 9
 9
 9
 9
 9
 9
 9
 9
 9
 9
 9
 9
 9
 9
 9
 9
 9
 9
 9
 9
 9
 9
 9
 9
 9
 9
 9
 9
 9
 9
 9
 9
 9
 9
 9
 9
 9
 9
 9
 9
 9
 9
 9
 9
 9
 9
 9
 9
 9
 9
 9
 9
 9
 9
 9
 9
 9
 9
 9
 9
 9
 9
 9
 9
 9
 9
 9
 9
 9
 9
 9
 9
 9
 9
 9
 9
 9
 9
 9
 9
 9
 9
 9
 9
 9
 9
 9
 9
 9
 9
 9
 9
 9
 9
 9
 9
 9
 9
 9
 9
 9
 9
 9
 9
 9
 9
 9
 9
 9
 9
 9
 9
 9
 9
 9
 9
 9
 9
 9
 9
 9
 9
 9
 9
 9
 </DataArray>
 </Cells> 
 <PointData>
 <DataArray  type="Float64" Name="disp" NumberOfComponents="3" format="ascii">
   0.0000000000000000        0.0000000000000000        0.0000000000000000     
   6.0960369151283611E-003   3.7905602101464147E-003   0.0000000000000000     
   1.1666145880566130E-002   7.3239816712584119E-003   0.0000000000000000     
   1.6710326896313302E-002   1.0600264383335993E-002   0.0000000000000000     
   2.1228579962369883E-002   1.3619408346379156E-002   0.0000000000000000     
   0.0000000000000000        0.0000000000000000        0.0000000000000000     
   4.8912648861604265E-003   3.0220628871176925E-003   0.0000000000000000     
   9.5738005285619550E-003   6.0604372384269623E-003   0.0000000000000000     
   1.4047606927204588E-002   9.1151230539278094E-003   0.0000000000000000     
   1.8312684082088321E-002   1.2186120333620234E-002   0.0000000000000000     
   0.0000000000000000        0.0000000000000000        0.0000000000000000     
   3.9536828586115213E-003   2.4249243502974158E-003   0.0000000000000000     
   7.9107733000691113E-003   5.0626739493736285E-003   0.0000000000000000     
   1.1871271324372773E-002   7.9132487972286367E-003   0.0000000000000000     
   1.5835176931522501E-002   1.0976648893862444E-002   0.0000000000000000     
   0.0000000000000000        0.0000000000000000        0.0000000000000000     
   3.2832908324816465E-003   1.9991445996855851E-003   0.0000000000000000     
   6.6770641950875979E-003   4.3306918040984105E-003   0.0000000000000000     
   1.0181320087817856E-002   6.9946416132384767E-003   0.0000000000000000     
   1.3796058510672421E-002   9.9909940271057825E-003   0.0000000000000000     
   0.0000000000000000        0.0000000000000000        0.0000000000000000     
   2.8800888077708019E-003   1.7447236352822004E-003   0.0000000000000000     
   5.8726732136174156E-003   3.8644908026013091E-003   0.0000000000000000     
   8.9777532175398418E-003   6.3593015019573259E-003   0.0000000000000000     
   1.2195328819538080E-002   9.2291557333502514E-003   0.0000000000000000     
   2.1228579962369883E-002   1.3619408346379156E-002   0.0000000000000000     
   2.5433724430090825E-002   1.6612186360261971E-002   0.0000000000000000     
   2.9538579650831082E-002   1.9809371224858506E-002   0.0000000000000000     
   3.3543145624590653E-002   2.3210962940168760E-002   0.0000000000000000     
   3.7447422351369539E-002   2.6816961506192741E-002   0.0000000000000000     
   1.8312684082088321E-002   1.2186120333620234E-002   0.0000000000000000     
   2.2407322730489287E-002   1.5341663442102318E-002   0.0000000000000000     
   2.6369813609683608E-002   1.8649986743972138E-002   0.0000000000000000     
   3.0200156719671287E-002   2.2111090239229698E-002   0.0000000000000000     
   3.3898352060452323E-002   2.5724973927874990E-002   0.0000000000000000     
   1.5835176931522501E-002   1.0976648893862444E-002   0.0000000000000000     
   1.9730852599408807E-002   1.4211427866443232E-002   0.0000000000000000     
   2.3486660805922203E-002   1.7576139342139190E-002   0.0000000000000000     
   2.7102601551062686E-002   2.1070783320950318E-002   0.0000000000000000     
   3.0578674834830250E-002   2.4695359802876612E-002   0.0000000000000000     
   1.3796058510672421E-002   9.9909940271057825E-003   0.0000000000000000     
   1.7404314036849392E-002   1.3221479633284716E-002   0.0000000000000000     
   2.0889121239546869E-002   1.6587829019359668E-002   0.0000000000000000     
   2.4250480118764850E-002   2.0090042185330632E-002   0.0000000000000000     
   2.7488390674503333E-002   2.3728119131197607E-002   0.0000000000000000     
   1.2195328819538080E-002   9.2291557333502514E-003   0.0000000000000000     
   1.5427707042811033E-002   1.2371818742626771E-002   0.0000000000000000     
   1.8577194910557596E-002   1.5685055775633564E-002   0.0000000000000000     
   2.1643792422777770E-002   1.9168866832370637E-002   0.0000000000000000     
   2.4627499579471562E-002   2.2823251912837988E-002   0.0000000000000000     
   3.7447422351369539E-002   2.6816961506192741E-002   0.0000000000000000     
   4.1256214732244390E-002   3.0622358548190044E-002   0.0000000000000000     
   4.4974327668291833E-002   3.4622145691420268E-002   0.0000000000000000     
   4.8601761159511876E-002   3.8816322935883420E-002   0.0000000000000000     
   5.2138515205904512E-002   4.3204890281579492E-002   0.0000000000000000     
   3.3898352060452323E-002   2.5724973927874990E-002   0.0000000000000000     
   3.7487495625721533E-002   2.9520794988539895E-002   0.0000000000000000     
   4.0990683409173716E-002   3.3527710599856292E-002   0.0000000000000000     
   4.4407915410808907E-002   3.7745720761824184E-002   0.0000000000000000     
   4.7739191630627065E-002   4.2174825474443546E-002   0.0000000000000000     
   3.0578674834830250E-002   2.4695359802876612E-002   0.0000000000000000     
   3.3943938533836433E-002   2.8495120804181158E-002   0.0000000000000000     
   3.7227450524692771E-002   3.2515318341127038E-002   0.0000000000000000     
   4.0429210807399252E-002   3.6755952413714245E-002   0.0000000000000000     
   4.3549219381955884E-002   4.1217023021942786E-002   0.0000000000000000     
   2.7488390674503333E-002   2.3728119131197607E-002   0.0000000000000000     
   3.0625543456589108E-002   2.7545335995113832E-002   0.0000000000000000     
   3.3684629014848970E-002   3.1584968915232506E-002   0.0000000000000000     
   3.6665647349282918E-002   3.5847017891553638E-002   0.0000000000000000     
   3.9568598459890948E-002   4.0331482924077226E-002   0.0000000000000000     
   2.4627499579471562E-002   2.2823251912837988E-002   0.0000000000000000     
   2.7532310393979551E-002   2.6671440561337904E-002   0.0000000000000000     
   3.0362218879642338E-002   3.0736662322172693E-002   0.0000000000000000     
   3.3117225036459912E-002   3.5018917195342343E-002   0.0000000000000000     
   3.5797328864432279E-002   3.9518205180846852E-002   0.0000000000000000     
   5.2138515205904512E-002   4.3204890281579492E-002   0.0000000000000000     
   5.5579755823749577E-002   4.7793824244779022E-002   0.0000000000000000     
   5.8920649029326866E-002   5.2589101341752514E-002   0.0000000000000000     
   6.2161194822636386E-002   5.7590721572499989E-002   0.0000000000000000     
   6.5301393203678143E-002   6.2798684937021426E-002   0.0000000000000000     
   4.7739191630627065E-002   4.2174825474443546E-002   0.0000000000000000     
   5.0980153546382113E-002   4.6808204589687957E-002   0.0000000000000000     
   5.4126442635827901E-002   5.1639037959530967E-002   0.0000000000000000     
   5.7178058898964428E-002   5.6667325583972583E-002   0.0000000000000000     
   6.0135002335791728E-002   6.1893067463012791E-002   0.0000000000000000     
   4.3549219381955884E-002   4.1217023021942786E-002   0.0000000000000000     
   4.6584182611539994E-002   4.5884665119158841E-002   0.0000000000000000     
   4.9530806859328903E-002   5.0745013658708593E-002   0.0000000000000000     
   5.2389092125322619E-002   5.5798068640592030E-002   0.0000000000000000     
   5.5159038409521140E-002   6.1043830064809158E-002   0.0000000000000000     
   3.9568598459890948E-002   4.0331482924077226E-002   0.0000000000000000     
   4.2391843019223219E-002   4.5023205833191672E-002   0.0000000000000000     
   4.5133741699829887E-002   4.9907028439285357E-002   0.0000000000000000     
   4.7794294501710952E-002   5.4982950742358323E-002   0.0000000000000000     
   5.0373501424866400E-002   6.0250972742410529E-002   0.0000000000000000     
   3.5797328864432279E-002   3.9518205180846852E-002   0.0000000000000000     
   3.8403134769431801E-002   4.4223826731786438E-002   0.0000000000000000     
   4.0935247157330844E-002   4.9125082301261308E-002   0.0000000000000000     
   4.3393666028129413E-002   5.4221971889271456E-002   0.0000000000000000     
   4.5778391381827502E-002   5.9514495495816888E-002   0.0000000000000000     
   6.5301393203678143E-002   6.2798684937021426E-002   0.0000000000000000     
   6.8344800399728317E-002   6.8193977312806131E-002   0.0000000000000000     
   7.1294972638063073E-002   7.3757584577343382E-002   0.0000000000000000     
   7.4151909918682438E-002   7.9489506730633194E-002   0.0000000000000000     
   7.6915612241586384E-002   8.5389743772675553E-002   0.0000000000000000     
   6.0135002335791728E-002   6.1893067463012791E-002   0.0000000000000000     
   6.3001442599464080E-002   6.7305950042767904E-002   0.0000000000000000     
   6.5781549343135848E-002   7.2895659769354207E-002   0.0000000000000000     
   6.8475322566807009E-002   7.8662196642771701E-002   0.0000000000000000     
   7.1082762270477565E-002   8.4605560663020385E-002   0.0000000000000000     
   5.5159038409521140E-002   6.1043830064809158E-002   0.0000000000000000     
   5.7844530597616406E-002   6.6477033549989017E-002   0.0000000000000000     
   6.0449453575300315E-002   7.2092414714760647E-002   0.0000000000000000     
   6.2973807342572907E-002   7.7889973559124054E-002   0.0000000000000000     
   6.5417591899434149E-002   8.3869710083079196E-002   0.0000000000000000     
   5.0373501424866400E-002   6.0250972742410529E-002   0.0000000000000000     
   5.2874064394185245E-002   6.5707227834469500E-002   0.0000000000000000     
   5.5298685334556494E-002   7.1347849413562731E-002   0.0000000000000000     
   5.7647364245980125E-002   7.7172837479690212E-002   0.0000000000000000     
   5.9920101128456152E-002   8.3182192032851973E-002   0.0000000000000000     
   4.5778391381827502E-002   5.9514495495816888E-002   0.0000000000000000     
   4.8090043989170633E-002   6.4996532896209311E-002   0.0000000000000000     
   5.0329244620904358E-002   7.0661963865760416E-002   0.0000000000000000     
   5.2495993277028669E-002   7.6510788404470217E-002   0.0000000000000000     
   5.4590289957543559E-002   8.2543006512338701E-002   0.0000000000000000     
   7.6915612241586384E-002   8.5389743772675553E-002   0.0000000000000000     
   7.9567399255945775E-002   9.1453866216620189E-002   0.0000000000000000     
   8.2088590610931503E-002   9.7677444575616834E-002   0.0000000000000000     
   8.4479186306543552E-002  0.10406047884966547        0.0000000000000000     
   8.6739186342781938E-002  0.11060296903876614        0.0000000000000000     
   7.1082762270477565E-002   8.4605560663020385E-002   0.0000000000000000     
   7.3575778271673969E-002   9.0711071185393718E-002   0.0000000000000000     
   7.5926280387922707E-002   9.6964047565185132E-002   0.0000000000000000     
   7.8134268619223762E-002  0.10336448980239461        0.0000000000000000     
   8.0199742965577109E-002  0.10991239789702217        0.0000000000000000     
   6.5417591899434149E-002   8.3869710083079196E-002   0.0000000000000000     
   6.7748351709480126E-002   9.0010057420561604E-002   0.0000000000000000     
   6.9933631236306873E-002   9.6289448705506708E-002   0.0000000000000000     
   7.1973430479914419E-002  0.10270788393791452        0.0000000000000000     
   7.3867749440302735E-002  0.10926536311778506        0.0000000000000000     
   5.9920101128456152E-002   8.3182192032851973E-002   0.0000000000000000     
   6.2085119569364230E-002   8.9350824922123817E-002   0.0000000000000000     
   6.4110643156084043E-002   9.5653647996581576E-002   0.0000000000000000     
   6.5996671888615549E-002  0.10209066125622525        0.0000000000000000     
   6.7743205766958803E-002  0.10866186470105485        0.0000000000000000     
   5.4590289957543559E-002   8.2543006512338701E-002   0.0000000000000000     
   5.6586081851326298E-002   8.8733373690080386E-002   0.0000000000000000     
   5.8457316147254183E-002   9.5056645438409734E-002   0.0000000000000000     
   6.0203992845327188E-002  0.10151282175732677        0.0000000000000000     
   6.1826111945545312E-002  0.10810190264683145        0.0000000000000000     
   8.6739186342781938E-002  0.11060296903876614        0.0000000000000000     
   8.8976053515590861E-002  0.11734029851443865        0.0000000000000000     
   9.1297250620914566E-002  0.12430785064820291        0.0000000000000000     
   9.3702777658753053E-002  0.13150562544005881        0.0000000000000000     
   9.6192634629106294E-002  0.13893362289000649        0.0000000000000000     
   8.0199742965577109E-002  0.10991239789702217        0.0000000000000000     
   8.2253375007006163E-002  0.11664801616589714        0.0000000000000000     
   8.4425836323534301E-002  0.12361158892584881        0.0000000000000000     
   8.6717126915161521E-002  0.13080311617687715        0.0000000000000000     
   8.9127246781887812E-002  0.13822259791898225        0.0000000000000000     
   7.3867749440302735E-002  0.10926536311778506        0.0000000000000000     
   7.5757263659426879E-002  0.11600668372660408        0.0000000000000000     
   7.7782648679241922E-002  0.12297664324585722        0.0000000000000000     
   7.9943904499747823E-002  0.13017524167554459        0.0000000000000000     
   8.2241031120944608E-002  0.13760247901566611        0.0000000000000000     
   6.7743205766958803E-002  0.10866186470105485        0.0000000000000000     
   6.9487719472853010E-002  0.11541630119655945        0.0000000000000000     
   7.1367687688037390E-002  0.12240301360822818        0.0000000000000000     
   7.3383110412511943E-002  0.12962200193606105        0.0000000000000000     
   7.5533987646276682E-002  0.13707326618005805        0.0000000000000000     
   6.1826111945545312E-002  0.10810190264683145        0.0000000000000000     
   6.3444742447284513E-002  0.11487686857576328        0.0000000000000000     
   6.5180953349920703E-002  0.12189070001296166        0.0000000000000000     
   6.7034744653453895E-002  0.12914339695842661        0.0000000000000000     
   6.9006116357884062E-002  0.13663495941215811        0.0000000000000000     
   9.6192634629106294E-002  0.13893362289000649        0.0000000000000000     
   9.8555723046782506E-002  0.14642730714487684        0.0000000000000000     
  0.10058094442658981       0.15382214235150088        0.0000000000000000     
  0.10226829876852825       0.16111812850987858        0.0000000000000000     
  0.10361778607259781       0.16831526562001001        0.0000000000000000     
   8.9127246781887812E-002  0.13822259791898225        0.0000000000000000     
   9.1409947828133539E-002  0.14573398238832833        0.0000000000000000     
   9.3318981958319072E-002  0.15320121782107979        0.0000000000000000     
   9.4854349172444438E-002  0.16062430421723661        0.0000000000000000     
   9.6016049470509596E-002  0.16800324157679880        0.0000000000000000     
   8.2241031120944608E-002  0.13760247901566611        0.0000000000000000     
   8.4413520063256212E-002  0.14513808789763871        0.0000000000000000     
   8.6200862847106582E-002  0.15266180095287937        0.0000000000000000     
   8.7603059472495692E-002  0.16017361818138809        0.0000000000000000     
   8.8620109939423569E-002  0.16767353958316480        0.0000000000000000     
   7.5533987646276682E-002  0.13707326618005805        0.0000000000000000     
   7.7566439752150509E-002  0.14463962367280797        0.0000000000000000     
   7.9226587092952286E-002  0.15220389174689963        0.0000000000000000     
   8.0514429668682025E-002  0.15976607040233298        0.0000000000000000     
   8.1429967479339713E-002  0.16732615963910813        0.0000000000000000     
   6.9006116357884062E-002  0.13663495941215811        0.0000000000000000     
   7.0868706894816447E-002  0.14423858971383610        0.0000000000000000     
   7.2396154695856238E-002  0.15182749020314054        0.0000000000000000     
   7.3588459761003436E-002  0.15940166088007141        0.0000000000000000     
   7.4445622090258040E-002  0.16696110174462864        0.0000000000000000     
   0.0000000000000000        0.0000000000000000        0.0000000000000000     
   2.8800888077708019E-003   1.7447236352822004E-003   0.0000000000000000     
   5.8726732136174156E-003   3.8644908026013091E-003   0.0000000000000000     
   8.9777532175398418E-003   6.3593015019573259E-003   0.0000000000000000     
   1.2195328819538080E-002   9.2291557333502514E-003   0.0000000000000000     
   0.0000000000000000        0.0000000000000000        0.0000000000000000     
   2.6102713076895353E-003   1.5889266438720126E-003   0.0000000000000000     
   5.2896619771040584E-003   3.5566767412139200E-003   0.0000000000000000     
   8.0381720082435704E-003   5.9032502920257236E-003   0.0000000000000000     
   1.0855801401108072E-002   8.6286472963074210E-003   0.0000000000000000     
   0.0000000000000000        0.0000000000000000        0.0000000000000000     
   2.3400328554483959E-003   1.4590188122397731E-003   0.0000000000000000     
   4.7200921069930259E-003   3.2998554162678409E-003   0.0000000000000000     
   7.1401777546338894E-003   5.5225098120842038E-003   0.0000000000000000     
   9.6002897983709888E-003   8.1269819996888613E-003   0.0000000000000000     
   0.0000000000000000        0.0000000000000000        0.0000000000000000     
   2.0693734510473833E-003   1.3550001403854811E-003   0.0000000000000000     
   4.1639636032843154E-003   3.0940268277630718E-003   0.0000000000000000     
   6.2837704567107987E-003   5.2170800621327718E-003   0.0000000000000000     
   8.4287940113268334E-003   7.7241598434945810E-003   0.0000000000000000     
   0.0000000000000000        0.0000000000000000        0.0000000000000000     
   1.7982930944864970E-003   1.2768706283091376E-003   0.0000000000000000     
   3.6212764659779295E-003   2.9391909756996118E-003   0.0000000000000000     
   5.4689501144742966E-003   4.9869610421714224E-003   0.0000000000000000     
   7.3413140399755990E-003   7.4201808277245696E-003   0.0000000000000000     
   1.2195328819538080E-002   9.2291557333502514E-003   0.0000000000000000     
   1.5427707042811033E-002   1.2371818742626771E-002   0.0000000000000000     
   1.8577194910557596E-002   1.5685055775633564E-002   0.0000000000000000     
   2.1643792422777770E-002   1.9168866832370637E-002   0.0000000000000000     
   2.4627499579471562E-002   2.2823251912837988E-002   0.0000000000000000     
   1.0855801401108072E-002   8.6286472963074210E-003   0.0000000000000000     
   1.3689161073351965E-002   1.1650597369115192E-002   0.0000000000000000     
   1.6484861942629651E-002   1.4886830125505219E-002   0.0000000000000000     
   1.9242904008941138E-002   1.8337345565477496E-002   0.0000000000000000     
   2.1963287272286417E-002   2.2002143689032028E-002   0.0000000000000000     
   9.6002897983709888E-003   8.1269819996888613E-003   0.0000000000000000     
   1.2076805584530425E-002   1.1045967687395793E-002   0.0000000000000000     
   1.4546102459438303E-002   1.4212162583518964E-002   0.0000000000000000     
   1.7008180423094623E-002   1.7625566688058373E-002   0.0000000000000000     
   1.9463039475499384E-002   2.1286180001014034E-002   0.0000000000000000     
   8.4287940113268334E-003   7.7241598434945810E-003   0.0000000000000000     
   1.0590640576346413E-002   1.0557929697468566E-002   0.0000000000000000     
   1.2760916460983544E-002   1.3661053149674798E-002   0.0000000000000000     
   1.4939621665238222E-002   1.7033530200113271E-002   0.0000000000000000     
   1.7126756189110449E-002   2.0675360848783998E-002   0.0000000000000000     
   7.3413140399755990E-003   7.4201808277245696E-003   0.0000000000000000     
   9.2306660487999279E-003   1.0186483399333516E-002   0.0000000000000000     
   1.1129303947265376E-002   1.3233501823972723E-002   0.0000000000000000     
   1.3037227735371937E-002   1.6561236101642195E-002   0.0000000000000000     
   1.4954437413119619E-002   2.0169686232341926E-002   0.0000000000000000     
   2.4627499579471562E-002   2.2823251912837988E-002   0.0000000000000000     
   2.7532310393979551E-002   2.6671440561337904E-002   0.0000000000000000     
   3.0362218879642338E-002   3.0736662322172693E-002   0.0000000000000000     
   3.3117225036459912E-002   3.5018917195342343E-002   0.0000000000000000     
   3.5797328864432279E-002   3.9518205180846852E-002   0.0000000000000000     
   2.1963287272286417E-002   2.2002143689032028E-002   0.0000000000000000     
   2.4629532063959441E-002   2.5879402032049779E-002   0.0000000000000000     
   2.7225158715254147E-002   2.9967298130411699E-002   0.0000000000000000     
   2.9750167226170538E-002   3.4265831984117791E-002   0.0000000000000000     
   3.2204557596708622E-002   3.8775003593168066E-002   0.0000000000000000     
   1.9463039475499384E-002   2.1286180001014034E-002   0.0000000000000000     
   2.1882501184480454E-002   2.5175187936445818E-002   0.0000000000000000     
   2.4238387117865707E-002   2.9273775908413621E-002   0.0000000000000000     
   2.6530697275655137E-002   3.3581943916917427E-002   0.0000000000000000     
   2.8759431657848750E-002   3.8099691961957248E-002   0.0000000000000000     
   1.7126756189110449E-002   2.0675360848783998E-002   0.0000000000000000     
   1.9291217755542586E-002   2.4558798274526030E-002   0.0000000000000000     
   2.1401904087477001E-002   2.8656095656178444E-002   0.0000000000000000     
   2.3458815184913689E-002   3.2967252993741231E-002   0.0000000000000000     
   2.5461951047852652E-002   3.7492270287214406E-002   0.0000000000000000     
   1.4954437413119619E-002   2.0169686232341926E-002   0.0000000000000000     
   1.6855681777145842E-002   2.4030233046290421E-002   0.0000000000000000     
   1.8715709624088039E-002   2.8114257373706188E-002   0.0000000000000000     
   2.0534520953946200E-002   3.2421759214589230E-002   0.0000000000000000     
   2.2312115766720333E-002   3.6952738568939533E-002   0.0000000000000000     
   3.5797328864432279E-002   3.9518205180846852E-002   0.0000000000000000     
   3.8403134769431801E-002   4.4223826731786438E-002   0.0000000000000000     
   4.0935247157330844E-002   4.9125082301261308E-002   0.0000000000000000     
   4.3393666028129413E-002   5.4221971889271456E-002   0.0000000000000000     
   4.5778391381827502E-002   5.9514495495816888E-002   0.0000000000000000     
   3.2204557596708622E-002   3.8775003593168066E-002   0.0000000000000000     
   3.4590613772696038E-002   4.3489729801000014E-002   0.0000000000000000     
   3.6910619699960456E-002   4.8404927451051148E-002   0.0000000000000000     
   3.9164575378501848E-002   5.3520596543321454E-002   0.0000000000000000     
   4.1352480808320241E-002   5.8836737077810938E-002   0.0000000000000000     
   2.8759431657848750E-002   3.8099691961957248E-002   0.0000000000000000     
   3.0926835939546260E-002   4.2824117026889250E-002   0.0000000000000000     
   3.3035155795847364E-002   4.7752316095069615E-002   0.0000000000000000     
   3.5084391226752096E-002   5.2884289166498316E-002   0.0000000000000000     
   3.7074542232260435E-002   5.8220036241175381E-002   0.0000000000000000     
   2.5461951047852652E-002   3.7492270287214406E-002   0.0000000000000000     
   2.7411801269982442E-002   4.2226988409454158E-002   0.0000000000000000     
   2.9308855444991611E-002   4.7167248233316708E-002   0.0000000000000000     
   3.1153113572880146E-002   5.2313049758802056E-002   0.0000000000000000     
   3.2944575653648063E-002   5.7664392985910209E-002   0.0000000000000000     
   2.2312115766720333E-002   3.6952738568939533E-002   0.0000000000000000     
   2.4045509764004599E-002   4.1698343948694719E-002   0.0000000000000000     
   2.5731718647393154E-002   4.6649723865792442E-002   0.0000000000000000     
   2.7370742416886005E-002   5.1806878320232660E-002   0.0000000000000000     
   2.8962581072483146E-002   5.7169807312015410E-002   0.0000000000000000     
   4.5778391381827502E-002   5.9514495495816888E-002   0.0000000000000000     
   4.8090043989170633E-002   6.4996532896209311E-002   0.0000000000000000     
   5.0329244620904358E-002   7.0661963865760416E-002   0.0000000000000000     
   5.2495993277028669E-002   7.6510788404470217E-002   0.0000000000000000     
   5.4590289957543559E-002   8.2543006512338701E-002   0.0000000000000000     
   4.1352480808320241E-002   5.8836737077810938E-002   0.0000000000000000     
   4.3472923961023764E-002   6.4343818574671446E-002   0.0000000000000000     
   4.5524492808220553E-002   7.0032310554054761E-002   0.0000000000000000     
   4.7507187349910600E-002   7.5902213015960923E-002   0.0000000000000000     
   4.9421007586093919E-002   8.1953525960389920E-002   0.0000000000000000     
   3.7074542232260435E-002   5.8220036241175381E-002   0.0000000000000000     
   3.9003158888195812E-002   6.3747954709318863E-002   0.0000000000000000     
   4.0867791270381662E-002   6.9456441961146809E-002   0.0000000000000000     
   4.2668439378818000E-002   7.5345497996659183E-002   0.0000000000000000     
   4.4405103213504812E-002   8.1415122815856084E-002   0.0000000000000000     
   3.2944575653648063E-002   5.7664392985910209E-002   0.0000000000000000     
   3.4680748770686776E-002   6.3208941300151547E-002   0.0000000000000000     
   3.6359140007387714E-002   6.8934358087036504E-002   0.0000000000000000     
   3.7979749363750849E-002   7.4840643346565053E-002   0.0000000000000000     
   3.9542576839776203E-002   8.0927797078737235E-002   0.0000000000000000     
   2.8962581072483146E-002   5.7169807312015410E-002   0.0000000000000000     
   3.0505693608496670E-002   6.2726778347169540E-002   0.0000000000000000     
   3.1998539019238673E-002   6.8466058931723889E-002   0.0000000000000000     
   3.3441117304709160E-002   7.4387649065678491E-002   0.0000000000000000     
   3.4833428464908112E-002   8.0491548749033331E-002   0.0000000000000000     
   5.4590289957543559E-002   8.2543006512338701E-002   0.0000000000000000     
   5.6586081851326298E-002   8.8733373690080386E-002   0.0000000000000000     
   5.8457316147254183E-002   9.5056645438409734E-002   0.0000000000000000     
   6.0203992845327188E-002  0.10151282175732677        0.0000000000000000     
   6.1826111945545312E-002  0.10810190264683145        0.0000000000000000     
   4.9421007586093919E-002   8.1953525960389920E-002   0.0000000000000000     
   5.1246883813691399E-002   8.8162030788693474E-002   0.0000000000000000     
   5.2965746329623892E-002   9.4503508902223407E-002   0.0000000000000000     
   5.4577595133891439E-002  0.10097796030097966        0.0000000000000000     
   5.6082430226494007E-002  0.10758538498496227        0.0000000000000000     
   4.4405103213504812E-002   8.1415122815856084E-002   0.0000000000000000     
   4.6063170714784572E-002   8.7641123282225328E-002   0.0000000000000000     
   4.7628029822999803E-002   9.3999306259254817E-002   0.0000000000000000     
   4.9099680538150482E-002  0.10048967174694459        0.0000000000000000     
   5.0478122860236611E-002  0.10711221974529458        0.0000000000000000     
   3.9542576839776203E-002   8.0927797078737235E-002   0.0000000000000000     
   4.1034942554605859E-002   8.7170651170675878E-002   0.0000000000000000     
   4.2444166627381895E-002   9.3544037509504005E-002   0.0000000000000000     
   4.3770249058104317E-002  0.10004795609522148        0.0000000000000000     
   4.5013189846773119E-002  0.10668240692782840        0.0000000000000000     
   3.4833428464908112E-002   8.0491548749033331E-002   0.0000000000000000     
   3.6162199333155232E-002   8.6750614454045180E-002   0.0000000000000000     
   3.7414156742770162E-002   9.3137702652970888E-002   0.0000000000000000     
   3.8589300693752937E-002   9.9652813345810401E-002   0.0000000000000000     
   3.9687631186103536E-002  0.10629594653256373        0.0000000000000000     
   6.1826111945545312E-002  0.10810190264683145        0.0000000000000000     
   6.3444742447284513E-002  0.11487686857576328        0.0000000000000000     
   6.5180953349920703E-002  0.12189070001296166        0.0000000000000000     
   6.7034744653453895E-002  0.12914339695842661        0.0000000000000000     
   6.9006116357884062E-002  0.13663495941215811        0.0000000000000000     
   5.6082430226494007E-002  0.10758538498496227        0.0000000000000000     
   5.7581018599440384E-002  0.11438270911414174        0.0000000000000000     
   5.9174127244739340E-002  0.12142685884848864        0.0000000000000000     
   6.0861756162390881E-002  0.12871783418800298        0.0000000000000000     
   6.2643905352395002E-002  0.13625563513268468        0.0000000000000000     
   5.0478122860236611E-002  0.10711221974529458        0.0000000000000000     
   5.1849233946039568E-002  0.11392814606162104        0.0000000000000000     
   5.3298890952340749E-002  0.12099864650324015        0.0000000000000000     
   5.4827093879140136E-002  0.12832372107015186        0.0000000000000000     
   5.6433842726437741E-002  0.13590336976235626        0.0000000000000000     
   4.5013189846773119E-002  0.10668240692782840        0.0000000000000000     
   4.6249388487082058E-002  0.11351317941820116        0.0000000000000000     
   4.7555244472724911E-002  0.12060606297721610        0.0000000000000000     
   4.8930757803701659E-002  0.12796105760487331        0.0000000000000000     
   5.0375928480012315E-002  0.13557816330117273        0.0000000000000000     
   3.9687631186103536E-002  0.10629594653256373        0.0000000000000000     
   4.0781482222567868E-002  0.11313780918388208        0.0000000000000000     
   4.1943187805891839E-002  0.12024910827041661        0.0000000000000000     
   4.3172747936075458E-002  0.12762984379216727        0.0000000000000000     
   4.4470162613118709E-002  0.13528001574913415        0.0000000000000000     
   6.9006116357884062E-002  0.13663495941215811        0.0000000000000000     
   7.0868706894816447E-002  0.14423858971383610        0.0000000000000000     
   7.2396154695856238E-002  0.15182749020314054        0.0000000000000000     
   7.3588459761003436E-002  0.15940166088007141        0.0000000000000000     
   7.4445622090258040E-002  0.16696110174462864        0.0000000000000000     
   6.2643905352395002E-002  0.13625563513268468        0.0000000000000000     
   6.4328029399129072E-002  0.14389869295481564        0.0000000000000000     
   6.5721582886970484E-002  0.15150543892667753        0.0000000000000000     
   6.6824565815919265E-002  0.15907587304827042        0.0000000000000000     
   6.7636978185975360E-002  0.16660999531959428        0.0000000000000000     
   5.6433842726437741E-002  0.13590336976235626        0.0000000000000000     
   5.7952115172963455E-002  0.14358364032983906        0.0000000000000000     
   5.9214888897447152E-002  0.15121058052258607        0.0000000000000000     
   6.0222163899888846E-002  0.15878419034059729        0.0000000000000000     
   6.0973940180288538E-002  0.16630446978387281        0.0000000000000000     
   5.0375928480012315E-002  0.13557816330117273        0.0000000000000000     
   5.1740964216319602E-002  0.14329343183890633        0.0000000000000000     
   5.2876072727286207E-002  0.15094291499086615        0.0000000000000000     
   5.3781254012912200E-002  0.15852661275705210        0.0000000000000000     
   5.4456508073197532E-002  0.16604452513746426        0.0000000000000000     
   4.4470162613118709E-002  0.13528001574913415        0.0000000000000000     
   4.5694576529197492E-002  0.14302806748201752        0.0000000000000000     
   4.6705134376487704E-002  0.15070244233151769        0.0000000000000000     
   4.7501836154989319E-002  0.15830314029763473        0.0000000000000000     
   4.8084681864702362E-002  0.16583016138036860        0.0000000000000000     
   0.0000000000000000        0.0000000000000000        0.0000000000000000     
   1.7982930944864970E-003   1.2768706283091376E-003   0.0000000000000000     
   3.6212764659779295E-003   2.9391909756996118E-003   0.0000000000000000     
   5.4689501144742966E-003   4.9869610421714224E-003   0.0000000000000000     
   7.3413140399755990E-003   7.4201808277245696E-003   0.0000000000000000     
   0.0000000000000000        0.0000000000000000        0.0000000000000000     
   1.5350352935865237E-003   1.2175522321537487E-003   0.0000000000000000     
   3.0993508806784072E-003   2.8208745016327971E-003   0.0000000000000000     
   4.6929467612756509E-003   4.8099668084371459E-003   0.0000000000000000     
   6.3158229353782536E-003   7.1848291525667936E-003   0.0000000000000000     
   0.0000000000000000        0.0000000000000000        0.0000000000000000     
   1.2878435561682491E-003   1.1699669080623217E-003   0.0000000000000000     
   2.6055070329902915E-003   2.7246040471179630E-003   0.0000000000000000     
   3.9529904304661263E-003   4.6639114171669258E-003   0.0000000000000000     
   5.3302937485957529E-003   6.9878890182092073E-003   0.0000000000000000     
   0.0000000000000000        0.0000000000000000        0.0000000000000000     
   1.0567178822316727E-003   1.1341146560348559E-003   0.0000000000000000     
   2.1397449229135805E-003   2.6503796121551109E-003   0.0000000000000000     
   3.2490811220457234E-003   4.5487948683607636E-003   0.0000000000000000     
   4.3847264796281005E-003   6.8293604246518159E-003   0.0000000000000000     
   0.0000000000000000        0.0000000000000000        0.0000000000000000     
   8.4165827177679498E-004   1.1099954760713522E-003   0.0000000000000000     
   1.7020645504482756E-003   2.5982011967442390E-003   0.0000000000000000     
   2.5812188360144418E-003   4.4646171620186604E-003   0.0000000000000000     
   3.4791211284752933E-003   6.7092433718946159E-003   0.0000000000000000     
   7.3413140399755990E-003   7.4201808277245696E-003   0.0000000000000000     
   9.2306660487999279E-003   1.0186483399333516E-002   0.0000000000000000     
   1.1129303947265376E-002   1.3233501823972723E-002   0.0000000000000000     
   1.3037227735371937E-002   1.6561236101642195E-002   0.0000000000000000     
   1.4954437413119619E-002   2.0169686232341926E-002   0.0000000000000000     
   6.3158229353782536E-003   7.1848291525667936E-003   0.0000000000000000     
   7.9553116091699971E-003   9.8958822370781713E-003   0.0000000000000000     
   9.5987449888346593E-003   1.2893546765027710E-002   0.0000000000000000     
   1.1246123074372241E-002   1.6177822736415413E-002   0.0000000000000000     
   1.2897445865782748E-002   1.9748710151241276E-002   0.0000000000000000     
   5.3302937485957529E-003   6.9878890182092073E-003   0.0000000000000000     
   6.7230068647356426E-003   9.6503796547900578E-003   0.0000000000000000     
   8.1167196562422599E-003   1.2605226131454728E-002   0.0000000000000000     
   9.5114321231156082E-003   1.5852428448203212E-002   0.0000000000000000     
   1.0907144265355688E-002   1.9391986605035515E-002   0.0000000000000000     
   4.3847264796281005E-003   6.8293604246518159E-003   0.0000000000000000     
   5.5337518154968670E-003   9.4499756524691822E-003   0.0000000000000000     
   6.6832279494881798E-003   1.2368539923253775E-002   0.0000000000000000     
   7.8331548816020363E-003   1.5585053237005601E-002   0.0000000000000000     
   8.9835326118384365E-003   1.9099515593724647E-002   0.0000000000000000     
   3.4791211284752933E-003   6.7092433718946159E-003   0.0000000000000000     
   4.3875464614536713E-003   9.2946702301155357E-003   0.0000000000000000     
   5.2982698685724141E-003   1.2183488140424852E-002   0.0000000000000000     
   6.2112913498315239E-003   1.5375697102822564E-002   0.0000000000000000     
   7.1266109052309989E-003   1.8871297117308668E-002   0.0000000000000000     
   1.4954437413119619E-002   2.0169686232341926E-002   0.0000000000000000     
   1.6855681777145842E-002   2.4030233046290421E-002   0.0000000000000000     
   1.8715709624088039E-002   2.8114257373706188E-002   0.0000000000000000     
   2.0534520953946200E-002   3.2421759214589230E-002   0.0000000000000000     
   2.2312115766720333E-002   3.6952738568939533E-002   0.0000000000000000     
   1.2897445865782748E-002   1.9748710151241276E-002   0.0000000000000000     
   1.4536304669763597E-002   2.3580141961416265E-002   0.0000000000000000     
   1.6146290793012226E-002   2.7646051118851329E-002   0.0000000000000000     
   1.7727404235528623E-002   3.1946437623546479E-002   0.0000000000000000     
   1.9279644997312797E-002   3.6481301475501715E-002   0.0000000000000000     
   1.0907144265355688E-002   1.9391986605035515E-002   0.0000000000000000     
   1.2293497853869229E-002   2.3199174729580833E-002   0.0000000000000000     
   1.3660134659562969E-002   2.7249266949468363E-002   0.0000000000000000     
   1.5007054682436906E-002   3.1542263264698105E-002   0.0000000000000000     
   1.6334257922491043E-002   3.6078163675270045E-002   0.0000000000000000     
   8.9835326118384365E-003   1.9099515593724647E-002   0.0000000000000000     
   1.0127261329462732E-002   2.2887331350784142E-002   0.0000000000000000     
   1.1257241223740269E-002   2.6923904865557281E-002   0.0000000000000000     
   1.2373472294671048E-002   3.1209236138044084E-002   0.0000000000000000     
   1.3475954542255069E-002   3.5743325168244536E-002   0.0000000000000000     
   7.1266109052309989E-003   1.8871297117308668E-002   0.0000000000000000     
   8.0375950965441093E-003   2.2644611825026174E-002   0.0000000000000000     
   8.9376104855441244E-003   2.6669964867118093E-002   0.0000000000000000     
   9.8266570722310483E-003   3.0947356243584429E-002   0.0000000000000000     
   1.0704734856604876E-002   3.5476785954425175E-002   0.0000000000000000     
   2.2312115766720333E-002   3.6952738568939533E-002   0.0000000000000000     
   2.4045509764004599E-002   4.1698343948694719E-002   0.0000000000000000     
   2.5731718647393154E-002   4.6649723865792442E-002   0.0000000000000000     
   2.7370742416886005E-002   5.1806878320232660E-002   0.0000000000000000     
   2.8962581072483146E-002   5.7169807312015410E-002   0.0000000000000000     
   1.9279644997312797E-002   3.6481301475501715E-002   0.0000000000000000     
   2.0796608517524802E-002   4.1236229409300738E-002   0.0000000000000000     
   2.2271890235324689E-002   4.6196808159527231E-002   0.0000000000000000     
   2.3705490150712466E-002   5.1363037726181199E-002   0.0000000000000000     
   2.5097408263688125E-002   5.6734918109262643E-002   0.0000000000000000     
   1.6334257922491043E-002   3.6078163675270045E-002   0.0000000000000000     
   1.7633744626455120E-002   4.0838690555961940E-002   0.0000000000000000     
   1.8897515041058882E-002   4.5805566281551482E-002   0.0000000000000000     
   2.0125569166302329E-002   5.0978790852038686E-002   0.0000000000000000     
   2.1317907002185457E-002   5.6358364267423550E-002   0.0000000000000000     
   1.3475954542255069E-002   3.5743325168244536E-002   0.0000000000000000     
   1.4556918090795554E-002   4.0505727388678345E-002   0.0000000000000000     
   1.5608593064595729E-002   4.5475998231865232E-002   0.0000000000000000     
   1.6630979463655594E-002   5.0654137697805156E-002   0.0000000000000000     
   1.7624077287975149E-002   5.6040145786498151E-002   0.0000000000000000     
   1.0704734856604876E-002   3.5476785954425175E-002   0.0000000000000000     
   1.1566128910546106E-002   4.0237339907449959E-002   0.0000000000000000     
   1.2405124305935234E-002   4.5208104010468417E-002   0.0000000000000000     
   1.3221721042772258E-002   5.0389078263480588E-002   0.0000000000000000     
   1.4015919121057183E-002   5.5780262666486419E-002   0.0000000000000000     
   2.8962581072483146E-002   5.7169807312015410E-002   0.0000000000000000     
   3.0505693608496670E-002   6.2726778347169540E-002   0.0000000000000000     
   3.1998539019238673E-002   6.8466058931723889E-002   0.0000000000000000     
   3.3441117304709160E-002   7.4387649065678491E-002   0.0000000000000000     
   3.4833428464908112E-002   8.0491548749033331E-002   0.0000000000000000     
   2.5097408263688125E-002   5.6734918109262643E-002   0.0000000000000000     
   2.6447245825781750E-002   6.2301680792279580E-002   0.0000000000000000     
   2.7754604088523420E-002   6.8052557258740029E-002   0.0000000000000000     
   2.9019483051913143E-002   7.3987547508643975E-002   0.0000000000000000     
   3.0241882715950914E-002   8.0106651541991439E-002   0.0000000000000000     
   2.1317907002185457E-002   5.6358364267423550E-002   0.0000000000000000     
   2.2474657846698276E-002   6.1933863577388518E-002   0.0000000000000000     
   2.3595950997830809E-002   6.7694865831616019E-002   0.0000000000000000     
   2.4681786455583030E-002   7.3641371030106081E-002   0.0000000000000000     
   2.5732164219954966E-002   7.9773379172858649E-002   0.0000000000000000     
   1.7624077287975149E-002   5.6040145786498151E-002   0.0000000000000000     
   1.8587929671246260E-002   6.1623326702496345E-002   0.0000000000000000     
   1.9522579747160818E-002   6.7392984650351886E-002   0.0000000000000000     
   2.0428027515718827E-002   7.3349119630064727E-002   0.0000000000000000     
   2.1304272976920276E-002   7.9491731641634936E-002   0.0000000000000000     
   1.4015919121057183E-002   5.5780262666486419E-002   0.0000000000000000     
   1.4787061299425693E-002   6.1370070167603055E-002   0.0000000000000000     
   1.5534490336513470E-002   6.7146913714947562E-002   0.0000000000000000     
   1.6258206232320521E-002   7.3110793308519981E-002   0.0000000000000000     
   1.6958208986846843E-002   7.9261708948320297E-002   0.0000000000000000     
   3.4833428464908112E-002   8.0491548749033331E-002   0.0000000000000000     
   3.6162199333155232E-002   8.6750614454045180E-002   0.0000000000000000     
   3.7414156742770162E-002   9.3137702652970888E-002   0.0000000000000000     
   3.8589300693752937E-002   9.9652813345810401E-002   0.0000000000000000     
   3.9687631186103536E-002  0.10629594653256373        0.0000000000000000     
   3.0241882715950914E-002   8.0106651541991439E-002   0.0000000000000000     
   3.1407361914921231E-002   8.6380471428243122E-002   0.0000000000000000     
   3.2501479483108615E-002   9.2779609236859739E-002   0.0000000000000000     
   3.3524235420513047E-002   9.9304064967841263E-002   0.0000000000000000     
   3.4475629727134548E-002  0.10595383862118773        0.0000000000000000     
   2.5732164219954966E-002   7.9773379172858649E-002   0.0000000000000000     
   2.6732851164392422E-002   8.6059680389179591E-002   0.0000000000000000     
   2.7669614162341219E-002   9.2469064808374732E-002   0.0000000000000000     
   2.8542453213801368E-002   9.9001532430444045E-002   0.0000000000000000     
   2.9351368318772858E-002  0.10565708325538757        0.0000000000000000     
   2.1304272976920276E-002   7.9491731641634936E-002   0.0000000000000000     
   2.2138667081568787E-002   8.5788241336854587E-002   0.0000000000000000     
   2.2918560780467993E-002   9.2206069367515867E-002   0.0000000000000000     
   2.3643954073617881E-002   9.8745215733618746E-002   0.0000000000000000     
   2.4314846961018453E-002  0.10540568043516320        0.0000000000000000     
   1.6958208986846843E-002   7.9261708948320297E-002   0.0000000000000000     
   1.7624809666450345E-002   8.5566154271268138E-002   0.0000000000000000     
   1.8248319337488928E-002   9.1990622914283157E-002   0.0000000000000000     
   1.8828737999962594E-002   9.8535114877365326E-002   0.0000000000000000     
   1.9366065653871348E-002  0.10519963016051469        0.0000000000000000     
   3.9687631186103536E-002  0.10629594653256373        0.0000000000000000     
   4.0781482222567868E-002  0.11313780918388208        0.0000000000000000     
   4.1943187805891839E-002  0.12024910827041661        0.0000000000000000     
   4.3172747936075458E-002  0.12762984379216727        0.0000000000000000     
   4.4470162613118709E-002  0.13528001574913415        0.0000000000000000     
   3.4475629727134548E-002  0.10595383862118773        0.0000000000000000     
   3.5425091584627894E-002  0.11280446187564384        0.0000000000000000     
   3.6442050174647841E-002  0.11993146640995432        0.0000000000000000     
   3.7526505497194419E-002  0.12733485222411917        0.0000000000000000     
   3.8678457552267620E-002  0.13501461931813838        0.0000000000000000     
   2.9351368318772858E-002  0.10565708325538757        0.0000000000000000     
   3.0159793005393037E-002  0.11251556401046647        0.0000000000000000     
   3.1031160801799244E-002  0.11965682142294208        0.0000000000000000     
   3.1965471707991480E-002  0.12708085549281437        0.0000000000000000     
   3.2962725723969757E-002  0.13478766622008326        0.0000000000000000     
   2.4314846961018453E-002  0.10540568043516320        0.0000000000000000     
   2.4985586484863313E-002  0.11227111558835001        0.0000000000000000     
   2.5710519687346042E-002  0.11942517330937986        0.0000000000000000     
   2.6489646568466647E-002  0.12686785359825278        0.0000000000000000     
   2.7322967128225118E-002  0.13459915645496878        0.0000000000000000     
   1.9366065653871348E-002  0.10519963016051469        0.0000000000000000     
   1.9902472023038721E-002  0.11207111660929440        0.0000000000000000     
   2.0480126831288237E-002  0.11923652206926766        0.0000000000000000     
   2.1099030078619893E-002  0.12669584654043450        0.0000000000000000     
   2.1759181765033702E-002  0.13444909002279493        0.0000000000000000     
   4.4470162613118709E-002  0.13528001574913415        0.0000000000000000     
   4.5694576529197492E-002  0.14302806748201752        0.0000000000000000     
   4.6705134376487704E-002  0.15070244233151769        0.0000000000000000     
   4.7501836154989319E-002  0.15830314029763473        0.0000000000000000     
   4.8084681864702362E-002  0.16583016138036860        0.0000000000000000     
   3.8678457552267620E-002  0.13501461931813838        0.0000000000000000     
   3.9764398208708890E-002  0.14279287317931602        0.0000000000000000     
   4.0650819335359661E-002  0.15049171929495608        0.0000000000000000     
   4.1337720932219948E-002  0.15811115766505868        0.0000000000000000     
   4.1825102999289744E-002  0.16565118828962369        0.0000000000000000     
   3.2962725723969757E-002  0.13478766622008326        0.0000000000000000     
   3.3901875351965510E-002  0.14259317485094519        0.0000000000000000     
   3.4661873094210212E-002  0.15031330263159653        0.0000000000000000     
   3.5242718950703834E-002  0.15794804956203726        0.0000000000000000     
   3.5644412921446399E-002  0.16549741564226736        0.0000000000000000     
   2.7322967128225118E-002  0.13459915645496878        0.0000000000000000     
   2.8107007958967381E-002  0.14242897249690506        0.0000000000000000     
   2.8738295653039331E-002  0.15016719234143897        0.0000000000000000     
   2.9216830210440976E-002  0.15781381598857047        0.0000000000000000     
   2.9542611631172312E-002  0.16536884343829961        0.0000000000000000     
   2.1759181765033702E-002  0.13444909002279493        0.0000000000000000     
   2.2379796029714471E-002  0.14230026611719565        0.0000000000000000     
   2.2880087011847034E-002  0.15005338842448349        0.0000000000000000     
   2.3260054711431371E-002  0.15770845694465843        0.0000000000000000     
   2.3519699128467499E-002  0.16526547167772046        0.0000000000000000     
   0.0000000000000000        0.0000000000000000        0.0000000000000000     
   8.4165827177679498E-004   1.1099954760713522E-003   0.0000000000000000     
   1.7020645504482756E-003   2.5982011967442390E-003   0.0000000000000000     
   2.5812188360144418E-003   4.4646171620186604E-003   0.0000000000000000     
   3.4791211284752933E-003   6.7092433718946159E-003   0.0000000000000000     
   0.0000000000000000        0.0000000000000000        0.0000000000000000     
   6.3378469573930696E-004   1.0940244126351119E-003   0.0000000000000000     
   1.2779558882653240E-003   2.5621902168227106E-003   0.0000000000000000     
   1.9325135775780514E-003   4.4044974125627958E-003   0.0000000000000000     
   2.5974577636774894E-003   6.6209459998553674E-003   0.0000000000000000     
   0.0000000000000000        0.0000000000000000        0.0000000000000000     
   4.2421712505489949E-004   1.0826165101894376E-003   0.0000000000000000     
   8.5290890903567322E-004   2.5364680883278889E-003   0.0000000000000000     
   1.2860753519423210E-003   4.3615547344153533E-003   0.0000000000000000     
   1.7237164537748431E-003   6.5578764484518319E-003   0.0000000000000000     
   0.0000000000000000        0.0000000000000000        0.0000000000000000     
   2.1295555972357288E-004   1.0757717687343289E-003   0.0000000000000000     
   4.2692361275932316E-004   2.5210348112597730E-003   0.0000000000000000     
   6.4190415910725081E-004   4.3357891275763311E-003   0.0000000000000000     
   8.5789719876735570E-004   6.5200347176840043E-003   0.0000000000000000     
   0.0000000000000000        0.0000000000000000        0.0000000000000000     
  -2.5467293746951614E-013   1.0734901882697859E-003   0.0000000000000000     
  -5.6372604067406185E-013   2.5158903856183630E-003   0.0000000000000000     
  -9.2715933671869144E-013   4.3272005920457308E-003   0.0000000000000000     
  -1.3449728256034049E-012   6.5074208075518898E-003   0.0000000000000000     
   3.4791211284752933E-003   6.7092433718946159E-003   0.0000000000000000     
   4.3875464614536713E-003   9.2946702301155357E-003   0.0000000000000000     
   5.2982698685724141E-003   1.2183488140424852E-002   0.0000000000000000     
   6.2112913498315239E-003   1.5375697102822564E-002   0.0000000000000000     
   7.1266109052309989E-003   1.8871297117308668E-002   0.0000000000000000     
   2.5974577636774894E-003   6.6209459998553674E-003   0.0000000000000000     
   3.2698144276685423E-003   9.1785086143193594E-003   0.0000000000000000     
   3.9466095506561164E-003   1.2044157891573702E-002   0.0000000000000000     
   4.6278431326402109E-003   1.5217893831618397E-002   0.0000000000000000     
   5.3135151736208273E-003   1.8699716434453444E-002   0.0000000000000000     
   1.7237164537748431E-003   6.5578764484518319E-003   0.0000000000000000     
   2.1659793392039711E-003   9.0955360316708842E-003   0.0000000000000000     
   2.6130111329004356E-003   1.1944636285306068E-002   0.0000000000000000     
   3.0648118348642387E-003   1.5105177209357386E-002   0.0000000000000000     
   3.5213814450953786E-003   1.8577158803824840E-002   0.0000000000000000     
   8.5789719876735570E-004   6.5200347176840043E-003   0.0000000000000000     
   1.0760411960599569E-003   9.0457524821701066E-003   0.0000000000000000     
   1.2974746153053738E-003   1.1884923321621948E-002   0.0000000000000000     
   1.5221974565036050E-003   1.5037547236039532E-002   0.0000000000000000     
   1.7502097196546520E-003   1.8503624225422857E-002   0.0000000000000000     
  -1.3449728256034049E-012   6.5074208075518898E-003   0.0000000000000000     
  -1.7634991503114733E-012   9.0291579658170317E-003   0.0000000000000000     
  -2.1290710554701213E-012   1.1865019000521346E-002   0.0000000000000000     
  -2.4416886545817638E-012   1.5015003911664835E-002   0.0000000000000000     
  -2.7013517291119005E-012   1.8479112699247492E-002   0.0000000000000000     
   7.1266109052309989E-003   1.8871297117308668E-002   0.0000000000000000     
   8.0375950965441093E-003   2.2644611825026174E-002   0.0000000000000000     
   8.9376104855441244E-003   2.6669964867118093E-002   0.0000000000000000     
   9.8266570722310483E-003   3.0947356243584429E-002   0.0000000000000000     
   1.0704734856604876E-002   3.5476785954425175E-002   0.0000000000000000     
   5.3135151736208273E-003   1.8699716434453444E-002   0.0000000000000000     
   5.9967095874407898E-003   2.2462473925667005E-002   0.0000000000000000     
   6.6705102879429240E-003   2.6479014530847247E-002   0.0000000000000000     
   7.3349172751272307E-003   3.0749338249994176E-002   0.0000000000000000     
   7.9899305489937091E-003   3.5273445083107771E-002   0.0000000000000000     
   3.5213814450953786E-003   1.8577158803824840E-002   0.0000000000000000     
   3.9768152344801990E-003   2.2332375426066687E-002   0.0000000000000000     
   4.4252084739050453E-003   2.6342621433441193E-002   0.0000000000000000     
   4.8665611633699158E-003   3.0607896825948368E-002   0.0000000000000000     
   5.3008733028748123E-003   3.5128201603588184E-002   0.0000000000000000     
   1.7502097196546520E-003   1.8503624225422857E-002   0.0000000000000000     
   1.9779120376623386E-003   2.2254316326225224E-002   0.0000000000000000     
   2.2017050434304897E-003   2.6260785574899938E-002   0.0000000000000000     
   2.4215887369591054E-003   3.0523031971446995E-002   0.0000000000000000     
   2.6375631182481859E-003   3.5041055515866414E-002   0.0000000000000000     
  -2.7013517291119005E-012   1.8479112699247492E-002   0.0000000000000000     
  -3.0127922183952049E-012   2.2228296626142612E-002   0.0000000000000000     
  -3.4807426580775458E-012   2.6233506955223477E-002   0.0000000000000000     
  -4.1052021401396036E-012   3.0494743686490078E-002   0.0000000000000000     
  -4.8861711118147744E-012   3.5012006819942425E-002   0.0000000000000000     
   1.0704734856604876E-002   3.5476785954425175E-002   0.0000000000000000     
   1.1566128910546106E-002   4.0237339907449959E-002   0.0000000000000000     
   1.2405124305935234E-002   4.5208104010468417E-002   0.0000000000000000     
   1.3221721042772258E-002   5.0389078263480588E-002   0.0000000000000000     
   1.4015919121057183E-002   5.5780262666486419E-002   0.0000000000000000     
   7.9899305489937091E-003   3.5273445083107771E-002   0.0000000000000000     
   8.6324179763934122E-003   4.0030752724044084E-002   0.0000000000000000     
   9.2592474241773894E-003   4.5000678866659115E-002   0.0000000000000000     
   9.8704188923456389E-003   5.0183223510952862E-002   0.0000000000000000     
   1.0465932380898168E-002   5.5578386656925327E-002   0.0000000000000000     
   5.3008733028748123E-003   3.5128201603588184E-002   0.0000000000000000     
   5.7268261790241115E-003   3.9883190450228034E-002   0.0000000000000000     
   6.1431010784221913E-003   4.4852518049735252E-002   0.0000000000000000     
   6.5496980010690516E-003   5.0036184402109843E-002   0.0000000000000000     
   6.9466169469646916E-003   5.5434189507351815E-002   0.0000000000000000     
   2.6375631182481859E-003   3.5041055515866414E-002   0.0000000000000000     
   2.8493535184382053E-003   3.9794653086001809E-002   0.0000000000000000     
   3.0566852686696394E-003   4.4763621559696862E-002   0.0000000000000000     
   3.2595583689424886E-003   4.9947960936951558E-002   0.0000000000000000     
   3.4579728192567524E-003   5.5347671217765897E-002   0.0000000000000000     
  -4.8861711118147744E-012   3.5012006819942425E-002   0.0000000000000000     
  -5.3643063298650095E-012   3.9765140631365402E-002   0.0000000000000000     
  -5.0802643884219345E-012   4.4733989396543918E-002   0.0000000000000000     
  -4.0340448131470988E-012   4.9918553115477979E-002   0.0000000000000000     
  -2.2256471839121605E-012   5.5318831788167579E-002   0.0000000000000000     
   1.4015919121057183E-002   5.5780262666486419E-002   0.0000000000000000     
   1.4787061299425693E-002   6.1370070167603055E-002   0.0000000000000000     
   1.5534490336513470E-002   6.7146913714947562E-002   0.0000000000000000     
   1.6258206232320521E-002   7.3110793308519981E-002   0.0000000000000000     
   1.6958208986846843E-002   7.9261708948320297E-002   0.0000000000000000     
   1.0465932380898168E-002   5.5578386656925327E-002   0.0000000000000000     
   1.1044416115702780E-002   6.1173530848360504E-002   0.0000000000000000     
   1.1604498322627298E-002   6.6956018629042435E-002   0.0000000000000000     
   1.2146179001671710E-002   7.2925849998971087E-002   0.0000000000000000     
   1.2669458152836025E-002   7.9083024958146467E-002   0.0000000000000000     
   6.9466169469646916E-003   5.5434189507351815E-002   0.0000000000000000     
   7.3323575045437447E-003   6.1033145620420642E-002   0.0000000000000000     
   7.7054192622408426E-003   6.6819664996275799E-002   0.0000000000000000     
   8.0658022200559877E-003   7.2793747634917319E-002   0.0000000000000000     
   8.4135063779891793E-003   7.8955393536345161E-002   0.0000000000000000     
   3.4579728192567524E-003   5.5347671217765897E-002   0.0000000000000000     
   3.6508854659485779E-003   6.0948914483783430E-002   0.0000000000000000     
   3.8372531553541116E-003   6.6737852816647694E-002   0.0000000000000000     
   4.0170758874733554E-003   7.2714486216358676E-002   0.0000000000000000     
   4.1903536623063070E-003   7.8878814682916354E-002   0.0000000000000000     
  -2.2256471839121605E-012   5.5318831788167579E-002   0.0000000000000000     
  -8.2717470026305584E-014   6.0920837438448880E-002   0.0000000000000000     
   1.9671024791695357E-012   6.6710582090158052E-002   0.0000000000000000     
   3.9238097905396063E-012   7.2688065743295130E-002   0.0000000000000000     
   5.7874083130016185E-012   7.8853288397860086E-002   0.0000000000000000     
   1.6958208986846843E-002   7.9261708948320297E-002   0.0000000000000000     
   1.7624809666450345E-002   8.5566154271268138E-002   0.0000000000000000     
   1.8248319337488928E-002   9.1990622914283157E-002   0.0000000000000000     
   1.8828737999962594E-002   9.8535114877365326E-002   0.0000000000000000     
   1.9366065653871348E-002  0.10519963016051469        0.0000000000000000     
   1.2669458152836025E-002   7.9083024958146467E-002   0.0000000000000000     
   1.3167988501821510E-002   8.5393419582908220E-002   0.0000000000000000     
   1.3635422774329447E-002   9.1822909949595952E-002   0.0000000000000000     
   1.4071760970359832E-002   9.8371496058209704E-002   0.0000000000000000     
   1.4477003089912666E-002  0.10503917790874946        0.0000000000000000     
   8.4135063779891793E-003   7.8955393536345161E-002   0.0000000000000000     
   8.7449131704667345E-003   8.5270037662262779E-002   0.0000000000000000     
   9.0564040319149799E-003   9.1703114974373626E-002   0.0000000000000000     
   9.3479789623339121E-003   9.8254625472677701E-002   0.0000000000000000     
   9.6196379617235345E-003  0.10492456915717499        0.0000000000000000     
   4.1903536623063070E-003   7.8878814682916354E-002   0.0000000000000000     
   4.3555836723860146E-003   8.5196008509331844E-002   0.0000000000000000     
   4.5112631102455251E-003   9.1631237988616152E-002   0.0000000000000000     
   4.6573919758848394E-003   9.8184503120769318E-002   0.0000000000000000     
   4.7939702693039566E-003  0.10485580390579131        0.0000000000000000     
   5.7874083130016185E-012   7.8853288397860086E-002   0.0000000000000000     
   7.5793475228652651E-012   8.5171332124115415E-002   0.0000000000000000     
   9.3210813416691463E-012   9.1607278992323557E-002   0.0000000000000000     
   1.1012609254417230E-011   9.8161129002484568E-002   0.0000000000000000     
   1.2653931721895439E-011  0.10483288215459839        0.0000000000000000     
   1.9366065653871348E-002  0.10519963016051469        0.0000000000000000     
   1.9902472023038721E-002  0.11207111660929440        0.0000000000000000     
   2.0480126831288237E-002  0.11923652206926766        0.0000000000000000     
   2.1099030078619893E-002  0.12669584654043450        0.0000000000000000     
   2.1759181765033702E-002  0.13444909002279493        0.0000000000000000     
   1.4477003089912666E-002  0.10503917790874946        0.0000000000000000     
   1.4880391198123309E-002  0.11191556413383719        0.0000000000000000     
   1.5311167360127137E-002  0.11909026336609485        0.0000000000000000     
   1.5769331575924139E-002  0.12656327560552247        0.0000000000000000     
   1.6254883845514323E-002  0.13433460085212001        0.0000000000000000     
   9.6196379617235345E-003  0.10492456915717499        0.0000000000000000     
   9.8892855883211516E-003  0.11180445522251589        0.0000000000000000     
   1.0174826400364064E-002  0.11898579286335075        0.0000000000000000     
   1.0476260397852283E-002  0.12646858207967956        0.0000000000000000     
   1.0793587580785803E-002  0.13425282287150236        0.0000000000000000     
   4.7939702693039566E-003  0.10485580390579131        0.0000000000000000     
   4.9291551936322311E-003  0.11173778987533052        0.0000000000000000     
   5.0711039519990226E-003  0.11892311056103540        0.0000000000000000     
   5.2198165444043250E-003  0.12641176596290585        0.0000000000000000     
   5.3752929708481435E-003  0.13420375608094195        0.0000000000000000     
   1.2653931721895439E-011  0.10483288215459839        0.0000000000000000     
   1.4056559085109943E-011  0.11171556809228110        0.0000000000000000     
   1.5032003419790385E-011  0.11890221645914875        0.0000000000000000     
   1.5580265159617634E-011  0.12639282725520129        0.0000000000000000     
   1.5701342569868215E-011  0.13418740048043878        0.0000000000000000     
   2.1759181765033702E-002  0.13444909002279493        0.0000000000000000     
   2.2379796029714471E-002  0.14230026611719565        0.0000000000000000     
   2.2880087011847034E-002  0.15005338842448349        0.0000000000000000     
   2.3260054711431371E-002  0.15770845694465843        0.0000000000000000     
   2.3519699128467499E-002  0.16526547167772046        0.0000000000000000     
   1.6254883845514323E-002  0.13433460085212001        0.0000000000000000     
   1.6711020631451991E-002  0.14220317752328021        0.0000000000000000     
   1.7080938396291462E-002  0.14996794403639566        0.0000000000000000     
   1.7364637140032724E-002  0.15762890039146643        0.0000000000000000     
   1.7562116862675791E-002  0.16518604658849245        0.0000000000000000     
   1.0793587580785803E-002  0.13425282287150236        0.0000000000000000     
   1.1091462831425132E-002  0.14213382852662190        0.0000000000000000     
   1.1334541032030779E-002  0.14990691233284112        0.0000000000000000     
   1.1522822182602746E-002  0.15757207429015985        0.0000000000000000     
   1.1656306283141028E-002  0.16512931439857820        0.0000000000000000     
   5.3752929708481435E-003  0.13420375608094195        0.0000000000000000     
   5.5211226296338909E-003  0.14209221912722086        0.0000000000000000     
   5.6408949190649843E-003  0.14987029331381979        0.0000000000000000     
   5.7346098391414220E-003  0.15753797864073879        0.0000000000000000     
   5.8022673898632075E-003  0.16509527510797772        0.0000000000000000     
   1.5701342569868215E-011  0.13418740048043878        0.0000000000000000     
   2.6078268450940856E-011  0.14207834932507701        0.0000000000000000     
   5.7394075169553416E-011  0.14985808697933178        0.0000000000000000     
   1.0964876402674850E-010  0.15752661344320304        0.0000000000000000     
   1.8284233242044090E-010  0.16508392871669092        0.0000000000000000     
   0.0000000000000000        0.0000000000000000        0.0000000000000000     
  -2.5467293746951614E-013   1.0734901882697859E-003   0.0000000000000000     
  -5.6372604067406185E-013   2.5158903856183630E-003   0.0000000000000000     
  -9.2715933671869144E-013   4.3272005920457308E-003   0.0000000000000000     
  -1.3449728256034049E-012   6.5074208075518898E-003   0.0000000000000000     
   0.0000000000000000        0.0000000000000000        0.0000000000000000     
  -2.1295556022715310E-004   1.0757717688045657E-003   0.0000000000000000     
  -4.2692361387293502E-004   2.5210348114115036E-003   0.0000000000000000     
  -6.4190416093734581E-004   4.3357891278208160E-003   0.0000000000000000     
  -8.5789720142038530E-004   6.5200347180324990E-003   0.0000000000000000     
   0.0000000000000000        0.0000000000000000        0.0000000000000000     
  -4.2421712554118276E-004   1.0826165103474251E-003   0.0000000000000000     
  -8.5290891010776420E-004   2.5364680886470407E-003   0.0000000000000000     
  -1.2860753536997446E-003   4.3615547348988476E-003   0.0000000000000000     
  -1.7237164563171231E-003   6.5578764491028441E-003   0.0000000000000000     
   0.0000000000000000        0.0000000000000000        0.0000000000000000     
  -6.3378469619676200E-004   1.0940244128983638E-003   0.0000000000000000     
  -1.2779558892682136E-003   2.5621902173249729E-003   0.0000000000000000     
  -1.9325135792143552E-003   4.4044974132798273E-003   0.0000000000000000     
  -2.5974577660351872E-003   6.6209460007629261E-003   0.0000000000000000     
   0.0000000000000000        0.0000000000000000        0.0000000000000000     
  -8.4165827219389059E-004   1.1099954764573821E-003   0.0000000000000000     
  -1.7020645513542835E-003   2.5982011974453002E-003   0.0000000000000000     
  -2.5812188374811792E-003   4.4646171629637542E-003   0.0000000000000000     
  -3.4791211305745763E-003   6.7092433730127441E-003   0.0000000000000000     
  -1.3449728256034049E-012   6.5074208075518898E-003   0.0000000000000000     
  -1.7634991503114733E-012   9.0291579658170317E-003   0.0000000000000000     
  -2.1290710554701213E-012   1.1865019000521346E-002   0.0000000000000000     
  -2.4416886545817638E-012   1.5015003911664835E-002   0.0000000000000000     
  -2.7013517291119005E-012   1.8479112699247492E-002   0.0000000000000000     
  -8.5789720142038530E-004   6.5200347180324990E-003   0.0000000000000000     
  -1.0760411995379248E-003   9.0457524825761117E-003   0.0000000000000000     
  -1.2974746195058358E-003   1.1884923321981209E-002   0.0000000000000000     
  -1.5221974613241183E-003   1.5037547236247792E-002   0.0000000000000000     
  -1.7502097249927732E-003   1.8503624225375857E-002   0.0000000000000000     
  -1.7237164563171231E-003   6.5578764491028441E-003   0.0000000000000000     
  -2.1659793425348461E-003   9.0955360324118002E-003   0.0000000000000000     
  -2.6130111369278585E-003   1.1944636285978487E-002   0.0000000000000000     
  -3.0648118394961607E-003   1.5105177209802902E-002   0.0000000000000000     
  -3.5213814502397527E-003   1.8577158803885045E-002   0.0000000000000000     
  -2.5974577660351872E-003   6.6209460007629261E-003   0.0000000000000000     
  -3.2698144307542628E-003   9.1785086153241026E-003   0.0000000000000000     
  -3.9466095543951394E-003   1.2044157892513179E-002   0.0000000000000000     
  -4.6278431369578144E-003   1.5217893832330170E-002   0.0000000000000000     
  -5.3135151784422900E-003   1.8699716434775058E-002   0.0000000000000000     
  -3.4791211305745763E-003   6.7092433730127441E-003   0.0000000000000000     
  -4.3875464641961763E-003   9.2946702313130083E-003   0.0000000000000000     
  -5.2982698719076776E-003   1.2183488141585290E-002   0.0000000000000000     
  -6.2112913537090810E-003   1.5375697103829586E-002   0.0000000000000000     
  -7.1266109096003857E-003   1.8871297118045895E-002   0.0000000000000000     
  -2.7013517291119005E-012   1.8479112699247492E-002   0.0000000000000000     
  -3.0127922183952049E-012   2.2228296626142612E-002   0.0000000000000000     
  -3.4807426580775458E-012   2.6233506955223477E-002   0.0000000000000000     
  -4.1052021401396036E-012   3.0494743686490078E-002   0.0000000000000000     
  -4.8861711118147744E-012   3.5012006819942425E-002   0.0000000000000000     
  -1.7502097249927732E-003   1.8503624225375857E-002   0.0000000000000000     
  -1.9779120436284451E-003   2.2254316325943921E-002   0.0000000000000000     
  -2.2017050503477784E-003   2.6260785574530494E-002   0.0000000000000000     
  -2.4215887451507767E-003   3.0523031971135563E-002   0.0000000000000000     
  -2.6375631280374356E-003   3.5041055515759145E-002   0.0000000000000000     
  -3.5213814502397527E-003   1.8577158803885045E-002   0.0000000000000000     
  -3.9768152402678688E-003   2.2332375425754204E-002   0.0000000000000000     
  -4.4252084806897475E-003   2.6342621432939656E-002   0.0000000000000000     
  -4.8665611715053873E-003   3.0607896825441412E-002   0.0000000000000000     
  -5.3008733127147883E-003   3.5128201603259461E-002   0.0000000000000000     
  -5.3135151784422900E-003   1.8699716434775058E-002   0.0000000000000000     
  -5.9967095929310673E-003   2.2462473925573462E-002   0.0000000000000000     
  -6.6705102945066493E-003   2.6479014530450984E-002   0.0000000000000000     
  -7.3349172831690367E-003   3.0749338249407617E-002   0.0000000000000000     
  -7.9899305589182287E-003   3.5273445082443372E-002   0.0000000000000000     
  -7.1266109096003857E-003   1.8871297118045895E-002   0.0000000000000000     
  -8.0375951016180384E-003   2.2644611825401697E-002   0.0000000000000000     
  -8.9376104917984842E-003   2.6669964867064463E-002   0.0000000000000000     
  -9.8266570801417222E-003   3.0947356243034196E-002   0.0000000000000000     
  -1.0704734866647752E-002   3.5476785953310885E-002   0.0000000000000000     
  -4.8861711118147744E-012   3.5012006819942425E-002   0.0000000000000000     
  -5.3643063298650095E-012   3.9765140631365402E-002   0.0000000000000000     
  -5.0802643884219345E-012   4.4733989396543918E-002   0.0000000000000000     
  -4.0340448131470988E-012   4.9918553115477979E-002   0.0000000000000000     
  -2.2256471839121605E-012   5.5318831788167579E-002   0.0000000000000000     
  -2.6375631280374356E-003   3.5041055515759145E-002   0.0000000000000000     
  -2.8493535292174309E-003   3.9794653086131643E-002   0.0000000000000000     
  -3.0566852789004314E-003   4.4763621559983487E-002   0.0000000000000000     
  -3.2595583770864368E-003   4.9947960937314677E-002   0.0000000000000000     
  -3.4579728237754499E-003   5.5347671218125193E-002   0.0000000000000000     
  -5.3008733127147883E-003   3.5128201603259461E-002   0.0000000000000000     
  -5.7268261899551757E-003   3.9883190450113334E-002   0.0000000000000000     
  -6.1431010888637720E-003   4.4852518049722567E-002   0.0000000000000000     
  -6.5496980094405782E-003   5.0036184402087173E-002   0.0000000000000000     
  -6.9466169516855941E-003   5.5434189507207118E-002   0.0000000000000000     
  -7.9899305589182287E-003   3.5273445082443372E-002   0.0000000000000000     
  -8.6324179875775387E-003   4.0030752723310484E-002   0.0000000000000000     
  -9.2592474349702854E-003   4.5000678865761187E-002   0.0000000000000000     
  -9.8704189010964654E-003   5.0183223509795483E-002   0.0000000000000000     
  -1.0465932385956080E-002   5.5578386655413370E-002   0.0000000000000000     
  -1.0704734866647752E-002   3.5476785953310885E-002   0.0000000000000000     
  -1.1566128922084523E-002   4.0237339905723091E-002   0.0000000000000000     
  -1.2405124317219973E-002   4.5208104008099319E-002   0.0000000000000000     
  -1.3221721052054101E-002   5.0389078260439597E-002   0.0000000000000000     
  -1.4015919126586911E-002   5.5780262662743912E-002   0.0000000000000000     
  -2.2256471839121605E-012   5.5318831788167579E-002   0.0000000000000000     
  -8.2717470026305584E-014   6.0920837438448880E-002   0.0000000000000000     
   1.9671024791695357E-012   6.6710582090158052E-002   0.0000000000000000     
   3.9238097905396063E-012   7.2688065743295130E-002   0.0000000000000000     
   5.7874083130016185E-012   7.8853288397860086E-002   0.0000000000000000     
  -3.4579728237754499E-003   5.5347671218125193E-002   0.0000000000000000     
  -3.6508854661680993E-003   6.0948914483973438E-002   0.0000000000000000     
  -3.8372531514650195E-003   6.6737852816417795E-002   0.0000000000000000     
  -4.0170758796662090E-003   7.2714486215458257E-002   0.0000000000000000     
  -4.1903536507716692E-003   7.8878814681094825E-002   0.0000000000000000     
  -6.9466169516855941E-003   5.5434189507207118E-002   0.0000000000000000     
  -7.3323575049255270E-003   6.1033145619913597E-002   0.0000000000000000     
  -7.7054192584870857E-003   6.6819664995037734E-002   0.0000000000000000     
  -8.0658022123702641E-003   7.2793747632579564E-002   0.0000000000000000     
  -8.4135063665750735E-003   7.8955393532539053E-002   0.0000000000000000     
  -1.0465932385956080E-002   5.5578386655413370E-002   0.0000000000000000     
  -1.1044416116355003E-002   6.1173530846269336E-002   0.0000000000000000     
  -1.1604498319099096E-002   6.6956018626017896E-002   0.0000000000000000     
  -1.2146178994188366E-002   7.2925849994659037E-002   0.0000000000000000     
  -1.2669458141622807E-002   7.9083024952192771E-002   0.0000000000000000     
  -1.4015919126586911E-002   5.5780262662743912E-002   0.0000000000000000     
  -1.4787061300456521E-002   6.1370070163040656E-002   0.0000000000000000     
  -1.5534490333301048E-002   6.7146913709358255E-002   0.0000000000000000     
  -1.6258206225120496E-002   7.3110793301696703E-002   0.0000000000000000     
  -1.6958208975914869E-002   7.9261708940055978E-002   0.0000000000000000     
   5.7874083130016185E-012   7.8853288397860086E-002   0.0000000000000000     
   7.5793475228652651E-012   8.5171332124115415E-002   0.0000000000000000     
   9.3210813416691463E-012   9.1607278992323557E-002   0.0000000000000000     
   1.1012609254417230E-011   9.8161129002484568E-002   0.0000000000000000     
   1.2653931721895439E-011  0.10483288215459839        0.0000000000000000     
  -4.1903536507716692E-003   7.8878814681094825E-002   0.0000000000000000     
  -4.3555836572684997E-003   8.5196008506696841E-002   0.0000000000000000     
  -4.5112630916438095E-003   9.1631237985633635E-002   0.0000000000000000     
  -4.6573919538975923E-003   9.8184503117905192E-002   0.0000000000000000     
  -4.7939702440298517E-003  0.10485580390351151        0.0000000000000000     
  -8.4135063665750735E-003   7.8955393532539053E-002   0.0000000000000000     
  -8.7449131554727631E-003   8.5270037657159486E-002   0.0000000000000000     
  -9.0564040134345977E-003   9.1703114968684121E-002   0.0000000000000000     
  -9.3479789404605808E-003   9.8254625467112958E-002   0.0000000000000000     
  -9.6196379365507054E-003  0.10492456915244600        0.0000000000000000     
  -1.2669458141622807E-002   7.9083024952192771E-002   0.0000000000000000     
  -1.3167988487033443E-002   8.5393419575503351E-002   0.0000000000000000     
  -1.3635422756051289E-002   9.1822909941475045E-002   0.0000000000000000     
  -1.4071760948676352E-002   9.8371496050107865E-002   0.0000000000000000     
  -1.4477003064908629E-002  0.10503917790140178        0.0000000000000000     
  -1.6958208975914869E-002   7.9261708940055978E-002   0.0000000000000000     
  -1.7624809651950537E-002   8.5566154261728436E-002   0.0000000000000000     
  -1.8248319319493882E-002   9.1990622904006406E-002   0.0000000000000000     
  -1.8828737978544913E-002   9.8535114866889872E-002   0.0000000000000000     
  -1.9366065629103622E-002  0.10519963015037889        0.0000000000000000     
   1.2653931721895439E-011  0.10483288215459839        0.0000000000000000     
   1.4056559085109943E-011  0.11171556809228110        0.0000000000000000     
   1.5032003419790385E-011  0.11890221645914875        0.0000000000000000     
   1.5580265159617634E-011  0.12639282725520129        0.0000000000000000     
   1.5701342569868215E-011  0.13418740048043878        0.0000000000000000     
  -4.7939702440298517E-003  0.10485580390351151        0.0000000000000000     
  -4.9291551655949407E-003  0.11173778987321137        0.0000000000000000     
  -5.0711039221472114E-003  0.11892311055776343        0.0000000000000000     
  -5.2198165136866648E-003  0.12641176595716774        0.0000000000000000     
  -5.3752929402133016E-003  0.13420375607142429        0.0000000000000000     
  -9.6196379365507054E-003  0.10492456915244600        0.0000000000000000     
  -9.8892855605113399E-003  0.11180445521796509        0.0000000000000000     
  -1.0174826371148847E-002  0.11898579285695210        0.0000000000000000     
  -1.0476260368463230E-002  0.12646858206940706        0.0000000000000000     
  -1.0793587552454489E-002  0.13425282285532991        0.0000000000000000     
  -1.4477003064908629E-002  0.10503917790140178        0.0000000000000000     
  -1.4880391170692640E-002  0.11191556412654226        0.0000000000000000     
  -1.5311167331972908E-002  0.11909026335671472        0.0000000000000000     
  -1.5769331548749429E-002  0.12656327559191916        0.0000000000000000     
  -1.6254883821022224E-002  0.13433460083215559        0.0000000000000000     
  -1.9366065629103622E-002  0.10519963015037889        0.0000000000000000     
  -1.9902471996138836E-002  0.11207111659894288        0.0000000000000000     
  -2.0480126804619383E-002  0.11923652205705129        0.0000000000000000     
  -2.1099030054545269E-002  0.12669584652470414        0.0000000000000000     
  -2.1759181745916494E-002  0.13444909000190142        0.0000000000000000     
   1.5701342569868215E-011  0.13418740048043878        0.0000000000000000     
   2.6078268450940856E-011  0.14207834932507701        0.0000000000000000     
   5.7394075169553416E-011  0.14985808697933178        0.0000000000000000     
   1.0964876402674850E-010  0.15752661344320304        0.0000000000000000     
   1.8284233242044090E-010  0.16508392871669092        0.0000000000000000     
  -5.3752929402133016E-003  0.13420375607142429        0.0000000000000000     
  -5.5211225785503810E-003  0.14209221912070213        0.0000000000000000     
  -5.6408948055211659E-003  0.14987029332517035        0.0000000000000000     
  -5.7346096211256603E-003  0.15753797868482894        0.0000000000000000     
  -5.8022670253638610E-003  0.16509527519967793        0.0000000000000000     
  -1.0793587552454489E-002  0.13425282285532991        0.0000000000000000     
  -1.1091462783560704E-002  0.14213382851460807        0.0000000000000000     
  -1.1334540922219969E-002  0.14990691234712891        0.0000000000000000     
  -1.1522821968432278E-002  0.15757207435289250        0.0000000000000000     
  -1.1656305922197635E-002  0.16512931453189869        0.0000000000000000     
  -1.6254883821022224E-002  0.13433460083215559        0.0000000000000000     
  -1.6711020588952706E-002  0.14220317750679481        0.0000000000000000     
  -1.7080938292702325E-002  0.14996794404520747        0.0000000000000000     
  -1.7364636932271089E-002  0.15762890044739367        0.0000000000000000     
  -1.7562116507658987E-002  0.16518604671335327        0.0000000000000000     
  -2.1759181745916494E-002  0.13444909000190142        0.0000000000000000     
  -2.2379795994726375E-002  0.14230026609726229        0.0000000000000000     
  -2.2880086916968242E-002  0.15005338841940599        0.0000000000000000     
  -2.3260054512642094E-002  0.15770845696833241        0.0000000000000000     
  -2.3519698781747918E-002  0.16526547174404163        0.0000000000000000     
   0.0000000000000000        0.0000000000000000        0.0000000000000000     
  -8.4165827219389059E-004   1.1099954764573821E-003   0.0000000000000000     
  -1.7020645513542835E-003   2.5982011974453002E-003   0.0000000000000000     
  -2.5812188374811792E-003   4.4646171629637542E-003   0.0000000000000000     
  -3.4791211305745763E-003   6.7092433730127441E-003   0.0000000000000000     
   0.0000000000000000        0.0000000000000000        0.0000000000000000     
  -1.0567178825909742E-003   1.1341146565407685E-003   0.0000000000000000     
  -2.1397449236876761E-003   2.6503796130446047E-003   0.0000000000000000     
  -3.2490811232901064E-003   4.5487948695115080E-003   0.0000000000000000     
  -4.3847264813982652E-003   6.8293604259414796E-003   0.0000000000000000     
   0.0000000000000000        0.0000000000000000        0.0000000000000000     
  -1.2878435564464179E-003   1.1699669086648106E-003   0.0000000000000000     
  -2.6055070335900951E-003   2.7246040481594671E-003   0.0000000000000000     
  -3.9529904314310306E-003   4.6639114184839686E-003   0.0000000000000000     
  -5.3302937499692246E-003   6.9878890196383167E-003   0.0000000000000000     
   0.0000000000000000        0.0000000000000000        0.0000000000000000     
  -1.5350352937602224E-003   1.2175522328295089E-003   0.0000000000000000     
  -3.0993508810615387E-003   2.8208745027898871E-003   0.0000000000000000     
  -4.6929467619039504E-003   4.8099668098811350E-003   0.0000000000000000     
  -6.3158229362874569E-003   7.1848291541032503E-003   0.0000000000000000     
   0.0000000000000000        0.0000000000000000        0.0000000000000000     
  -1.7982930945323870E-003   1.2768706290348635E-003   0.0000000000000000     
  -3.6212764661020091E-003   2.9391909769358650E-003   0.0000000000000000     
  -5.4689501147088676E-003   4.9869610437030046E-003   0.0000000000000000     
  -7.3413140403529604E-003   7.4201808293362839E-003   0.0000000000000000     
  -3.4791211305745763E-003   6.7092433730127441E-003   0.0000000000000000     
  -4.3875464641961763E-003   9.2946702313130083E-003   0.0000000000000000     
  -5.2982698719076776E-003   1.2183488141585290E-002   0.0000000000000000     
  -6.2112913537090810E-003   1.5375697103829586E-002   0.0000000000000000     
  -7.1266109096003857E-003   1.8871297118045895E-002   0.0000000000000000     
  -4.3847264813982652E-003   6.8293604259414796E-003   0.0000000000000000     
  -5.5337518178056886E-003   9.4499756538102501E-003   0.0000000000000000     
  -6.6832279523059129E-003   1.2368539924593547E-002   0.0000000000000000     
  -7.8331548848989407E-003   1.5585053238291374E-002   0.0000000000000000     
  -8.9835326155847696E-003   1.9099515594903724E-002   0.0000000000000000     
  -5.3302937499692246E-003   6.9878890196383167E-003   0.0000000000000000     
  -6.7230068665279025E-003   9.6503796562475430E-003   0.0000000000000000     
  -8.1167196584302857E-003   1.2605226132936685E-002   0.0000000000000000     
  -9.5114321256763740E-003   1.5852428449705743E-002   0.0000000000000000     
  -1.0907144268266172E-002   1.9391986606554716E-002   0.0000000000000000     
  -6.3158229362874569E-003   7.1848291541032503E-003   0.0000000000000000     
  -7.9553116103628172E-003   9.8958822386248889E-003   0.0000000000000000     
  -9.5987449902807925E-003   1.2893546766614703E-002   0.0000000000000000     
  -1.1246123076041385E-002   1.6177822738072691E-002   0.0000000000000000     
  -1.2897445867644589E-002   1.9748710152998863E-002   0.0000000000000000     
  -7.3413140403529604E-003   7.4201808293362839E-003   0.0000000000000000     
  -9.2306660493104362E-003   1.0186483400942286E-002   0.0000000000000000     
  -1.1129303947857438E-002   1.3233501825627603E-002   0.0000000000000000     
  -1.3037227735993971E-002   1.6561236103392225E-002   0.0000000000000000     
  -1.4954437413720026E-002   2.0169686234236164E-002   0.0000000000000000     
  -7.1266109096003857E-003   1.8871297118045895E-002   0.0000000000000000     
  -8.0375951016180384E-003   2.2644611825401697E-002   0.0000000000000000     
  -8.9376104917984842E-003   2.6669964867064463E-002   0.0000000000000000     
  -9.8266570801417222E-003   3.0947356243034196E-002   0.0000000000000000     
  -1.0704734866647752E-002   3.5476785953310885E-002   0.0000000000000000     
  -8.9835326155847696E-003   1.9099515594903724E-002   0.0000000000000000     
  -1.0127261333906854E-002   2.2887331351691551E-002   0.0000000000000000     
  -1.1257241229408651E-002   2.6923904865915785E-002   0.0000000000000000     
  -1.2373472302090158E-002   3.1209236137576441E-002   0.0000000000000000     
  -1.3475954551951379E-002   3.5743325166673508E-002   0.0000000000000000     
  -1.0907144268266172E-002   1.9391986606554716E-002   0.0000000000000000     
  -1.2293497857375589E-002   2.3199174730895663E-002   0.0000000000000000     
  -1.3660134664180553E-002   2.7249266950140648E-002   0.0000000000000000     
  -1.5007054688681061E-002   3.1542263264289674E-002   0.0000000000000000     
  -1.6334257930877109E-002   3.6078163673342739E-002   0.0000000000000000     
  -1.2897445867644589E-002   1.9748710152998863E-002   0.0000000000000000     
  -1.4536304672024247E-002   2.3580141963014035E-002   0.0000000000000000     
  -1.6146290796114196E-002   2.7646051119739053E-002   0.0000000000000000     
  -1.7727404239914424E-002   3.1946437623173909E-002   0.0000000000000000     
  -1.9279645003424946E-002   3.6481301473318593E-002   0.0000000000000000     
  -1.4954437413720026E-002   2.0169686234236164E-002   0.0000000000000000     
  -1.6855681777852825E-002   2.4030233048046669E-002   0.0000000000000000     
  -1.8715709625209562E-002   2.8114257374710981E-002   0.0000000000000000     
  -2.0534520955790257E-002   3.2421759214229108E-002   0.0000000000000000     
  -2.2312115769594895E-002   3.6952738566601057E-002   0.0000000000000000     
  -1.0704734866647752E-002   3.5476785953310885E-002   0.0000000000000000     
  -1.1566128922084523E-002   4.0237339905723091E-002   0.0000000000000000     
  -1.2405124317219973E-002   4.5208104008099319E-002   0.0000000000000000     
  -1.3221721052054101E-002   5.0389078260439597E-002   0.0000000000000000     
  -1.4015919126586911E-002   5.5780262662743912E-002   0.0000000000000000     
  -1.3475954551951379E-002   3.5743325166673508E-002   0.0000000000000000     
  -1.4556918102139325E-002   4.0505727385884253E-002   0.0000000000000000     
  -1.5608593075801019E-002   4.5475998227885929E-002   0.0000000000000000     
  -1.6630979472936465E-002   5.0654137692678548E-002   0.0000000000000000     
  -1.7624077293545655E-002   5.6040145780262091E-002   0.0000000000000000     
  -1.6334257930877109E-002   3.6078163673342739E-002   0.0000000000000000     
  -1.7633744636405147E-002   4.0838690552327084E-002   0.0000000000000000     
  -1.8897515050901620E-002   4.5805566276269943E-002   0.0000000000000000     
  -2.0125569174366535E-002   5.0978790845171318E-002   0.0000000000000000     
  -2.1317907006799884E-002   5.6358364259031221E-002   0.0000000000000000     
  -1.9279645003424946E-002   3.6481301473318593E-002   0.0000000000000000     
  -2.0796608524881983E-002   4.1236229405051596E-002   0.0000000000000000     
  -2.2271890242521773E-002   4.6196808153251376E-002   0.0000000000000000     
  -2.3705490156344312E-002   5.1363037717917955E-002   0.0000000000000000     
  -2.5097408266349597E-002   5.6734918099051311E-002   0.0000000000000000     
  -2.2312115769594895E-002   3.6952738566601057E-002   0.0000000000000000     
  -2.4045509767569848E-002   4.1698343944057775E-002   0.0000000000000000     
  -2.5731718650661480E-002   4.6649723858830226E-002   0.0000000000000000     
  -2.7370742418869796E-002   5.1806878310918431E-002   0.0000000000000000     
  -2.8962581072194793E-002   5.7169807300322353E-002   0.0000000000000000     
  -1.4015919126586911E-002   5.5780262662743912E-002   0.0000000000000000     
  -1.4787061300456521E-002   6.1370070163040656E-002   0.0000000000000000     
  -1.5534490333301048E-002   6.7146913709358255E-002   0.0000000000000000     
  -1.6258206225120496E-002   7.3110793301696703E-002   0.0000000000000000     
  -1.6958208975914869E-002   7.9261708940055978E-002   0.0000000000000000     
  -1.7624077293545655E-002   5.6040145780262091E-002   0.0000000000000000     
  -1.8587929672343923E-002   6.1623326695167888E-002   0.0000000000000000     
  -1.9522579744046597E-002   6.7392984641927264E-002   0.0000000000000000     
  -2.0428027508653666E-002   7.3349119620540207E-002   0.0000000000000000     
  -2.1304272966165147E-002   7.9491731631006715E-002   0.0000000000000000     
  -2.1317907006799884E-002   5.6358364259031221E-002   0.0000000000000000     
  -2.2474657847131038E-002   6.1933863567591327E-002   0.0000000000000000     
  -2.3595950994289360E-002   6.7694865820593322E-002   0.0000000000000000     
  -2.4681786448274862E-002   7.3641371018037208E-002   0.0000000000000000     
  -2.5732164209087527E-002   7.9773379159923011E-002   0.0000000000000000     
  -2.5097408266349597E-002   5.6734918099051311E-002   0.0000000000000000     
  -2.6447245824817868E-002   6.2301680780310974E-002   0.0000000000000000     
  -2.7754604084029369E-002   6.8052557245356443E-002   0.0000000000000000     
  -2.9019483043984079E-002   7.3987547494187747E-002   0.0000000000000000     
  -3.0241882704682015E-002   8.0106651526804878E-002   0.0000000000000000     
  -2.8962581072194793E-002   5.7169807300322353E-002   0.0000000000000000     
  -3.0505693605404418E-002   6.2726778333326821E-002   0.0000000000000000     
  -3.1998539013266589E-002   6.8466058916216641E-002   0.0000000000000000     
  -3.3441117295781315E-002   7.4387649048991811E-002   0.0000000000000000     
  -3.4833428452948609E-002   8.0491548731652318E-002   0.0000000000000000     
  -1.6958208975914869E-002   7.9261708940055978E-002   0.0000000000000000     
  -1.7624809651950537E-002   8.5566154261728436E-002   0.0000000000000000     
  -1.8248319319493882E-002   9.1990622904006406E-002   0.0000000000000000     
  -1.8828737978544913E-002   9.8535114866889872E-002   0.0000000000000000     
  -1.9366065629103622E-002  0.10519963015037889        0.0000000000000000     
  -2.1304272966165147E-002   7.9491731631006715E-002   0.0000000000000000     
  -2.2138667067294171E-002   8.5788241325260847E-002   0.0000000000000000     
  -2.2918560762753889E-002   9.2206069355236717E-002   0.0000000000000000     
  -2.3643954052544297E-002   9.8745215720934296E-002   0.0000000000000000     
  -2.4314846936665392E-002  0.10540568042235357        0.0000000000000000     
  -2.5732164209087527E-002   7.9773379159923011E-002   0.0000000000000000     
  -2.6732851150134480E-002   8.6059680375526762E-002   0.0000000000000000     
  -2.7669614144822812E-002   9.2469064794124492E-002   0.0000000000000000     
  -2.8542453193152531E-002   9.9001532415716312E-002   0.0000000000000000     
  -2.9351368295123643E-002  0.10565708324030208        0.0000000000000000     
  -3.0241882704682015E-002   8.0106651526804878E-002   0.0000000000000000     
  -3.1407361900471449E-002   8.6380471412526125E-002   0.0000000000000000     
  -3.2501479465700651E-002   9.2779609220669787E-002   0.0000000000000000     
  -3.3524235400369633E-002   9.9304064951235879E-002   0.0000000000000000     
  -3.4475629704478386E-002  0.10595383860422437        0.0000000000000000     
  -3.4833428452948609E-002   8.0491548731652318E-002   0.0000000000000000     
  -3.6162199318305083E-002   8.6750614436258949E-002   0.0000000000000000     
  -3.7414156725387421E-002   9.3137702634872546E-002   0.0000000000000000     
  -3.8589300674195588E-002   9.9652813327493053E-002   0.0000000000000000     
  -3.9687631164729606E-002  0.10629594651412047        0.0000000000000000     
  -1.9366065629103622E-002  0.10519963015037889        0.0000000000000000     
  -1.9902471996138836E-002  0.11207111659894288        0.0000000000000000     
  -2.0480126804619383E-002  0.11923652205705129        0.0000000000000000     
  -2.1099030054545269E-002  0.12669584652470414        0.0000000000000000     
  -2.1759181745916494E-002  0.13444909000190142        0.0000000000000000     
  -2.4314846936665392E-002  0.10540568042235357        0.0000000000000000     
  -2.4985586458696231E-002  0.11227111557504424        0.0000000000000000     
  -2.5710519662215884E-002  0.11942517329455594        0.0000000000000000     
  -2.6489646547224341E-002  0.12686785358088870        0.0000000000000000     
  -2.7322967113721605E-002  0.13459915643404249        0.0000000000000000     
  -2.9351368295123643E-002  0.10565708324030208        0.0000000000000000     
  -3.0159792980211136E-002  0.11251556399472365        0.0000000000000000     
  -3.1031160777889998E-002  0.11965682140582284        0.0000000000000000     
  -3.1965471688160239E-002  0.12708085547359962        0.0000000000000000     
  -3.2962725711021851E-002  0.13478766619805399        0.0000000000000000     
  -3.4475629704478386E-002  0.10595383860422437        0.0000000000000000     
  -3.5425091560683540E-002  0.11280446185798114        0.0000000000000000     
  -3.6442050151641731E-002  0.11993146639085195        0.0000000000000000     
  -3.7526505477352964E-002  0.12733485220283686        0.0000000000000000     
  -3.8678457537817228E-002  0.13501461929393591        0.0000000000000000     
  -3.9687631164729606E-002  0.10629594651412047        0.0000000000000000     
  -4.0781482200113447E-002  0.11313780916481664        0.0000000000000000     
  -4.1943187783471086E-002  0.12024910824964333        0.0000000000000000     
  -4.3172747914802502E-002  0.12762984376860051        0.0000000000000000     
  -4.4470162594107743E-002  0.13528001572168821        0.0000000000000000     
  -2.1759181745916494E-002  0.13444909000190142        0.0000000000000000     
  -2.2379795994726375E-002  0.14230026609726229        0.0000000000000000     
  -2.2880086916968242E-002  0.15005338841940599        0.0000000000000000     
  -2.3260054512642094E-002  0.15770845696833241        0.0000000000000000     
  -2.3519698781747918E-002  0.16526547174404163        0.0000000000000000     
  -2.7322967113721605E-002  0.13459915643404249        0.0000000000000000     
  -2.8107007930663185E-002  0.14242897247367120        0.0000000000000000     
  -2.8738295567004590E-002  0.15016719231942866        0.0000000000000000     
  -2.9216830022745815E-002  0.15781381597131491        0.0000000000000000     
  -2.9542611297886864E-002  0.16536884342932995        0.0000000000000000     
  -3.2962725711021851E-002  0.13478766619805399        0.0000000000000000     
  -3.3901875326544609E-002  0.14259317482368200        0.0000000000000000     
  -3.4661873014798256E-002  0.15031330259497974        0.0000000000000000     
  -3.5242718775782805E-002  0.15794804951194724        0.0000000000000000     
  -3.5644412609498265E-002  0.16549741557458444        0.0000000000000000     
  -3.8678457537817228E-002  0.13501461929393591        0.0000000000000000     
  -3.9764398182370618E-002  0.14279287314729475        0.0000000000000000     
  -4.0650819260349240E-002  0.15049171924605925        0.0000000000000000     
  -4.1337720771753073E-002  0.15811115759022931        0.0000000000000000     
  -4.1825102716582123E-002  0.16565118817980506        0.0000000000000000     
  -4.4470162594107743E-002  0.13528001572168821        0.0000000000000000     
  -4.5694576498141251E-002  0.14302806744450941        0.0000000000000000     
  -4.6705134303657539E-002  0.15070244227266705        0.0000000000000000     
  -4.7501836010656585E-002  0.15830314020616124        0.0000000000000000     
  -4.8084681619138418E-002  0.16583016124499184        0.0000000000000000     
   0.0000000000000000        0.0000000000000000        0.0000000000000000     
  -1.7982930945323870E-003   1.2768706290348635E-003   0.0000000000000000     
  -3.6212764661020091E-003   2.9391909769358650E-003   0.0000000000000000     
  -5.4689501147088676E-003   4.9869610437030046E-003   0.0000000000000000     
  -7.3413140403529604E-003   7.4201808293362839E-003   0.0000000000000000     
   0.0000000000000000        0.0000000000000000        0.0000000000000000     
  -2.0693734509556107E-003   1.3550001411313673E-003   0.0000000000000000     
  -4.1639636031303839E-003   3.0940268290327671E-003   0.0000000000000000     
  -6.2837704565243202E-003   5.2170800637041980E-003   0.0000000000000000     
  -8.4287940111374172E-003   7.7241598451456622E-003   0.0000000000000000     
   0.0000000000000000        0.0000000000000000        0.0000000000000000     
  -2.3400328552225925E-003   1.4590188129695136E-003   0.0000000000000000     
  -4.7200921065655415E-003   3.2998554175159571E-003   0.0000000000000000     
  -7.1401777540288456E-003   5.5225098136393296E-003   0.0000000000000000     
  -9.6002897976125070E-003   8.1269820013396329E-003   0.0000000000000000     
   0.0000000000000000        0.0000000000000000        0.0000000000000000     
  -2.6102713073333323E-003   1.5889266445493024E-003   0.0000000000000000     
  -5.2896619764074811E-003   3.5566767423854360E-003   0.0000000000000000     
  -8.0381720072224480E-003   5.9032502935083987E-003   0.0000000000000000     
  -1.0855801399778231E-002   8.6286472979181950E-003   0.0000000000000000     
   0.0000000000000000        0.0000000000000000        0.0000000000000000     
  -2.8800888072878306E-003   1.7447236358707338E-003   0.0000000000000000     
  -5.8726732126562053E-003   3.8644908036412030E-003   0.0000000000000000     
  -8.9777532161051249E-003   6.3593015033114077E-003   0.0000000000000000     
  -1.2195328817634587E-002   9.2291557348813461E-003   0.0000000000000000     
  -7.3413140403529604E-003   7.4201808293362839E-003   0.0000000000000000     
  -9.2306660493104362E-003   1.0186483400942286E-002   0.0000000000000000     
  -1.1129303947857438E-002   1.3233501825627603E-002   0.0000000000000000     
  -1.3037227735993971E-002   1.6561236103392225E-002   0.0000000000000000     
  -1.4954437413720026E-002   2.0169686234236164E-002   0.0000000000000000     
  -8.4287940111374172E-003   7.7241598451456622E-003   0.0000000000000000     
  -1.0590640576131311E-002   1.0557929699111136E-002   0.0000000000000000     
  -1.2760916460667637E-002   1.3661053151354593E-002   0.0000000000000000     
  -1.4939621664746390E-002   1.7033530201876031E-002   0.0000000000000000     
  -1.7126756188367575E-002   2.0675360850675457E-002   0.0000000000000000     
  -9.6002897976125070E-003   8.1269820013396329E-003   0.0000000000000000     
  -1.2076805583586000E-002   1.1045967689042830E-002   0.0000000000000000     
  -1.4546102458218801E-002   1.4212162585174881E-002   0.0000000000000000     
  -1.7008180421510911E-002   1.7625566689735788E-002   0.0000000000000000     
  -1.9463039473462326E-002   2.1286180002725554E-002   0.0000000000000000     
  -1.0855801399778231E-002   8.6286472979181950E-003   0.0000000000000000     
  -1.3689161071674500E-002   1.1650597370737368E-002   0.0000000000000000     
  -1.6484861940510933E-002   1.4886830127088472E-002   0.0000000000000000     
  -1.9242904006287528E-002   1.8337345566971502E-002   0.0000000000000000     
  -2.1963287269004282E-002   2.2002143690386465E-002   0.0000000000000000     
  -1.2195328817634587E-002   9.2291557348813461E-003   0.0000000000000000     
  -1.5427707040396817E-002   1.2371818744194752E-002   0.0000000000000000     
  -1.8577194907544035E-002   1.5685055777095364E-002   0.0000000000000000     
  -2.1643792419076244E-002   1.9168866833583171E-002   0.0000000000000000     
  -2.4627499574993439E-002   2.2823251913658180E-002   0.0000000000000000     
  -1.4954437413720026E-002   2.0169686234236164E-002   0.0000000000000000     
  -1.6855681777852825E-002   2.4030233048046669E-002   0.0000000000000000     
  -1.8715709625209562E-002   2.8114257374710981E-002   0.0000000000000000     
  -2.0534520955790257E-002   3.2421759214229108E-002   0.0000000000000000     
  -2.2312115769594895E-002   3.6952738566601057E-002   0.0000000000000000     
  -1.7126756188367575E-002   2.0675360850675457E-002   0.0000000000000000     
  -1.9291217754589370E-002   2.4558798276257548E-002   0.0000000000000000     
  -2.1401904086469942E-002   2.8656095657126998E-002   0.0000000000000000     
  -2.3458815184009305E-002   3.2967252993283812E-002   0.0000000000000000     
  -2.5461951047207453E-002   3.7492270284727978E-002   0.0000000000000000     
  -1.9463039473462326E-002   2.1286180002725554E-002   0.0000000000000000     
  -2.1882501181961930E-002   2.5175187937910674E-002   0.0000000000000000     
  -2.4238387114898598E-002   2.9273775909057657E-002   0.0000000000000000     
  -2.6530697272272329E-002   3.3581943916166500E-002   0.0000000000000000     
  -2.8759431654083126E-002   3.8099691959237202E-002   0.0000000000000000     
  -2.1963287269004282E-002   2.2002143690386465E-002   0.0000000000000000     
  -2.4629532059970510E-002   2.5879402033006049E-002   0.0000000000000000     
  -2.7225158710495523E-002   2.9967298130502959E-002   0.0000000000000000     
  -2.9750167220579327E-002   3.4265831982877193E-002   0.0000000000000000     
  -3.2204557590221915E-002   3.8775003590128754E-002   0.0000000000000000     
  -2.4627499574993439E-002   2.2823251913658180E-002   0.0000000000000000     
  -2.7532310388615103E-002   2.6671440561543660E-002   0.0000000000000000     
  -3.0362218873260721E-002   3.0736662321462892E-002   0.0000000000000000     
  -3.3117225028930296E-002   3.5018917193415877E-002   0.0000000000000000     
  -3.5797328855623818E-002   3.9518205177402607E-002   0.0000000000000000     
  -2.2312115769594895E-002   3.6952738566601057E-002   0.0000000000000000     
  -2.4045509767569848E-002   4.1698343944057775E-002   0.0000000000000000     
  -2.5731718650661480E-002   4.6649723858830226E-002   0.0000000000000000     
  -2.7370742418869796E-002   5.1806878310918431E-002   0.0000000000000000     
  -2.8962581072194793E-002   5.7169807300322353E-002   0.0000000000000000     
  -2.5461951047207453E-002   3.7492270284727978E-002   0.0000000000000000     
  -2.7411801269392796E-002   4.2226988404577719E-002   0.0000000000000000     
  -2.9308855443893760E-002   4.7167248225951260E-002   0.0000000000000000     
  -3.1153113570710347E-002   5.2313049748848581E-002   0.0000000000000000     
  -3.2944575649842552E-002   5.7664392973269696E-002   0.0000000000000000     
  -2.8759431654083126E-002   3.8099691959237202E-002   0.0000000000000000     
  -3.0926835935274920E-002   4.2824117021843536E-002   0.0000000000000000     
  -3.3035155790791658E-002   4.7752316087559213E-002   0.0000000000000000     
  -3.5084391220633331E-002   5.2884289156384268E-002   0.0000000000000000     
  -3.7074542224799945E-002   5.8220036228318665E-002   0.0000000000000000     
  -3.2204557590221915E-002   3.8775003590128754E-002   0.0000000000000000     
  -3.4590613765216209E-002   4.3489729795855199E-002   0.0000000000000000     
  -3.6910619691355145E-002   4.8404927443654107E-002   0.0000000000000000     
  -3.9164575368638745E-002   5.3520596533525464E-002   0.0000000000000000     
  -4.1352480797066965E-002   5.8836737065469276E-002   0.0000000000000000     
  -3.5797328855623818E-002   3.9518205177402607E-002   0.0000000000000000     
  -3.8403134759216681E-002   4.4223826726612736E-002   0.0000000000000000     
  -4.0935247145584275E-002   4.9125082294235942E-002   0.0000000000000000     
  -4.3393666014726585E-002   5.4221971880272196E-002   0.0000000000000000     
  -4.5778391366643620E-002   5.9514495484721527E-002   0.0000000000000000     
  -2.8962581072194793E-002   5.7169807300322353E-002   0.0000000000000000     
  -3.0505693605404418E-002   6.2726778333326821E-002   0.0000000000000000     
  -3.1998539013266589E-002   6.8466058916216641E-002   0.0000000000000000     
  -3.3441117295781315E-002   7.4387649048991811E-002   0.0000000000000000     
  -3.4833428452948609E-002   8.0491548731652318E-002   0.0000000000000000     
  -3.2944575649842552E-002   5.7664392973269696E-002   0.0000000000000000     
  -3.4680748764872503E-002   6.3208941285054110E-002   0.0000000000000000     
  -3.6359139999382319E-002   6.8934358070041279E-002   0.0000000000000000     
  -3.7979749353371985E-002   7.4840643328231260E-002   0.0000000000000000     
  -3.9542576826841536E-002   8.0927797059623996E-002   0.0000000000000000     
  -3.7074542224799945E-002   5.8220036228318665E-002   0.0000000000000000     
  -3.9003158879203949E-002   6.3747954693907982E-002   0.0000000000000000     
  -4.0867791259757806E-002   6.9456441943697739E-002   0.0000000000000000     
  -4.2668439366461502E-002   7.5345497977687914E-002   0.0000000000000000     
  -4.4405103199315059E-002   8.1415122795878564E-002   0.0000000000000000     
  -4.1352480797066965E-002   5.8836737065469276E-002   0.0000000000000000     
  -4.3472923948398759E-002   6.4343818559888494E-002   0.0000000000000000     
  -4.5524492794393058E-002   7.0032310537186032E-002   0.0000000000000000     
  -4.7507187335049848E-002   7.5902212997361870E-002   0.0000000000000000     
  -4.9421007570369158E-002   8.1953525940416050E-002   0.0000000000000000     
  -4.5778391366643620E-002   5.9514495484721527E-002   0.0000000000000000     
  -4.8090043972456933E-002   6.4996532882995603E-002   0.0000000000000000     
  -5.0329244603288074E-002   7.0661963850506132E-002   0.0000000000000000     
  -5.2495993259137057E-002   7.6510788387253059E-002   0.0000000000000000     
  -5.4590289940003853E-002   8.2543006493236440E-002   0.0000000000000000     
  -3.4833428452948609E-002   8.0491548731652318E-002   0.0000000000000000     
  -3.6162199318305083E-002   8.6750614436258949E-002   0.0000000000000000     
  -3.7414156725387421E-002   9.3137702634872546E-002   0.0000000000000000     
  -3.8589300674195588E-002   9.9652813327493053E-002   0.0000000000000000     
  -3.9687631164729606E-002  0.10629594651412047        0.0000000000000000     
  -3.9542576826841536E-002   8.0927797059623996E-002   0.0000000000000000     
  -4.1034942539239457E-002   8.7170651151154299E-002   0.0000000000000000     
  -4.2444166610014253E-002   9.3544037489756940E-002   0.0000000000000000     
  -4.3770249039165945E-002  0.10004795607543193        0.0000000000000000     
  -4.5013189826694514E-002  0.10668240690817926        0.0000000000000000     
  -4.4405103199315059E-002   8.1415122795878564E-002   0.0000000000000000     
  -4.6063170698878615E-002   8.7641123261641141E-002   0.0000000000000000     
  -4.7628029805712326E-002   9.3999306238347194E-002   0.0000000000000000     
  -4.9099680519816218E-002  0.10048967172599667        0.0000000000000000     
  -5.0478122841190284E-002  0.10711221972458962        0.0000000000000000     
  -4.9421007570369158E-002   8.1953525940416050E-002   0.0000000000000000     
  -5.1246883797222559E-002   8.8162030767719529E-002   0.0000000000000000     
  -5.2965746312481660E-002   9.4503508880643239E-002   0.0000000000000000     
  -5.4577595116146446E-002  0.10097796027918723        0.0000000000000000     
  -5.6082430208216925E-002  0.10758538496335150        0.0000000000000000     
  -5.4590289940003853E-002   8.2543006493236440E-002   0.0000000000000000     
  -5.6586081834271301E-002   8.8733373669389423E-002   0.0000000000000000     
  -5.8457316130322207E-002   9.5056645416645186E-002   0.0000000000000000     
  -6.0203992828156583E-002  0.10151282173500367        0.0000000000000000     
  -6.1826111927774437E-002  0.10810190262446495        0.0000000000000000     
  -3.9687631164729606E-002  0.10629594651412047        0.0000000000000000     
  -4.0781482200113447E-002  0.11313780916481664        0.0000000000000000     
  -4.1943187783471086E-002  0.12024910824964333        0.0000000000000000     
  -4.3172747914802502E-002  0.12762984376860051        0.0000000000000000     
  -4.4470162594107743E-002  0.13528001572168821        0.0000000000000000     
  -4.5013189826694514E-002  0.10668240690817926        0.0000000000000000     
  -4.6249388466085221E-002  0.11351317939801857        0.0000000000000000     
  -4.7555244450823354E-002  0.12060606295496949        0.0000000000000000     
  -4.8930757780908885E-002  0.12796105757903203        0.0000000000000000     
  -5.0375928456341840E-002  0.13557816327020619        0.0000000000000000     
  -5.0478122841190284E-002  0.10711221972458962        0.0000000000000000     
  -5.1849233926183243E-002  0.11392814604037532        0.0000000000000000     
  -5.3298890931143837E-002  0.12099864647960316        0.0000000000000000     
  -5.4827093856072082E-002  0.12832372104227308        0.0000000000000000     
  -5.6433842700967948E-002  0.13590336972838507        0.0000000000000000     
  -5.6082430208216925E-002  0.10758538496335150        0.0000000000000000     
  -5.7581018580407491E-002  0.11438270909188687        0.0000000000000000     
  -5.9174127224432556E-002  0.12142685882354422        0.0000000000000000     
  -6.0861756140292086E-002  0.12871783415832358        0.0000000000000000     
  -6.2643905327986110E-002  0.13625563509622485        0.0000000000000000     
  -6.1826111927774437E-002  0.10810190262446495        0.0000000000000000     
  -6.3444742428757986E-002  0.11487686855255323        0.0000000000000000     
  -6.5180953330689462E-002  0.12189069998679276        0.0000000000000000     
  -6.7034744633568899E-002  0.12914339692718352        0.0000000000000000     
  -6.9006116337396284E-002  0.13663495937372558        0.0000000000000000     
  -4.4470162594107743E-002  0.13528001572168821        0.0000000000000000     
  -4.5694576498141251E-002  0.14302806744450941        0.0000000000000000     
  -4.6705134303657539E-002  0.15070244227266705        0.0000000000000000     
  -4.7501836010656585E-002  0.15830314020616124        0.0000000000000000     
  -4.8084681619138418E-002  0.16583016124499184        0.0000000000000000     
  -5.0375928456341840E-002  0.13557816327020619        0.0000000000000000     
  -5.1740964180961399E-002  0.14329343179679715        0.0000000000000000     
  -5.2876072658606783E-002  0.15094291492711021        0.0000000000000000     
  -5.3781253889278020E-002  0.15852661266114521        0.0000000000000000     
  -5.4456507872975068E-002  0.16604452499890232        0.0000000000000000     
  -5.6433842700967948E-002  0.13590336972838507        0.0000000000000000     
  -5.7952115137935967E-002  0.14358364028562920        0.0000000000000000     
  -5.9214888839080659E-002  0.15121058046169539        0.0000000000000000     
  -6.0222163804401985E-002  0.15878419025658366        0.0000000000000000     
  -6.0973940033899970E-002  0.16630446967029405        0.0000000000000000     
  -6.2643905327986110E-002  0.13625563509622485        0.0000000000000000     
  -6.4328029369064982E-002  0.14389869291100546        0.0000000000000000     
  -6.5721582845079118E-002  0.15150543887642276        0.0000000000000000     
  -6.6824565756028492E-002  0.15907587299247655        0.0000000000000000     
  -6.7636978101913131E-002  0.16660999525916706        0.0000000000000000     
  -6.9006116337396284E-002  0.13663495937372558        0.0000000000000000     
  -7.0868706874348431E-002  0.14423858967292605        0.0000000000000000     
  -7.2396154676602209E-002  0.15182749017129216        0.0000000000000000     
  -7.3588459744157564E-002  0.15940166086882390        0.0000000000000000     
  -7.4445622077014523E-002  0.16696110176552131        0.0000000000000000     
   0.0000000000000000        0.0000000000000000        0.0000000000000000     
  -2.8800888072878306E-003   1.7447236358707338E-003   0.0000000000000000     
  -5.8726732126562053E-003   3.8644908036412030E-003   0.0000000000000000     
  -8.9777532161051249E-003   6.3593015033114077E-003   0.0000000000000000     
  -1.2195328817634587E-002   9.2291557348813461E-003   0.0000000000000000     
   0.0000000000000000        0.0000000000000000        0.0000000000000000     
  -3.2832908319001481E-003   1.9991446001634853E-003   0.0000000000000000     
  -6.6770641939089860E-003   4.3306918049684342E-003   0.0000000000000000     
  -1.0181320086026515E-002   6.9946416144148465E-003   0.0000000000000000     
  -1.3796058508252733E-002   9.9909940285027206E-003   0.0000000000000000     
   0.0000000000000000        0.0000000000000000        0.0000000000000000     
  -3.9536828579843477E-003   2.4249243506572348E-003   0.0000000000000000     
  -7.9107732987631005E-003   5.0626739500523052E-003   0.0000000000000000     
  -1.1871271322336261E-002   7.9132487981852101E-003   0.0000000000000000     
  -1.5835176928703825E-002   1.0976648895055948E-002   0.0000000000000000     
   0.0000000000000000        0.0000000000000000        0.0000000000000000     
  -4.8912648855404302E-003   3.0220628873519825E-003   0.0000000000000000     
  -9.5738005272185504E-003   6.0604372388928154E-003   0.0000000000000000     
  -1.4047606925034362E-002   9.1151230546224968E-003   0.0000000000000000     
  -1.8312684078987864E-002   1.2186120334541030E-002   0.0000000000000000     
   0.0000000000000000        0.0000000000000000        0.0000000000000000     
  -6.0960369145683924E-003   3.7905602102477278E-003   0.0000000000000000     
  -1.1666145879275331E-002   7.3239816714899646E-003   0.0000000000000000     
  -1.6710326894120817E-002   1.0600264383726712E-002   0.0000000000000000     
  -2.1228579959104845E-002   1.3619408346957965E-002   0.0000000000000000     
  -1.2195328817634587E-002   9.2291557348813461E-003   0.0000000000000000     
  -1.5427707040396817E-002   1.2371818744194752E-002   0.0000000000000000     
  -1.8577194907544035E-002   1.5685055777095364E-002   0.0000000000000000     
  -2.1643792419076244E-002   1.9168866833583171E-002   0.0000000000000000     
  -2.4627499574993439E-002   2.2823251913658180E-002   0.0000000000000000     
  -1.3796058508252733E-002   9.9909940285027206E-003   0.0000000000000000     
  -1.7404314033753112E-002   1.3221479634742002E-002   0.0000000000000000     
  -2.0889121235693118E-002   1.6587829020642628E-002   0.0000000000000000     
  -2.4250480114072756E-002   2.0090042186204592E-002   0.0000000000000000     
  -2.7488390668892023E-002   2.3728119131427902E-002   0.0000000000000000     
  -1.5835176928703825E-002   1.0976648895055948E-002   0.0000000000000000     
  -1.9730852595743548E-002   1.4211427867706123E-002   0.0000000000000000     
  -2.3486660801333204E-002   1.7576139343177328E-002   0.0000000000000000     
  -2.7102601545472775E-002   2.1070783321469562E-002   0.0000000000000000     
  -3.0578674828162272E-002   2.4695359802582834E-002   0.0000000000000000     
  -1.8312684078987864E-002   1.2186120334541030E-002   0.0000000000000000     
  -2.2407322726368143E-002   1.5341663443087119E-002   0.0000000000000000     
  -2.6369813604464287E-002   1.8649986744699476E-002   0.0000000000000000     
  -3.0200156713276301E-002   2.2111090239378087E-002   0.0000000000000000     
  -3.3898352052804184E-002   2.5724973927122967E-002   0.0000000000000000     
  -2.1228579959104845E-002   1.3619408346957965E-002   0.0000000000000000     
  -2.5433724425626879E-002   1.6612186360884997E-002   0.0000000000000000     
  -2.9538579645086372E-002   1.9809371225209062E-002   0.0000000000000000     
  -3.3543145617483325E-002   2.3210962939930167E-002   0.0000000000000000     
  -3.7447422342817741E-002   2.6816961505048309E-002   0.0000000000000000     
  -2.4627499574993439E-002   2.2823251913658180E-002   0.0000000000000000     
  -2.7532310388615103E-002   2.6671440561543660E-002   0.0000000000000000     
  -3.0362218873260721E-002   3.0736662321462892E-002   0.0000000000000000     
  -3.3117225028930296E-002   3.5018917193415877E-002   0.0000000000000000     
  -3.5797328855623818E-002   3.9518205177402607E-002   0.0000000000000000     
  -2.7488390668892023E-002   2.3728119131427902E-002   0.0000000000000000     
  -3.0625543449942408E-002   2.7545335994515648E-002   0.0000000000000000     
  -3.3684629007015403E-002   3.1584968913670922E-002   0.0000000000000000     
  -3.6665647340110991E-002   3.5847017888893717E-002   0.0000000000000000     
  -3.9568598449229192E-002   4.0331482920184042E-002   0.0000000000000000     
  -3.0578674828162272E-002   2.4695359802582834E-002   0.0000000000000000     
  -3.3943938525999112E-002   2.8495120802914133E-002   0.0000000000000000     
  -3.7227450515580754E-002   3.2515318338860497E-002   0.0000000000000000     
  -4.0429210796907152E-002   3.6755952410421892E-002   0.0000000000000000     
  -4.3549219369978368E-002   4.1217023017598338E-002   0.0000000000000000     
  -3.3898352052804184E-002   2.5724973927122967E-002   0.0000000000000000     
  -3.7487495616785230E-002   2.9520794986739131E-002   0.0000000000000000     
  -4.0990683398956770E-002   3.3527710597031600E-002   0.0000000000000000     
  -4.4407915399318806E-002   3.7745720758000409E-002   0.0000000000000000     
  -4.7739191617871345E-002   4.2174825469645502E-002   0.0000000000000000     
  -3.7447422342817741E-002   2.6816961505048309E-002   0.0000000000000000     
  -4.1256214722300746E-002   3.0622358545990630E-002   0.0000000000000000     
  -4.4974327657143480E-002   3.4622145688184273E-002   0.0000000000000000     
  -4.8601761147345941E-002   3.8816322931629232E-002   0.0000000000000000     
  -5.2138515192908130E-002   4.3204890276325528E-002   0.0000000000000000     
  -3.5797328855623818E-002   3.9518205177402607E-002   0.0000000000000000     
  -3.8403134759216681E-002   4.4223826726612736E-002   0.0000000000000000     
  -4.0935247145584275E-002   4.9125082294235942E-002   0.0000000000000000     
  -4.3393666014726585E-002   5.4221971880272196E-002   0.0000000000000000     
  -4.5778391366643620E-002   5.9514495484721527E-002   0.0000000000000000     
  -3.9568598449229192E-002   4.0331482920184042E-002   0.0000000000000000     
  -4.2391843006928859E-002   4.5023205827945542E-002   0.0000000000000000     
  -4.5133741685768849E-002   4.9907028432581872E-002   0.0000000000000000     
  -4.7794294485749192E-002   5.4982950734093025E-002   0.0000000000000000     
  -5.0373501406869858E-002   6.0250972732478994E-002   0.0000000000000000     
  -4.3549219369978368E-002   4.1217023017598338E-002   0.0000000000000000     
  -4.6584182598005265E-002   4.5884665113683006E-002   0.0000000000000000     
  -4.9530806844198770E-002   5.0745013651969040E-002   0.0000000000000000     
  -5.2389092108558896E-002   5.5798068632456468E-002   0.0000000000000000     
  -5.5159038391085623E-002   6.1043830055145264E-002   0.0000000000000000     
  -4.7739191617871345E-002   4.2174825469645502E-002   0.0000000000000000     
  -5.0980153532445893E-002   4.6808204583825126E-002   0.0000000000000000     
  -5.4126442620874009E-002   5.1639037952397479E-002   0.0000000000000000     
  -5.7178058883155670E-002   5.6667325575362533E-002   0.0000000000000000     
  -6.0135002319290906E-002   6.1893067452720336E-002   0.0000000000000000     
  -5.2138515192908130E-002   4.3204890276325528E-002   0.0000000000000000     
  -5.5579755810250778E-002   4.7793824238371904E-002   0.0000000000000000     
  -5.8920649015794586E-002   5.2589101333867148E-002   0.0000000000000000     
  -6.2161194809539577E-002   5.7590721562811246E-002   0.0000000000000000     
  -6.5301393191485729E-002   6.2798684925204212E-002   0.0000000000000000     
  -4.5778391366643620E-002   5.9514495484721527E-002   0.0000000000000000     
  -4.8090043972456933E-002   6.4996532882995603E-002   0.0000000000000000     
  -5.0329244603288074E-002   7.0661963850506132E-002   0.0000000000000000     
  -5.2495993259137057E-002   7.6510788387253059E-002   0.0000000000000000     
  -5.4590289940003853E-002   8.2543006493236440E-002   0.0000000000000000     
  -5.0373501406869858E-002   6.0250972732478994E-002   0.0000000000000000     
  -5.2874064374550528E-002   6.5707227822745295E-002   0.0000000000000000     
  -5.5298685314210873E-002   7.1347849399897426E-002   0.0000000000000000     
  -5.7647364225850900E-002   7.7172837463935370E-002   0.0000000000000000     
  -5.9920101109470603E-002   8.3182192014859158E-002   0.0000000000000000     
  -5.5159038391085623E-002   6.1043830055145264E-002   0.0000000000000000     
  -5.7844530577851598E-002   6.6477033538653515E-002   0.0000000000000000     
  -6.0449453554929478E-002   7.2092414701599342E-002   0.0000000000000000     
  -6.2973807322319247E-002   7.7889973543982693E-002   0.0000000000000000     
  -6.5417591880020887E-002   8.3869710065803599E-002   0.0000000000000000     
  -6.0135002319290906E-002   6.1893067452720336E-002   0.0000000000000000     
  -6.3001442582360165E-002   6.7305950030720291E-002   0.0000000000000000     
  -6.5781549325443889E-002   7.2895659755611866E-002   0.0000000000000000     
  -6.8475322548542064E-002   7.8662196627395015E-002   0.0000000000000000     
  -7.1082762251654719E-002   8.4605560646069777E-002   0.0000000000000000     
  -6.5301393191485729E-002   6.2798684925204212E-002   0.0000000000000000     
  -6.8344800388076193E-002   6.8193977298945593E-002   0.0000000000000000     
  -7.1294972625754072E-002   7.3757584561934972E-002   0.0000000000000000     
  -7.4151909904519378E-002   7.9489506714172320E-002   0.0000000000000000     
  -7.6915612224372099E-002   8.5389743755657679E-002   0.0000000000000000     
  -5.4590289940003853E-002   8.2543006493236440E-002   0.0000000000000000     
  -5.6586081834271301E-002   8.8733373669389423E-002   0.0000000000000000     
  -5.8457316130322207E-002   9.5056645416645186E-002   0.0000000000000000     
  -6.0203992828156583E-002  0.10151282173500367        0.0000000000000000     
  -6.1826111927774437E-002  0.10810190262446495        0.0000000000000000     
  -5.9920101109470603E-002   8.3182192014859158E-002   0.0000000000000000     
  -6.2085119551656458E-002   8.9350824902082585E-002   0.0000000000000000     
  -6.4110643138994977E-002   9.5653647975019490E-002   0.0000000000000000     
  -6.5996671871486154E-002  0.10209066123366987        0.0000000000000000     
  -6.7743205749129995E-002  0.10866186467803372        0.0000000000000000     
  -6.5417591880020887E-002   8.3869710065803599E-002   0.0000000000000000     
  -6.7748351691009720E-002   9.0010057401230734E-002   0.0000000000000000     
  -6.9933631218260947E-002   9.6289448684432760E-002   0.0000000000000000     
  -7.1973430461774637E-002  0.10270788391540973        0.0000000000000000     
  -7.3867749421550749E-002  0.10926536309416159        0.0000000000000000     
  -7.1082762251654719E-002   8.4605560646069777E-002   0.0000000000000000     
  -7.3575778252331012E-002   9.0711071166833870E-002   0.0000000000000000     
  -7.5926280368120130E-002   9.6964047544885010E-002   0.0000000000000000     
  -7.8134268599022005E-002  0.10336448978022326        0.0000000000000000     
  -8.0199742945036720E-002  0.10991239787284857        0.0000000000000000     
  -7.6915612224372099E-002   8.5389743755657679E-002   0.0000000000000000     
  -7.9567399235620409E-002   9.1453866198892009E-002   0.0000000000000000     
  -8.2088590588572471E-002   9.7677444556376253E-002   0.0000000000000000     
  -8.4479186283228300E-002  0.10406047882811047        0.0000000000000000     
  -8.6739186319587908E-002  0.11060296901409461        0.0000000000000000     
  -6.1826111927774437E-002  0.10810190262446495        0.0000000000000000     
  -6.3444742428757986E-002  0.11487686855255323        0.0000000000000000     
  -6.5180953330689462E-002  0.12189069998679276        0.0000000000000000     
  -6.7034744633568899E-002  0.12914339692718352        0.0000000000000000     
  -6.9006116337396284E-002  0.13663495937372558        0.0000000000000000     
  -6.7743205749129995E-002  0.10866186467803372        0.0000000000000000     
  -6.9487719454381522E-002  0.11541630117240079        0.0000000000000000     
  -7.1367687669695812E-002  0.12240301358106082        0.0000000000000000     
  -7.3383110395072851E-002  0.12962200190401377        0.0000000000000000     
  -7.5533987630512653E-002  0.13707326614125967        0.0000000000000000     
  -7.3867749421550749E-002  0.10926536309416159        0.0000000000000000     
  -7.5757263640424913E-002  0.11600668370145596        0.0000000000000000     
  -7.7782648661232731E-002  0.12297664321806041        0.0000000000000000     
  -7.9943904483974218E-002  0.13017524164397501        0.0000000000000000     
  -8.2241031108649346E-002  0.13760247897919964        0.0000000000000000     
  -8.0199742945036720E-002  0.10991239787284857        0.0000000000000000     
  -8.2253374986888159E-002  0.11664801613971873        0.0000000000000000     
  -8.4425836305300248E-002  0.12361158889779163        0.0000000000000000     
  -8.6717126900272973E-002  0.13080311614706719        0.0000000000000000     
  -8.9127246771806362E-002  0.13822259788754551        0.0000000000000000     
  -8.6739186319587908E-002  0.11060296901409461        0.0000000000000000     
  -8.8976053493771246E-002  0.11734029848718910        0.0000000000000000     
  -9.1297250601898319E-002  0.12430785062025437        0.0000000000000000     
  -9.3702777643969143E-002  0.13150562541329044        0.0000000000000000     
  -9.6192634619983702E-002  0.13893362286629726        0.0000000000000000     
  -6.9006116337396284E-002  0.13663495937372558        0.0000000000000000     
  -7.0868706874348431E-002  0.14423858967292605        0.0000000000000000     
  -7.2396154676602209E-002  0.15182749017129216        0.0000000000000000     
  -7.3588459744157564E-002  0.15940166086882390        0.0000000000000000     
  -7.4445622077014523E-002  0.16696110176552131        0.0000000000000000     
  -7.5533987630512653E-002  0.13707326614125967        0.0000000000000000     
  -7.7566439741041118E-002  0.14463962363596183        0.0000000000000000     
  -7.9226587091684134E-002  0.15220389173128357        0.0000000000000000     
  -8.0514429682441699E-002  0.15976607042722488        0.0000000000000000     
  -8.1429967513313870E-002  0.16732615972378584        0.0000000000000000     
  -8.2241031108649346E-002  0.13760247897919964        0.0000000000000000     
  -8.4413520056397767E-002  0.14513808786468380        0.0000000000000000     
  -8.6200862848359178E-002  0.15266180094137685        0.0000000000000000     
  -8.7603059484533521E-002  0.16017361820927878        0.0000000000000000     
  -8.8620109964920812E-002  0.16767353966838966        0.0000000000000000     
  -8.9127246771806362E-002  0.13822259788754551        0.0000000000000000     
  -9.1409947820418461E-002  0.14573398235909193        0.0000000000000000     
  -9.3318981946627327E-002  0.15320121780157195        0.0000000000000000     
  -9.4854349150432990E-002  0.16062430421498558        0.0000000000000000     
  -9.6016049431835407E-002  0.16800324159933275        0.0000000000000000     
  -9.6192634619983702E-002  0.13893362286629726        0.0000000000000000     
  -9.8555723033103143E-002  0.14642730711918628        0.0000000000000000     
 -0.10058094438648861       0.15382214231186894        0.0000000000000000     
 -0.10226829868014010       0.16111812844434523        0.0000000000000000     
 -0.10361778591405761       0.16831526551661516        0.0000000000000000     
 </DataArray>
 <DataArray  type="Float64" Name="stress" NumberOfComponents="3" format="ascii">
   13416793086.537828        4025037925.9613485        2894126462.5208297     
   11766477205.330667        1889923866.6239452        1715906810.5489893     
   10313595405.734650        412923412.65701914        810718281.47811687     
   9058147687.7497749       -405963435.93942738        178560875.30821398     
   8000134051.3760471       -566736679.16539717       -180565407.96072048     
   10540229291.688526        3162068787.5065579        2225654514.4777131     
   9667632285.4757862        1589279260.1876962        1446676867.1668141     
   8943771137.9116230        512275928.36409426        863146185.71560597     
   8368645848.9960384       -68941207.964249611        475062470.12408960     
   7942256418.7290316       -154372148.79733372        282425720.39226270     
   8338241548.3537292        2501472464.5061188        1712131736.0551512     
   8021694397.0174732        1424506763.1704187        1275581499.9488673     
   7805184881.3672276        680999847.45475864        956894072.66099608     
   7688713001.4029970        270951717.35913944        756069454.19153881     
   7672278757.1247749        194362372.88355827        673107644.54049551     
   6810829856.5334358        2043248956.9600308        1353558127.2531433     
   6828663539.9557276        1395606375.5721116        1202620708.8951473     
   6897836636.1014652        919095169.92901325        1091961942.3142879     
   7018349144.9706507        613715340.03073597        1021581827.5105634     
   7190201066.5632801        479466885.87727833        991480364.48397458     
   5957994216.2276468        1787398264.8682940        1149933688.0716896     
   6088539714.2905512        1502578097.3927748        1227794494.0056553     
   6221726402.1143351        1226561895.7868571        1268349794.6754789     
   6357554279.6989994        959349660.05054104        1271599590.0811615     
   6496023347.0445461        700941390.18382668        1237543880.2227015     
   8000134051.3760471       -566736679.16539717       -180565407.96072048     
   7917995324.6402493       -198681254.27500200       -78562002.182688609     
   7794070557.1009903        30087367.937181950       -8997688.5320205931     
   7628359748.7582722        119569187.47116995        28127532.991288535     
   7420862899.6120892        69764204.326940060        32813662.387231089     
   7942256418.7290316       -154372148.79733372        282425720.39226270     
   7740028461.8370094        17280384.485115051        280982614.03196031     
   7514230601.5291824        110366573.04821110        264926013.12683079     
   7264862837.8055496        124886416.89195681        234255917.67688087     
   6991925170.6661139        60839916.016349316        188972327.68210557     
   7672278757.1247749        194362372.88355827        673107644.54049551     
   7400891848.8837852        184891098.20023966        589470186.32745194     
   7124151174.6146450        157573936.75642061        509044831.15212542     
   6842056734.3173590        112410888.55210781        431831579.01451576     
   6554608527.9919186        49401953.587293625        357830429.91462064     
   7190201066.5632801        479466885.87727833        991480364.48397458     
   6900585485.7805786        304150886.87036681        846900714.70379198     
   6623832276.3573790        171709459.06181121        723358765.54386687     
   6359941438.2936907        82142602.451612711        620854517.00419748     
   6108912971.5895081        35450317.039770365        539387969.08478284     
   6496023347.0445461        700941390.18382668        1237543880.2227015     
   6239109372.5273857        375059750.49549985        1053274199.1609801     
   6013273906.7573862        152773139.96438384        907867816.30205417     
   5818516949.7345514        34081558.590477943        801324731.64592218     
   5654838501.4588814        18985006.373785019        733644945.19258630     
   7420862899.6120892        69764204.326940060        32813662.387231089     
   7219200388.7944889       -22095718.169688702        15723307.400874807     
   7030441342.3950949       -70944092.605639935        2313044.2412313460     
   6854585760.4138985       -76780918.980928898       -7417127.0917045753     
   6691633642.8509054       -39606197.295539379       -13467206.597935680     
   6991925170.6661139        60839916.016349316        188972327.68210557     
   6808784202.7450390        487026.57498359680        181093097.93477494     
   6633886501.9773951       -32388305.688282967        176510263.26838547     
   6467232068.3631802       -37786080.773450613        175223823.68294486     
   6308820901.9023933       -15706298.680522203        177233779.17843646     
   6554608527.9919186        49401953.587293625        357830429.91462064     
   6388892826.5508862        20227214.276238680        353725428.59741777     
   6226760194.9985180        2996041.2607190609        352533125.61538726     
   6068210633.3348083       -2291565.4592745304        354253520.96853161     
   5913244141.5597515        4364394.1162567139        358886614.65684819     
   6108912971.5895081        35450317.039770365        539387969.08478284     
   5959526260.2120438        37124844.934092522        533620299.38880366     
   5809062421.4584684        35208948.241370201        530381631.28223008     
   5657521455.3287792        29702626.961602926        529671964.76506364     
   5504903361.8229752        20605881.094794750        531491299.83730441     
   5654838501.4588814        18985006.373785019        733644945.19258630     
   5520684503.7285042        51179918.548534632        720777710.30893385     
   5380793181.3572445        64250415.253666639        710055780.26891708     
   5235164534.3451014        58196496.489186764        701479155.07254028     
   5083798562.6920729        33018162.255093098        695047834.71980214     
   6691633642.8509054       -39606197.295539379       -13467206.597935680     
   6511266435.1639185        1393215.5948743820       -6876862.9245276647     
   6323962280.5810738        19269472.165769100        3660525.6823581015     
   6129721179.1023684        14022572.417123795        18144959.222720016     
   5928543130.7278080       -14347483.651036739        36576437.696557760     
   6308820901.9023933       -15706298.680522203        177233779.17843646     
   6133981469.0265722        7401680.1126031876        173036039.21643546     
   5954826248.0905323        16123698.704995871        173272181.27507535     
   5771355239.0942698        10459757.096644163        177942205.35435772     
   5583568442.0377779       -9590144.7124471664        187046111.45428032     
   5913244141.5597515        4364394.1162567139        358886614.65684819     
   5745323446.6012831        9998227.7439444065        346958809.70101464     
   5575708122.4182310        9983297.2896885872        339951723.85298896     
   5404398169.0105944        4319602.7534818649        337865357.11276919     
   5231393586.3783731       -6992855.8646681309        340699709.48035628     
   5504903361.8229752        20605881.094794750        531491299.83730441     
   5345292367.8880472        9182858.4889042377        514891448.52921385     
   5186607903.5641708        848267.91985654831        503699153.41609681     
   5028849968.8513517       -4397890.6123445034        497914414.49795055     
   4872018563.7495823       -6555617.1077005863        497537231.77477783     
   5083798562.6920729        33018162.255093098        695047834.71980214     
   4933888232.8868685        4955572.3474798203        676833955.70103216     
   4787525591.5283575       -11281389.404496670        664514469.96439910     
   4644710638.6165333       -15692723.000846386        658089377.50990689     
   4505443374.1514015       -8278428.4415600300        657558678.33754587     
   5928543130.7278080       -14347483.651036739        36576437.696557760     
   5742097412.7657347       -39129480.812659025        31657196.816105187     
   5562040307.4903717       -42616102.351930857        32254264.940640945     
   5388371814.9017181       -24807348.268831968        38367642.070149660     
   5221091934.9997663        14296781.436614513        49997328.204635181     
   5583568442.0377779       -9590144.7124471664        187046111.45428032     
   5413412443.2516794       -24242279.328927040        185472924.63858256     
   5247643789.2586479       -24269931.301845789        188576321.44284225     
   5086262480.0586910       -9673100.6311812401        196356301.86707678     
   4929268515.6517954        19548212.683023214        208812865.91126460     
   5231393586.3783731       -6992855.8646681309        340699709.48035628     
   5075128091.3824883       -12234892.551728249        340137764.18682051     
   4921248673.2860374       -9523339.5740163326        343412677.12824219     
   4769755332.0890226        1141803.0684776306        350524448.30461383     
   4620648067.7914352        19760535.375742197        361473077.71594113     
   4872018563.7495823       -6555617.1077005863        497537231.77477783     
   4727244357.1581659       -3107320.4810688496        495651715.46083820     
   4582854959.5725422        1623672.8315422535        496763331.99683809     
   4438850370.9927177        7637362.8301525116        500872081.38277638     
   4295230591.4186907        14933749.514745235        507977963.61865264     
   4505443374.1514015       -8278428.4415600300        657558678.33754587     
   4369761240.5787020        3140436.8830423355        652014778.46062112     
   4232462648.1181579        9171105.9148361683        648628286.04862559     
   4093547596.7697773        9813578.6538341045        647399201.10155308     
   3953016086.5335522        5067855.1000206470        648327523.61940753     
   5221091934.9997663        14296781.436614513        49997328.204635181     
   4973820100.9486885        25869554.591215611        51789936.856503434     
   4717829695.7673178        8380423.9781618118        41476104.234345630     
   4453120719.4556484       -38170610.402540207        19055830.338168181     
   4179693172.0136900       -113783548.55088568       -15470884.832037888     
   4929268515.6517954        19548212.683023214        208812865.91126460     
   4652703801.6290770        9754696.2724766731        199177608.25812140     
   4369679036.3253508       -21572324.408117294        184046489.49277461     
   4080194219.7406178       -74432849.358729601        163419509.61522621     
   3784249351.8748755       -148826878.57936263        137296668.62547934     
   4620648067.7914352        19760535.375742197        361473077.71594113     
   4333677845.6880074       -5733059.0327029228        343044893.58194691     
   4042506092.1528592       -45231758.213546991        325731428.49757743     
   3747132807.1859927       -98735562.166777849        309532682.46283692     
   3447557990.7874017       -166244470.89243031        294448655.47772139     
   4295230591.4186907        14933749.514745235        507977963.61865264     
   4016742233.1254730       -20593711.324323893        483391792.82798409     
   3736310863.2498298       -62597877.438147783        466530921.24876362     
   3453936481.7917566       -111078748.82673216        457395348.88099378     
   3169619088.7512546       -166036325.49009001        455985075.72467673     
   3953016086.5335522        5067855.1000206470        648327523.61940753     
   3701896963.9414845       -34827260.602374554        620218305.99623048     
   3451093349.6162753       -73670682.081901312        606444967.74632621     
   3200605243.5579243       -111462409.33856940        607007508.86971021     
   2950432645.7664404       -148202442.37236011        621905929.36636198     
   4179693172.0136900       -113783548.55088568       -15470884.832037888     
   4354190659.7624750       -71836824.149495363        12168897.696722521     
   4526318027.6476116       -37790499.293610096        71731081.023433775     
   4696075275.6691141       -11644573.983177423        163215665.14808244     
   4863462403.8269644        6600951.7817723751        286622650.07067555     
   3784249351.8748755       -148826878.57936263        137296668.62547934     
   4036229192.0247746       -69401438.713776827        177378894.52159381     
   4287707802.1467934        8353234.3921983242        236491594.82118994     
   4538685182.2409353        84437140.738600492        314634769.52426904     
   4789161332.3071985        158850280.32538366        411808418.63082212     
   3447557990.7874017       -166244470.89243031        294448655.47772139     
   3740186107.9256692       -60390538.186480045        349153696.21624160     
   4034181884.8718290        50022260.545762777        409997284.96378428     
   4329545321.6258745        164993925.30430031        476979421.72035062     
   4626276418.1878061        284524456.08912706        550100106.48594260     
   3169619088.7512546       -166036325.49009001        455985075.72467673     
   3466061407.4651556       -44804122.567598820        527493302.78066772     
   3765740275.8227038        87216579.167059183        592248151.45122623     
   4068655693.8239164        230025779.71392441        650249621.73634410     
   4374807661.4687901        383623479.07298672        701497713.63603103     
   2950432645.7664404       -148202442.37236011        621905929.36636198     
   3213855090.6432252       -22642191.857157707        712397714.21488607     
   3482382974.9994402        119936190.25613964        783244194.28351307     
   3756016298.8350739        279532703.96749628        834445369.57224774     
   4034755062.1501279        456147349.27693224        866001240.08108747     
   4863462403.8269644        6600951.7817723751        286622650.07067555     
   4159738933.2361355       -176794907.82680249        165275656.77224404     
   3497742809.4877257       -221099611.29398847        8511903.2869093083     
   2877474032.5817280       -126313158.61980951       -183668610.38531524     
   2298932602.5181284        107564450.19572031       -411265884.24446481     
   4789161332.3071985        158850280.32538366        411808418.63082212     
   4014033655.1312609       -33440380.809196949        308830862.24170381     
   3266425239.2697430       -134000170.89571643        188396399.78770003     
   2546336084.7226701       -142829089.93408847        50505031.268834576     
   1853766191.4900115       -59927137.924391150       -104843243.31490730     
   4626276418.1878061        284524456.08912706        550100106.48594260     
   3831058403.3468337        98733154.104492664        448915887.22347754     
   3049151564.2923265       -42687561.925259113        348234616.01817882     
   2280555901.0242610       -139737692.00017250        248056292.87004074     
   1525271413.5426619       -192417236.12025905        148380917.77906650     
   4374807661.4687901        383623479.07298672        701497713.63603103     
   3610813177.8828793        219725696.91436255        585530731.71759057     
   2845921784.5554533        52838215.617347002        488026551.97834533     
   2080133481.4865096       -117038964.81807935        408985174.41828990     
   1313448268.6760330       -289905844.39191073        348406599.03743547     
   4034755062.1501279        456147349.27693224        866001240.08108747     
   3353297978.7393918        329537247.62037587        718675395.72402990     
   2656735900.0591488        152577161.73213530        607772207.66820443     
   1945068826.1094079       -74732908.387776852        533291675.91360229     
   1218296756.8901634       -352392962.73933470        495233800.46022719     
   5957994216.2276468        1787398264.8682940        1149933688.0716896     
   6088539714.2905512        1502578097.3927748        1227794494.0056553     
   6221726402.1143351        1226561895.7868571        1268349794.6754789     
   6357554279.6989994        959349660.05054104        1271599590.0811615     
   6496023347.0445461        700941390.18382668        1237543880.2227015     
   5434468487.3713398        1630340546.2114019        1033487938.8089097     
   5489881878.0040407        1372687933.2804818        1113829214.3599439     
   5547439210.1844349        1122181792.1752014        1167412630.7185185     
   5607140483.9125204        878822122.89555955        1194238187.8846331     
   5668985699.1882973        642608925.44155693        1194305885.8582890     
   4894986529.8994894        1468495958.9698467        936450399.76292336     
   4905403944.7353659        1247051740.0735397        1018692022.0156389     
   4917468052.9057474        1031096498.9589095        1084723431.1475773     
   4931178854.4106321        820630235.62595594        1134544627.1587381     
   4946536349.2500191        615652950.07467866        1168155610.0491223     
   4339548343.8120966        1301864503.1436291        858821070.93373036     
   4335105914.4845276        1125669517.7719481        942382916.97274089     
   4331812930.2782745        953306016.13798189        1020282195.9626563     
   4329669391.1933327        784773998.24172902        1092518907.9034760     
   4328675297.2297077        620073464.08319020        1159093052.7952015     
   3768153929.1091619        1130446178.7327485        800599952.32133126     
   3778987787.2515244        1008541266.3757074        884901899.23124933     
   3790473842.3020129        888810343.71241784        974088925.16375482     
   3802612094.2606268        771253410.74287987        1068161030.1188467     
   3815402543.1273665        655870467.46709299        1167118214.0965264     
   6496023347.0445461        700941390.18382668        1237543880.2227015     
   6239109372.5273857        375059750.49549985        1053274199.1609801     
   6013273906.7573862        152773139.96438384        907867816.30205417     
   5818516949.7345514        34081558.590477943        801324731.64592218     
   5654838501.4588814        18985006.373785019        733644945.19258630     
   5668985699.1882973        642608925.44155693        1194305885.8582890     
   5518739577.9716444        382804860.36975551        1073457736.9540402     
   5392747229.4907703        203846704.41721296        980549813.62818921     
   5291008653.7456760        105734457.58393335        915582115.88073683     
   5213523850.7363567        88468119.869911909        878554643.71168196     
   4946536349.2500191        615652950.07467866        1168155610.0491223     
   4871749302.4070263        412563825.94134641        1102766801.2890639     
   4814391292.2884274        267571490.88932514        1054395145.4830062     
   4774462318.8942204        180675944.91861415        1023040642.6309494     
   4751962382.2244072        151877188.02921176        1008703292.7328938     
   4328675297.2297077        620073464.08319020        1159093052.7952015     
   4298138545.8335247        464336647.21027303        1141201392.1660507     
   4278206095.1503496        343947499.38071573        1129403811.8665040     
   4268877945.1801839        258906020.59451890        1123700311.8965602     
   4270154095.9230266        209212210.85168314        1124090892.2562199     
   3815402543.1273665        655870467.46709299        1167118214.0965264     
   3797907308.2511449        538123324.17653692        1188761509.5850015     
   3784191638.0765467        432974729.89138937        1205575812.7786818     
   3774255532.6035709        340424684.61165440        1217561123.6775689     
   3768098991.8322172        260473188.33732426        1224717442.2816625     
   5654838501.4588814        18985006.373785019        733644945.19258630     
   5520684503.7285042        51179918.548534632        720777710.30893385     
   5380793181.3572445        64250415.253666639        710055780.26891708     
   5235164534.3451014        58196496.489186764        701479155.07254028     
   5083798562.6920729        33018162.255093098        695047834.71980214     
   5213523850.7363567        88468119.869911909        878554643.71168196     
   5077445966.2418680        86831269.976156235        854896701.00205481     
   4939009306.1099386        77331834.624267340        835420870.26143253     
   4798213870.3405743        59969813.814253092        820127151.48981726     
   4655059658.9337664        34745207.546108007        809015544.68720472     
   4751962382.2244072        151877188.02921176        1008703292.7328938     
   4619780059.8954201        118154410.74583197        978196282.70131457     
   4488617510.9324389        87830878.015808821        953908191.76410723     
   4358474735.3354645        60906589.839143753        935839019.92127132     
   4229351733.1044989        37381546.215834141        923988767.17280722     
   4270154095.9230266        209212210.85168314        1124090892.2562199     
   4147686784.6891594        145149340.85756660        1090676455.4067099     
   4029617795.8247452        95747545.428291798        1065517744.7769345     
   3915947129.3297853        61006824.563861370        1048614760.3668994     
   3806674785.2042770        40927178.264273167        1039967502.1766005     
   3768098991.8322172        260473188.33732426        1224717442.2816625     
   3661166140.6230884        167816060.31135654        1192337219.1182399     
   3562010160.7868595        101081836.86171842        1170249529.2999203     
   3470631052.3235278        60270517.988408089        1158454372.8267047     
   3387028815.2330937        45382103.691425562        1156951749.6985929     
   5083798562.6920729        33018162.255093098        695047834.71980214     
   4933888232.8868685        4955572.3474798203        676833955.70103216     
   4787525591.5283575       -11281389.404496670        664514469.96439910     
   4644710638.6165333       -15692723.000846386        658089377.50990689     
   4505443374.1514015       -8278428.4415600300        657558678.33754587     
   4655059658.9337664        34745207.546108007        809015544.68720472     
   4521651894.6278725        12774251.687059879        795184625.72216272     
   4390820301.3080969       -609467.55160069466        786747832.92478824     
   4262564878.9744344       -5405950.1698818207        783705166.29507267     
   4136885627.6268854       -1615196.1677813530        786056625.83302140     
   4229351733.1044989        37381546.215834141        923988767.17280722     
   4111017199.6851354        21073424.021518469        913407371.22415829     
   3994287319.7913094        10114146.912335634        907719834.32869709     
   3879162093.4230237        4503714.8882870674        906926156.48642612     
   3765641520.5802784        4242127.9493737221        911026337.69734275     
   3806674785.2042770        40927178.264273167        1039967502.1766005     
   3701984148.0586524        29853089.350851059        1031502192.2070090     
   3597926646.9779925        20889453.987314463        1027430474.1761302     
   3494502281.9623003        14036272.173662186        1027752348.0839652     
   3391711053.0115724        9293543.9098949432        1032467813.9305142     
   3387028815.2330937        45382103.691425562        1156951749.6985929     
   3294552739.7484264        39113247.675064802        1149469088.6707211     
   3201738282.8681488        31716453.673333526        1145879752.4670863     
   3108585444.5922637        23191721.686245084        1146183741.0876884     
   3015094224.9207687        13539051.713790059        1150381054.5325313     
   4505443374.1514015       -8278428.4415600300        657558678.33754587     
   4369761240.5787020        3140436.8830423355        652014778.46062112     
   4232462648.1181579        9171105.9148361683        648628286.04862559     
   4093547596.7697773        9813578.6538341045        647399201.10155308     
   3953016086.5335522        5067855.1000206470        648327523.61940753     
   4136885627.6268854       -1615196.1677813530        786056625.83302140     
   4006089013.2745495        3191644.5675299168        778592630.86855483     
   3874398400.8820276        5018491.8355357647        774255171.97542846     
   3741813790.4493079        3865345.6362268925        773044249.15365160     
   3608335181.9763918       -267794.03040075302        774959862.40322030     
   3765641520.5802784        4242127.9493737221        911026337.69734275     
   3642499364.3237972        3267625.7580451965        902485118.63425171     
   3519185670.8747697        1721332.9248952866        898039564.24892652     
   3395700440.2331977       -396750.55006718636        897689674.54136515     
   3272043672.3990760       -3086624.6668598652        901435449.51156998     
   3391711053.0115724        9293543.9098949432        1032467813.9305142     
   3278992293.7264252        3368380.4545702934        1023692241.7577227     
   3166824458.0963807       -720370.81708347797        1019981462.8691150     
   3055207546.1214380       -2972709.9050639868        1021335477.2646929     
   2944141557.8015976       -3388636.8093686104        1027754284.9444540     
   3015094224.9207687        13539051.713790059        1150381054.5325313     
   2915567801.4824414        3493908.6571105719        1142214000.2389631     
   2817314762.5468645       -2306619.3904025555        1140080867.8359940     
   2720335108.1140394       -3862532.4287427664        1143981657.3236368     
   2624628838.1839604       -1173830.4579282999        1153916368.7018781     
   3953016086.5335522        5067855.1000206470        648327523.61940753     
   3701896963.9414845       -34827260.602374554        620218305.99623048     
   3451093349.6162753       -73670682.081901312        606444967.74632621     
   3200605243.5579243       -111462409.33856940        607007508.86971021     
   2950432645.7664404       -148202442.37236011        621905929.36636198     
   3608335181.9763918       -267794.03040075302        774959862.40322030     
   3393825358.6005707       -30412783.960684776        748457281.95388401     
   3179087015.1598091       -61319507.440776110        733529792.50405300     
   2964120151.6541066       -92987964.470666885        730177394.05372238     
   2748924768.0834637       -125418155.05036092        738400086.60289705     
   3272043672.3990760       -3086624.6668598652        901435449.51156998     
   3086255181.4572892       -25847878.859705329        875904806.51564455     
   2899694142.1187611       -51184294.375018358        859188466.14544332     
   2712360554.3834925       -79095871.212806463        851286428.40097427     
   2524254418.2514834       -109582609.37305760        852198693.28223419     
   2944141557.8015976       -3388636.8093686104        1027754284.9444540     
   2779186432.5116339       -21132545.299433231        1002560879.6815027     
   2612914730.4931278       -43265042.884639740        983420988.67050505     
   2445326451.7460794       -69786129.564979792        970334611.91146028     
   2276421596.2704911       -100695805.34045911        963301749.40437686     
   2624628838.1839604       -1173830.4579282999        1153916368.7018781     
   2472619111.7636070       -16266783.279879332        1128425501.4514656     
   2318748780.2829089       -37561752.969638586        1106227360.0792367     
   2163017843.7418714       -65058739.527200580        1087321944.5851860     
   2005426302.1404934       -98757742.952562094        1071709254.9693172     
   2950432645.7664404       -148202442.37236011        621905929.36636198     
   3213855090.6432252       -22642191.857157707        712397714.21488607     
   3482382974.9994402        119936190.25613964        783244194.28351307     
   3756016298.8350739        279532703.96749628        834445369.57224774     
   4034755062.1501279        456147349.27693224        866001240.08108747     
   2748924768.0834637       -125418155.05036092        738400086.60289705     
   2961315443.3434706       -22378980.573502541        829279518.38083816     
   3178677636.9589815        97231921.755028963        905746218.93461454     
   3401011348.9299979        233414551.93525469        967800188.26423395     
   3628316579.2565184        386168909.96715057        1015441426.3696826     
   2524254418.2514834       -109582609.37305760        852198693.28223419     
   2700563534.0539331       -24579447.886797905        943309530.67835867     
   2881710247.0879707        76549037.704759598        1025240210.4060550     
   3067694557.3535967        193802847.40160215        1097990732.4653094     
   3258516464.8508067        327181981.20374155        1161561096.8561332     
   2276421596.2704911       -100695805.34045911        963301749.40437686     
   2431599362.7746143       -29243593.797028184        1054487751.1074458     
   2591480805.3864121        57887538.105322480        1141726168.6978161     
   2756065924.1058750        160697590.36655688        1225017002.1754766     
   2925354718.9330091        279186562.98670161        1304360251.5404389     
   2005426302.1404934       -98757742.952562094        1071709254.9693172     
   2154422929.5055208       -36371418.304172635        1162814179.6680958     
   2307989311.8543024        41247422.956729174        1255204093.8099031     
   2466125449.1868262        134098780.83011067        1348878997.3947337     
   2628831341.5031157        242182655.31603312        1443838890.4225936     
   4034755062.1501279        456147349.27693224        866001240.08108747     
   3353297978.7393918        329537247.62037587        718675395.72402990     
   2656735900.0591488        152577161.73213530        607772207.66820443     
   1945068826.1094079       -74732908.387776852        533291675.91360229     
   1218296756.8901634       -352392962.73933470        495233800.46022719     
   3628316579.2565184        386168909.96715057        1015441426.3696826     
   3039500011.6498032        283098594.85775852        861493688.17471540     
   2438467002.3284531        139306807.36625195        736952970.47841394     
   1825217551.2924840       -45206452.507347584        641819273.28079522     
   1199751658.5418684       -270441184.76305324        576092596.58185303     
   3258516464.8508067        327181981.20374155        1161561096.8561332     
   2742295739.3265476        241638050.52504575        1004361443.9705925     
   2216747125.6425200        125001159.31380188        869553175.78117371     
   1681870623.7987313       -22728692.429970145        757136292.28788817     
   1137666233.7951932       -201551504.70627254        667110793.49071014     
   2925354718.9330091        279186562.98670161        1304360251.5404389     
   2461685161.7696180        205155614.62222517        1147278663.1116755     
   1991576270.0013351        109660217.57477713        1005572823.5764828     
   1515028043.6281619       -7299628.1556394100        879242732.93486190     
   1032040482.6500933       -145723922.56902587        768288391.18681848     
   2628831341.5031157        242182655.31603312        1443838890.4225936     
   2197668278.9790258        173651287.14931911        1290245345.5979533     
   1762954435.4049058        93283982.149177492        1145011913.8643317     
   1324689810.7807736        1080740.3156467676        1008138595.2217363     
   882874405.10661530       -102958438.35129267        879625389.67016208     
   3768153929.1091619        1130446178.7327485        800599952.32133126     
   3778987787.2515244        1008541266.3757074        884901899.23124933     
   3790473842.3020129        888810343.71241784        974088925.16375482     
   3802612094.2606268        771253410.74287987        1068161030.1188467     
   3815402543.1273665        655870467.46709299        1167118214.0965264     
   3207866683.4296489        962360005.02889466        756677326.88573456     
   3235811619.8024044        868115914.50377786        853079986.45460272     
   3263509861.0440078        773049506.87481987        951376668.29381847     
   3290961407.1544576        677160782.14201999        1051567372.4033813     
   3318166258.1337557        580449740.30537963        1153652098.7832921     
   2685750004.4125247        805725001.32375741        721943477.58694994     
   2722260142.5807018        736577969.70007360        829398142.43561041     
   2757624693.5784478        663612314.17495537        935755772.80237937     
   2791843657.4057651        586828034.74840355        1041016368.6872553     
   2824917034.0626512        506225131.42041761        1145179930.0902395     
   2201803892.0577869        660541167.61733615        696398404.42497730     
   2238333355.5864158        613927431.96459401        813856367.17427313     
   2272818339.9053354        560498765.61282527        927226238.68943703     
   2305258845.0145483        500255168.56202984        1036508018.9704692     
   2335654870.9140520        433196640.81220704        1141701708.0173695     
   1756028346.3654377        526808503.90963131        680042107.39981651     
   1784031258.8195465        500164301.29733980        806454660.67059004     
   1809090800.0246694        463708861.18842888        925788065.95499206     
   1831206969.9808064        417442183.58289826        1038042323.2530226     
   1850379768.6879580        361364268.48074901        1143217432.5646813     
   3815402543.1273665        655870467.46709299        1167118214.0965264     
   3797907308.2511449        538123324.17653692        1188761509.5850015     
   3784191638.0765467        432974729.89138937        1205575812.7786818     
   3774255532.6035709        340424684.61165440        1217561123.6775689     
   3768098991.8322172        260473188.33732426        1224717442.2816625     
   3318166258.1337557        580449740.30537963        1153652098.7832921     
   3293634387.7908068        473430721.57552385        1181929265.8695254     
   3272786381.4823890        378691249.62743974        1207146907.6852169     
   3255622239.2085042        296231324.46113074        1229305024.2303641     
   3242141960.9691496        226050946.07659364        1248403615.5049682     
   2824917034.0626512        506225131.42041761        1145179930.0902395     
   2798404148.3222609        411450923.27204812        1179979317.9959595     
   2775479425.9493127        328637259.68181491        1213488647.6553876     
   2756142866.9438047        257784140.64971817        1245707919.0685227     
   2740394471.3057365        198891566.17575753        1276637132.2353656     
   2335654870.9140520        433196640.81220704        1141701708.0173695     
   2312216589.8455091        352183929.26611090        1182911665.9643023     
   2292270771.4773159        282812760.05451441        1224601032.6891947     
   2275817415.8094726        225083133.17741561        1266769808.1920443     
   2262856522.8419790        178995048.63481796        1309417992.4728518     
   1850379768.6879580        361364268.48074901        1143217432.5646813     
   1835071712.3605492        295629739.55771077        1190726309.7745557     
   1823160418.0663998        241217750.74553692        1240484062.7866383     
   1814645885.8055086        198128302.04422438        1292490691.6009305     
   1809528115.5778766        166361393.45377600        1346746196.2174296     
   3768098991.8322172        260473188.33732426        1224717442.2816625     
   3661166140.6230884        167816060.31135654        1192337219.1182399     
   3562010160.7868595        101081836.86171842        1170249529.2999203     
   3470631052.3235278        60270517.988408089        1158454372.8267047     
   3387028815.2330937        45382103.691425562        1156951749.6985929     
   3242141960.9691496        226050946.07659364        1248403615.5049682     
   3164336631.7889423        151485005.49547863        1231442600.9846549     
   3092679495.5537710        97413041.397819638        1222419949.8849788     
   3027170552.2636342        63835053.783614635        1221335662.2059405     
   2967809801.9185357        50751042.652863383        1228189737.9475417     
   2740394471.3057365        198891566.17575753        1276637132.2353656     
   2684990464.3702621        140398953.10424066        1273195201.5256541     
   2634105971.9519625        96971388.423304677        1275337464.3121150     
   2587740994.0508366        68608872.132948637        1283063920.5947497     
   2545895530.6668839        55311404.233173132        1296374570.3735554     
   2262856522.8419790        178995048.63481796        1309417992.4728518     
   2223127638.3670511        134557903.13764262        1317595020.7412384     
   2186289589.9814348        99756877.938173532        1329002072.5813301     
   2152342377.6851306        74591973.036410213        1343639147.9931307     
   2121286001.4781389        59063188.432353020        1361506246.9766374     
   1809528115.5778766        166361393.45377600        1346746196.2174296     
   1778748153.7793086        133961855.59568667        1364642058.6314061     
   1749230349.6421893        105769509.94242758        1383413774.6926239     
   1720974703.1665201        81784356.494003236        1403061344.4010835     
   1693981214.3523009        62006395.250409424        1423584767.7567844     
   3387028815.2330937        45382103.691425562        1156951749.6985929     
   3294552739.7484264        39113247.675064802        1149469088.6707211     
   3201738282.8681488        31716453.673333526        1145879752.4670863     
   3108585444.5922637        23191721.686245084        1146183741.0876884     
   3015094224.9207687        13539051.713790059        1150381054.5325313     
   2967809801.9185357        50751042.652863383        1228189737.9475417     
   2884588188.3344760        40109199.476866603        1219843032.5449944     
   2801548333.6250129        30073219.216183782        1215730970.0478237     
   2718690237.7901449        20643101.870827317        1215853550.4560282     
   2636013900.8298717        11818847.440780878        1220210773.7696078     
   2545895530.6668839        55311404.233173132        1296374570.3735554     
   2472903573.5009661        40589132.252802372        1287770650.9115753     
   2400613515.4798474        28206524.088428140        1283742692.4361076     
   2329025356.6035309        18163579.740059614        1284290694.9471502     
   2258139096.8720126        10460299.207687378        1289414658.4447062     
   2121286001.4781389        59063188.432353020        1361506246.9766374     
   2059498895.2478955        40553046.002869010        1353251943.7704623     
   1998933828.4326568        26116368.290066957        1349914919.6319351     
   1939590801.0324209        15753155.293942690        1351495174.5610559     
   1881469813.0471926        9463407.0145057440        1357992708.5578268     
   1693981214.3523009        62006395.250409424        1423584767.7567844     
   1644374153.5752628        40000940.727067471        1416286911.1216531     
   1596509272.4834344        23802751.821090102        1414247651.6353068     
   1550386571.0768147        13411828.532478213        1417466989.2977448     
   1506006049.3554058        8828170.8612310290        1425944924.1089671     
   3015094224.9207687        13539051.713790059        1150381054.5325313     
   2915567801.4824414        3493908.6571105719        1142214000.2389631     
   2817314762.5468645       -2306619.3904025555        1140080867.8359940     
   2720335108.1140394       -3862532.4287427664        1143981657.3236368     
   2624628838.1839604       -1173830.4579282999        1153916368.7018781     
   2636013900.8298717        11818847.440780878        1220210773.7696078     
   2552251140.8186364        4477163.2558268309        1213515096.9891691     
   2469499037.6429386        504335.18933486938        1212287518.1377964     
   2387757591.3027835       -99636.758680582047        1216528037.2154913     
   2307026801.7981672        2665247.4117636681        1226236654.2222569     
   2258139096.8720126        10460299.207687378        1289414658.4447062     
   2188523360.3977594        5337081.9274144173        1283883843.5656545     
   2119655553.0918388        2706961.8749171495        1283255302.6541336     
   2051535674.9542518        2569939.0501939058        1287529035.7101448     
   1984163725.9849961        4926013.4532475471        1296705042.7336853     
   1881469813.0471926        9463407.0145057440        1357992708.5578268     
   1824384460.2198167        6073664.6718822718        1353320239.9684165     
   1767784308.8935671        4301260.6663458347        1352984221.3850055     
   1711669359.0684409        4146194.9978888035        1356984652.8075886     
   1656039610.7444415        5608467.6665186882        1365321534.2361612     
   1506006049.3554058        8828170.8612310290        1425944924.1089671     
   1459834440.2848072        6686911.4892370105        1421824286.1974607     
   1413885305.0481248        5287231.5636273026        1421474274.3304141     
   1368158643.6453586        4629131.0844047666        1424894888.5078247     
   1322654456.0765073        4712610.0515694022        1432086128.7296934     
   2624628838.1839604       -1173830.4579282999        1153916368.7018781     
   2472619111.7636070       -16266783.279879332        1128425501.4514656     
   2318748780.2829089       -37561752.969638586        1106227360.0792367     
   2163017843.7418714       -65058739.527200580        1087321944.5851860     
   2005426302.1404934       -98757742.952562094        1071709254.9693172     
   2307026801.7981672        2665247.4117636681        1226236654.2222569     
   2165081193.1759329       -13772344.318195105        1197640440.4081762     
   2021572380.3565395       -35420616.705353141        1173803431.0778565     
   1876500363.3399885       -62279569.749702334        1154725626.2312975     
   1729865142.1262765       -94349203.451251030        1140407025.8685000     
   1984163725.9849961        4926013.4532475471        1296705042.7336853     
   1856472174.0339661       -11599235.522791862        1265350450.0296507     
   1727514818.7489619       -32343828.945419908        1240221540.4149542     
   1597291660.1299777       -57307766.814639449        1221318313.8895991     
   1465802698.1770222       -86491049.130439579        1208640770.4535811     
   1656039610.7444415        5608467.6665186882        1365321534.2361612     
   1546792054.3377037       -9747456.8936774135        1331555530.3158858     
   1436576095.4601705       -28331389.689852655        1305481688.0905271     
   1325391734.1118441       -50143330.722009897        1287100007.5600901     
   1213238970.2927234       -75183279.990142286        1276410488.7245650     
   1322654456.0765073        4712610.0515694022        1432086128.7296934     
   1236040834.0871437       -8217008.4308556914        1396255681.2668839     
   1148756210.4901659       -23383298.938657582        1369583874.1045740     
   1060800585.2855799       -40786261.471823335        1352070707.2427642     
   972173958.47337937       -60425896.030365288        1343716180.6814492     
   2005426302.1404934       -98757742.952562094        1071709254.9693172     
   2154422929.5055208       -36371418.304172635        1162814179.6680958     
   2307989311.8543024        41247422.956729174        1255204093.8099031     
   2466125449.1868262        134098780.83011067        1348878997.3947337     
   2628831341.5031157        242182655.31603312        1443838890.4225936     
   1729865142.1262765       -94349203.451251030        1140407025.8685000     
   1877535186.4495327       -34094810.544102788        1239115780.2800322     
   2029427191.1991386        40232783.784208775        1336011081.0028546     
   2185541156.3750963        128633579.53369915        1431092928.0369556     
   2345877081.9774055        231107576.70435447        1524361321.3823419     
   1465802698.1770222       -86491049.130439579        1208640770.4535811     
   1603293464.7963822       -31024396.363172829        1314547594.2609060     
   1744658397.2846894        37356142.633920014        1415542521.2477679     
   1889897495.6419499        118650567.86085284        1511625551.4141724     
   2039010759.8681581        212858879.31761801        1602796684.7601116     
   1213238970.2927234       -75183279.990142286        1276410488.7245650     
   1331697764.5460637       -27160175.761394382        1389109621.6107118     
   1453682930.1109505        32617499.505838931        1493798414.5446515     
   1579194466.9873896        104149745.81158388        1590476867.5263908     
   1708232375.1753762        187436563.15581620        1679144980.5559247     
   972173958.47337937       -60425896.030365288        1343716180.6814492     
   1062748085.6985793       -22502148.738765717        1462801862.3294508     
   1156500789.6779187        26016854.399965882        1570778760.8934994     
   1253432070.4114137        85131113.385886073        1667646876.3736050     
   1353541927.8990555        154840628.21895939        1753406208.7697606     
   2628831341.5031157        242182655.31603312        1443838890.4225936     
   2197668278.9790258        173651287.14931911        1290245345.5979533     
   1762954435.4049058        93283982.149177492        1145011913.8643317     
   1324689810.7807736        1080740.3156467676        1008138595.2217363     
   882874405.10661530       -102958438.35129267        879625389.67016208     
   2345877081.9774055        231107576.70435447        1524361321.3823419     
   1943096960.4610190        165432162.30886990        1360393402.9239666     
   1536612726.3662744        87409705.985522687        1209239336.6640565     
   1126424379.6931858       -2959792.2656377554        1070899122.6026212     
   712531920.44173634       -105676332.44466496        945372760.73964810     
   2039010759.8681581        212858879.31761801        1602796684.7601116     
   1677338548.2378929        153856909.35687488        1428275505.8849549     
   1311808892.5009396        81996792.373851061        1271021918.3157129     
   942421792.65730870       -2721471.6314339042        1131035922.0523744     
   569177248.70699608       -100297882.65900233        1008317517.0949664     
   1708232375.1753762        187436563.15581620        1679144980.5559247     
   1400393042.3096466        138925528.29334897        1493891654.4809253     
   1088542933.8089032        77045241.314168572        1330359658.8192923     
   772682049.67315114        1795702.2182882726        1188548993.5710156     
   452810389.90238357       -86823088.994298011        1068459658.7361034     
   1353541927.8990555        154840628.21895939        1753406208.7697606     
   1112260442.6762841        120638019.11829799        1557241848.7118757     
   866814850.29016495        72555052.806473851        1387252558.1747968     
   617205150.74071455        10591729.283546239        1243438337.1585310     
   363431344.02791238       -65251951.450551316        1125799185.6630645     
   1756028346.3654377        526808503.90963131        680042107.39981651     
   1784031258.8195465        500164301.29733980        806454660.67059004     
   1809090800.0246694        463708861.18842888        925788065.95499206     
   1831206969.9808064        417442183.58289826        1038042323.2530226     
   1850379768.6879580        361364268.48074901        1143217432.5646813     
   1326258877.9167335        397877663.37502003        669750437.06501067     
   1339508253.3634281        375568668.76239055        791907348.96030092     
   1350550100.3750396        345901246.03281564        908794101.60556841     
   1359384418.9515667        308875395.18629527        1020410695.0008134     
   1366011209.0930111        264491116.22282982        1126757129.1460354     
   890330997.29293156        267099299.18787947        662399243.97410285     
   893995374.97892392        250676074.34892541        781158997.77679551     
   896188067.04373467        229347230.77270001        896457581.06581450     
   896909073.48736405        203112768.45920330        1008294993.8411602     
   896158394.30981219        171972687.40843529        1116671236.1028316     
   448244704.49403256        134473411.34820977        657988528.12709272     
   447492623.66603357        125486518.05694455        774209607.12007391     
   446004700.03075534        114046815.40808210        888778504.33573043     
   443780933.58819807        100154303.40162247        1001695219.7740622     
   440821324.33836150        83808982.037565380        1112959753.4350696     
 -0.47996382509433250      -0.14398914752829975        656518289.52398074     
 -0.57524265799464736      -0.11355219649182675        771059176.99013603     
 -0.66389846630741134       -6.1038366725922943E-002   885756871.41531575     
 -0.74593118569535233        1.3552361070593155E-002   1000611372.7995203     
 -0.82134098057594285       0.11021967736395849        1115622681.1427484     
   1850379768.6879580        361364268.48074901        1143217432.5646813     
   1835071712.3605492        295629739.55771077        1190726309.7745557     
   1823160418.0663998        241217750.74553692        1240484062.7866383     
   1814645885.8055086        198128302.04422438        1292490691.6009305     
   1809528115.5778766        166361393.45377600        1346746196.2174296     
   1366011209.0930111        264491116.22282982        1126757129.1460354     
   1360258314.6674962        216908663.89338139        1182145761.0345726     
   1357052991.7566950        177818116.61297554        1238446700.9084525     
   1356395240.3606067        147219474.38161367        1295659948.7676761     
   1358285060.4792309        125112737.19929385        1353785504.6122434     
   896158394.30981219        171972687.40843529        1116671236.1028316     
   896141896.59514785        141396682.11526200        1178948900.3983943     
   897823779.87665081        116481946.80931321        1240802304.8624353     
   901204044.15432060        97228481.490586847        1302231449.4949534     
   906282689.42815769        83636286.159084797        1363236334.2959495     
   440821324.33836150        83808982.037565380        1112959753.4350696     
   442722458.14350313        69093794.223353788        1181135727.8660212     
   445472782.42626655        57209241.334547788        1247550874.6485853     
   449072297.18665099        48155323.371145606        1312205193.7827623     
   453521002.42465663        41932040.333147123        1375098685.2685516     
 -0.82134098057594285       0.11021967736395849        1115622681.1427484     
 -0.68743681763500275       0.21765847194654073        1188706243.4374528     
 -0.59445738310099716       0.18868163527693554        1258692410.2669039     
 -0.54240278813443454        2.3288688399897339E-002   1325581181.6311023     
 -0.53127269067548655      -0.27851942364153726        1389372557.5300474     
   1809528115.5778766        166361393.45377600        1346746196.2174296     
   1778748153.7793086        133961855.59568667        1364642058.6314061     
   1749230349.6421893        105769509.94242758        1383413774.6926239     
   1720974703.1665201        81784356.494003236        1403061344.4010835     
   1693981214.3523009        62006395.250409424        1423584767.7567844     
   1358285060.4792309        125112737.19929385        1353785504.6122434     
   1332737611.9218469        100074340.57544631        1372991348.0602691     
   1308136781.6264136        78191338.158101261        1393647623.1463711     
   1284482569.5929315        59463729.947259486        1415754329.8705454     
   1261774975.8213997        43891515.942919075        1439311468.2327976     
   906282689.42815769        83636286.159084797        1363236334.2959495     
   887609405.51433778        66451526.190191954        1383384029.4786117     
   869567200.46297073        51370362.429473996        1405556734.2901814     
   852156074.27405524        38392794.876928687        1429754448.7306585     
   835376026.94759285        27518823.532560021        1455977172.8000433     
   453521002.42465663        41932040.333147123        1375098685.2685516     
   443363534.55678153        33093412.439924106        1395820102.8864329     
   433521606.15186042        25306582.756547377        1419141108.1240563     
   423995217.20989221        18571551.283013880        1445061700.9814210     
   414784367.73087835        12888318.019328028        1473581881.4585257     
 -0.53127269067548655      -0.27851942364153726        1389372557.5300474     
 -0.95082324568729937      -0.67536054015699021        1410299568.2837343     
  -1.3069175206334043      -0.86068072312008226        1434400744.6479959     
  -1.5995588467547612      -0.83449072972265381        1461676086.6228309     
  -1.8287425145630769      -0.59677590250447765        1492125594.2082412     
   1693981214.3523009        62006395.250409424        1423584767.7567844     
   1644374153.5752628        40000940.727067471        1416286911.1216531     
   1596509272.4834344        23802751.821090102        1414247651.6353068     
   1550386571.0768147        13411828.532478213        1417466989.2977448     
   1506006049.3554058        8828170.8612310290        1425944924.1089671     
   1261774975.8213997        43891515.942919075        1439311468.2327976     
   1226977095.0510085        28109649.582255721        1435543773.0569863     
   1193485849.0362465        16683232.407021701        1436472945.0076540     
   1161301237.7771153        9612264.4172241688        1442098984.0848026     
   1130423261.2736168        6896745.6128689647        1452421890.2884283     
   835376026.94759285        27518823.532560021        1455977172.8000433     
   813782383.26297522        17479062.458306849        1455231503.3323777     
   793059829.40440989        10342934.137560308        1458620970.9688852     
   773208365.37189579        6110438.5703191161        1466145575.7095685     
   754227991.16543388        4781575.7565844655        1477805317.5544271     
   414784367.73087835        12888318.019328028        1473581881.4585257     
   404790018.21116483        8109179.3552298695        1475350101.9478276     
   395231213.58792275        4781857.0127029717        1480691729.5189998     
   386107953.86115515        2906350.9917568713        1489606764.1720426     
   377420239.03085846        2482661.2923818231        1502095205.9069531     
  -1.8287425145630769      -0.59677590250447765        1492125594.2082412     
 -0.10442509951984796       0.27301360577031936        1495899568.9033380     
   1.5867872034651138        1.0324527405175594        1502685220.6579993     
   3.2448918209009374        1.6815324030172962        1512482549.4722250     
   4.8698920811691497        2.2202652491257466        1525291555.3460138     
   1506006049.3554058        8828170.8612310290        1425944924.1089671     
   1459834440.2848072        6686911.4892370105        1421824286.1974607     
   1413885305.0481248        5287231.5636273026        1421474274.3304141     
   1368158643.6453586        4629131.0844047666        1424894888.5078247     
   1322654456.0765073        4712610.0515694022        1432086128.7296934     
   1130423261.2736168        6896745.6128689647        1452421890.2884283     
   1094493444.4741013        4900468.0471265912        1448465788.5176010     
   1058730483.0249511        3460374.9826005697        1448583905.1093953     
   1023134376.9261634        2576466.4192841649        1452776240.0638146     
   987705126.17773950        2248742.3571796417        1461042793.3808570     
   754227991.16543388        4781575.7565844655        1477805317.5544271     
   729407373.26033628        3190501.9841000438        1473948863.6934609     
   704697992.22204995        1970217.7676520646        1474470220.5132871     
   680099848.05057478        1120723.1072436869        1479369388.0139022     
   655612940.74591160        642018.00287348032        1488646366.1953123     
   377420239.03085846        2482661.2923818231        1502095205.9069531     
   364576226.64351213        1557013.3001574427        1498273511.7250404     
   351787832.63942176        816759.91878558695        1499133220.5420890     
   339055057.01859289        261901.14828611910        1504674332.3580921     
   326377899.78102207       -107563.01135359704        1514896847.1730535     
   4.8698920811691497        2.2202652491257466        1525291555.3460138     
   4.6236274424511672        1.9952925529757968        1521439732.6123459     
   4.2770676652385191        1.4360034223996849        1522572905.1958013     
   3.8302179079506851       0.54241366435022798        1528691073.0963800     
   3.2830721200246828      -0.68549550193706388        1539794236.3140841     
   1322654456.0765073        4712610.0515694022        1432086128.7296934     
   1236040834.0871437       -8217008.4308556914        1396255681.2668839     
   1148756210.4901659       -23383298.938657582        1369583874.1045740     
   1060800585.2855799       -40786261.471823335        1352070707.2427642     
   972173958.47337937       -60425896.030365288        1343716180.6814492     
   987705126.17773950        2248742.3571796417        1461042793.3808570     
   925323574.98916435       -6674872.1484078765        1425226521.4027894     
   862438772.64048398       -17275990.521012962        1397967201.1301734     
   799050719.13170326       -29554612.760619819        1379264832.5630114     
   735159414.46281219       -43510738.867258459        1369119415.7012980     
   655612940.74591160        642018.00287348032        1488646366.1953123     
   615744350.08656752       -4791325.6073420048        1453039978.5574057     
   575540258.71462417       -11343004.926221669        1425388854.0299067     
   535000666.63008779       -19013019.953744560        1405692992.6128163     
   494125573.83295119       -27801370.689934701        1393952394.3061330     
   326377899.78102207       -107563.01135359704        1514896847.1730535     
   307303159.37935054       -2566368.8076639175        1479696052.7307353     
   288060668.71258891       -5584342.1542763710        1451848832.8037815     
   268650427.78073603       -9161483.0511935353        1431355187.3921893     
   249072436.58379474       -13297791.498403803        1418215116.4959614     
   3.2830721200246828      -0.68549550193706388        1539794236.3140841     
   2.8675137813689018       -1.7493733796723312        1505194743.9227796     
   2.6343711324094357       -2.2051999992539670        1477347137.4517946     
   2.5836494116299238       -2.0529565112910584        1456251416.9011233     
   2.7153441583128579       -1.2926577848419700        1441907582.2707708     
   972173958.47337937       -60425896.030365288        1343716180.6814492     
   1062748085.6985793       -22502148.738765717        1462801862.3294508     
   1156500789.6779187        26016854.399965882        1570778760.8934994     
   1253432070.4114137        85131113.385886073        1667646876.3736050     
   1353541927.8990555        154840628.21895939        1753406208.7697606     
   735159414.46281219       -43510738.867258459        1369119415.7012980     
   795603538.47657669       -17313869.764386505        1490916562.2010448     
   858431594.92826843        16829440.798243493        1603351768.8964126     
   923643583.81788766        58919192.820631504        1706425035.7874095     
   991239505.14543438        108955386.30277768        1800136362.8740287     
   494125573.83295119       -27801370.689934701        1393952394.3061330     
   529430675.43406332       -11834085.536157101        1517533920.6220336     
   566325065.15688252        9430826.6899773777        1633500350.4131329     
   604808743.00141275        35993365.988482386        1741851683.6794341     
   644881708.96765196        67853532.359354287        1842587920.4209373     
   249072436.58379474       -13297791.498403803        1418215116.4959614     
   264229496.57103845       -6062796.0540811568        1542653937.5924251     
   280181200.36377215        3821012.0752071589        1661224505.4436655     
   296927547.96199429        16353632.889458537        1773926820.0496790     
   314468539.36570650        31535066.388675317        1880760881.4104710     
   2.7153441583128579       -1.2926577848419700        1441907582.2707708     
   1.8875016019024327       -1.3181588147011638        1566276613.1122150     
  0.54892907984672723       -3.0460937572673510        1686524233.9880090     
  -1.3003723327069625       -6.4764583348268161        1802650444.8981504     
  -3.6603996390714877       -11.609241864533013        1914655245.8426425     
   1353541927.8990555        154840628.21895939        1753406208.7697606     
   1112260442.6762841        120638019.11829799        1557241848.7118757     
   866814850.29016495        72555052.806473851        1387252558.1747968     
   617205150.74071455        10591729.283546239        1243438337.1585310     
   363431344.02791238       -65251951.450551316        1125799185.6630645     
   991239505.14543438        108955386.30277768        1800136362.8740287     
   818767409.51738298        85850135.904435068        1604311379.4410973     
   643172234.99395049        52334622.521484673        1432680697.2442949     
   464453981.57513243        8408846.1539163291        1285244316.2836311     
   282612649.26092905       -45927193.198266834        1162002236.5591002     
   644881708.96765196        67853532.359354287        1842587920.4209373     
   535559664.97812152        54147839.276482329        1648316846.5922341     
   424155570.36116475        33501977.435521588        1476259305.7149973     
   310669425.11677742        5915946.8364648074        1326415297.7892234     
   195101229.24496406       -28610252.520683557        1198784822.8149154     
   314468539.36570650        31535066.388675317        1880760881.4104710     
   262637209.05848986        25531129.234409325        1689258250.1652873     
   209764856.39180484        16057117.548580855        1517988383.5868921     
   155851481.36564961        3113031.3311829790        1366951281.6752963     
   100897083.98001893       -13301129.417794295        1236146944.4304852     
  -3.6603996390714877       -11.609241864533013        1914655245.8426425     
   41.758493183476759        5.7782301837056682        1727135590.1602559     
   93.085879983987454        42.860681464596468        1557867930.8599889     
   150.32174468100212        99.638059067167092        1406852267.9418457     
   213.46610065667323        176.11040968026080        1274088601.4058213     
 -0.47996382509433250      -0.14398914752829975        656518289.52398074     
 -0.57524265799464736      -0.11355219649182675        771059176.99013603     
 -0.66389846630741134       -6.1038366725922943E-002   885756871.41531575     
 -0.74593118569535233        1.3552361070593155E-002   1000611372.7995203     
 -0.82134098057594285       0.11021967736395849        1115622681.1427484     
  -448244705.44423121       -134473411.63326937        657988528.17480314     
  -447492624.79083252       -125486518.24271636        774209607.18461311     
  -446004701.32914919       -114046815.49121419        888778504.42050898     
  -443780935.05918092       -100154303.37876314        1001695219.8824896     
  -440821325.98092812       -83808981.905362472        1112959753.5705564     
  -890330998.21394312       -267099299.46418294        662399244.08959734     
  -893995376.04883492       -250676074.48460436        781158997.91166723     
  -896188068.27378035       -229347230.80520415        896457581.22688365     
  -896909074.88877928       -203112768.42598265        1008294994.0352471     
  -896158395.89383185       -171972687.34693959        1116671236.3367569     
  -1326258878.7890997       -397877663.63672990        669750437.26836264     
  -1339508254.3492498       -375568668.83921599        791907349.17129779     
  -1350550101.4977925       -345901246.00300819        908794101.83444095     
  -1359384420.2347267       -308875395.12810713        1020410695.2577915     
  -1366011210.5600519       -264491116.21451136        1126757129.4413500     
  -1756028347.1697009       -526808504.15091026        680042107.71109974     
  -1784031259.6920776       -500164301.30655164        806454660.96350527     
  -1809090801.0011845       -463708861.08462662        925788066.24317992     
  -1831206971.0970221       -417442183.48513603        1038042323.5501237     
  -1850379769.9795892       -361364268.50807905        1143217432.8843362     
 -0.82134098057594285       0.11021967736395849        1115622681.1427484     
 -0.68743681763500275       0.21765847194654073        1188706243.4374528     
 -0.59445738310099716       0.18868163527693554        1258692410.2669039     
 -0.54240278813443454        2.3288688399897339E-002   1325581181.6311023     
 -0.53127269067548655      -0.27851942364153726        1389372557.5300474     
  -440821325.98092812       -83808981.905362472        1112959753.5705564     
  -442722459.54147148       -69093793.931462213        1181135727.9424112     
  -445472783.62976885       -57209241.050075635        1247550874.6607597     
  -449072298.24581999       -48155323.261201397        1312205193.7256036     
  -453521003.38962513       -41932040.564839959        1375098685.1369417     
  -896158395.89383185       -171972687.34693959        1116671236.3367569     
  -896141897.97240102       -141396681.95365056        1178948900.5511279     
  -897823781.06555367       -116481946.60897240        1240802304.9237409     
  -901204045.17328990       -97228481.312905967        1302231449.4545953     
  -906282690.29560924       -83636286.065450191        1363236334.1436920     
  -1366011210.5600519       -264491116.21451136        1126757129.4413500     
  -1360258315.9802268       -216908663.84890774        1182145761.2636030     
  -1357052992.9018135       -177818116.48801398        1238446701.0558450     
  -1356395241.3248127       -147219474.13182694        1295659948.8180766     
  -1358285061.2492249       -125112736.78035069        1353785504.5502973     
  -1850379769.9795892       -361364268.50807905        1143217432.8843362     
  -1835071713.5649467       -295629739.61723340        1190726310.0798366     
  -1823160419.1385465       -241217750.68719411        1240484063.0570736     
  -1814645886.7003880       -198128301.71796364        1292490691.8160479     
  -1809528116.2504723       -166361392.70953935        1346746196.3567586     
 -0.53127269067548655      -0.27851942364153726        1389372557.5300474     
 -0.95082324568729937      -0.67536054015699021        1410299568.2837343     
  -1.3069175206334043      -0.86068072312008226        1434400744.6479959     
  -1.5995588467547612      -0.83449072972265381        1461676086.6228309     
  -1.8287425145630769      -0.59677590250447765        1492125594.2082412     
  -453521003.38962513       -41932040.564839959        1375098685.1369417     
  -443363536.32161444       -33093413.269361794        1395820102.8552191     
  -433521608.65843719       -25306583.989996508        1419141108.1782043     
  -423995220.40009671       -18571552.726752251        1445061701.1058962     
  -414784371.54658955       -12888319.479620397        1473581881.6382954     
  -906282690.29560924       -83636286.065450191        1363236334.1436920     
  -887609407.18537140       -66451526.511252403        1383384029.4468884     
  -869567202.94825900       -51370363.200804651        1405556734.3489246     
  -852156077.58427083       -38392796.134106368        1429754448.8498001     
  -835376031.09340858       -27518825.311158985        1455977172.9495163     
  -1358285061.2492249       -125112736.78035069        1353785504.5502973     
  -1332737613.5420957       -100074340.40103418        1372991348.0587404     
  -1308136784.1763804       -78191338.493101418        1393647623.1601567     
  -1284482573.1520808       -59463731.056552887        1415754329.8545456     
  -1261774980.4691968       -43891518.091388702        1439311468.1419065     
  -1809528116.2504723       -166361392.70953935        1346746196.3567586     
  -1778748155.3917847       -133961854.93870407        1364642058.6907763     
  -1749230352.3428035       -105769509.86688960        1383413774.6119006     
  -1720974707.1035261       -81784357.494086623        1403061344.1201293     
  -1693981219.6739547       -62006397.820306122        1423584767.2154653     
  -1.8287425145630769      -0.59677590250447765        1492125594.2082412     
 -0.10442509951984796       0.27301360577031936        1495899568.9033380     
   1.5867872034651138        1.0324527405175594        1502685220.6579993     
   3.2448918209009374        1.6815324030172962        1512482549.4722250     
   4.8698920811691497        2.2202652491257466        1525291555.3460138     
  -414784371.54658955       -12888319.479620397        1473581881.6382954     
  -404790018.71326452       -8109179.6159649193        1475350102.0185144     
  -395231210.81186324       -4781856.1920564622        1480691729.5013614     
  -386107947.84238565       -2906349.2078936845        1489606764.0868332     
  -377420229.80483377       -2482658.6634820402        1502095205.7749324     
  -835376031.09340858       -27518825.311158985        1455977172.9495163     
  -813782384.17089796       -17479063.559581429        1455231503.2995718     
  -793059827.07913160       -10342934.577149361        1458620970.7953143     
  -773208359.81810665       -6110438.3638561666        1466145575.4367452     
  -754227982.38782394       -4781574.9197044969        1477805317.2238641     
  -1261774980.4691968       -43891518.091388702        1439311468.1419065     
  -1226977096.4773271       -28109651.557840109        1435543772.7465100     
  -1193485847.2150176       -16683234.122825921        1436472944.5398626     
  -1161301232.6822689       -9612265.7863476276        1442098983.5219648     
  -1130423252.8790827       -6896746.5484104156        1452421889.6928146     
  -1693981219.6739547       -62006397.820306122        1423584767.2154653     
  -1644374155.6325490       -40000943.610730767        1416286910.3593283     
  -1596509271.2195241       -23802754.829093993        1414247650.7350020     
  -1550386566.4348745       -13411831.475375652        1417466988.3424859     
  -1506006041.2786064       -8828173.5495924950        1425944923.1817825     
   4.8698920811691497        2.2202652491257466        1525291555.3460138     
   4.6236274424511672        1.9952925529757968        1521439732.6123459     
   4.2770676652385191        1.4360034223996849        1522572905.1958013     
   3.8302179079506851       0.54241366435022798        1528691073.0963800     
   3.2830721200246828      -0.68549550193706388        1539794236.3140841     
  -377420229.80483377       -2482658.6634820402        1502095205.7749324     
  -364576217.93422925       -1557011.1741407216        1498273511.4276145     
  -351787824.56355929       -816758.68458102643        1499133220.0728469     
  -339055049.69282299       -261901.19480118155        1504674331.7106290     
  -326377893.32202232        107561.29519549012        1514896846.3409576     
  -754227982.38782394       -4781574.9197044969        1477805317.2238641     
  -729407365.04199362       -3190501.7085400224        1473948863.1299853     
  -704697984.59573793       -1970218.1626278460        1474470219.7040815     
  -680099841.04905879       -1120724.2819679081        1479369386.9461501     
  -655612934.40195549       -642020.06656187773        1488646364.8561940     
  -1130423252.8790827       -6896746.5484104156        1452421889.6928146     
  -1094493436.6996694       -4900469.6079167724        1448465787.7194600     
  -1058730475.8194702       -3460376.9981406331        1448583904.0895023     
  -1023134370.2384920       -2576468.7190987468        1452776238.8029430     
  -987705119.95672846       -2248744.7707727551        1461042791.8597836     
  -1506006041.2786064       -8828173.5495924950        1425944923.1817825     
  -1459834432.9072533       -6686914.8722634912        1421824285.1960359     
  -1413885298.2347567       -5287235.1911243200        1421474273.2291112     
  -1368158637.2611206       -4629134.5061852336        1424894887.2810113     
  -1322654449.9863405       -4712612.8174320459        1432086127.3517330     
   3.2830721200246828      -0.68549550193706388        1539794236.3140841     
   2.8675137813689018       -1.7493733796723312        1505194743.9227796     
   2.6343711324094357       -2.2051999992539670        1477347137.4517946     
   2.5836494116299238       -2.0529565112910584        1456251416.9011233     
   2.7153441583128579       -1.2926577848419700        1441907582.2707708     
  -326377893.32202232        107561.29519549012        1514896846.3409576     
  -307303153.53907919        2566365.6605850756        1479696052.2412379     
  -288060663.26603389        5584338.3263140470        1451848832.6594470     
  -268650422.50288731        9161479.2923827916        1431355187.5955868     
  -249072431.24963570        13297788.558798850        1418215117.0496550     
  -655612934.40195549       -642020.06656187773        1488646364.8561940     
  -615744344.14161551        4791322.8117646873        1453039977.7403536     
  -575540253.08348799        11343001.682717174        1425388853.7400558     
  -535000661.22757667        19013016.546283096        1405692992.8553014     
  -494125568.57387698        27801367.402477086        1393952395.0860944     
  -987705119.95672846       -2248744.7707727551        1461042791.8597836     
  -925323568.94009590        6674869.7041656375        1425226520.4201229     
  -862438766.81799483        17275987.863995850        1397967200.6936202     
  -799050713.59041929        29554609.708743960        1379264832.6802716     
  -735159409.25737727        43510735.238379270        1369119416.3800800     
  -1322654449.9863405       -4712612.8174320459        1432086127.3517330     
  -1236040827.9345245        8217006.3377722502        1396255680.2805517     
  -1148756204.4695489        23383296.870170414        1369583873.5201383     
  -1060800579.5914234        40786258.779738963        1352070707.0704939     
  -972173953.30013990        60425892.066499352        1343716180.9316208     
   2.7153441583128579       -1.2926577848419700        1441907582.2707708     
   1.8875016019024327       -1.3181588147011638        1566276613.1122150     
  0.54892907984672723       -3.0460937572673510        1686524233.9880090     
  -1.3003723327069625       -6.4764583348268161        1802650444.8981504     
  -3.6603996390714877       -11.609241864533013        1914655245.8426425     
  -249072431.24963570        13297788.558798850        1418215117.0496550     
  -264229493.18206662        6062792.7019973546        1542653937.1140978     
  -280181199.56119454       -3821017.9771304280        1661224503.7940428     
  -296927550.38702589       -16353643.478600413        1773926817.0894871     
  -314468545.65955353       -31535083.802393600        1880760877.0004249     
  -494125568.57387698        27801367.402477086        1393952395.0860944     
  -529430672.80760801        11834081.355366588        1517533919.7815711     
  -566325065.42401028       -9430832.6339809895        1633500347.6736991     
  -604808746.42308319       -35993374.565563470        1741851678.7624719     
  -644881715.80482733       -67853544.439382941        1842587913.0478983     
  -735159409.25737727        43510735.238379270        1369119416.3800800     
  -795603536.98912501        17313864.641940653        1490916561.1146257     
  -858431597.03951395       -16829447.016634732        1603351765.6269722     
  -923643589.40854836       -58919199.737359017        1706425029.9171126     
  -991239514.09621823       -108955393.52020663        1800136353.9850574     
  -972173953.30013990        60425892.066499352        1343716180.9316208     
  -1062748085.7266182        22502142.561723471        1462801861.1132686     
  -1156500794.4077075       -26016861.125094712        1570778757.6538651     
  -1253432079.3434091       -85131118.993952990        1667646870.5534101     
  -1353541940.5337274       -154840631.04486245        1753406199.8119018     
  -3.6603996390714877       -11.609241864533013        1914655245.8426425     
   41.758493183476759        5.7782301837056682        1727135590.1602559     
   93.085879983987454        42.860681464596468        1557867930.8599889     
   150.32174468100212        99.638059067167092        1406852267.9418457     
   213.46610065667323        176.11040968026080        1274088601.4058213     
  -314468545.65955353       -31535083.802393600        1880760877.0004249     
  -262637125.39627355       -25531115.669072904        1689258256.2856946     
  -209764675.76559228       -16057049.644411087        1517988400.4354880     
  -155851196.76751766       -3112885.7284429893        1366951309.4497893     
  -100896688.40205088        13301376.078838520        1236146983.3286250     
  -644881715.80482733       -67853544.439382941        1842587913.0478983     
  -535559582.17602032       -54147824.003864989        1648316854.6695507     
  -424155395.72090608       -33501927.480653167        1476259329.6381166     
  -310669156.43949002       -5915854.8697731346        1326415337.9536102     
  -195100864.33176631        28610393.828804851        1198784879.6160049     
  -991239514.09621823       -108955393.52020663        1800136353.9850574     
  -818767328.58074903       -85850119.226154178        1604311385.3118210     
  -643172066.78006542       -52334590.648057044        1432680718.4678998     
  -464453728.69416445       -8408807.7858996987        1285244353.4532967     
  -282612314.32305312        45927229.360293090        1162002290.2680023     
  -1353541940.5337274       -154840631.04486245        1753406199.8119018     
  -1112260364.6104596       -120638001.33594456        1557241848.2125046     
  -866814688.94306409       -72555039.146600217        1387252566.9248214     
  -617204913.53154898       -10591744.476861149        1243438355.9488447     
  -363431038.37590414        65251882.673318759        1125799215.2845900     
  -1756028347.1697009       -526808504.15091026        680042107.71109974     
  -1784031259.6920776       -500164301.30655164        806454660.96350527     
  -1809090801.0011845       -463708861.08462662        925788066.24317992     
  -1831206971.0970221       -417442183.48513603        1038042323.5501237     
  -1850379769.9795892       -361364268.50807905        1143217432.8843362     
  -2201803892.7573314       -660541167.82719946        696398404.84374249     
  -2238333356.3345385       -613927431.98123002        813856367.55399764     
  -2272818340.7313046       -560498765.53379142        927226239.04058921     
  -2305258845.9476295       -500255168.48488343        1036508019.3035165     
  -2335654871.9835153       -433196640.83450657        1141701708.3427796     
  -2685750004.9535761       -805725001.48607290        721943478.09222507     
  -2722260143.1597080       -736577969.71072114        829398142.88869631     
  -2757624694.2182269       -663612314.10999680        935755773.21057057     
  -2791843658.1291351       -586828034.68390012        1041016369.0578477     
  -2824917034.8924308       -506225131.43243039        1145179930.4305282     
  -3207866683.7584352       -962360005.12753057        756677327.45654762     
  -3235811620.1675849       -868115914.49502468        853079986.96760046     
  -3263509861.4619522       -773049506.81324315        951376668.75312400     
  -3290961407.6415362       -677160782.08218527        1051567372.8131173     
  -3318166258.7063384       -580449740.30185211        1153652099.1475806     
  -3768153929.1719084       -1130446178.7515724        800599952.93670976     
  -3778987787.3581710       -1008541266.3341408        884901899.79071116     
  -3790473842.4624801       -888810343.64353013        974088925.66824961     
  -3802612094.4848356       -771253410.67974067        1068161030.5693252     
  -3815402543.4252377       -655870467.44277120        1167118214.4939377     
  -1850379769.9795892       -361364268.50807905        1143217432.8843362     
  -1835071713.5649467       -295629739.61723340        1190726310.0798366     
  -1823160419.1385465       -241217750.68719411        1240484063.0570736     
  -1814645886.7003880       -198128301.71796364        1292490691.8160479     
  -1809528116.2504723       -166361392.70953935        1346746196.3567586     
  -2335654871.9835153       -433196640.83450657        1141701708.3427796     
  -2312216590.8683486       -352183929.32335299        1182911666.3336642     
  -2292270772.4179344       -282812760.02804077        1224601033.0923746     
  -2275817416.6322732       -225083132.94857192        1266769808.6189113     
  -2262856523.5113645       -178995048.08494449        1309417992.9132743     
  -2824917034.8924308       -506225131.43243039        1145179930.4305282     
  -2798404149.1164851       -411450923.31289250        1179979318.4275343     
  -2775479426.6818023       -328637259.66423106        1213488648.1784561     
  -2756142867.5883837       -257784140.48644626        1245707919.6832931     
  -2740394471.8362260       -198891565.77953780        1276637132.9420445     
  -3318166258.7063384       -580449740.30185211        1153652099.1475806     
  -3293634388.3093596       -473430721.58585334        1181929266.3614473     
  -3272786381.9301543       -378691249.59576666        1207146908.3153176     
  -3255622239.5687218       -296231324.33158970        1229305025.0091920     
  -3242141961.2250619       -226050945.79332507        1248403616.4430721     
  -3815402543.4252377       -655870467.44277120        1167118214.4939377     
  -3797907308.4469695       -538123324.14223480        1188761510.1354017     
  -3784191638.1629863       -432974729.82264614        1205575813.5029595     
  -3774255532.5732856       -340424684.48400021        1217561124.5966101     
  -3768098991.6778688       -260473188.12630188        1224717443.4163551     
  -1809528116.2504723       -166361392.70953935        1346746196.3567586     
  -1778748155.3917847       -133961854.93870407        1364642058.6907763     
  -1749230352.3428035       -105769509.86688960        1383413774.6119006     
  -1720974707.1035261       -81784357.494086623        1403061344.1201293     
  -1693981219.6739547       -62006397.820306122        1423584767.2154653     
  -2262856523.5113645       -178995048.08494449        1309417992.9132743     
  -2223127640.0974331       -134557902.75502205        1317595021.0170496     
  -2186289592.8901420       -99756878.113899946        1329002072.6779649     
  -2152342381.8894916       -74591974.161581278        1343639147.8960176     
  -2121286007.0954819       -59063190.898063183        1361506246.6712098     
  -2740394471.8362260       -198891565.77953780        1276637132.9420445     
  -2684990465.9526720       -140398952.91621518        1273195202.0191543     
  -2634105974.6726937       -96971388.731479287        1275337464.6234360     
  -2587740997.9962888       -68608873.225324631        1283063920.7548892     
  -2545895535.9234624       -55311406.397759914        1296374570.4135134     
  -3242141961.2250619       -226050945.79332507        1248403616.4430721     
  -3164336632.9575043       -151485005.42228675        1231442601.6970916     
  -3092679497.6904573       -97413041.719619274        1222419950.4483147     
  -3027170555.4239202       -63835054.685320139        1221335662.6967425     
  -2967809806.1578937       -50751044.319390774        1228189738.4423757     
  -3768098991.6778688       -260473188.12630188        1224717443.4163551     
  -3661166141.1119275       -167816060.27323663        1192337220.0508599     
  -3562010161.9434323       -101081837.07832384        1170249530.1526003     
  -3470631054.1723824       -60270518.541561365        1158454373.7215793     
  -3387028817.7987781       -45382104.662956119        1156951750.7577963     
  -1693981219.6739547       -62006397.820306122        1423584767.2154653     
  -1644374155.6325490       -40000943.610730767        1416286910.3593283     
  -1596509271.2195241       -23802754.829093993        1414247650.7350020     
  -1550386566.4348745       -13411831.475375652        1417466988.3424859     
  -1506006041.2786064       -8828173.5495924950        1425944923.1817825     
  -2121286007.0954819       -59063190.898063183        1361506246.6712098     
  -2059498897.4436321       -40553048.493248940        1353251943.4677393     
  -1998933827.1781466       -26116370.709646463        1349914919.3031280     
  -1939590796.2990236       -15753157.547248840        1351495174.1773756     
  -1881469804.8062587       -9463409.0060545206        1357992708.0904830     
  -2545895535.9234624       -55311406.397759914        1296374570.4135134     
  -2472903575.4981742       -40589134.248802423        1287770651.1450620     
  -2400613514.2172332       -28206525.914334536        1283742692.7225184     
  -2329025352.0806379       -18163581.394354701        1284290695.1458817     
  -2258139089.0883889       -10460300.688862681        1289414658.4151525     
  -2967809806.1578937       -50751044.319390774        1228189738.4423757     
  -2884588189.7961726       -40109200.877393246        1219843033.3912957     
  -2801548332.3367815       -30073220.443165541        1215730970.9931703     
  -2718690233.7797203       -20643103.016699553        1215853551.2480006     
  -2636013894.1249905       -11818848.598010778        1220210774.1557856     
  -3387028817.7987781       -45382104.662956119        1156951750.7577963     
  -3294552740.3376298       -39113248.379021525        1149469090.2064395     
  -3201738281.5367928       -31716454.296129823        1145879754.1150856     
  -3108585441.3962727       -23191722.414294481        1146183742.4837360     
  -3015094219.9160657       -13539052.733499169        1150381055.3123894     
  -1506006041.2786064       -8828173.5495924950        1425944923.1817825     
  -1459834432.9072533       -6686914.8722634912        1421824285.1960359     
  -1413885298.2347567       -5287235.1911243200        1421474273.2291112     
  -1368158637.2611206       -4629134.5061852336        1424894887.2810113     
  -1322654449.9863405       -4712612.8174320459        1432086127.3517330     
  -1881469804.8062587       -9463409.0060545206        1357992708.0904830     
  -1824384452.7146268       -6073667.4457566738        1353320239.3811643     
  -1767784302.0018206       -4301263.8148825169        1352984220.6956296     
  -1711669352.6678486       -4146198.1134532690        1356984652.0338802     
  -1656039604.7127061       -5608470.3414567709        1365321533.3959117     
  -2258139089.0883889       -10460300.688862681        1289414658.4151525     
  -2188523353.2622995       -5337084.2413316965        1283883843.3556263     
  -2119655546.4950128       -2706964.6564761400        1283255302.3248460     
  -2051535668.7865300       -2569941.9343039989        1287529035.3228083     
  -1984163720.1368506       -4926016.0748102665        1296705042.3495176     
  -2636013894.1249905       -11818848.598010778        1220210774.1557856     
  -2552251134.5502729       -4477165.2589976788        1213515097.1194215     
  -2469499031.7143321       -504337.71590948105        1212287518.1167600     
  -2387757585.6171684        99634.031258225441        1216528037.1478028     
  -2307026796.2587829       -2665250.0174988508        1226236654.2125521     
  -3015094219.9160657       -13539052.733499169        1150381055.3123894     
  -2915567796.5785513       -3493910.4987617731        1142214000.6725471     
  -2817314757.6597819        2306617.0068184137        1140080868.0713704     
  -2720335103.1597633        3862529.7832294703        1143981657.5088587     
  -2624628833.0784941        1173827.8304750919        1153916368.9850118     
  -1322654449.9863405       -4712612.8174320459        1432086127.3517330     
  -1236040827.9345245        8217006.3377722502        1396255680.2805517     
  -1148756204.4695489        23383296.870170414        1369583873.5201383     
  -1060800579.5914234        40786258.779738963        1352070707.0704939     
  -972173953.30013990        60425892.066499352        1343716180.9316208     
  -1656039604.7127061       -5608470.3414567709        1365321533.3959117     
  -1546792048.2981029        9747454.7569637299        1331555529.6170120     
  -1436576089.5451667        28331387.649833798        1305481687.5118208     
  -1325391728.4538879        50143328.337175667        1287100007.0803339     
  -1213238965.0242724        75183276.818967760        1276410488.3225601     
  -1984163720.1368506       -4926016.0748102665        1296705042.3495176     
  -1856472168.3225007        11599233.277904510        1265350449.6089454     
  -1727514813.2446275        32343826.842357635        1240221539.9050224     
  -1597291654.9032342        57307764.618544459        1221318313.2377458     
  -1465802693.2983227        86491046.606464148        1208640769.6071126     
  -2307026796.2587829       -2665250.0174988508        1226236654.2125521     
  -2165081188.0077119        13772341.900603890        1197640440.2563555     
  -2021572375.5679445        35420614.447711229        1173803430.6997461     
  -1876500358.9394650        62279567.623846292        1154725625.5427208     
  -1729865138.1222866        94349201.428984880        1140407024.7852805     
  -2624628833.0784941        1173827.8304750919        1153916368.9850118     
  -2472619107.3537440        16266780.625056624        1128425501.5592408     
  -2318748776.5151038        37561750.465927124        1106227359.8959904     
  -2163017840.5625792        65058737.353080153        1087321943.9952667     
  -2005426299.4961681        98757741.286526918        1071709253.8570633     
  -972173953.30013990        60425892.066499352        1343716180.9316208     
  -1062748085.7266182        22502142.561723471        1462801861.1132686     
  -1156500794.4077075       -26016861.125094712        1570778757.6538651     
  -1253432079.3434091       -85131118.993952990        1667646870.5534101     
  -1353541940.5337274       -154840631.04486245        1753406199.8119018     
  -1213238965.0242724        75183276.818967760        1276410488.3225601     
  -1331697765.4325356        27160170.319793403        1389109620.2326410     
  -1453682936.8579936       -32617506.236700416        1493798412.0272636     
  -1579194479.3006520       -104149752.85052580        1590476863.7064285     
  -1708232392.7605138       -187436569.52170032        1679144975.2701266     
  -1465802693.2983227        86491046.606464148        1208640769.6071126     
  -1603293465.9009657        31024391.849115312        1314547592.6892788     
  -1744658404.2833910       -37356148.840839922        1415542519.1815763     
  -1889897508.4456041       -118650575.46341813        1511625549.0840011     
  -2039010778.3876045       -212858888.01862425        1602796682.3965602     
  -1729865138.1222866        94349201.428984880        1140407024.7852805     
  -1877535187.1319096        34094807.149680138        1239115778.4831805     
  -2029427196.6838980       -40232788.937507153        1336011079.1168022     
  -2185541166.7782640       -128633586.83262622        1431092926.6861444     
  -2345877097.4150023       -231107586.53564316        1524361321.1912074     
  -2005426299.4961681        98757741.286526918        1071709253.8570633     
  -2154422929.1253667        36371416.221492529        1162814177.6143439     
  -2307989314.0595193       -41247426.526719451        1255204091.8329396     
  -2466125454.2986293       -134098786.95812261        1348878996.5128462     
  -2628831349.8427052       -242182665.07274663        1443838891.6540675     
  -1353541940.5337274       -154840631.04486245        1753406199.8119018     
  -1112260364.6104596       -120638001.33594456        1557241848.2125046     
  -866814688.94306409       -72555039.146600217        1387252566.9248214     
  -617204913.53154898       -10591744.476861149        1243438355.9488447     
  -363431038.37590414        65251882.673318759        1125799215.2845900     
  -1708232392.7605138       -187436569.52170032        1679144975.2701266     
  -1400392969.1679049       -138925513.38746756        1493891650.5481648     
  -1088542775.6418459       -77045224.141729653        1330359655.3158350     
  -772681812.18233144       -1795701.7844827473        1188548989.5731356     
  -452810078.78935975        86823053.684292972        1068459653.3200649     
  -2039010778.3876045       -212858888.01862425        1602796682.3965602     
  -1677338480.9030397       -153856897.59230423        1428275499.7729192     
  -1311808743.2956927       -81996773.423381507        1271021905.8168314     
  -942421565.56556249        2721484.4881628752        1131035900.5282805     
  -569176947.71265030        100297876.14230332        1008317483.9072882     
  -2345877097.4150023       -231107586.53564316        1524361321.1912074     
  -1943096899.8158650       -165432153.95045477        1360393395.8867755     
  -1536612591.9046125       -87409686.991553843        1209239318.4278073     
  -1126424173.6812475        2959814.3410580158        1070899088.8143021     
  -712531645.14577222        105676350.04737431        945372707.04626179     
  -2628831349.8427052       -242182665.07274663        1443838891.6540675     
  -2197668225.9063683       -173651282.46188515        1290245338.8897233     
  -1762954321.4685988       -93283964.846246123        1145011893.1487627     
  -1324689636.5293756       -1080712.2257596254        1008138554.4311782     
  -882874171.08872390        102958475.39948970        879625322.73697996     
  -3768153929.1719084       -1130446178.7515724        800599952.93670976     
  -3778987787.3581710       -1008541266.3341408        884901899.79071116     
  -3790473842.4624801       -888810343.64353013        974088925.66824961     
  -3802612094.4848356       -771253410.67974067        1068161030.5693252     
  -3815402543.4252377       -655870467.44277120        1167118214.4939377     
  -4339548343.5872269       -1301864503.0761681        858821071.56653631     
  -4335105914.3208675       -1125669517.7189963        942382917.54186881     
  -4331812930.1746092       -953306016.09549475        1020282196.4711261     
  -4329669391.1484518       -784773998.20566380        1092518908.3543081     
  -4328675297.2423944       -620073464.04950321        1159093053.1914146     
  -4894986529.3976212       -1468495958.8192863        936450400.37985146     
  -4905403944.3061037       -1247051740.0106134        1018692022.5741174     
  -4917468052.5367413       -1031096498.9424604        1084723431.6526961     
  -4931178854.0895348       -820630235.61482751        1134544627.6155868     
  -4946536348.9644861       -615652950.02771544        1168155610.4627898     
  -5434468486.6030912       -1630340545.9809275        1033487939.3766552     
  -5489881877.3138800       -1372687933.2089927        1113829214.8874576     
  -5547439209.5488787       -1122181792.1844277        1167412631.2129600     
  -5607140483.3080893       -878822122.90723240        1194238188.3531621     
  -5668985698.5915079       -642608925.37740707        1194305886.3080640     
  -5957994215.2036390       -1787398264.5610917        1149933688.5569472     
  -6088539713.3441973       -1502578097.3141344        1227794494.4818885     
  -6221726401.2110205       -1226561895.8213959        1268349795.1519177     
  -6357554278.8041086       -959349660.08287716        1271599590.5670340     
  -6496023346.1234646       -700941390.09857821        1237543880.7272377     
  -3815402543.4252377       -655870467.44277120        1167118214.4939377     
  -3797907308.4469695       -538123324.14223480        1188761510.1354017     
  -3784191638.1629863       -432974729.82264614        1205575813.5029595     
  -3774255532.5732856       -340424684.48400021        1217561124.5966101     
  -3768098991.6778688       -260473188.12630188        1224717443.4163551     
  -4328675297.2423944       -620073464.04950321        1159093053.1914146     
  -4298138545.6879730       -464336647.12987244        1141201392.7138572     
  -4278206094.8580875       -343947499.29203916        1129403812.5797665     
  -4268877944.7527437       -258906020.53600454        1123700312.7891409     
  -4270154095.3719401       -209212210.86177039        1124090893.3419821     
  -4946536348.9644861       -615652950.02771544        1168155610.4627898     
  -4871749301.9271297       -412563825.81695437        1102766801.8309133     
  -4814391291.6445675       -267571490.78884506        1054395146.1598754     
  -4774462318.1168013       -180675944.94338799        1023040643.4496752     
  -4751962381.3438301       -151877188.28058314        1008703293.7003136     
  -5668985698.5915079       -642608925.37740707        1194305886.3080640     
  -5518739577.1644402       -382804860.20348287        1073457737.4865698     
  -5392747228.5224218       -203846704.31306434        980549814.24328625     
  -5291008652.6654606       -105734457.70615220        915582116.57821238     
  -5213523849.5935450       -88468120.382744551        878554644.49134922     
  -6496023346.1234646       -700941390.09857821        1237543880.7272377     
  -6239109371.3999071       -375059750.28945923        1053274199.6808263     
  -6013273905.4916563       -152773139.86469579        907867816.82999933     
  -5818516948.3987141       -34081558.824294806        801324732.17475235     
  -5654838500.1210785       -18985007.168249607        733644945.71508968     
  -3768098991.6778688       -260473188.12630188        1224717443.4163551     
  -3661166141.1119275       -167816060.27323663        1192337220.0508599     
  -3562010161.9434323       -101081837.07832384        1170249530.1526003     
  -3470631054.1723824       -60270518.541561365        1158454373.7215793     
  -3387028817.7987781       -45382104.662956119        1156951750.7577963     
  -4270154095.3719401       -209212210.86177039        1124090893.3419821     
  -4147686784.5026798       -145149341.08135462        1090676456.2495165     
  -4029617795.9904351       -95747545.824318647        1065517745.4783617     
  -3915947129.8352051       -61006825.090663433        1048614761.0285187     
  -3806674786.0369854       -40927178.880383015        1039967502.8999844     
  -4751962381.3438301       -151877188.28058314        1008703293.7003136     
  -4619780059.1596193       -118154411.26932931        978196283.42804992     
  -4488617510.2919865       -87830878.646679163        953908192.33116949     
  -4358474734.7409372       -60906590.412635088        935839020.40967298     
  -4229351732.5064659       -37381546.567195654        923988767.66355956     
  -5213523849.5935450       -88468120.382744551        878554644.49134922     
  -5077445965.0827389       -86831270.837156296        854896701.58645833     
  -4939009304.8480844       -77331835.545401573        835420870.71102238     
  -4798213868.8895798       -59969814.507482290        820127151.86504531     
  -4655059657.2072229       -34745207.723390102        809015545.04852247     
  -5654838500.1210785       -18985007.168249607        733644945.71508968     
  -5520684502.2720451       -51179919.784842730        720777710.72474217     
  -5380793179.6587315       -64250416.520493031        710055780.61792326     
  -5235164532.2811317       -58196497.375197887        701479155.39463437     
  -5083798560.1392508       -33018162.348964214        695047835.05487382     
  -3387028817.7987781       -45382104.662956119        1156951750.7577963     
  -3294552740.3376298       -39113248.379021525        1149469090.2064395     
  -3201738281.5367928       -31716454.296129823        1145879754.1150856     
  -3108585441.3962727       -23191722.414294481        1146183742.4837360     
  -3015094219.9160657       -13539052.733499169        1150381055.3123894     
  -3806674786.0369854       -40927178.880383015        1039967502.8999844     
  -3701984147.7105083       -29853089.638826132        1031502193.2990264     
  -3597926645.4845099       -20889454.065531254        1027430475.3750204     
  -3494502279.3589873       -14036272.160496712        1027752349.1279665     
  -3391711049.3339443       -9293543.9237205982        1032467814.5578644     
  -4229351732.5064659       -37381546.567195654        923988767.66355956     
  -4111017198.4090939       -21073423.896344423        913407371.99947643     
  -3994287317.8523645       -10114146.360968828        907719835.22929275     
  -3879162090.8362780       -4503713.9610705376        906926157.35300875     
  -3765641517.3608308       -4242126.6966450214        911026338.37062454     
  -4655059657.2072229       -34745207.723390102        809015545.04852247     
  -4521651892.4333887       -12774251.151573658        795184626.30778790     
  -4390820298.6403608        609468.81755161285        786747833.67790246     
  -4262564875.8281374        5405952.1839892864        783705167.15886402     
  -4136885623.9967270        1615198.9477267265        786056626.75067425     
  -5083798560.1392508       -33018162.348964214        695047835.05487382     
  -4933888229.7833881       -4955571.4045164585        676833956.22396290     
  -4787525587.8484964        11281391.470026731        664514470.72084880     
  -4644710634.3345766        15692726.274665594        658089378.54553175     
  -4505443369.2416277        8278433.0093998909        657558679.69800961     
  -3015094219.9160657       -13539052.733499169        1150381055.3123894     
  -2915567796.5785513       -3493910.4987617731        1142214000.6725471     
  -2817314757.6597819        2306617.0068184137        1140080868.0713704     
  -2720335103.1597633        3862529.7832294703        1143981657.5088587     
  -2624628833.0784941        1173827.8304750919        1153916368.9850118     
  -3391711049.3339443       -9293543.9237205982        1032467814.5578644     
  -3278992289.7920847       -3368380.7797136307        1023692242.3281423     
  -3166824453.8955569        720370.21318173409        1019981463.3917292     
  -3055207541.6443596        2972709.0549765825        1021335477.7486221     
  -2944141553.0384965        3388635.7456552982        1027754285.3988210     
  -3765641517.3608308       -4242126.6966450214        911026338.37062454     
  -3642499360.8870783       -3267624.4251115322        902485119.45334458     
  -3519185667.2852411       -1721331.7266261578        898039565.08401525     
  -3395700436.5553203        396751.39880585670        897689675.26263320     
  -3272043668.6973138        3086624.9511861801        901435449.98920226     
  -4136885623.9967270        1615198.9477267265        786056626.75067425     
  -4006089009.8635335       -3191641.4349441528        778592632.04815340     
  -3874398397.8288364       -5018488.8126115799        774255173.14822567     
  -3741813787.8926377       -3865343.1852672100        773044250.05088949     
  -3608335180.0549350        267795.44708299637        774959862.75614488     
  -4505443369.2416277        8278433.0093998909        657558679.69800961     
  -4369761236.7214394       -3140431.8092105389        652014780.11256886     
  -4232462645.5263376       -9171101.0447585583        648628287.58436346     
  -4093547595.6563144       -9813574.6972467899        647399202.11339283     
  -3953016087.1113758       -5067852.7666759491        648327523.69965482     
  -2624628833.0784941        1173827.8304750919        1153916368.9850118     
  -2472619107.3537440        16266780.625056624        1128425501.5592408     
  -2318748776.5151038        37561750.465927124        1106227359.8959904     
  -2163017840.5625792        65058737.353080153        1087321943.9952667     
  -2005426299.4961681        98757741.286526918        1071709253.8570633     
  -2944141553.0384965        3388635.7456552982        1027754285.3988210     
  -2779186428.7205954        21132543.750720143        1002560879.8373263     
  -2612914727.6139846        43265041.051470995        983420988.53638864     
  -2445326449.7186823        69786127.647868395        970334611.49601102     
  -2276421595.0346727        100695803.53995728        963301748.71618664     
  -3272043668.6973138        3086624.9511861801        901435449.98920226     
  -3086255178.6490116        25847878.307920575        875904806.57926548     
  -2899694140.1371975        51184293.209705234        859188465.92792273     
  -2712360553.1618652        79095869.656545997        851286428.03517413     
  -2524254417.7230163        109582607.64844108        852198692.90101612     
  -3608335180.0549350        267795.44708299637        774959862.75614488     
  -3393825357.1390018        30412784.296645641        748457281.78505206     
  -3179087014.0847321        61319506.940653086        733529792.07059014     
  -2964120150.8921332        92987963.379087806        730177393.61275363     
  -2748924767.5612011        125418153.61196995        738400086.41154850     
  -3953016087.1113758       -5067852.7666759491        648327523.69965482     
  -3701896964.1905570        34827261.716904640        620218305.45469379     
  -3451093349.4565940        73670682.244289875        606444966.96439528     
  -3200605242.9094806        111462408.81551409        607007508.22875726     
  -2950432644.5492258        148202441.43054676        621905929.24778509     
  -2005426299.4961681        98757741.286526918        1071709253.8570633     
  -2154422929.1253667        36371416.221492529        1162814177.6143439     
  -2307989314.0595193       -41247426.526719451        1255204091.8329396     
  -2466125454.2986293       -134098786.95812261        1348878996.5128462     
  -2628831349.8427052       -242182665.07274663        1443838891.6540675     
  -2276421595.0346727        100695803.53995728        963301748.71618664     
  -2431599361.5415263        29243592.073870063        1054487749.1890866     
  -2591480804.3981152       -57887540.558002114        1141726166.1565681     
  -2756065923.6044455       -160697594.35567772        1225016999.6186299     
  -2925354719.1605144       -279186569.31915081        1304360249.5752730     
  -2524254417.7230163        109582607.64844108        852198692.90101612     
  -2700563532.4410410        24579446.381250381        943309528.87061977     
  -2881710244.5535855       -76549039.534343123        1025240207.3680755     
  -3067694554.0606527       -193802850.09834015        1097990728.3933825     
  -3258516460.9622416       -327181985.31074011        1161561091.9465349     
  -2748924767.5612011        125418153.61196995        738400086.41154850     
  -2961315441.8239126        22378979.143618822        829279516.65894651     
  -3178677634.5259318       -97231923.455745697        905746215.46746361     
  -3401011345.6672497       -233414554.18611419        967800182.83710051     
  -3628316575.2478719       -386168913.04749227        1015441418.7678566     
  -2950432644.5492258        148202441.43054676        621905929.24778509     
  -3213855089.6901484        22642190.360974789        712397712.55406451     
  -3482382974.3151546       -119936192.32221556        783244190.45473218     
  -3756016298.4242449       -279532706.61901605        834445362.94978690     
  -4034755062.0174189       -456147352.52942920        866001230.03923166     
  -2628831349.8427052       -242182665.07274663        1443838891.6540675     
  -2197668225.9063683       -173651282.46188515        1290245338.8897233     
  -1762954321.4685988       -93283964.846246123        1145011893.1487627     
  -1324689636.5293756       -1080712.2257596254        1008138554.4311782     
  -882874171.08872390        102958475.39948970        879625322.73697996     
  -2925354719.1605144       -279186569.31915081        1304360249.5752730     
  -2461685116.4086409       -205155607.44759142        1147278652.4711113     
  -1991576177.5206575       -109660191.78900760        1005572798.3722837     
  -1515027902.4965665        7299677.6565939784        879242687.27879131     
  -1032040291.3363763        145724000.88921517        768288319.19064212     
  -3258516460.9622416       -327181985.31074011        1161561091.9465349     
  -2742295705.1606569       -241638041.90820897        1004361432.0763268     
  -2216747057.5883055       -125001125.93645275        869553151.19340861     
  -1681870518.2451868        22728762.604533792        757136249.29778421     
  -1137666087.1312897        201551623.71475559        667110726.38945484     
  -3628316575.2478719       -386168913.04749227        1015441418.7678566     
  -3039499992.1624212       -283098585.84375370        861493677.70537400     
  -2438466961.6715455       -139306767.28858197        736952951.61213946     
  -1825217483.7752190        45206542.618056059        641819240.48815286     
  -1199751558.4734771        270441343.87611061        576092544.33341634     
  -4034755062.0174189       -456147352.52942920        866001230.03923166     
  -3353297977.4139414       -329537239.25422156        718675389.35824764     
  -2656735889.7703629       -152577115.84536874        607772199.62847209     
  -1945068799.0867004        74733017.697125673        533291660.84989721     
  -1218296705.3629274        352393161.37329996        495233773.02253407     
  -5957994215.2036390       -1787398264.5610917        1149933688.5569472     
  -6088539713.3441973       -1502578097.3141344        1227794494.4818885     
  -6221726401.2110205       -1226561895.8213959        1268349795.1519177     
  -6357554278.8041086       -959349660.08287716        1271599590.5670340     
  -6496023346.1234646       -700941390.09857821        1237543880.7272377     
  -6810829855.3230133       -2043248956.5969040        1353558127.6377256     
  -6828663538.7847404       -1395606375.4403811        1202620709.2696307     
  -6897836634.9394665       -919095169.92718196        1091961942.6994946     
  -7018349143.7871885       -613715340.05730557        1021581827.9273176     
  -7190201065.3279076       -479466885.83075309        991480364.95309889     
  -8338241547.0849657       -2501472464.1254897        1712131736.3359878     
  -8021694395.7168007       -1424506763.0140831        1275581500.2136703     
  -7805184880.0083675       -680999847.43510413        956894072.94218278     
  -7688712999.9596605       -270951717.38855219        756069454.52152598     
  -7672278755.5706816       -194362372.87442684        673107644.95169997     
  -10540229290.489494       -3162068787.1468487        2225654514.6517344     
  -9667632284.1403809       -1589279260.0352414        1446676867.3140073     
  -8943771136.4177227       -512275928.34516287        863146185.87998271     
  -8368645847.3215246        68941207.923383713        475062470.34966058     
  -7942256416.8517857        154372148.77040005        282425720.72303843     
  -13416793085.536604       -4025037925.6609812        2894126462.5849648     
  -11766477204.055473       -1889923866.5038526        1715906810.5706427     
  -10313595404.167534       -412923412.65735865        810718281.51289344     
  -9058147685.8727856        405963435.87850094        178560875.41171870     
  -8000134049.1712265        566736679.10372448       -180565407.73288414     
  -6496023346.1234646       -700941390.09857821        1237543880.7272377     
  -6239109371.3999071       -375059750.28945923        1053274199.6808263     
  -6013273905.4916563       -152773139.86469579        907867816.82999933     
  -5818516948.3987141       -34081558.824294806        801324732.17475235     
  -5654838500.1210785       -18985007.168249607        733644945.71508968     
  -7190201065.3279076       -479466885.83075309        991480364.95309889     
  -6900585484.3642817       -304150886.73837018        846900715.12363040     
  -6623832274.8079720       -171709459.00370407        723358765.91018653     
  -6359941436.6589756       -82142602.626752377        620854517.31276715     
  -6108912969.9172916       -35450317.607518673        539387969.33137107     
  -7672278755.5706816       -194362372.87442684        673107644.95169997     
  -7400891847.1657238       -184891098.13840103        589470186.64849734     
  -7124151172.7600899       -157573936.73345041        509044831.38176185     
  -6842056732.3537750       -112410888.65957475        431831579.15149277     
  -6554608525.9467850       -49401953.916773558        357830429.95769221     
  -7942256416.8517857        154372148.77040005        282425720.72303843     
  -7740028459.8042374       -17280384.489554882        280982614.25542688     
  -7514230599.3480139       -110366573.05394030        264926013.24472547     
  -7264862835.4831171       -124886416.92275667        234255917.69093293     
  -6991925168.2095585       -60839916.096010208        188972327.59404823     
  -8000134049.1712265        566736679.10372448       -180565407.73288414     
  -7917995322.2798128        198681254.20817518       -78562002.055578351     
  -7794070554.5717392       -30087367.965170860       -8997688.5009222310     
  -7628359746.0470047       -119569187.41630459        28127532.931084793     
  -7420862896.7056026       -69764204.145228386        32813662.240444660     
  -5654838500.1210785       -18985007.168249607        733644945.71508968     
  -5520684502.2720451       -51179919.784842730        720777710.72474217     
  -5380793179.6587315       -64250416.520493031        710055780.61792326     
  -5235164532.2811317       -58196497.375197887        701479155.39463437     
  -5083798560.1392508       -33018162.348964214        695047835.05487382     
  -6108912969.9172916       -35450317.607518673        539387969.33137107     
  -5959526258.3337784       -37124845.784475327        533620299.64024687     
  -5809062419.2871752       -35208949.084457636        530381631.52912366     
  -5657521452.7774782       -29702627.507467985        529671964.99800086     
  -5504903358.8046875       -20605881.053498268        531491300.04687971     
  -6554608525.9467850       -49401953.916773558        357830429.95769221     
  -6388892824.3531590       -20227214.771402121        353725428.71440279     
  -6226760192.5976315       -2996041.7530260086        352533125.74758345     
  -6068210630.6802015        2291565.1383533478        354253521.05724037     
  -5913244138.6008682       -4364394.0972588062        358886614.64336669     
  -6991925168.2095585       -60839916.096010208        188972327.59404823     
  -6808784200.3301849       -487026.74562311172        181093097.94720390     
  -6633886499.5900993        32388305.473799706        176510263.27330318     
  -6467232065.9893036        37786080.562260628        175223823.57234991     
  -6308820899.5277958        15706298.519763470        177233778.84433511     
  -7420862896.7056026       -69764204.145228386        32813662.240444660     
  -7219200386.2648506        22095718.292863369        15723307.338655345     
  -7030441340.2645807        70944092.596024036        2313044.1062827231     
  -6854585758.7047911        76780918.764245510       -7417127.4566710060     
  -6691633641.5854750        39606196.797553539       -13467207.350213407     
  -5083798560.1392508       -33018162.348964214        695047835.05487382     
  -4933888229.7833881       -4955571.4045164585        676833956.22396290     
  -4787525587.8484964        11281391.470026731        664514470.72084880     
  -4644710634.3345766        15692726.274665594        658089378.54553175     
  -4505443369.2416277        8278433.0093998909        657558679.69800961     
  -5504903358.8046875       -20605881.053498268        531491300.04687971     
  -5345292364.3976307       -9182857.7318398952        514891448.71726143     
  -5186607899.6048241       -848266.45766973495        503699153.55063939     
  -5028849964.4262619        4397892.7690086365        497914414.54701227     
  -4872018558.8619432        6555619.9482038021        497537231.70638168     
  -5913244138.6008682       -4364394.0972588062        358886614.64336669     
  -5745323443.4706259       -9998227.3967885971        346958809.42288888     
  -5575708119.1479015       -9983296.7213895321        339951723.20060599     
  -5404398165.6326990       -4319602.0710673332        337865355.97651511     
  -5231393582.9250250        6992856.5541796684        340699707.75061905     
  -6308820899.5277958        15706298.519763470        177233778.84433511     
  -6133981467.0023718       -7401680.3993687630        173036038.34084395     
  -5954826246.4777374       -16123699.321147680        173272179.67074299     
  -5771355237.9538994       -10459758.245580196        177942202.83403698     
  -5583568441.4308662        9590142.8273217678        187046107.83072349     
  -6691633641.5854750        39606196.797553539       -13467207.350213407     
  -6511266434.9928627       -1393216.7395589352       -6876864.5288725263     
  -6323962281.5943232       -19269474.256913424        3660522.9610535097     
  -6129721181.3898563       -14022575.754518032        18144955.119572867     
  -5928543134.3794613        14347478.767650843        36576431.946686670     
  -4505443369.2416277        8278433.0093998909        657558679.69800961     
  -4369761236.7214394       -3140431.8092105389        652014780.11256886     
  -4232462645.5263376       -9171101.0447585583        648628287.58436346     
  -4093547595.6563144       -9813574.6972467899        647399202.11339283     
  -3953016087.1113758       -5067852.7666759491        648327523.69965482     
  -4872018558.8619432        6555619.9482038021        497537231.70638168     
  -4727244354.0856075        3107323.2059223652        495651715.20877230     
  -4582854958.3884706       -1623670.4670450687        496763331.52566564     
  -4438850371.7705498       -7637361.0707180500        500872080.65705842     
  -4295230594.2318335       -14933748.605084181        507977962.60295361     
  -5231393582.9250250        6992856.5541796684        340699707.75061905     
  -5075128089.4431934        12234892.823039770        340137761.96102500     
  -4921248672.7946997        9523339.6474397182        343412674.74320036     
  -4769755332.9795465       -1141802.9726212025        350524446.09714240     
  -4620648069.9977217       -19760535.037121773        361473076.02285349     
  -5583568441.4308662        9590142.8273217678        187046107.83072349     
  -5413412442.7942095        24242277.042119741        185472920.36932743     
  -5247643788.7450199        24269929.298697472        188576317.23696965     
  -5086262479.2832985        9673099.5970575809        196356298.43364632     
  -4929268514.4090328       -19548212.062785864        208812863.95935673     
  -5928543134.3794613        14347478.767650843        36576431.946686670     
  -5742097414.1386528        39129475.863173246        31657190.433678549     
  -5562040306.2394314        42616098.486734867        32254259.006972644     
  -5388371810.6818094        24807346.638300896        38367637.666566715     
  -5221091927.4657726       -14296779.682085514        49997326.412462361     
  -3953016087.1113758       -5067852.7666759491        648327523.69965482     
  -3701896964.1905570        34827261.716904640        620218305.45469379     
  -3451093349.4565940        73670682.244289875        606444966.96439528     
  -3200605242.9094806        111462408.81551409        607007508.22875726     
  -2950432644.5492258        148202441.43054676        621905929.24778509     
  -4295230594.2318335       -14933748.605084181        507977962.60295361     
  -4016742234.6957283        20593712.158934593        483391792.03271109     
  -3736310863.6413999        62597877.983678102        466530920.73176885     
  -3453936481.0688591        111078748.86915088        457395348.70013601     
  -3169619086.9780951        166036324.81534672        455985075.93780178     
  -4620648069.9977217       -19760535.037121773        361473076.02285349     
  -4333677846.6616344        5733060.1627557278        343044892.78324318     
  -4042506092.1022601        45231759.440236330        325731428.32758021     
  -3747132806.3195858        98735562.795386076        309532682.65586400     
  -3447557989.3136306        166244470.22814989        294448655.76809138     
  -4929268514.4090328       -19548212.062785864        208812863.95935673     
  -4652703800.0882788       -9754694.2716619968        199177607.70630157     
  -4369679034.8391562        21572326.614003658        184046489.75182337     
  -4080194218.6616783        74432850.594203711        163419510.09594557     
  -3784249351.5558333        148826877.66894484        137296668.73864892     
  -5221091927.4657726       -14296779.682085514        49997326.412462361     
  -4973820094.9756565       -25869551.144286871        51789936.801875338     
  -4717829691.8521080       -8380420.4950654507        41476105.004511297     
  -4453120718.0951185        38170612.265626907        19055831.020379759     
  -4179693173.7047057        113783547.13774562       -15470885.150524151     
  -2950432644.5492258        148202441.43054676        621905929.24778509     
  -3213855089.6901484        22642190.360974789        712397712.55406451     
  -3482382974.3151546       -119936192.32221556        783244190.45473218     
  -3756016298.4242449       -279532706.61901605        834445362.94978690     
  -4034755062.0174189       -456147352.52942920        866001230.03923166     
  -3169619086.9780951        166036324.81534672        455985075.93780178     
  -3466061407.5375853        44804120.685346603        527493301.42528862     
  -3765740277.4270244       -87216581.211153507        592248148.08728039     
  -4068655696.6464086       -230025780.87413001        650249615.92377555     
  -4374807665.1957436       -383623478.30362248        701497704.93477809     
  -3447557989.3136306        166244470.22814989        294448655.76809138     
  -3740186109.3484974        60390535.820674181        349153695.28327382     
  -4034181888.5591812       -50022262.506190300        409997282.55308264     
  -4329545326.9456644       -164993924.75238156        476979417.57751435     
  -4626276424.5079641       -284524450.91797590        550100100.35656452     
  -3784249351.5558333        148826877.66894484        137296668.73864892     
  -4036229195.1228790        69401435.766965389        177378894.12802562     
  -4287707807.7116103       -8353236.2072863579        236491593.85214087     
  -4538685189.3220100       -84437138.253762245        314634767.91099566     
  -4789161339.9540892       -158850270.37252140        411808416.30458784     
  -4179693173.7047057        113783547.13774562       -15470885.150524151     
  -4354190664.8607512        71836820.524192333        12168897.959535370     
  -4526318034.8843346        37790497.685501337        71731081.984450936     
  -4696075283.7754450        11644578.621731997        163215666.92422098     
  -4863462411.5341034       -6600936.6672070026        286622652.77885282     
  -4034755062.0174189       -456147352.52942920        866001230.03923166     
  -3353297977.4139414       -329537239.25422156        718675389.35824764     
  -2656735889.7703629       -152577115.84536874        607772199.62847209     
  -1945068799.0867004        74733017.697125673        533291660.84989721     
  -1218296705.3629274        352393161.37329996        495233773.02253407     
  -4374807665.1957436       -383623478.30362248        701497704.93477809     
  -3610813190.6575727       -219725693.10984302        585530735.25214887     
  -2845921804.3518615       -52838202.024260998        488026567.20225370     
  -2080133506.2786126        117038994.95310819        408985200.78509277     
  -1313448296.4378264        289905897.82226408        348406636.00066096     
  -4626276424.5079641       -284524450.91797590        550100100.35656452     
  -3831058415.2307334       -98733150.364297867        448915895.18763953     
  -3049151585.4585261        42687551.839290619        348234642.33297324     
  -2280555935.1913280        139737655.69283509        248056341.79256454     
  -1525271464.4291599        192417161.19630450        148380993.56642240     
  -4789161339.9540892       -158850270.37252140        411808416.30458784     
  -4014033651.1334238        33440388.982368469        308830869.16471499     
  -3266425233.0903506        134000145.74530745        188396425.02062327     
  -2546336085.8248558        142828999.91630900        50505083.872323111     
  -1853766209.3369324        59926951.495409727       -104843154.28018476     
  -4863462411.5341034       -6600936.6672070026        286622652.77885282     
  -4159738898.3656607        176794924.93017173        165275657.18337417     
  -3497742747.2473469        221099579.69376445        8511915.2652122732     
  -2877473958.1791663        126313027.62356424       -183668572.97562769     
  -2298932531.1611362       -107564731.28041434       -411265807.53915602     
 </DataArray>
 <DataArray  type="Float64" Name="VM" NumberOfComponents="1" format="ascii">
   12935844385.176243     
   11340946190.518019     
   10210476155.497353     
   9272959320.6022701     
   8303921742.6652632     
   10130488464.794106     
   9322176621.4546509     
   8826485945.4439049     
   8443517267.1991491     
   8035460399.5939579     
   7982477072.8507996     
   7735060897.3593445     
   7669177329.4057379     
   7669509470.4782867     
   7666137062.2875433     
   6491718373.8922653     
   6586890482.8340340     
   6757385626.4770432     
   6961141501.0929556     
   7171507268.1770201     
   5657757645.4424171     
   5890839357.0008783     
   6116300726.8346710     
   6331715976.3416262     
   6536883897.4473648     
   8303921742.6652632     
   8020336489.7508583     
   7779086122.7649899     
   7569440266.2619381     
   7386446563.3179493     
   8035460399.5939579     
   7746705249.4691801     
   7473759416.1247311     
   7214649921.1761532     
   6969394706.0909166     
   7666137062.2875433     
   7381155137.0482368     
   7101630719.6336479     
   6827641644.4008369     
   6559394094.8595657     
   7171507268.1770201     
   6911113591.5149050     
   6658603999.1595097     
   6410113989.4962082     
   6162493785.9118185     
   6536883897.4473648     
   6328923793.9859228     
   6143029211.1802435     
   5965262852.3221321     
   5786614422.9485102     
   7386446563.3179493     
   7230324858.4500074     
   7066181632.6293344     
   6893308907.3121910     
   6711564923.3429279     
   6969394706.0909166     
   6815761925.7317123     
   6657163591.6888723     
   6493304238.4012280     
   6324143540.6663227     
   6559394094.8595657     
   6408158567.1446571     
   6255136664.0373936     
   6100293264.6744652     
   5943657662.0988922     
   6162493785.9118185     
   6012515021.4978008     
   5863943121.5449190     
   5716821248.2999020     
   5571211829.2739296     
   5786614422.9485102     
   5635298582.4685688     
   5488522826.1695776     
   5346202887.5108080     
   5208408088.5525446     
   6711564923.3429279     
   6510580834.8052273     
   6314352779.3410072     
   6122802595.6728477     
   5936067948.2476692     
   6324143540.6663227     
   6137605892.4618673     
   5954348960.2772312     
   5774363515.9001846     
   5597752628.5641890     
   5943657662.0988922     
   5771701626.4902468     
   5601754930.7775536     
   5433843241.5346737     
   5268048881.0445566     
   5571211829.2739296     
   5414655055.5877180     
   5259053255.4093418     
   5104431797.4894609     
   4950876370.9961576     
   5208408088.5525446     
   5068840106.2761946     
   4929429677.1679449     
   4790168704.9495258     
   4651186597.7408066     
   5936067948.2476692     
   5762022703.7757854     
   5583749815.8654470     
   5401227051.7210875     
   5214677341.8790445     
   5597752628.5641890     
   5435076452.3374596     
   5269952315.7044659     
   5102453028.2584238     
   4932800450.2117949     
   5268048881.0445566     
   5115295649.2560387     
   4961798335.3817663     
   4807673374.6178732     
   4653113035.7300501     
   4950876370.9961576     
   4806095067.7293224     
   4662128546.4638529     
   4519089328.6443567     
   4377123460.3492355     
   4651186597.7408066     
   4511814492.7103205     
   4374604413.4366846     
   4239626523.5032539     
   4106983599.2442403     
   5214677341.8790445     
   4961746840.8320065     
   4714192471.4981756     
   4472449982.6841154     
   4237815483.7010984     
   4932800450.2117949     
   4660619837.1307459     
   4392088763.9364052     
   4127631695.0461264     
   3868131556.8896527     
   4653113035.7300501     
   4377063075.4112873     
   4104272647.5849938     
   3835121861.7789674     
   3570228397.4742718     
   4377123460.3492355     
   4113193986.9708900     
   3853670431.1643777     
   3599070180.9149628     
   3350237648.8406024     
   4106983599.2442403     
   3871458800.1533833     
   3643218848.0618577     
   3423217684.1456194     
   3213188298.2841725     
   4237815483.7010984     
   4390600449.3484554     
   4547028795.9749565     
   4710399181.2670488     
   4885454357.1487045     
   3868131556.8896527     
   4082949005.2924585     
   4303077569.3800726     
   4529960742.5792599     
   4765427428.8075237     
   3570228397.4742718     
   3818931251.2458553     
   4071807968.2712321     
   4329014335.4158506     
   4590743868.2045965     
   3350237648.8406024     
   3606331998.4827595     
   3861637630.6481900     
   4115756191.4627795     
   4368538341.3544636     
   3213188298.2841725     
   3453212626.7759275     
   3682950791.2679639     
   3901892464.1697197     
   4110565707.1360550     
   4885454357.1487045     
   4260522646.5263062     
   3613399608.7499399     
   2959810320.1805282     
   2357285872.1567798     
   4765427428.8075237     
   4066195366.9274769     
   3351368532.4323263     
   2622130955.0611396     
   1893173941.7746465     
   4590743868.2045965     
   3861745805.6244178     
   3129394570.7707872     
   2392433328.5686145     
   1650156500.9830379     
   4368538341.3544636     
   3649849511.8123012     
   2943840858.1752672     
   2255197709.3207059     
   1598164433.7347677     
   4110565707.1360550     
   3434770519.0710235     
   2790041107.0599093     
   2188021579.2090573     
   1665387805.6021619     
   5657757645.4424171     
   5890839357.0008783     
   6116300726.8346710     
   6331715976.3416262     
   6536883897.4473648     
   5151282915.3303022     
   5311217105.6947718     
   5467787051.5956364     
   5618121409.7580404     
   5760772858.4927645     
   4643266482.1962776     
   4755421504.5098600     
   4868690040.9311619     
   4980447665.1848898     
   5088778173.7061081     
   4133974837.8506494     
   4224291095.0120025     
   4320506865.4392262     
   4420960076.5604000     
   4524192122.1779003     
   3624924583.6851277     
   3719649602.7710891     
   3825599445.8433084     
   3942691590.0641718     
   4070816572.1007123     
   6536883897.4473648     
   6328923793.9859228     
   6143029211.1802435     
   5965262852.3221321     
   5786614422.9485102     
   5760772858.4927645     
   5652199598.0423708     
   5559533813.2449751     
   5473699137.8973732     
   5389155934.2276096     
   5088778173.7061081     
   5053961465.9024181     
   5029613457.3793602     
   5010522947.7663021     
   4993490310.0333767     
   4524192122.1779003     
   4538815053.7282333     
   4558127674.5419626     
   4579652848.1998339     
   4601669085.7961941     
   4070816572.1007123     
   4112103586.7876954     
   4150825609.3373122     
   4186097145.5072803     
   4217194088.0167232     
   5786614422.9485102     
   5635298582.4685688     
   5488522826.1695776     
   5346202887.5108080     
   5208408088.5525446     
   5389155934.2276096     
   5247824428.8676414     
   5109954459.5841780     
   4975593468.6713209     
   4844849337.0101213     
   4993490310.0333767     
   4866321483.2464314     
   4742466101.1402102     
   4621897425.4991474     
   4504661971.8489447     
   4601669085.7961941     
   4493446937.8519249     
   4389435653.1588669     
   4289317311.6251454     
   4192999965.8302941     
   4217194088.0167232     
   4133146669.7617369     
   4055432316.7573371     
   3983187832.2751307     
   3916110990.6446609     
   5208408088.5525446     
   5068840106.2761946     
   4929429677.1679449     
   4790168704.9495258     
   4651186597.7408066     
   4844849337.0101213     
   4720666699.2395725     
   4597705494.0659409     
   4476060002.7399054     
   4355934141.3507195     
   4504661971.8489447     
   4395135080.3039217     
   4287878330.0313115     
   4183060285.2913065     
   4080932085.6834426     
   4192999965.8302941     
   4097200567.8826003     
   4004646543.8260303     
   3915548249.9148779     
   3830174745.6070199     
   3916110990.6446609     
   3832829829.4168634     
   3753625900.7573547     
   3678717083.2802658     
   3608363158.8742375     
   4651186597.7408066     
   4511814492.7103205     
   4374604413.4366846     
   4239626523.5032539     
   4106983599.2442403     
   4355934141.3507195     
   4225469537.3610606     
   4097555091.9136133     
   3972343667.5513883     
   3850030845.6987352     
   4080932085.6834426     
   3962240293.0412574     
   3846821835.7213335     
   3734925586.7504249     
   3626863176.4869919     
   3830174745.6070199     
   3726203742.7194118     
   3626588687.6021447     
   3531679869.9732728     
   3441917232.0603032     
   3608363158.8742375     
   3521976654.0797162     
   3441383358.5107436     
   3367020567.0660119     
   3299443550.5476122     
   4106983599.2442403     
   3871458800.1533833     
   3643218848.0618577     
   3423217684.1456194     
   3213188298.2841725     
   3850030845.6987352     
   3647294351.7447739     
   3452461766.8128591     
   3266459798.4191413     
   3090758196.7325954     
   3626863176.4869919     
   3450657908.0235677     
   3282358787.4375234     
   3122780524.5405440     
   2973081051.8229156     
   3441917232.0603032     
   3286097997.1253815     
   3137450181.8364382     
   2996629640.9965391     
   2864491545.8641739     
   3299443550.5476122     
   3158221616.0839071     
   3022634608.5487905     
   2893165926.7924509     
   2770418975.8821216     
   3213188298.2841725     
   3453212626.7759275     
   3682950791.2679639     
   3901892464.1697197     
   4110565707.1360550     
   3090758196.7325954     
   3301404966.5790029     
   3502214338.1542354     
   3692888655.4676175     
   3873761536.1646609     
   2973081051.8229156     
   3166942456.5938091     
   3353039520.2095613     
   3531364105.6174655     
   3702232066.3300099     
   2864491545.8641739     
   3052944906.9010539     
   3237240371.1728401     
   3417722912.6318841     
   3594856413.8830400     
   2770418975.8821216     
   2962706685.8083191     
   3155935575.0014958     
   3350742670.9424958     
   3547782621.6429892     
   4110565707.1360550     
   3434770519.0710235     
   2790041107.0599093     
   2188021579.2090573     
   1665387805.6021619     
   3873761536.1646609     
   3268752220.2143149     
   2693535167.2387409     
   2156796300.5593681     
   1683048655.2850378     
   3702232066.3300099     
   3153118710.6387472     
   2630753756.0168357     
   2141774545.5743899     
   1702737866.5600455     
   3594856413.8830400     
   3089611483.9915414     
   2606441026.7666922     
   2150726795.5672874     
   1734225234.1944032     
   3547782621.6429892     
   3077738108.4326940     
   2624006799.0062628     
   2191438545.4830265     
   1789466262.2378087     
   3624924583.6851277     
   3719649602.7710891     
   3825599445.8433084     
   3942691590.0641718     
   4070816572.1007123     
   3138009651.2612243     
   3255499793.6176295     
   3382395624.3129277     
   3518216241.7755651     
   3662493681.8915362     
   2694824130.1781645     
   2830511327.7534118     
   2973516125.5028710     
   3122750592.4405251     
   3277298789.1010580     
   2298866049.2796898     
   2449480641.4307179     
   2604840818.8653097     
   2763024166.4287395     
   2922600474.1887345     
   1955362853.9401858     
   2119370300.7802503     
   2284774523.9315672     
   2448621959.7956176     
   2608958908.4039197     
   4070816572.1007123     
   4112103586.7876954     
   4150825609.3373122     
   4186097145.5072803     
   4217194088.0167232     
   3662493681.8915362     
   3701854507.1772485     
   3739889459.1947093     
   3775709787.8344932     
   3808573096.2297335     
   3277298789.1010580     
   3320542913.7097092     
   3364049142.5419703     
   3407000279.5131755     
   3448722294.8982019     
   2922600474.1887345     
   2975549290.9524045     
   3030700907.5683131     
   3087373714.5498385     
   3145035006.8130336     
   2608958908.4039197     
   2676914416.7100224     
   2749313257.5367703     
   2825643001.2301197     
   2905547873.7366776     
   4217194088.0167232     
   4133146669.7617369     
   4055432316.7573371     
   3983187832.2751307     
   3916110990.6446609     
   3808573096.2297335     
   3755792474.6549582     
   3708883935.7349696     
   3667366803.4293785     
   3631143255.7873960     
   3448722294.8982019     
   3422717322.9852629     
   3401755686.6896839     
   3385605959.3001151     
   3374253610.4758601     
   3145035006.8130336     
   3141565350.0108137     
   3141728140.5252585     
   3145424087.2541261     
   3152641848.8531036     
   2905547873.7366776     
   2920676328.2786994     
   2937257187.3284440     
   2955238942.9152808     
   2974585727.7735267     
   3916110990.6446609     
   3832829829.4168634     
   3753625900.7573547     
   3678717083.2802658     
   3608363158.8742375     
   3631143255.7873960     
   3559608168.5000997     
   3492754108.3748708     
   3430813331.5069690     
   3374062435.9439073     
   3374253610.4758601     
   3315356134.6174097     
   3261903400.9154220     
   3214124041.9332590     
   3172294323.0904412     
   3152641848.8531036     
   3107013641.0355797     
   3067739313.2124124     
   3035016240.9518328     
   3009093831.7610598     
   2974585727.7735267     
   2942345282.7631679     
   2917481169.5355964     
   2900124630.9970899     
   2890465993.2873206     
   3608363158.8742375     
   3521976654.0797162     
   3441383358.5107436     
   3367020567.0660119     
   3299443550.5476122     
   3374062435.9439073     
   3304608260.8435502     
   3241311983.7354083     
   3184563648.1585031     
   3134836513.6033916     
   3172294323.0904412     
   3118181493.4802070     
   3070413926.4918895     
   3029311136.5363040     
   2995244204.3126402     
   3009093831.7610598     
   2968461194.6890340     
   2934139579.5785804     
   2906364449.7272038     
   2885397629.1318655     
   2890465993.2873206     
   2861145299.8054037     
   2837849786.2617693     
   2820730835.6554666     
   2809949448.7424645     
   3299443550.5476122     
   3158221616.0839071     
   3022634608.5487905     
   2893165926.7924509     
   2770418975.8821216     
   3134836513.6033916     
   3003433429.8739967     
   2879767062.4488668     
   2764448192.5536385     
   2658219542.1604776     
   2995244204.3126402     
   2876020239.3908777     
   2766889304.6152263     
   2668523433.8821459     
   2581719310.9929981     
   2885397629.1318655     
   2779722711.3681226     
   2686652388.5102873     
   2606821138.2661524     
   2540961986.5326090     
   2809949448.7424645     
   2717832004.2127547     
   2640895545.8912783     
   2579634292.5034633     
   2534607957.7833014     
   2770418975.8821216     
   2962706685.8083191     
   3155935575.0014958     
   3350742670.9424958     
   3547782621.6429892     
   2658219542.1604776     
   2862959795.3430963     
   3064852479.5766912     
   3264365737.4538255     
   3461998316.3592763     
   2581719310.9929981     
   2793807400.6806951     
   2998555749.8658409     
   3196339861.9820294     
   3387583781.1240015     
   2540961986.5326090     
   2756665082.8754778     
   2959922899.3681197     
   3151044212.6701570     
   3330403684.9170508     
   2534607957.7833014     
   2751948731.5634375     
   2951291274.6122456     
   3132853572.5006986     
   3296933133.5573640     
   3547782621.6429892     
   3077738108.4326940     
   2624006799.0062628     
   2191438545.4830265     
   1789466262.2378087     
   3461998316.3592763     
   3005587047.2324257     
   2573185492.9081898     
   2170863749.3121185     
   1809794451.1007023     
   3387583781.1240015     
   2949403192.3623791     
   2542929820.8028541     
   2174501732.9897470     
   1855053186.4224825     
   3330403684.9170508     
   2912213498.0325403     
   2533093977.8025732     
   2198544836.4586406     
   1917474386.2188902     
   3296933133.5573640     
   2896981610.8477221     
   2543059064.1238804     
   2238958196.9987168     
   1990559263.8062840     
   1955362853.9401858     
   2119370300.7802503     
   2284774523.9315672     
   2448621959.7956176     
   2608958908.4039197     
   1653867409.0555601     
   1820332003.3127897     
   1988516140.3468242     
   2155728083.0480800     
   2320213186.0471115     
   1393751344.4648166     
   1571175073.9722881     
   1749606680.4564352     
   1927045246.3962443     
   2102242529.8027844     
   1207301175.5047114     
   1399301172.2001119     
   1590862389.4499733     
   1781209075.6546381     
   1969883457.7982278     
   1137123033.5537488     
   1335513670.1891592     
   1534175904.4445798     
   1733109736.3200121     
   1932315165.8154533     
   2608958908.4039197     
   2676914416.7100224     
   2749313257.5367703     
   2825643001.2301197     
   2905547873.7366776     
   2320213186.0471115     
   2407219565.9112000     
   2496628564.8583155     
   2588049059.7924275     
   2681204639.3760738     
   2102242529.8027844     
   2205926870.7087889     
   2309512156.5232239     
   2412761830.4026508     
   2515508921.1925988     
   1969883457.7982278     
   2086967315.4720385     
   2201223135.3881936     
   2312575848.1296997     
   2420973299.5973053     
   1932315165.8154533     
   2058899608.9080067     
   2180119205.6836076     
   2295973956.1422572     
   2406463860.2839551     
   2905547873.7366776     
   2920676328.2786994     
   2937257187.3284440     
   2955238942.9152808     
   2974585727.7735267     
   2681204639.3760738     
   2703358522.9755688     
   2727968447.7394991     
   2755019464.4990540     
   2784506032.6874094     
   2515508921.1925988     
   2544511226.4407020     
   2576991511.0333633     
   2612952483.1602325     
   2652400876.5122366     
   2420973299.5973053     
   2455185382.8738408     
   2493891519.2989435     
   2537095299.1055946     
   2584801151.2886353     
   2406463860.2839551     
   2442710506.1598811     
   2484454968.1449604     
   2531697246.2391906     
   2584437340.4425750     
   2974585727.7735267     
   2942345282.7631679     
   2917481169.5355964     
   2900124630.9970899     
   2890465993.2873206     
   2784506032.6874094     
   2766609987.1648293     
   2755928004.4145274     
   2752544035.1826496     
   2756573255.9153380     
   2652400876.5122366     
   2646019523.1143141     
   2646426593.4594693     
   2653660192.8355794     
   2667770979.2302432     
   2584801151.2886353     
   2586621729.7329593     
   2594549023.0092473     
   2608591683.1266665     
   2628761156.2568316     
   2584437340.4425750     
   2590974056.3609619     
   2602727149.9625044     
   2619696621.2472014     
   2641882470.2150521     
   2890465993.2873206     
   2861145299.8054037     
   2837849786.2617693     
   2820730835.6554666     
   2809949448.7424645     
   2756573255.9153380     
   2736190016.4186654     
   2722580503.0945268     
   2715851787.4038334     
   2716115518.7209449     
   2667770979.2302432     
   2654673968.3335099     
   2649037943.6762018     
   2650919880.7775455     
   2660378137.7295346     
   2628761156.2568316     
   2620462010.2380586     
   2620242213.7823396     
   2628117984.5557041     
   2644105713.4595780     
   2641882470.2150521     
   2635210917.5385904     
   2637173630.0268793     
   2647770607.6799188     
   2667001850.4977117     
   2809949448.7424645     
   2717832004.2127547     
   2640895545.8912783     
   2579634292.5034633     
   2534607957.7833014     
   2716115518.7209449     
   2637471630.3379593     
   2573312158.8276825     
   2523902850.0510020     
   2489538873.3115554     
   2660378137.7295346     
   2591541979.4005013     
   2536356395.4479985     
   2494930370.7748299     
   2467383269.7716203     
   2644105713.4595780     
   2581420480.4054823     
   2531445014.8112693     
   2494203527.9589486     
   2469722327.1508026     
   2667001850.4977117     
   2607073771.7598796     
   2558840302.4829497     
   2522301442.6669126     
   2497457192.3117762     
   2534607957.7833014     
   2751948731.5634375     
   2951291274.6122456     
   3132853572.5006986     
   3296933133.5573640     
   2489538873.3115554     
   2704728511.8673339     
   2904298847.2284064     
   3088337386.8611355     
   3256976960.9850893     
   2467383269.7716203     
   2682429833.9910102     
   2884517687.7212596     
   3073672379.9677939     
   3249939961.2840161     
   2469722327.1508026     
   2685293180.9043875     
   2890751822.9485526     
   3086102178.2513890     
   3271353330.8905301     
   2497457192.3117762     
   2712870672.6172581     
   2921145661.4634132     
   3122282158.8502374     
   3316280164.7777367     
   3296933133.5573640     
   2896981610.8477221     
   2543059064.1238804     
   2238958196.9987168     
   1990559263.8062840     
   3256976960.9850893     
   2885984066.1296129     
   2557434495.9775739     
   2273200727.0006161     
   2036100787.2021675     
   3249939961.2840161     
   2900276198.0312991     
   2589371524.7417631     
   2317939863.9642224     
   2087036196.5888736     
   3271353330.8905301     
   2936614551.6342869     
   2636997744.6252460     
   2372652866.3259277     
   2143799662.1526535     
   3316280164.7777367     
   2991486593.7180209     
   2698306407.7317009     
   2436739606.8187838     
   2206786190.9792628     
   1137123033.5537488     
   1335513670.1891592     
   1534175904.4445798     
   1733109736.3200121     
   1932315165.8154533     
   1207301175.8614218     
   1399301172.6034648     
   1590862389.9038410     
   1781209076.1642623     
   1969883458.3696733     
   1393751345.0942793     
   1571175074.6799285     
   1749606681.2493925     
   1927045247.2835407     
   2102242530.7940884     
   1653867409.8552628     
   1820332004.1994760     
   1988516141.3304546     
   2155728084.1402340     
   2320213187.2589436     
   1955362854.8355598     
   2119370301.7444410     
   2284774524.9760280     
   2448621960.9329743     
   2608958909.6448474     
   1932315165.8154533     
   2058899608.9080067     
   2180119205.6836076     
   2295973956.1422572     
   2406463860.2839551     
   1969883458.3696733     
   2086967315.8964550     
   2201223135.6582041     
   2312575848.2354350     
   2420973299.5277662     
   2102242530.7940884     
   2205926871.4914994     
   2309512157.0830765     
   2412761830.7233968     
   2515508921.2569165     
   2320213187.2589436     
   2407219566.9398241     
   2496628565.6843729     
   2588049060.3972869     
   2681204639.7409191     
   2608958909.6448474     
   2676914417.8627038     
   2749313258.5809979     
   2825643002.1505237     
   2905547874.5191817     
   2406463860.2839551     
   2442710506.1598811     
   2484454968.1449604     
   2531697246.2391906     
   2584437340.4425750     
   2420973299.5277662     
   2455185383.0636964     
   2493891519.7196999     
   2537095299.7296844     
   2584801152.0890036     
   2515508921.2569165     
   2544511226.9024391     
   2576991511.8285747     
   2612952484.2245140     
   2652400877.7809758     
   2681204639.7409191     
   2703358523.7785573     
   2727968448.8761439     
   2755019465.8607211     
   2784506034.1630282     
   2905547874.5191817     
   2920676329.4768925     
   2937257188.7938356     
   2955238944.4898195     
   2974585729.2932758     
   2584437340.4425750     
   2590974056.3609619     
   2602727149.9625044     
   2619696621.2472014     
   2641882470.2150521     
   2584801152.0890036     
   2586621729.9121175     
   2594549022.6197186     
   2608591682.2232151     
   2628761154.8965006     
   2652400877.7809758     
   2646019523.1743460     
   2646426592.4160452     
   2653660190.8011417     
   2667770976.3239746     
   2784506034.1630282     
   2766609986.8888383     
   2755928002.5387182     
   2752544031.8733506     
   2756573251.3524256     
   2974585729.2932758     
   2942345282.0315161     
   2917481166.7413645     
   2900124626.3525786     
   2890465987.0270810     
   2641882470.2150521     
   2635210917.5385904     
   2637173630.0268793     
   2647770607.6799188     
   2667001850.4977117     
   2628761154.8965006     
   2620462008.6654139     
   2620242211.9764075     
   2628117982.4958968     
   2644105711.1259789     
   2667770976.3239746     
   2654673965.1793017     
   2649037940.2468157     
   2650919877.0449719     
   2660378133.6651764     
   2756573251.3524256     
   2736190011.7388935     
   2722580498.2798376     
   2715851782.4331465     
   2716115513.5697937     
   2890465987.0270810     
   2861145293.7016945     
   2837849780.3217144     
   2820730829.8807068     
   2809949443.1277671     
   2667001850.4977117     
   2607073771.7598796     
   2558840302.4829497     
   2522301442.6669126     
   2497457192.3117762     
   2644105711.1259789     
   2581420478.6751251     
   2531445013.7109017     
   2494203527.5147147     
   2469722327.3882918     
   2660378133.6651764     
   2591541976.2708912     
   2536356393.2864299     
   2494930369.6143122     
   2467383269.6444955     
   2716115513.5697937     
   2637471626.1800857     
   2573312155.6821818     
   2523902847.9376273     
   2489538872.2495646     
   2809949443.1277671     
   2717831999.4028735     
   2640895541.8682585     
   2579634289.2499270     
   2534607955.2805820     
   2497457192.3117762     
   2712870672.6172581     
   2921145661.4634132     
   3122282158.8502374     
   3316280164.7777367     
   2469722327.3882918     
   2685293179.5702305     
   2890751819.7491193     
   3086102172.9203291     
   3271353323.1898522     
   2467383269.6444955     
   2682429831.6093812     
   2884517682.5551834     
   3073672371.5182896     
   3249939949.0823650     
   2489538872.2495646     
   2704728508.8422666     
   2904298841.5485592     
   3088337377.8467855     
   3256976947.9637961     
   2534607955.2805820     
   2751948728.3917565     
   2951291270.0137129     
   3132853565.6890554     
   3296933123.7082586     
   3316280164.7777367     
   2991486593.7180209     
   2698306407.7317009     
   2436739606.8187838     
   2206786190.9792628     
   3271353323.1898522     
   2936614555.5663915     
   2636997762.1909332     
   2372652900.4143710     
   2143799716.9304354     
   3249939949.0823650     
   2900276198.4109063     
   2589371541.6268196     
   2317939903.1759701     
   2087036266.3956735     
   3256976947.9637961     
   2885984056.0316105     
   2557434494.4186420     
   2273200742.6241541     
   2036100832.2153280     
   3296933123.7082586     
   2896981584.3686032     
   2543059027.6874094     
   2238958161.4534154     
   1990559244.7173088     
   1955362854.8355598     
   2119370301.7444410     
   2284774524.9760280     
   2448621960.9329743     
   2608958909.6448474     
   2298866050.1895680     
   2449480642.3956652     
   2604840819.8895984     
   2763024167.5157919     
   2922600475.3399134     
   2694824131.0102448     
   2830511328.6308784     
   2973516126.4258013     
   3122750593.4066148     
   3277298790.1056108     
   3138009651.9396729     
   3255499794.3372102     
   3382395625.0716248     
   3518216242.5681758     
   3662493682.7101965     
   3624924584.1443930     
   3719649603.2741098     
   3825599446.3871536     
   3942691590.6427159     
   4070816572.7051954     
   2608958909.6448474     
   2676914417.8627038     
   2749313258.5809979     
   2825643002.1505237     
   2905547874.5191817     
   2922600475.3399134     
   2975549292.1117406     
   3030700908.7321367     
   3087373715.7194619     
   3145035007.9922333     
   3277298790.1056108     
   3320542914.7777791     
   3364049143.6821094     
   3407000280.7382579     
   3448722296.2237973     
   3662493682.7101965     
   3701854508.0733681     
   3739889460.1846757     
   3775709788.9373651     
   3808573097.4662437     
   4070816572.7051954     
   4112103587.4444385     
   4150825610.0668564     
   4186097146.3303046     
   4217194088.9533997     
   2905547874.5191817     
   2920676329.4768925     
   2937257188.7938356     
   2955238944.4898195     
   2974585729.2932758     
   3145035007.9922333     
   3141565351.6642842     
   3141728142.5702834     
   3145424089.5984888     
   3152641851.4011164     
   3448722296.2237973     
   3422717324.8109059     
   3401755688.9972858     
   3385605962.0625224     
   3374253613.6638384     
   3808573097.4662437     
   3755792476.3445892     
   3708883937.9198990     
   3667366806.1443810     
   3631143259.0670495     
   4217194088.9533997     
   4133146671.0072966     
   4055432318.4072065     
   3983187834.4202557     
   3916110993.3787403     
   2974585729.2932758     
   2942345282.0315161     
   2917481166.7413645     
   2900124626.3525786     
   2890465987.0270810     
   3152641851.4011164     
   3107013641.2882786     
   3067739311.1985559     
   3035016236.7182651     
   3009093825.3721943     
   3374253613.6638384     
   3315356135.6470003     
   3261903399.6737070     
   3214124038.3168554     
   3172294317.0043182     
   3631143259.0670495     
   3559608169.9947433     
   3492754107.8527513     
   3430813328.7359285     
   3374062430.6883898     
   3916110993.3787403     
   3832829831.0066404     
   3753625900.8762860     
   3678717081.5915556     
   3608363155.0254498     
   2890465987.0270810     
   2861145293.7016945     
   2837849780.3217144     
   2820730829.8807068     
   2809949443.1277671     
   3009093825.3721943     
   2968461188.4341974     
   2934139573.5339231     
   2906364443.9654870     
   2885397623.7206841     
   3172294317.0043182     
   3118181487.4107342     
   3070413920.5701489     
   3029311130.8939281     
   2995244199.0804720     
   3374062430.6883898     
   3304608255.3791976     
   3241311978.2332802     
   3184563642.7952337     
   3134836508.5611410     
   3608363155.0254498     
   3521976649.6839981     
   3441383353.7649212     
   3367020562.1774917     
   3299443545.7365155     
   2809949443.1277671     
   2717831999.4028735     
   2640895541.8682585     
   2579634289.2499270     
   2534607955.2805820     
   2885397623.7206841     
   2779722706.3904452     
   2686652383.9057722     
   2606821133.9722834     
   2540961982.4824004     
   2995244199.0804720     
   2876020234.4037280     
   2766889299.7795873     
   2668523429.0980330     
   2581719306.1514382     
   3134836508.5611410     
   3003433425.0724506     
   2879767057.7753148     
   2764448187.8847322     
   2658219537.3598561     
   3299443545.7365155     
   3158221611.6826019     
   3022634604.4423475     
   2893165922.8530440     
   2770418971.9676595     
   2534607955.2805820     
   2751948728.3917565     
   2951291270.0137129     
   3132853565.6890554     
   3296933123.7082586     
   2540961982.4824004     
   2756665079.8568296     
   2959922897.2545137     
   3151044211.3221316     
   3330403684.1725717     
   2581719306.1514382     
   2793807397.7568874     
   2998555749.2397614     
   3196339864.0434456     
   3387583786.2624202     
   2658219537.3598561     
   2862959792.3081222     
   3064852479.0675097     
   3264365740.2815962     
   3461998323.3775773     
   2770418971.9676595     
   2962706682.3285418     
   3155935572.9821782     
   3350742671.5275784     
   3547782626.0925856     
   3296933123.7082586     
   2896981584.3686032     
   2543059027.6874094     
   2238958161.4534154     
   1990559244.7173088     
   3330403684.1725717     
   2912213461.4261336     
   2533093909.8865085     
   2198544746.6811457     
   1917474290.8843157     
   3387583786.2624202     
   2949403149.6771784     
   2542929731.7737255     
   2174501603.6426182     
   1855053030.4630799     
   3461998323.3775773     
   3005587002.3808632     
   2573185394.2126584     
   2170863598.0290651     
   1809794255.0272567     
   3547782626.0925856     
   3077738065.0056458     
   2624006702.5617847     
   2191438392.3746219     
   1789466052.6138740     
   3624924584.1443930     
   3719649603.2741098     
   3825599446.3871536     
   3942691590.6427159     
   4070816572.7051954     
   4133974838.0585589     
   4224291095.2598090     
   4320506865.7188730     
   4420960076.8659201     
   4524192122.5051956     
   4643266482.1515732     
   4755421504.4982042     
   4868690040.9399710     
   4980447665.2093077     
   5088778173.7478504     
   5151282915.0317373     
   5311217105.4209299     
   5467787051.3299541     
   5618121409.4968500     
   5760772858.2429152     
   5657757644.8864069     
   5890839356.4618139     
   6116300726.2921209     
   6331715975.7922764     
   6536883896.9011917     
   4070816572.7051954     
   4112103587.4444385     
   4150825610.0668564     
   4186097146.3303046     
   4217194088.9533997     
   4524192122.5051956     
   4538815054.0408955     
   4558127674.8437920     
   4579652848.4944782     
   4601669086.0888014     
   5088778173.7478504     
   5053961465.8639030     
   5029613457.2486143     
   5010522947.5301151     
   4993490309.6830902     
   5760772858.2429152     
   5652199597.6548853     
   5559533812.6955824     
   5473699137.1569338     
   5389155933.2730913     
   6536883896.9011917     
   6328923793.2567425     
   6143029210.2373724     
   5965262851.1233921     
   5786614421.4565210     
   4217194088.9533997     
   4133146671.0072966     
   4055432318.4072065     
   3983187834.4202557     
   3916110993.3787403     
   4601669086.0888014     
   4493446938.2004652     
   4389435653.6468306     
   4289317312.3352361     
   4192999966.8468089     
   4993490309.6830902     
   4866321482.7593145     
   4742466100.5952826     
   4621897424.9762506     
   4504661971.4299011     
   5389155933.2730913     
   5247824427.6390648     
   5109954458.1633749     
   4975593467.1404419     
   4844849335.4545097     
   5786614421.4565210     
   5635298580.6135435     
   5488522824.0436487     
   5346202885.2035666     
   5208408086.1578150     
   3916110993.3787403     
   3832829831.0066404     
   3753625900.8762860     
   3678717081.5915556     
   3608363155.0254498     
   4192999966.8468089     
   4097200568.2660780     
   4004646543.3761563     
   3915548248.4240856     
   3830174742.8560948     
   4504661971.4299011     
   4395135079.6547546     
   4287878329.0548730     
   4183060283.8864579     
   4080932083.7419801     
   4844849335.4545097     
   4720666697.6915207     
   4597705492.5093431     
   4476060001.1569490     
   4355934139.7203331     
   5208408086.1578150     
   5068840103.9243441     
   4929429674.9034882     
   4790168702.8153410     
   4651186595.7779970     
   3608363155.0254498     
   3521976649.6839981     
   3441383353.7649212     
   3367020562.1774917     
   3299443545.7365155     
   3830174742.8560948     
   3726203739.5864053     
   3626588684.1106343     
   3531679866.1497612     
   3441917227.9347401     
   4080932083.7419801     
   3962240291.0545726     
   3846821833.5707536     
   3734925584.3123822     
   3626863173.6304369     
   4355934139.7203331     
   4225469536.2630997     
   4097555091.1188345     
   3972343666.8201361     
   3850030844.7749243     
   4651186595.7779970     
   4511814492.1455383     
   4374604413.9606218     
   4239626524.7939463     
   4106983600.9581041     
   3299443545.7365155     
   3158221611.6826019     
   3022634604.4423475     
   2893165922.8530440     
   2770418971.9676595     
   3441917227.9347401     
   3286097993.3847136     
   3137450178.5040550     
   2996629638.0880938     
   2864491543.3873215     
   3626863173.6304369     
   3450657905.2988944     
   3282358784.9678097     
   3122780522.4495640     
   2973081050.2409754     
   3850030844.7749243     
   3647294350.4338541     
   3452461765.2979302     
   3266459796.8947835     
   3090758195.4223342     
   4106983600.9581041     
   3871458800.6752849     
   3643218847.5987015     
   3423217682.9262729     
   3213188296.5937347     
   2770418971.9676595     
   2962706682.3285418     
   3155935572.9821782     
   3350742671.5275784     
   3547782626.0925856     
   2864491543.3873215     
   3052944903.2224836     
   3237240366.7638898     
   3417722908.0691032     
   3594856409.8354583     
   2973081050.2409754     
   3166942452.9432120     
   3353039514.5292077     
   3531364098.0257201     
   3702232057.0137815     
   3090758195.4223342     
   3301404963.2622786     
   3502214332.5651073     
   3692888647.4047651     
   3873761525.4962316     
   3213188296.5937347     
   3453212624.1518574     
   3682950787.2798147     
   3901892458.4539561     
   4110565699.4310675     
   3547782626.0925856     
   3077738065.0056458     
   2624006702.5617847     
   2191438392.3746219     
   1789466052.6138740     
   3594856409.8354583     
   3089611439.8838720     
   2606440937.6428347     
   2150726657.5196619     
   1734225046.5045147     
   3702232057.0137815     
   3153118673.9542074     
   2630753688.3843942     
   2141774444.8318489     
   1702737734.8637092     
   3873761525.4962316     
   3268752198.0700526     
   2693535132.0662432     
   2156796253.4565229     
   1683048604.5381241     
   4110565699.4310675     
   3434770517.1259489     
   2790041111.6277952     
   2188021596.0303264     
   1665387852.6639836     
   5657757644.8864069     
   5890839356.4618139     
   6116300726.2921209     
   6331715975.7922764     
   6536883896.9011917     
   6491718373.1295891     
   6586890481.9896078     
   6757385625.5573454     
   6961141500.1243668     
   7171507267.1945095     
   7982477071.9845114     
   7735060896.3135204     
   7669177328.1966190     
   7669509469.1407194     
   7666137060.8645573     
   10130488463.923256     
   9322176620.3051796     
   8826485944.0302219     
   8443517265.5501366     
   8035460397.7415037     
   12935844384.398914     
   11340946189.353346     
   10210476153.954224     
   9272959318.7012291     
   8303921740.4170837     
   6536883896.9011917     
   6328923793.2567425     
   6143029210.2373724     
   5965262851.1233921     
   5786614421.4565210     
   7171507267.1945095     
   6911113590.3463631     
   6658603997.7849617     
   6410113987.8897820     
   6162493784.0455608     
   7666137060.8645573     
   7381155135.4534702     
   7101630717.8541794     
   6827641642.4231834     
   6559394092.6685362     
   8035460397.7415037     
   7746705247.4625368     
   7473759413.9575987     
   7214649918.8440523     
   6969394703.5907154     
   8303921740.4170837     
   8020336487.3529272     
   7779086120.2217369     
   7569440263.5770893     
   7386446560.4992533     
   5786614421.4565210     
   5635298580.6135435     
   5488522824.0436487     
   5346202885.2035666     
   5208408086.1578150     
   6162493784.0455608     
   6012515019.2926416     
   5863943119.0549221     
   5716821245.5791731     
   5571211826.3773775     
   6559394092.6685362     
   6408158564.7311039     
   6255136661.4255247     
   6100293261.8890390     
   5943657659.1632299     
   6969394703.5907154     
   6815761923.2351875     
   6657163589.1965971     
   6493304235.9146223     
   6324143538.1858568     
   7386446560.4992533     
   7230324855.9818583     
   7066181630.4938889     
   6893308905.4941969     
   6711564921.8308582     
   5208408086.1578150     
   5068840103.9243441     
   4929429674.9034882     
   4790168702.8153410     
   4651186595.7779970     
   5571211826.3773775     
   5414655052.5710192     
   5259053252.2643003     
   5104431794.2065678     
   4950876367.5639038     
   5943657659.1632299     
   5771701623.4986343     
   5601754927.6883869     
   5433843238.3032923     
   5268048877.6206169     
   6324143538.1858568     
   6137605890.2230740     
   5954348958.2200003     
   5774363513.9563551     
   5597752626.6516523     
   6711564921.8308582     
   6510580834.0670977     
   6314352779.3087378     
   6122802596.2608824     
   5936067949.3424177     
   4651186595.7779970     
   4511814492.1455383     
   4374604413.9606218     
   4239626524.7939463     
   4106983600.9581041     
   4950876367.5639038     
   4806095065.9700298     
   4662128546.3108292     
   4519089330.0275412     
   4377123463.1945400     
   5268048877.6206169     
   5115295647.0208855     
   4961798334.4353094     
   4807673375.0659590     
   4653113037.6883707     
   5597752626.6516523     
   5435076450.2946796     
   5269952313.7337704     
   5102453026.5709915     
   4932800449.0319424     
   5936067949.3424177     
   5762022702.5436230     
   5583749812.5571861     
   5401227046.5868740     
   5214677335.1680956     
   4106983600.9581041     
   3871458800.6752849     
   3643218847.5987015     
   3423217682.9262729     
   3213188296.5937347     
   4377123463.1945400     
   4113193988.6395664     
   3853670431.6327586     
   3599070180.1627698     
   3350237646.8534985     
   4653113037.6883707     
   4377063076.7490158     
   4104272648.1120358     
   3835121861.2912998     
   3570228395.7370090     
   4932800449.0319424     
   4660619836.5179501     
   4392088763.5948591     
   4127631694.6598735     
   3868131556.1030765     
   5214677335.1680956     
   4961746836.5679874     
   4714192469.3404531     
   4472449982.2757978     
   4237815484.6602898     
   3213188296.5937347     
   3453212624.1518574     
   3682950787.2798147     
   3901892458.4539561     
   4110565699.4310675     
   3350237646.8534985     
   3606331997.0301681     
   3861637629.6962976     
   4115756190.9104886     
   4368538341.0490685     
   3570228395.7370090     
   3818931251.1987762     
   4071807970.2265763     
   4329014339.5204744     
   4590743874.4594946     
   3868131556.1030765     
   4082949006.8235135     
   4303077573.8590603     
   4529960750.4703159     
   4765427440.4314260     
   4237815484.6602898     
   4390600452.5914106     
   4547028802.4405146     
   4710399191.8670702     
   4885454372.7954407     
   4110565699.4310675     
   3434770517.1259489     
   2790041111.6277952     
   2188021596.0303264     
   1665387852.6639836     
   4368538341.0490685     
   3649849527.4198208     
   2943840891.0334415     
   2255197762.6384320     
   1598164514.8911872     
   4590743874.4594946     
   3861745821.7990026     
   3129394595.2721767     
   2392433357.9277539     
   1650156528.0661058     
   4765427440.4314260     
   4066195368.6432896     
   3351368517.2793255     
   2622130910.5898895     
   1893173847.5649753     
   4885454372.7954407     
   4260522620.8641691     
   3613399529.4542127     
   2959810170.0293202     
   2357285639.8096366     
 </DataArray>
 <DataArray  type="Float64" Name="strain" NumberOfComponents="3" format="ascii">
  0.20348802847915706        0.0000000000000000       0.12541214670923595     
  0.18665833408905808       -2.7333654916254252E-002   7.4355961790456199E-002
  0.16982863969895906       -4.4685920151056262E-002   3.5131125530718399E-002
  0.15299894530886007       -5.2056795704406009E-002   7.7376379300226061E-003
  0.13616925091876109       -4.9446281576303514E-002  -7.8245010116312214E-003
  0.15986014425727599        0.0000000000000000        9.6445028960700910E-002
  0.15318080845699128       -2.1850173757583989E-002   6.2689330910561947E-002
  0.14650147265670657       -3.6180923550156542E-002   3.7403001381009590E-002
  0.13982213685642189       -4.2992249377717687E-002   2.0586040372043882E-002
  0.13314280105613718       -4.2284151240267381E-002   1.2238447883664717E-002
  0.12646333015003156        0.0000000000000000        7.4192375229056556E-002
  0.12657237280110578       -1.6366692598913716E-002   5.5275198331117582E-002
  0.12668141545218001       -2.7675926949256826E-002   4.1465409815309828E-002
  0.12679045810325426       -3.3927703051029330E-002   3.2763009681633350E-002
  0.12689950075432846       -3.5122020904231235E-002   2.9167997930088140E-002
  0.10329758615742378        0.0000000000000000        5.8654185514302876E-002
  0.10683302712140157       -1.0883211440243446E-002   5.2113564052123050E-002
  0.11036846808537937       -1.9170930348357110E-002   4.7318350833619141E-002
  0.11390390904935717       -2.4863156724340991E-002   4.4268545858791079E-002
  0.11743935001333494       -2.7959890568195096E-002   4.2964149127638900E-002
   9.0362912279452645E-002   0.0000000000000000        4.9830459816439882E-002
   9.3962771417878649E-002  -5.3997302815731755E-003   5.3204428073578391E-002
   9.7562630556304639E-002  -1.0665933747457390E-002   5.4961824435937418E-002
  0.10116248969473063       -1.5798610397652648E-002   5.5102648903516994E-002
  0.10476234883315663       -2.0797760232158950E-002   5.3626901476317067E-002
  0.13616925091876109       -4.9446281576303514E-002  -7.8245010116312214E-003
  0.13295999501537917       -4.2901330861117949E-002  -3.4043534279165066E-003
  0.12975073911199728       -3.8468896653218593E-002  -3.8989983638755901E-004
  0.12654148320861536       -3.6148978952605194E-002   1.2188597629558366E-003
  0.12333222730523347       -3.5941577759278115E-002   1.4219253701133472E-003
  0.13314280105613718       -4.2284151240267381E-002   1.2238447883664717E-002
  0.12891407244152459       -3.8412135901099799E-002   1.2175913274718279E-002
  0.12468534382691199       -3.5731710123509057E-002   1.1480127235496001E-002
  0.12045661521229938       -3.4242873907495135E-002   1.0151089765998171E-002
  0.11622788659768682       -3.3945627253058080E-002   8.1888008662245743E-003
  0.12689950075432846       -3.5122020904231235E-002   2.9167997930088140E-002
  0.12242374199039523       -3.3922940941081600E-002   2.5543708074189583E-002
  0.11794798322646198       -3.2994523593799549E-002   2.2058609349925436E-002
  0.11347222446252878       -3.2336768862384999E-002   1.8712701757295683E-002
  0.10899646569859552       -3.1949676746838032E-002   1.5505985296300227E-002
  0.11743935001333494       -2.7959890568195096E-002   4.2964149127638900E-002
  0.11348900366199113       -2.9433745981063443E-002   3.6699030970497655E-002
  0.10953865731064727       -3.0257337064090041E-002   3.1345546506900898E-002
  0.10558831095930346       -3.0430663817274911E-002   2.6903695736848560E-002
  0.10163796460795961       -2.9953726240618032E-002   2.3373478660340591E-002
  0.10476234883315663       -2.0797760232158950E-002   5.3626901476317067E-002
  0.10210985745631226       -2.4944551021045265E-002   4.5641881963642474E-002
   9.9457366079467854E-002  -2.7520150534380537E-002   3.9340938706422350E-002
   9.6804874702623472E-002  -2.8524558772164796E-002   3.4724071704656627E-002
   9.4152383325779090E-002  -2.7957775734397991E-002   3.1791280958345408E-002
  0.12333222730523347       -3.5941577759278115E-002   1.4219253701133472E-003
  0.12043048507075660       -3.6464263913467257E-002   6.8134332070457493E-004
  0.11752874283627979       -3.6334608255402807E-002   1.0023191712002499E-004
  0.11462700060180296       -3.5552610785084982E-002  -3.2140884064053160E-004
  0.11172525836732611       -3.4118271502513509E-002  -5.8357895257721282E-004
  0.11622788659768682       -3.3945627253058080E-002   8.1888008662245743E-003
  0.11347730157954240       -3.4035803904142140E-002   7.8473675771735807E-003
  0.11072671656139800       -3.3709237604691696E-002   7.6487780749633708E-003
  0.10797613154325358       -3.2965928354706742E-002   7.5930323595942775E-003
  0.10522554652510918       -3.1805876154187340E-002   7.6801304310655794E-003
  0.10899646569859552       -3.1949676746838032E-002   1.5505985296300227E-002
  0.10638041103780026       -3.1607343894817126E-002   1.5328101905888104E-002
  0.10376435637700504       -3.1083866953980608E-002   1.5276435443333448E-002
  0.10114830171620984       -3.0379245924328613E-002   1.5350985908636370E-002
   9.8532247055414579E-002  -2.9493480805861144E-002   1.5551753301796756E-002
  0.10163796460795961       -2.9953726240618032E-002   2.3373478660340591E-002
   9.9139813445530259E-002  -2.9178883885492005E-002   2.3123546306848160E-002
   9.6641662283100963E-002  -2.8458496303269507E-002   2.2983204022229971E-002
   9.4143511120671639E-002  -2.7792563493950512E-002   2.2952451806486092E-002
   9.1645359958242273E-002  -2.7181085457534962E-002   2.3031289659616525E-002
   9.4152383325779090E-002  -2.7957775734397991E-002   3.1791280958345408E-002
   9.1755508802732394E-002  -2.6750423876166940E-002   3.1233700780053802E-002
   8.9358634279685739E-002  -2.5833125652558447E-002   3.0769083811653074E-002
   8.6961759756639084E-002  -2.5205881063572393E-002   3.0397430053143413E-002
   8.4564885233592402E-002  -2.4868690109208808E-002   3.0118739504524761E-002
  0.11172525836732611       -3.4118271502513509E-002  -5.8357895257721282E-004
  0.10851414117475761       -3.2533111915905022E-002  -2.9799739339619880E-004
  0.10530302398218905       -3.1298653533475884E-002   1.5862277956885107E-004
  0.10209190678962052       -3.0414896355226442E-002   7.8628156631786739E-004
   9.8880789597051988E-002  -2.9881840381156322E-002   1.5849789668508363E-003
  0.10522554652510918       -3.1805876154187340E-002   7.6801304310655794E-003
  0.10219601608321319       -3.0546546009922806E-002   7.4982283660455368E-003
   9.9166485641317220E-002  -2.9505402928702726E-002   7.5084611885865987E-003
   9.6136955199421267E-002  -2.8682446910527275E-002   7.7108288986888346E-003
   9.3107424757525203E-002  -2.8077677955396341E-002   8.1053314963521472E-003
   9.8532247055414579E-002  -2.9493480805861144E-002   1.5551753301796756E-002
   9.5705399637968327E-002  -2.8559980103940674E-002   1.5034881753710636E-002
   9.2878552220522076E-002  -2.7712152323929679E-002   1.4731241366962855E-002
   9.0051704803075824E-002  -2.6949997465828275E-002   1.4640832141553331E-002
   8.7224857385629559E-002  -2.6273515529636332E-002   1.4763654077482105E-002
   9.1645359958242273E-002  -2.7181085457534962E-002   2.3031289659616525E-002
   8.9042291839022930E-002  -2.6573414197958500E-002   2.2311962769599267E-002
   8.6439223719803560E-002  -2.5918901719156576E-002   2.1826963314697530E-002
   8.3836155600584245E-002  -2.5217548021129164E-002   2.1576291294911190E-002
   8.1233087481364874E-002  -2.4469353103876254E-002   2.1559946710240373E-002
   8.4564885233592402E-002  -2.4868690109208808E-002   3.0118739504524761E-002
   8.2206692686377064E-002  -2.4586848291976340E-002   2.9329471413711394E-002
   7.9848500139161768E-002  -2.4125651114383397E-002   2.8795627031790630E-002
   7.7490307591946445E-002  -2.3485098576430101E-002   2.8517206358762634E-002
   7.5132115044731163E-002  -2.2665190678116343E-002   2.8494209394626990E-002
   9.8880789597051988E-002  -2.9881840381156322E-002   1.5849789668508363E-003
   9.5897270950158875E-002  -2.9362645077372990E-002   1.3718118620312247E-003
   9.2913752303265845E-002  -2.8520469909984039E-002   1.3976848140944409E-003
   8.9930233656372802E-002  -2.7355314878989127E-002   1.6625978230398186E-003
   8.6946715009479703E-002  -2.5867179984388589E-002   2.1665508888675244E-003
   9.3107424757525203E-002  -2.8077677955396341E-002   8.1053314963521472E-003
   9.0344752117505950E-002  -2.7471100205073845E-002   8.0371600676719113E-003
   8.7582079477486696E-002  -2.6642717801324003E-002   8.1716405958564969E-003
   8.4819406837467415E-002  -2.5592530744146472E-002   8.5087730809066606E-003
   8.2056734197448133E-002  -2.4320539033541921E-002   9.0485575228214654E-003
   8.7224857385629559E-002  -2.6273515529636332E-002   1.4763654077482105E-002
   8.4646642652466769E-002  -2.5579555332774576E-002   1.4739303114762223E-002
   8.2068427919304049E-002  -2.4764965692663794E-002   1.4881216008890495E-002
   7.9490213186141315E-002  -2.3829746609303815E-002   1.5189392759866600E-002
   7.6911998452978553E-002  -2.2773898082694810E-002   1.5663833367690783E-002
   8.1233087481364874E-002  -2.4469353103876254E-002   2.1559946710240373E-002
   7.8802942555041444E-002  -2.3688010460475313E-002   2.1478241003302988E-002
   7.6372797628717987E-002  -2.2887213584003672E-002   2.1526411053196318E-002
   7.3942652702394543E-002  -2.2066962474461049E-002   2.1704456859920309E-002
   7.1512507776071113E-002  -2.1227257131847699E-002   2.2012378423474949E-002
   7.5132115044731163E-002  -2.2665190678116343E-002   2.8494209394626990E-002
   7.2813651825229808E-002  -2.1796465588176134E-002   2.8253973733293580E-002
   7.0495188605728454E-002  -2.1009461475343522E-002   2.8107225728773777E-002
   6.8176725386227113E-002  -2.0304178339618319E-002   2.8053965381067303E-002
   6.5858262166725773E-002  -1.9680616181000754E-002   2.8094192690174324E-002
   8.6946715009479703E-002  -2.5867179984388589E-002   2.1665508888675244E-003
   8.2767653909522065E-002  -2.4437941261556517E-002   2.2442305971151488E-003
   7.8588592809564484E-002  -2.3449474745867227E-002   1.7972978501549774E-003
   7.4409531709606846E-002  -2.2901780437320579E-002   8.2575264798728787E-004
   7.0230470609649265E-002  -2.2794858335916546E-002  -6.7040500938830849E-004
   8.2056734197448133E-002  -2.4320539033541921E-002   9.0485575228214654E-003
   7.7496289879122243E-002  -2.3100940736937442E-002   8.6310296911852602E-003
   7.2935845560796436E-002  -2.2207933921762041E-002   7.9753478780202336E-003
   6.8375401242470615E-002  -2.1641518588015253E-002   7.0815120833264689E-003
   6.3814956924144739E-002  -2.1401694735697085E-002   5.9495223071041048E-003
   7.6911998452978553E-002  -2.2773898082694810E-002   1.5663833367690783E-002
   7.2256629389963647E-002  -2.1763940212318422E-002   1.4865278721884367E-002
   6.7601260326948714E-002  -2.0966393097656744E-002   1.4115028568228355E-002
   6.2945891263933768E-002  -2.0381256738709594E-002   1.3413082906722933E-002
   5.8290522200918848E-002  -2.0008531135477514E-002   1.2759441737367927E-002
   7.1512507776071113E-002  -2.1227257131847699E-002   2.2012378423474949E-002
   6.7048672442046167E-002  -2.0426939687699430E-002   2.0946977689212644E-002
   6.2584837108021235E-002  -1.9724852273551613E-002   2.0216339920779758E-002
   5.8121001773996275E-002  -1.9120994889404323E-002   1.9820465118176398E-002
   5.3657166439971364E-002  -1.8615367535257776E-002   1.9759353281402658E-002
   6.5858262166725773E-002  -1.9680616181000754E-002   2.8094192690174324E-002
   6.1872419035369941E-002  -1.9089939163080327E-002   2.6876126593169986E-002
   5.7886575904014095E-002  -1.8483311449446399E-002   2.6279281935674137E-002
   5.3900732772658257E-002  -1.7860733040099115E-002   2.6303658717687445E-002
   4.9914889641302473E-002  -1.7222203935038205E-002   2.6949256939209021E-002
   7.0230470609649265E-002  -2.2794858335916546E-002  -6.7040500938830849E-004
   7.2929028450122058E-002  -2.2968233701303964E-002   5.2731890019130923E-004
   7.5627586290594906E-002  -2.3261431793131560E-002   3.1083468443487972E-003
   7.8326144131067782E-002  -2.3674452611398528E-002   7.0726788230835724E-003
   8.1024701971540547E-002  -2.4207296156105285E-002   1.2420314836395940E-002
   6.3814956924144739E-002  -2.1401694735697085E-002   5.9495223071041048E-003
   6.7617493727315126E-002  -2.1337836605353488E-002   7.6864187626023983E-003
   7.1420030530485568E-002  -2.1299318437530662E-002   1.0247969108918231E-002
   7.5222567333655926E-002  -2.1286140232228003E-002   1.3634173346051659E-002
   7.9025104136826396E-002  -2.1298301989446267E-002   1.7845031474002293E-002
   5.8290522200918848E-002  -2.0008531135477514E-002   1.2759441737367927E-002
   6.2638387823026886E-002  -1.9707439509403013E-002   1.5129993502703803E-002
   6.6986253445134994E-002  -1.9337205081929765E-002   1.7766549015097319E-002
   7.1334119067243074E-002  -1.8897827853057700E-002   2.0669108274548528E-002
   7.5681984689351139E-002  -1.8389307822786916E-002   2.3837671281057515E-002
   5.3657166439971364E-002  -1.8615367535257776E-002   1.9759353281402658E-002
   5.7991710737257257E-002  -1.8077042413452427E-002   2.2858043120495601E-002
   6.2326255034543102E-002  -1.7375091726329200E-002   2.5664086562886469E-002
   6.6660799331828988E-002  -1.6509515473887508E-002   2.8177483608574909E-002
   7.0995343629114915E-002  -1.5480313656127509E-002   3.0398234257561343E-002
   4.9914889641302473E-002  -1.7222203935038205E-002   2.6949256939209021E-002
   5.3677462470006210E-002  -1.6446645317502090E-002   3.0870567615978395E-002
   5.7440035298709974E-002  -1.5412978370728206E-002   3.3940581752285565E-002
   6.1202608127413752E-002  -1.4121203094717098E-002   3.6159299348130738E-002
   6.4965180956117474E-002  -1.2571319489468435E-002   3.7526720403513791E-002
   8.1024701971540547E-002  -2.4207296156105285E-002   1.2420314836395940E-002
   7.0212956759736267E-002  -2.3745276463294052E-002   7.1619451267972423E-003
   5.9401211547932042E-002  -2.1173707569005107E-002   3.6884914243273670E-004
   4.8589466336127846E-002  -1.6492589473238797E-002  -7.9589731166969935E-003
   3.7777721124323538E-002  -9.7019221759953034E-003  -1.7821521650593475E-002
   7.9025104136826396E-002  -2.1298301989446267E-002   1.7845031474002293E-002
   6.7067762822900334E-002  -2.0627507955809588E-002   1.3382670697140497E-002
   5.5110421508974300E-002  -1.8565462377943986E-002   8.1638439908003346E-003
   4.3153080195048280E-002  -1.5112165255848159E-002   2.1885513549828317E-003
   3.1195738881122148E-002  -1.0267616589523243E-002  -4.5432072103126497E-003
   7.5681984689351139E-002  -1.8389307822786916E-002   2.3837671281057515E-002
   6.3357307618591430E-002  -1.7509739448325956E-002   1.9453021779684027E-002
   5.1032630547831734E-002  -1.5957217186882616E-002   1.5090166694121082E-002
   3.8707953477071878E-002  -1.3731741038457514E-002   1.0749106024368432E-002
   2.6383276406312328E-002  -1.0833311003050961E-002   6.4298397704262156E-003
   7.0995343629114915E-002  -1.5480313656127509E-002   3.0398234257561343E-002
   5.9081591146809512E-002  -1.4391970940841686E-002   2.5372998374428926E-002
   4.7167838664504150E-002  -1.3348971995821482E-002   2.1147817252394965E-002
   3.5254086182198892E-002  -1.2351316821067205E-002   1.7722690891459229E-002
   2.3340333699893440E-002  -1.1399005416578678E-002   1.5097619291622205E-002
   6.4965180956117474E-002  -1.2571319489468435E-002   3.7526720403513791E-002
   5.4240613407554650E-002  -1.1274202433357361E-002   3.1142600481374627E-002
   4.3516045858991798E-002  -1.0740726804760153E-002   2.6336795665622192E-002
   3.2791478310429015E-002  -1.0970892603676653E-002   2.3109305956256099E-002
   2.2066910761866065E-002  -1.1964699830106396E-002   2.1460131353276513E-002
   9.0362912279452645E-002   0.0000000000000000        4.9830459816439882E-002
   9.3962771417878649E-002  -5.3997302815731755E-003   5.3204428073578391E-002
   9.7562630556304639E-002  -1.0665933747457390E-002   5.4961824435937418E-002
  0.10116248969473063       -1.5798610397652648E-002   5.5102648903516994E-002
  0.10476234883315663       -2.0797760232158950E-002   5.3626901476317067E-002
   8.2422772058465321E-002   0.0000000000000000        4.4784477348386087E-002
   8.4634591633664935E-002  -4.5712771686788386E-003   4.8265932622264238E-002
   8.6846411208864577E-002  -9.0341661813354863E-003   5.0587880664469134E-002
   8.9058230784064205E-002  -1.3388667037969941E-002   5.1750321475000770E-002
   9.1270050359263846E-002  -1.7634779738582206E-002   5.1753255053859193E-002
   7.4240629036808919E-002   0.0000000000000000        4.0579517323060012E-002
   7.5521473711888415E-002  -3.7428240557845029E-003   4.4143320954011023E-002
   7.6802318386967910E-002  -7.4023986152135790E-003   4.7004682016395016E-002
   7.8083163062047420E-002  -1.0978723678287226E-002   4.9163600510211986E-002
   7.9364007737126915E-002  -1.4471799245005450E-002   5.0620076435461972E-002
   6.5816483214483468E-002   0.0000000000000000        3.7215579740461649E-002
   6.6623417652549047E-002  -2.9143709428901664E-003   4.0836593068818774E-002
   6.7430352090614668E-002  -5.7706310490916752E-003   4.4212228491715105E-002
   6.8237286528680247E-002  -8.5687803186045158E-003   4.7342486009150628E-002
   6.9044220966745840E-002  -1.1308818751428701E-002   5.0227365621125404E-002
   5.7150334591488952E-002   0.0000000000000000        3.4692664600591019E-002
   5.7940423455646872E-002  -2.0859178299958304E-003   3.8345748966687472E-002
   5.8730512319804792E-002  -4.1388634829697662E-003   4.2210520090429374E-002
   5.9520601183962719E-002  -6.1588369589218039E-003   4.6286977971816690E-002
   6.0310690048120646E-002  -8.1458382578519489E-003   5.0575122610849475E-002
  0.10476234883315663       -2.0797760232158950E-002   5.3626901476317067E-002
  0.10210985745631226       -2.4944551021045265E-002   4.5641881963642474E-002
   9.9457366079467854E-002  -2.7520150534380537E-002   3.9340938706422350E-002
   9.6804874702623472E-002  -2.8524558772164796E-002   3.4724071704656627E-002
   9.4152383325779090E-002  -2.7957775734397991E-002   3.1791280958345408E-002
   9.1270050359263846E-002  -1.7634779738582206E-002   5.1753255053859193E-002
   9.0064968664345310E-002  -2.1213616883695635E-002   4.6516501934675075E-002
   8.8859886969426774E-002  -2.3566291073833637E-002   4.2490491923888200E-002
   8.7654805274508252E-002  -2.4692802308996151E-002   3.9675225021498596E-002
   8.6449723579589716E-002  -2.4593150589183252E-002   3.8070701227506221E-002
   7.9364007737126915E-002  -1.4471799245005450E-002   5.0620076435461972E-002
   7.9133002577077033E-002  -1.7482682746346023E-002   4.7786561389192767E-002
   7.8901997417027150E-002  -1.9612431613286713E-002   4.5690456304263605E-002
   7.8670992256977268E-002  -2.0861045845827535E-002   4.4331761180674473E-002
   7.8439987096927385E-002  -2.1228525443968506E-002   4.3710476018425398E-002
   6.9044220966745840E-002  -1.1308818751428701E-002   5.0227365621125404E-002
   6.9313959194507391E-002  -1.3751748608996408E-002   4.9452060327195527E-002
   6.9583697422268914E-002  -1.5658572152739820E-002   4.8940831847548501E-002
   6.9853435650030479E-002  -1.7029289382658942E-002   4.8693680182184278E-002
   7.0123173877792030E-002  -1.7863900298753749E-002   4.8710605331102864E-002
   6.0310690048120646E-002  -8.1458382578519489E-003   5.0575122610849475E-002
   6.0607838516636398E-002  -1.0020814471646777E-002   5.1512998748683397E-002
   6.0904986985152162E-002  -1.1704712692192908E-002   5.2241618553742881E-002
   6.1202135453667907E-002  -1.3197532919490280E-002   5.2760982026027983E-002
   6.1499283922183665E-002  -1.4499275153539014E-002   5.3071089165538703E-002
   9.4152383325779090E-002  -2.7957775734397991E-002   3.1791280958345408E-002
   9.1755508802732394E-002  -2.6750423876166940E-002   3.1233700780053802E-002
   8.9358634279685739E-002  -2.5833125652558447E-002   3.0769083811653074E-002
   8.6961759756639084E-002  -2.5205881063572393E-002   3.0397430053143413E-002
   8.4564885233592402E-002  -2.4868690109208808E-002   3.0118739504524761E-002
   8.6449723579589716E-002  -2.4593150589183252E-002   3.8070701227506221E-002
   8.4189943087483676E-002  -2.3940041998273400E-002   3.7045523710089040E-002
   8.1930162595377637E-002  -2.3406182620145238E-002   3.6201571044662074E-002
   7.9670382103271639E-002  -2.2991572454798652E-002   3.5538843231225414E-002
   7.7410601611165558E-002  -2.2696211502233693E-002   3.5057340269778872E-002
   7.8439987096927385E-002  -2.1228525443968506E-002   4.3710476018425398E-002
   7.6405562277861161E-002  -2.1129660120379895E-002   4.2388505583723632E-002
   7.4371137458794936E-002  -2.0979239587732047E-002   4.1336021643111315E-002
   7.2336712639728684E-002  -2.0777263846024924E-002   4.0553024196588426E-002
   7.0302287820662474E-002  -2.0523732895258592E-002   4.0039513244154980E-002
   7.0123173877792030E-002  -1.7863900298753749E-002   4.8710605331102864E-002
   6.8402366373864820E-002  -1.8319278242486352E-002   4.7262646400957425E-002
   6.6681558869937638E-002  -1.8552296555318867E-002   4.6172435607000496E-002
   6.4960751366010455E-002  -1.8562955237251242E-002   4.5439972949232306E-002
   6.3239943862083245E-002  -1.8351254288283499E-002   4.5065258427652688E-002
   6.1499283922183665E-002  -1.4499275153539014E-002   5.3071089165538703E-002
   6.0180355375494696E-002  -1.5508896364592836E-002   5.1667946161790400E-002
   5.8861426828805734E-002  -1.6125353522905658E-002   5.0710812936329883E-002
   5.7542498282116758E-002  -1.6348646628477504E-002   5.0199689489157207E-002
   5.6223569735427775E-002  -1.6178775681308377E-002   5.0134575820272365E-002
   8.4564885233592402E-002  -2.4868690109208808E-002   3.0118739504524761E-002
   8.2206692686377064E-002  -2.4586848291976340E-002   2.9329471413711394E-002
   7.9848500139161768E-002  -2.4125651114383397E-002   2.8795627031790630E-002
   7.7490307591946445E-002  -2.3485098576430101E-002   2.8517206358762634E-002
   7.5132115044731163E-002  -2.2665190678116343E-002   2.8494209394626990E-002
   7.7410601611165558E-002  -2.2696211502233693E-002   3.5057340269778872E-002
   7.5296993652029243E-002  -2.2395355278355032E-002   3.4458000447960387E-002
   7.3183385692892941E-002  -2.1964259299067160E-002   3.4092406093407489E-002
   7.1069777733756653E-002  -2.1402923564370204E-002   3.3960557206119818E-002
   6.8956169774620324E-002  -2.0711348074264113E-002   3.4062453786097596E-002
   7.0302287820662474E-002  -2.0523732895258592E-002   4.0039513244154980E-002
   6.8411586207977992E-002  -2.0203862264733703E-002   3.9580986086380193E-002
   6.6520884595293470E-002  -1.9802867483750947E-002   3.9334526154243543E-002
   6.4630182982608961E-002  -1.9320748552310332E-002   3.9300133447745134E-002
   6.2739481369924438E-002  -1.8757505470411828E-002   3.9477807966884854E-002
   6.3239943862083245E-002  -1.8351254288283499E-002   4.5065258427652688E-002
   6.1550470354223286E-002  -1.8012369251112412E-002   4.4698428328970391E-002
   5.9860996846363305E-002  -1.7641475668434721E-002   4.4521987214298973E-002
   5.8171523338503360E-002  -1.7238573540250463E-002   4.4535935083638491E-002
   5.6482049830643394E-002  -1.6803662866559613E-002   4.4740271936988950E-002
   5.6223569735427775E-002  -1.6178775681308377E-002   5.0134575820272365E-002
   5.4713646090765122E-002  -1.5820876237491052E-002   4.9810327175731250E-002
   5.3203722446102483E-002  -1.5480083853118519E-002   4.9654789273573738E-002
   5.1693798801439837E-002  -1.5156398528190567E-002   4.9667962113799834E-002
   5.0183875156777191E-002  -1.4849820262707342E-002   4.9849845696409684E-002
   7.5132115044731163E-002  -2.2665190678116343E-002   2.8494209394626990E-002
   7.2813651825229808E-002  -2.1796465588176134E-002   2.8253973733293580E-002
   7.0495188605728454E-002  -2.1009461475343522E-002   2.8107225728773777E-002
   6.8176725386227113E-002  -2.0304178339618319E-002   2.8053965381067303E-002
   6.5858262166725773E-002  -1.9680616181000754E-002   2.8094192690174324E-002
   6.8956169774620324E-002  -2.0711348074264113E-002   3.4062453786097596E-002
   6.6752191998404847E-002  -1.9977250990247247E-002   3.3739014004304041E-002
   6.4548214222189454E-002  -1.9288350473817877E-002   3.3551057452268565E-002
   6.2344236445973998E-002  -1.8644646524976091E-002   3.3498584129991571E-002
   6.0140258669758528E-002  -1.8046139143721968E-002   3.3581594037472878E-002
   6.2739481369924438E-002  -1.8757505470411828E-002   3.9477807966884854E-002
   6.0691984609939728E-002  -1.8158036392318236E-002   3.9107688474150908E-002
   5.8644487849955018E-002  -1.7567239472292259E-002   3.8915047784120152E-002
   5.6596991089970294E-002  -1.6985114710333777E-002   3.8899885896792490E-002
   5.4549494329985564E-002  -1.6411662106443042E-002   3.9062202812168031E-002
   5.6482049830643394E-002  -1.6803662866559613E-002   4.4740271936988950E-002
   5.4633029659834235E-002  -1.6338821794389287E-002   4.4359997142834652E-002
   5.2784009489025098E-002  -1.5846128470766628E-002   4.4199196724328316E-002
   5.0934989318215954E-002  -1.5325582895691589E-002   4.4257870681470024E-002
   4.9085969147406802E-002  -1.4777185069164131E-002   4.4536019014259673E-002
   5.0183875156777191E-002  -1.4849820262707342E-002   4.9849845696409684E-002
   4.8575327148088474E-002  -1.4519607196460366E-002   4.9495940010355066E-002
   4.6966779139399756E-002  -1.4125017469241032E-002   4.9403504272893070E-002
   4.5358231130711038E-002  -1.3666051081049244E-002   4.9572538484024257E-002
   4.3749683122022320E-002  -1.3142708031885275E-002   5.0003042643748052E-002
   6.5858262166725773E-002  -1.9680616181000754E-002   2.8094192690174324E-002
   6.1872419035369941E-002  -1.9089939163080327E-002   2.6876126593169986E-002
   5.7886575904014095E-002  -1.8483311449446399E-002   2.6279281935674137E-002
   5.3900732772658257E-002  -1.7860733040099115E-002   2.6303658717687445E-002
   4.9914889641302473E-002  -1.7222203935038205E-002   2.6949256939209021E-002
   6.0140258669758528E-002  -1.8046139143721968E-002   3.3581594037472878E-002
   5.6715819896479600E-002  -1.7476006525680932E-002   3.2433148884668306E-002
   5.3291381123200698E-002  -1.6917426866478645E-002   3.1786291008508966E-002
   4.9866942349921783E-002  -1.6370400166114983E-002   3.1641020408994636E-002
   4.6442503576642868E-002  -1.5834926424590001E-002   3.1997337086125538E-002
   5.4549494329985564E-002  -1.6411662106443042E-002   3.9062202812168031E-002
   5.1566825751920016E-002  -1.5862073888281536E-002   3.7955874949011266E-002
   4.8584157173854448E-002  -1.5351542283510780E-002   3.7231500199635878E-002
   4.5601488595788907E-002  -1.4880067292130903E-002   3.6889078564042221E-002
   4.2618820017723352E-002  -1.4447648914141714E-002   3.6928610042230151E-002
   4.9085969147406802E-002  -1.4777185069164131E-002   4.4536019014259673E-002
   4.6425436601691066E-002  -1.4248141250882057E-002   4.3444304786198450E-002
   4.3764904055975336E-002  -1.3785657700542971E-002   4.2614909509055221E-002
   4.1104371510259557E-002  -1.3389734418146728E-002   4.2047833182829945E-002
   3.8443838964543814E-002  -1.3060371403693441E-002   4.1743075807522997E-002
   4.3749683122022320E-002  -1.3142708031885275E-002   5.0003042643748052E-002
   4.1291652445792845E-002  -1.2634208613482689E-002   4.8898438396230176E-002
   3.8833621769563342E-002  -1.2219773117575189E-002   4.7936518936766925E-002
   3.6375591093333853E-002  -1.1899401544162698E-002   4.7117284265358064E-002
   3.3917560417104364E-002  -1.1673093893245168E-002   4.6440734382003745E-002
   4.9914889641302473E-002  -1.7222203935038205E-002   2.6949256939209021E-002
   5.3677462470006210E-002  -1.6446645317502090E-002   3.0870567615978395E-002
   5.7440035298709974E-002  -1.5412978370728206E-002   3.3940581752285565E-002
   6.1202608127413752E-002  -1.4121203094717098E-002   3.6159299348130738E-002
   6.4965180956117474E-002  -1.2571319489468435E-002   3.7526720403513791E-002
   4.6442503576642868E-002  -1.5834926424590001E-002   3.1997337086125538E-002
   4.9467152291925359E-002  -1.5179560226275729E-002   3.5935445796502985E-002
   5.2491801007207878E-002  -1.4272856155544425E-002   3.9249002820499965E-002
   5.5516449722490355E-002  -1.3114814212395746E-002   4.1938008158116803E-002
   5.8541098437772887E-002  -1.1705434396830083E-002   4.4002461809352911E-002
   4.2618820017723352E-002  -1.4447648914141714E-002   3.6928610042230151E-002
   4.5132289473666209E-002  -1.3912475135049632E-002   4.0876746329395544E-002
   4.7645758929609046E-002  -1.3132733940360526E-002   4.4427075784262381E-002
   5.0159228385551938E-002  -1.2108425330074614E-002   4.7579598406830070E-002
   5.2672697841494739E-002  -1.0839549304191676E-002   5.0334314197099106E-002
   3.8443838964543814E-002  -1.3060371403693441E-002   4.1743075807522997E-002
   4.0672874015228712E-002  -1.2645390043823541E-002   4.5694469214655989E-002
   4.2901909065913589E-002  -1.1992611725176686E-002   4.9474800643572028E-002
   4.5130944116598466E-002  -1.1102036447753427E-002   5.3084070094270651E-002
   4.7359979167283309E-002  -9.9736642115533514E-003   5.6522277566752356E-002
   3.3917560417104364E-002  -1.1673093893245168E-002   4.6440734382003745E-002
   3.6088905916612873E-002  -1.1378304952597146E-002   5.0388614452284153E-002
   3.8260251416121396E-002  -1.0852489509992694E-002   5.4392177398429137E-002
   4.0431596915629885E-002  -1.0095647565432287E-002   5.8451423220438462E-002
   4.2602942415138428E-002  -9.1077791189150270E-003   6.2566351918312391E-002
   6.4965180956117474E-002  -1.2571319489468435E-002   3.7526720403513791E-002
   5.4240613407554650E-002  -1.1274202433357361E-002   3.1142600481374627E-002
   4.3516045858991798E-002  -1.0740726804760153E-002   2.6336795665622192E-002
   3.2791478310429015E-002  -1.0970892603676653E-002   2.3109305956256099E-002
   2.2066910761866065E-002  -1.1964699830106396E-002   2.1460131353276513E-002
   5.8541098437772887E-002  -1.1705434396830083E-002   4.4002461809352911E-002
   4.9242840553207934E-002  -1.0479190143953043E-002   3.7331393154237669E-002
   3.9944582668642953E-002  -9.8705548888713968E-003   3.1934628720731273E-002
   3.0646324784078138E-002  -9.8795286315848801E-003   2.7812168508834459E-002
   2.1348066899513074E-002  -1.0506111372093563E-002   2.4964012518546963E-002
   5.2672697841494739E-002  -1.0839549304191676E-002   5.0334314197099106E-002
   4.4496738736150565E-002  -9.6841778545486423E-003   4.3522329238725677E-002
   3.6320779630806328E-002  -9.0003829729825707E-003   3.7680637617184196E-002
   2.8144820525462039E-002  -8.7881646594931591E-003   3.2809239332475156E-002
   1.9968861420117917E-002  -9.0475229140805080E-003   2.8908134384597439E-002
   4.7359979167283309E-002  -9.9736642115533514E-003   5.6522277566752356E-002
   4.0002307956382509E-002  -8.8891655651443385E-003   4.9715408734839275E-002
   3.2644636745481702E-002  -8.1302110570937239E-003   4.3574822354980919E-002
   2.5286965534580898E-002  -7.6968006874014675E-003   3.8100518427177349E-002
   1.7929294323680019E-002  -7.5889344560675642E-003   3.3292496951428802E-002
   4.2602942415138428E-002  -9.1077791189150270E-003   6.2566351918312391E-002
   3.5759548213903841E-002  -8.0941532757398127E-003   5.5910631642577979E-002
   2.8916154012669212E-002  -7.2600391412049048E-003   4.9617182934121040E-002
   2.2072759811434660E-002  -6.6054367153097551E-003   4.3686005792941907E-002
   1.5229365610200052E-002  -6.1303459980546204E-003   3.8117100219040356E-002
   5.7150334591488952E-002   0.0000000000000000        3.4692664600591019E-002
   5.7940423455646872E-002  -2.0859178299958304E-003   3.8345748966687472E-002
   5.8730512319804792E-002  -4.1388634829697662E-003   4.2210520090429374E-002
   5.9520601183962719E-002  -6.1588369589218039E-003   4.6286977971816690E-002
   6.0310690048120646E-002  -8.1458382578519489E-003   5.0575122610849475E-002
   4.8652644698683009E-002   0.0000000000000000        3.2789350831715164E-002
   4.9589614090854515E-002  -1.7104595239490570E-003   3.6966799413032783E-002
   5.0526583483026029E-002  -3.4333908573063732E-003   4.1226322292732133E-002
   5.1463552875197528E-002  -5.1687940000719537E-003   4.5567919470813192E-002
   5.2400522267369035E-002  -6.9166689522457865E-003   4.9991590947275989E-002
   4.0733875066923289E-002   0.0000000000000000        3.1284217362101165E-002
   4.1688112527844663E-002  -1.3350012179022827E-003   3.5940586172209785E-002
   4.2642349988766023E-002  -2.7279182316429828E-003   4.0549416821436438E-002
   4.3596587449687398E-002  -4.1787510412221000E-003   4.5110709309781061E-002
   4.4550824910608765E-002  -5.6874996466396285E-003   4.9624463637243717E-002
   3.3394025696209771E-002   0.0000000000000000        3.0177264191749015E-002
   3.4235918766617288E-002  -9.5954291185550936E-004   3.5267109244218504E-002
   3.5077811837024804E-002  -2.0224456059795919E-003   4.0179803676542274E-002
   3.5919704907432320E-002  -3.1887080823722420E-003   4.4915347488720336E-002
   3.6761597977839830E-002  -4.4583303410334757E-003   4.9473740680752679E-002
   2.6633096586542473E-002   0.0000000000000000        2.9468491320658714E-002
   2.7233032807172410E-002  -5.8408460580873511E-004   3.4946368629058901E-002
   2.7832969027802346E-002  -1.3169729803161993E-003   4.0117482858049655E-002
   2.8432905248432283E-002  -2.1986651235223944E-003   4.4981834007630978E-002
   2.9032841469062223E-002  -3.2291610354273081E-003   4.9539422077802854E-002
   6.0310690048120646E-002  -8.1458382578519489E-003   5.0575122610849475E-002
   6.0607838516636398E-002  -1.0020814471646777E-002   5.1512998748683397E-002
   6.0904986985152162E-002  -1.1704712692192908E-002   5.2241618553742881E-002
   6.1202135453667907E-002  -1.3197532919490280E-002   5.2760982026027983E-002
   6.1499283922183665E-002  -1.4499275153539014E-002   5.3071089165538703E-002
   5.2400522267369035E-002  -6.9166689522457865E-003   4.9991590947275989E-002
   5.2526752855302491E-002  -8.5776599126953026E-003   5.1216934854346106E-002
   5.2652983443235948E-002  -1.0052411080287947E-002   5.2309699333026066E-002
   5.2779214031169412E-002  -1.1340922455023673E-002   5.3269884383315778E-002
   5.2905444619102855E-002  -1.2443194036902520E-002   5.4097490005215285E-002
   4.4550824910608765E-002  -5.6874996466396285E-003   4.9624463637243717E-002
   4.4582814522344111E-002  -7.1345053537438374E-003   5.1132437113158249E-002
   4.4614804134079471E-002  -8.4001094683829811E-003   5.2584508065066794E-002
   4.4646793745814817E-002  -9.4843119905570518E-003   5.3980676492969316E-002
   4.4678783357550156E-002  -1.0387112920266058E-002   5.5320942396865844E-002
   3.6761597977839830E-002  -4.4583303410334757E-003   4.9473740680752679E-002
   3.6776023517761262E-002  -5.6913507947923625E-003   5.1259505525119771E-002
   3.6790449057682695E-002  -6.7478078564780063E-003   5.3066044749865100E-002
   3.6804874597604134E-002  -7.6277015260904375E-003   5.4893358354988583E-002
   3.6819300137525560E-002  -8.3310318036295943E-003   5.6741446340490248E-002
   2.9032841469062223E-002  -3.2291610354273081E-003   4.9539422077802854E-002
   2.9106379841553932E-002  -4.2481962358408999E-003   5.1598140090230747E-002
   2.9179918214045645E-002  -5.0955062445730490E-003   5.3754309387420991E-002
   2.9253456586537354E-002  -5.7710910616238040E-003   5.6007929969373649E-002
   2.9326994959029067E-002  -6.2749506869931165E-003   5.8359001836088623E-002
   6.1499283922183665E-002  -1.4499275153539014E-002   5.3071089165538703E-002
   6.0180355375494696E-002  -1.5508896364592836E-002   5.1667946161790400E-002
   5.8861426828805734E-002  -1.6125353522905658E-002   5.0710812936329883E-002
   5.7542498282116758E-002  -1.6348646628477504E-002   5.0199689489157207E-002
   5.6223569735427775E-002  -1.6178775681308377E-002   5.0134575820272365E-002
   5.2905444619102855E-002  -1.2443194036902520E-002   5.4097490005215285E-002
   5.1981518835671647E-002  -1.3296933067353401E-002   5.3362512709335050E-002
   5.1057593052240419E-002  -1.3839846787805194E-002   5.2971531161682413E-002
   5.0133667268809169E-002  -1.4071935198257930E-002   5.2924545362257422E-002
   4.9209741485377947E-002  -1.3993198298711623E-002   5.3221555311060140E-002
   4.4678783357550156E-002  -1.0387112920266058E-002   5.5320942396865844E-002
   4.4047846307316500E-002  -1.1084969770113966E-002   5.5171792066111676E-002
   4.3416909257082845E-002  -1.1554340052704733E-002   5.5264623453524980E-002
   4.2785972206849196E-002  -1.1795223768038371E-002   5.5599436559105819E-002
   4.2155035156615540E-002  -1.1807620916114869E-002   5.6176231382854068E-002
   3.6819300137525560E-002  -8.3310318036295943E-003   5.6741446340490248E-002
   3.6379337790429303E-002  -8.8730064728745443E-003   5.7095784232120333E-002
   3.5939375443333053E-002  -9.2688333176042838E-003   5.7590089811857641E-002
   3.5499413096236797E-002  -9.5185123378188179E-003   5.8224363079702329E-002
   3.5059450749140547E-002  -9.6220435335181431E-003   5.8998604035654288E-002
   2.9326994959029067E-002  -6.2749506869931165E-003   5.8359001836088623E-002
   2.8975993285010045E-002  -6.6610431756350987E-003   5.9134489207360932E-002
   2.8624991610991017E-002  -6.9833265825038210E-003   5.9947930236680366E-002
   2.8273989936971989E-002  -7.2418009075992142E-003   6.0799324924046952E-002
   2.7922988262952968E-002  -7.4364661509213476E-003   6.1688673269460662E-002
   5.6223569735427775E-002  -1.6178775681308377E-002   5.0134575820272365E-002
   5.4713646090765122E-002  -1.5820876237491052E-002   4.9810327175731250E-002
   5.3203722446102483E-002  -1.5480083853118519E-002   4.9654789273573738E-002
   5.1693798801439837E-002  -1.5156398528190567E-002   4.9667962113799834E-002
   5.0183875156777191E-002  -1.4849820262707342E-002   4.9849845696409684E-002
   4.9209741485377947E-002  -1.3993198298711623E-002   5.3221555311060140E-002
   4.7875923808190272E-002  -1.3754454283724606E-002   5.2859864743616418E-002
   4.6542106131002632E-002  -1.3506521347855335E-002   5.2681675368739030E-002
   4.5208288453814943E-002  -1.3249399491103601E-002   5.2686987186427892E-002
   4.3874470776627289E-002  -1.2983088713469676E-002   5.2875800196683004E-002
   4.2155035156615540E-002  -1.1807620916114869E-002   5.6176231382854068E-002
   4.1012113897085423E-002  -1.1688032329958124E-002   5.5803394872834935E-002
   3.9869192637555312E-002  -1.1532958842592100E-002   5.5628850005564667E-002
   3.8726271378025222E-002  -1.1342400454016664E-002   5.5652596781043180E-002
   3.7583350118495104E-002  -1.1116357164231941E-002   5.5874635199270599E-002
   3.5059450749140547E-002  -9.6220435335181431E-003   5.8998604035654288E-002
   3.4122216357450580E-002  -9.6216103761916603E-003   5.8640917563386699E-002
   3.3184981965760613E-002  -9.5593963373288345E-003   5.8496313184050519E-002
   3.2247747574070632E-002  -9.4354014169297246E-003   5.8564790897645755E-002
   3.1310513182380678E-002  -9.2496256149941988E-003   5.8846350704172497E-002
   2.7922988262952968E-002  -7.4364661509213476E-003   6.1688673269460662E-002
   2.7206231189285709E-002  -7.5551884224251895E-003   6.1372432815271633E-002
   2.6489474115618455E-002  -7.5858338320656700E-003   6.1284064904196626E-002
   2.5772717041951186E-002  -7.5284023798427692E-003   6.1423569536235609E-002
   2.5055959968283942E-002  -7.3828940657565123E-003   6.1790946711388572E-002
   5.0183875156777191E-002  -1.4849820262707342E-002   4.9849845696409684E-002
   4.8575327148088474E-002  -1.4519607196460366E-002   4.9495940010355066E-002
   4.6966779139399756E-002  -1.4125017469241032E-002   4.9403504272893070E-002
   4.5358231130711038E-002  -1.3666051081049244E-002   4.9572538484024257E-002
   4.3749683122022320E-002  -1.3142708031885275E-002   5.0003042643748052E-002
   4.3874470776627289E-002  -1.2983088713469676E-002   5.2875800196683004E-002
   4.2515133197364802E-002  -1.2686636316496067E-002   5.2585654202863999E-002
   4.1155795618102300E-002  -1.2339089601725778E-002   5.2532459119304514E-002
   3.9796458038839792E-002  -1.1940448569158595E-002   5.2716214946004626E-002
   3.8437120459577298E-002  -1.1490713218794774E-002   5.3136921682964466E-002
   3.7583350118495104E-002  -1.1116357164231941E-002   5.5874635199270599E-002
   3.6448703930325593E-002  -1.0853665436531892E-002   5.5634966554511694E-002
   3.5314057742156062E-002  -1.0553161734210576E-002   5.5607729781679119E-002
   3.4179411553986558E-002  -1.0214846057268027E-002   5.5792924880772941E-002
   3.3044765365817033E-002  -9.8387184057041888E-003   5.6190551851793030E-002
   3.1310513182380678E-002  -9.2496256149941988E-003   5.8846350704172497E-002
   3.0376039346970866E-002  -9.0206945565677113E-003   5.8643877065298049E-002
   2.9441565511561053E-002  -8.7672338666954040E-003   5.8629316260016905E-002
   2.8507091676151237E-002  -8.4892435453773913E-003   5.8802668288328842E-002
   2.7572617840741432E-002  -8.1867235926135623E-003   5.9163933150233654E-002
   2.5055959968283942E-002  -7.3828940657565123E-003   6.1790946711388572E-002
   2.4297139447300602E-002  -7.1877236766034192E-003   6.1612385735223291E-002
   2.3538318926317275E-002  -6.9813059991801693E-003   6.1597218554317948E-002
   2.2779498405333949E-002  -6.7636410334867125E-003   6.1745445168672398E-002
   2.2020677884350609E-002  -6.5347287795230469E-003   6.2057065578286719E-002
   4.3749683122022320E-002  -1.3142708031885275E-002   5.0003042643748052E-002
   4.1291652445792845E-002  -1.2634208613482689E-002   4.8898438396230176E-002
   3.8833621769563342E-002  -1.2219773117575189E-002   4.7936518936766925E-002
   3.6375591093333853E-002  -1.1899401544162698E-002   4.7117284265358064E-002
   3.3917560417104364E-002  -1.1673093893245168E-002   4.6440734382003745E-002
   3.8437120459577298E-002  -1.1490713218794774E-002   5.3136921682964466E-002
   3.6153548274523190E-002  -1.1054945037849581E-002   5.1897752417687640E-002
   3.3869976089469088E-002  -1.0698205513538582E-002   5.0864815346707115E-002
   3.1586403904414986E-002  -1.0420494645861650E-002   5.0038110470022892E-002
   2.9302831719360864E-002  -1.0221812434818900E-002   4.9417637787634999E-002
   3.3044765365817033E-002  -9.8387184057041888E-003   5.6190551851793030E-002
   3.0999199078180061E-002  -9.4756814622163621E-003   5.4831852834618201E-002
   2.8953632790543131E-002  -9.1766379095018086E-003   5.3742933417981351E-002
   2.6908066502906159E-002  -8.9415877475605456E-003   5.2923793601882631E-002
   2.4862500215269236E-002  -8.7705309763924377E-003   5.2374433386321848E-002
   2.7572617840741432E-002  -8.1867235926135623E-003   5.9163933150233654E-002
   2.5828604856763450E-002  -7.8964178865831430E-003   5.7700739647021722E-002
   2.4084591872785437E-002  -7.6550703054650629E-003   5.6570873150589507E-002
   2.2340578888807451E-002  -7.4626808492593861E-003   5.5774333660937238E-002
   2.0596565904829438E-002  -7.3192495179659894E-003   5.5311121178064485E-002
   2.2020677884350609E-002  -6.5347287795230469E-003   6.2057065578286719E-002
   2.0641765610273338E-002  -6.3171543109499795E-003   6.0504412854898298E-002
   1.9262853336196054E-002  -6.1335027014284560E-003   5.9348634544531542E-002
   1.7883941062118783E-002  -5.9837739509582891E-003   5.8589730647186450E-002
   1.6505028788041484E-002  -5.8679680595396522E-003   5.8227701162862799E-002
   3.3917560417104364E-002  -1.1673093893245168E-002   4.6440734382003745E-002
   3.6088905916612873E-002  -1.1378304952597146E-002   5.0388614452284153E-002
   3.8260251416121396E-002  -1.0852489509992694E-002   5.4392177398429137E-002
   4.0431596915629885E-002  -1.0095647565432287E-002   5.8451423220438462E-002
   4.2602942415138428E-002  -9.1077791189150270E-003   6.2566351918312391E-002
   2.9302831719360864E-002  -1.0221812434818900E-002   4.9417637787634999E-002
   3.1462727160212728E-002  -9.9559227746493784E-003   5.3695017145468066E-002
   3.3622622601064599E-002  -9.4765895595922134E-003   5.7893813510123696E-002
   3.5782518041916442E-002  -8.7838127896471621E-003   6.2014026881601410E-002
   3.7942413482768320E-002  -7.8775924648144535E-003   6.6055657259901479E-002
   2.4862500215269236E-002  -8.7705309763924377E-003   5.2374433386321848E-002
   2.6876679728422233E-002  -8.5335405967014583E-003   5.6963729084639259E-002
   2.8890859241575226E-002  -8.1006896091914485E-003   6.1340175920736616E-002
   3.0905038754728234E-002  -7.4719780138622020E-003   6.5503773894614134E-002
   3.2919218267881210E-002  -6.6474058107138245E-003   6.9454523006271501E-002
   2.0596565904829438E-002  -7.3192495179659894E-003   5.5311121178064485E-002
   2.2330763621241367E-002  -7.1111584187535590E-003   6.0194750269797516E-002
   2.4064961337653314E-002  -6.7247896587907703E-003   6.4731264630268237E-002
   2.5799159054065237E-002  -6.1601432380772149E-003   6.8920664259476933E-002
   2.7533356770477191E-002  -5.4172191566132788E-003   7.2762949157423401E-002
   1.6505028788041484E-002  -5.8679680595396522E-003   5.8227701162862799E-002
   1.7824978838670152E-002  -5.6887762408056597E-003   6.3388080700942873E-002
   1.9144928889298814E-002  -5.3488897083901615E-003   6.8067079638718303E-002
   2.0464878939927465E-002  -4.8483084622923008E-003   7.2264697976189549E-002
   2.1784828990556129E-002  -4.1870325025126220E-003   7.5980935713356290E-002
   4.2602942415138428E-002  -9.1077791189150270E-003   6.2566351918312391E-002
   3.5759548213903841E-002  -8.0941532757398127E-003   5.5910631642577979E-002
   2.8916154012669212E-002  -7.2600391412049048E-003   4.9617182934121040E-002
   2.2072759811434660E-002  -6.6054367153097551E-003   4.3686005792941907E-002
   1.5229365610200052E-002  -6.1303459980546204E-003   3.8117100219040356E-002
   3.7942413482768320E-002  -7.8775924648144535E-003   6.6055657259901479E-002
   3.1557788529472636E-002  -6.9582820971572645E-003   5.8950380793371893E-002
   2.5173163576176959E-002  -6.2262351987393272E-003   5.2400371255442446E-002
   1.8788538622881285E-002  -5.6814517695598921E-003   4.6405628646113584E-002
   1.2403913669585598E-002  -5.3239318096197641E-003   4.0966152965384750E-002
   3.2919218267881210E-002  -6.6474058107138245E-003   6.9454523006271501E-002
   2.7186357923847174E-002  -5.8224109185748829E-003   6.1891938588348044E-002
   2.1453497579813071E-002  -5.1924312562738467E-003   5.5077616460347562E-002
   1.5720637235778982E-002  -4.7574668238104419E-003   4.9011556622269560E-002
   9.9877768917449455E-003  -4.5175176211850188E-003   4.3693759074115213E-002
   2.7533356770477191E-002  -5.4172191566132788E-003   7.2762949157423401E-002
   2.2645256397027368E-002  -4.6865397399924180E-003   6.4735305027506768E-002
   1.7757156023577546E-002  -4.1586273138083732E-003   5.7648918548835998E-002
   1.2869055650127746E-002  -3.8334818780609518E-003   5.1503789721410675E-002
   7.9809552766778834E-003  -3.7111034327502179E-003   4.6299918545231147E-002
   2.1784828990556129E-002  -4.1870325025126220E-003   7.5980935713356290E-002
   1.7934483949013244E-002  -3.5506685614097866E-003   6.7480480110847951E-002
   1.4084138907470380E-002  -3.1248233713429274E-003   6.0114277520907866E-002
   1.0233793865927512E-002  -2.9094969323111355E-003   5.3882327943536340E-002
   6.3834488243846299E-003  -2.9046892443154171E-003   4.8784631378732790E-002
   2.6633096586542473E-002   0.0000000000000000        2.9468491320658714E-002
   2.7233032807172410E-002  -5.8408460580873511E-004   3.4946368629058901E-002
   2.7832969027802346E-002  -1.3169729803161993E-003   4.0117482858049655E-002
   2.8432905248432283E-002  -2.1986651235223944E-003   4.4981834007630978E-002
   2.9032841469062223E-002  -3.2291610354273081E-003   4.9539422077802854E-002
   2.0114926315070458E-002   0.0000000000000000        2.9022518939483797E-002
   2.0447294212245185E-002  -4.3806345411063260E-004   3.4315985121613039E-002
   2.0779662109419915E-002  -9.8772973466160381E-004   3.9381077736241298E-002
   2.1112030006594638E-002  -1.6489988416529128E-003   4.4217796783368582E-002
   2.1444397903769369E-002  -2.4218707750845586E-003   4.8826142262994872E-002
   1.3503353458942796E-002   0.0000000000000000        2.8703967238877789E-002
   1.3646542544570772E-002  -2.9204230241252922E-004   3.3850223236994471E-002
   1.3789731630198745E-002  -6.5848648900700656E-004   3.8846495179518631E-002
   1.3932920715826719E-002  -1.0993325597834320E-003   4.3692783066450275E-002
   1.4076109801454692E-002  -1.6145805147418056E-003   4.8389086897789368E-002
   6.7983780181594938E-003   0.0000000000000000        2.8512836218840685E-002
   6.8307778041491705E-003  -1.4602115071442540E-004   3.3549082975203204E-002
   6.8631775901388456E-003  -3.2924324335240843E-004   3.8513735187881655E-002
   6.8955773761285224E-003  -5.4966627791394910E-004   4.3406792856876028E-002
   6.9279771621181974E-003  -8.0729025439905087E-004   4.8228255982186344E-002
  -7.2794513472640432E-012   0.0000000000000000        2.8449125879372497E-002
  -9.0196166507849895E-012   9.8367668177612444E-013   3.3412564336239230E-002
  -1.0759782604827239E-011   2.3021862194383402E-012   3.8382797761330349E-002
  -1.2499948233608837E-011   3.9555286129866474E-012   4.3359826154645877E-002
  -1.4240114729752174E-011   5.9436995256123559E-012   4.8343649516185763E-002
   2.9032841469062223E-002  -3.2291610354273081E-003   4.9539422077802854E-002
   2.9106379841553932E-002  -4.2481962358408999E-003   5.1598140090230747E-002
   2.9179918214045645E-002  -5.0955062445730490E-003   5.3754309387420991E-002
   2.9253456586537354E-002  -5.7710910616238040E-003   5.6007929969373649E-002
   2.9326994959029067E-002  -6.2749506869931165E-003   5.8359001836088623E-002
   2.1444397903769369E-002  -2.4218707750845586E-003   4.8826142262994872E-002
   2.1586428591658033E-002  -3.1861471751144592E-003   5.1226316311498148E-002
   2.1728459279546704E-002  -3.8216296819005482E-003   5.3666023706032948E-002
   2.1870489967435375E-002  -4.3283182954428050E-003   5.6145264446599299E-002
   2.2012520655324042E-002  -4.7062130157412563E-003   5.8664038533197210E-002
   1.4076109801454692E-002  -1.6145805147418056E-003   4.8389086897789368E-002
   1.4228714866009488E-002  -2.1240981143880395E-003   5.1087785683930423E-002
   1.4381319930564280E-002  -2.5477531192280335E-003   5.3768099877372202E-002
   1.4533924995119076E-002  -2.8855455292618225E-003   5.6430029478114645E-002
   1.4686530059673870E-002  -3.1374753444893752E-003   5.9073574486157812E-002
   6.9279771621181974E-003  -8.0729025439905087E-004   4.8228255982186344E-002
   7.0332386646082840E-003  -1.0620490536616197E-003   5.1182548207527580E-002
   7.1385001670983706E-003  -1.2738765565555362E-003   5.4060537901438693E-002
   7.2437616695884555E-003  -1.4427727630808283E-003   5.6862225063919698E-002
   7.3490231720785412E-003  -1.5687376732374976E-003   5.9587609694970567E-002
  -1.4240114729752174E-011   5.9436995256123559E-012   4.8343649516185763E-002
  -1.2545572653649417E-011   7.0648252872840267E-012   5.1510603882289618E-002
  -1.0851031228067964E-011   6.1169808367872447E-012   5.4543337778232504E-002
  -9.1564899109067288E-012   3.1001587473371284E-012   5.7441851204014432E-002
  -7.4619477263837553E-012  -1.9856269406481886E-012   6.0206144159635384E-002
   2.9326994959029067E-002  -6.2749506869931165E-003   5.8359001836088623E-002
   2.8975993285010045E-002  -6.6610431756350987E-003   5.9134489207360932E-002
   2.8624991610991017E-002  -6.9833265825038210E-003   5.9947930236680366E-002
   2.8273989936971989E-002  -7.2418009075992142E-003   6.0799324924046952E-002
   2.7922988262952968E-002  -7.4364661509213476E-003   6.1688673269460662E-002
   2.2012520655324042E-002  -4.7062130157412563E-003   5.8664038533197210E-002
   2.1711921829153550E-002  -4.9957823833517954E-003   5.9496291749278327E-002
   2.1411323002983054E-002  -5.2374949388303803E-003   6.0391397003009412E-002
   2.1110724176812562E-002  -5.4313506821769995E-003   6.1349354294390306E-002
   2.0810125350642066E-002  -5.5773496133916800E-003   6.2370163623421231E-002
   1.4686530059673870E-002  -3.1374753444893752E-003   5.9073574486157812E-002
   1.4461232460954671E-002  -3.3305215910684905E-003   5.9946641277406509E-002
   1.4235934862235474E-002  -3.4916632951569535E-003   6.0907458485907860E-002
   1.4010637263516278E-002  -3.6209004567547987E-003   6.1956026111661872E-002
   1.3785339664797081E-002  -3.7182330758619639E-003   6.3092344154668550E-002
   7.3490231720785412E-003  -1.5687376732374976E-003   5.9587609694970567E-002
   7.2239251804134055E-003  -1.6652607987851726E-003   6.0485537791745425E-002
   7.0988271887482707E-003  -1.7458316514835127E-003   6.1496114685375775E-002
   6.9737291970831342E-003  -1.8104502313325633E-003   6.2619340375861574E-002
   6.8486312054179994E-003  -1.8591165383322582E-003   6.3855214863202781E-002
  -7.4619477263837553E-012  -1.9856269406481886E-012   6.0206144159635384E-002
  -1.2470251394003373E-011  -6.5018927741800070E-012   6.1112981292295157E-002
  -1.7478555061622991E-011  -7.8100911155010166E-012   6.2157365601413161E-002
  -2.2486860463966085E-011  -5.9103845949370903E-012   6.3339297086989335E-002
  -2.7495162396862227E-011  -8.0255246892591003E-013   6.4658775749023789E-002
   2.7922988262952968E-002  -7.4364661509213476E-003   6.1688673269460662E-002
   2.7206231189285709E-002  -7.5551884224251895E-003   6.1372432815271633E-002
   2.6489474115618455E-002  -7.5858338320656700E-003   6.1284064904196626E-002
   2.5772717041951186E-002  -7.5284023798427692E-003   6.1423569536235609E-002
   2.5055959968283942E-002  -7.3828940657565123E-003   6.1790946711388572E-002
   2.0810125350642066E-002  -5.5773496133916800E-003   6.2370163623421231E-002
   2.0309070002938863E-002  -5.6663913155507797E-003   6.2206896832469404E-002
   1.9808014655235670E-002  -5.6893753717308718E-003   6.2247160950331670E-002
   1.9306959307532467E-002  -5.6463017819318399E-003   6.2490955977008114E-002
   1.8805903959829270E-002  -5.5371705461536025E-003   6.2938281912498562E-002
   1.3785339664797081E-002  -3.7182330758619639E-003   6.3092344154668550E-002
   1.3475644408758054E-002  -3.7775942086764290E-003   6.3060031811069700E-002
   1.3165949152719028E-002  -3.7929169113960440E-003   6.3206908741985021E-002
   1.2856253896680001E-002  -3.7642011840208268E-003   6.3532974947414639E-002
   1.2546558640640977E-002  -3.6914470265507621E-003   6.4038230427358511E-002
   6.8486312054179994E-003  -1.8591165383322582E-003   6.3855214863202781E-002
   6.7059544067432650E-003  -1.8887971018019933E-003   6.3931837751072529E-002
   6.5632776080685315E-003  -1.8964584510612311E-003   6.4163308279156658E-002
   6.4206008093938014E-003  -1.8821005861098278E-003   6.4549626447455183E-002
   6.2779240107190652E-003  -1.8457235069479286E-003   6.5090792255967964E-002
  -2.7495162396862227E-011  -8.0255246892591003E-013   6.4658775749023789E-002
  -3.1054863541823963E-012   5.0723522604378957E-012   6.4822314652477980E-002
   2.1284189688497435E-011   9.2736096579670857E-012   6.5116359561846637E-002
   4.5673868333262480E-011   1.1801080945783582E-011   6.5540910477129746E-002
   7.0063541773857096E-011   1.2654960412916694E-011   6.6095967398327266E-002
   2.5055959968283942E-002  -7.3828940657565123E-003   6.1790946711388572E-002
   2.4297139447300602E-002  -7.1877236766034192E-003   6.1612385735223291E-002
   2.3538318926317275E-002  -6.9813059991801693E-003   6.1597218554317948E-002
   2.2779498405333949E-002  -6.7636410334867125E-003   6.1745445168672398E-002
   2.2020677884350609E-002  -6.5347287795230469E-003   6.2057065578286719E-002
   1.8805903959829270E-002  -5.5371705461536025E-003   6.2938281912498562E-002
   1.8217055067666056E-002  -5.3907927549183970E-003   6.2766850835762708E-002
   1.7628206175502849E-002  -5.2359794987480793E-003   6.2771969221407126E-002
   1.7039357283339638E-002  -5.0727307776427481E-003   6.2953637069431967E-002
   1.6450508391176427E-002  -4.9010465916023704E-003   6.3311854379837135E-002
   1.2546558640640977E-002  -3.6914470265507621E-003   6.4038230427358511E-002
   1.2140837044418437E-002  -3.5938618332333472E-003   6.3871117426716639E-002
   1.1735115448195905E-002  -3.4906529983160482E-003   6.3893709555575773E-002
   1.1329393851973362E-002  -3.3818205217988123E-003   6.4106006813935759E-002
   1.0923672255750826E-002  -3.2673644036816663E-003   6.4508009201796862E-002
   6.2779240107190652E-003  -1.8457235069479286E-003   6.5090792255967964E-002
   6.0684853775577474E-003  -1.7969309115482696E-003   6.4925185508085084E-002
   5.8590467443964339E-003  -1.7453264978840154E-003   6.4962439556823862E-002
   5.6496081112351170E-003  -1.6909102659548622E-003   6.5202554402183990E-002
   5.4401694780738027E-003  -1.6336822157610037E-003   6.5645530044165651E-002
   7.0063541773857096E-011   1.2654960412916694E-011   6.6095967398327266E-002
   6.7083994609307140E-011   1.0136738670674106E-011   6.5929055079868321E-002
   6.4104443975310232E-011   2.5480520471354851E-012   6.5978159225151392E-002
   6.1124896810760276E-011  -1.0110861800582960E-011   6.6243279834176466E-002
   5.8145346176763368E-011  -2.7840285632407813E-011   6.6724416906943640E-002
   2.2020677884350609E-002  -6.5347287795230469E-003   6.2057065578286719E-002
   2.0641765610273338E-002  -6.3171543109499795E-003   6.0504412854898298E-002
   1.9262853336196054E-002  -6.1335027014284560E-003   5.9348634544531542E-002
   1.7883941062118783E-002  -5.9837739509582891E-003   5.8589730647186450E-002
   1.6505028788041484E-002  -5.8679680595396522E-003   5.8227701162862799E-002
   1.6450508391176427E-002  -4.9010465916023704E-003   6.3311854379837135E-002
   1.5455433943894779E-002  -4.7378657440859534E-003   6.1759815927454206E-002
   1.4460359496613132E-002  -4.6001270385526358E-003   6.0578578715640846E-002
   1.3465285049331487E-002  -4.4878304750021799E-003   5.9768142744397165E-002
   1.2470210602049829E-002  -4.4009760534350351E-003   5.9328508013722914E-002
   1.0923672255750826E-002  -3.2673644036816663E-003   6.4508009201796862E-002
   1.0286362462812837E-002  -3.1585771772218718E-003   6.2965065737487586E-002
   9.6490526698748448E-003  -3.0667513756768155E-003   6.1766850341295962E-002
   9.0117428769368527E-003  -2.9918869990461817E-003   6.0913363013222040E-002
   8.3744330839988605E-003  -2.9339840473303347E-003   6.0404603753265770E-002
   5.4401694780738027E-003  -1.6336822157610037E-003   6.5645530044165651E-002
   5.1345511670274954E-003  -1.5792886103578180E-003   6.4120162284998533E-002
   4.8289328559811976E-003  -1.5333757128008843E-003   6.2913449421497195E-002
   4.5233145449349015E-003  -1.4959435230902391E-003   6.2025391453661538E-002
   4.2176962338885985E-003  -1.4669920412257037E-003   6.1455988381491661E-002
   5.8145346176763368E-011  -2.7840285632407813E-011   6.6724416906943640E-002
   5.6538763254510016E-011  -4.3493791901383361E-011   6.5225105569987119E-002
   5.4932185536427092E-011  -4.9925188982946622E-011   6.4018375956244433E-002
   5.3325606083620691E-011  -4.7134188913000585E-011   6.3104228065715348E-002
   5.1719024896090815E-011  -3.5121017205597127E-011   6.2482661898400071E-002
   1.6505028788041484E-002  -5.8679680595396522E-003   5.8227701162862799E-002
   1.7824978838670152E-002  -5.6887762408056597E-003   6.3388080700942873E-002
   1.9144928889298814E-002  -5.3488897083901615E-003   6.8067079638718303E-002
   2.0464878939927465E-002  -4.8483084622923008E-003   7.2264697976189549E-002
   2.1784828990556129E-002  -4.1870325025126220E-003   7.5980935713356290E-002
   1.2470210602049829E-002  -4.4009760534350351E-003   5.9328508013722914E-002
   1.3346628323431545E-002  -4.2665821884559918E-003   6.4606384362045272E-002
   1.4223046044813257E-002  -4.0116672946706178E-003   6.9478576652177881E-002
   1.5099463766194971E-002  -3.6362313720789130E-003   7.3945084884121076E-002
   1.5975881487576685E-002  -3.1402744206808775E-003   7.8005909057874578E-002
   8.3744330839988605E-003  -2.9339840473303347E-003   6.0404603753265770E-002
   8.8830150182485079E-003  -2.8443881361062684E-003   6.5759803226954794E-002
   9.3915969524981536E-003  -2.6744448809514557E-003   7.0785015184569089E-002
   9.9001788867477993E-003  -2.4241542818656901E-003   7.5480239626108808E-002
   1.0408760820997429E-002  -2.0935163388490219E-003   7.9845476551573952E-002
   4.2176962338885985E-003  -1.4669920412257037E-003   6.1455988381491661E-002
   4.4341389231210473E-003  -1.4221940837565450E-003   6.6848337295671759E-002
   4.6505816123535004E-003  -1.3372224672320750E-003   7.1986395235892175E-002
   4.8670243015859456E-003  -1.2120771916523292E-003   7.6870162202152759E-002
   5.0834669908183987E-003  -1.0467582570172773E-003   8.1499638194453744E-002
   5.1719024896090815E-011  -3.5121017205597127E-011   6.2482661898400071E-002
   3.8049154105213034E-011  -3.1406821587864897E-011   6.7871986568195986E-002
   2.4379286783782206E-011  -5.3512874687022816E-011   7.3082716806147058E-002
   1.0709419462351377E-011  -1.0143911058357880E-010   7.8114852612253191E-002
  -2.9604513285264034E-012  -1.7518536621352609E-010   8.2968393986514510E-002
   2.1784828990556129E-002  -4.1870325025126220E-003   7.5980935713356290E-002
   1.7934483949013244E-002  -3.5506685614097866E-003   6.7480480110847951E-002
   1.4084138907470380E-002  -3.1248233713429274E-003   6.0114277520907866E-002
   1.0233793865927512E-002  -2.9094969323111355E-003   5.3882327943536340E-002
   6.3834488243846299E-003  -2.9046892443154171E-003   4.8784631378732790E-002
   1.5975881487576685E-002  -3.1402744206808775E-003   7.8005909057874578E-002
   1.3216872812434208E-002  -2.6630014491796639E-003   6.9520159775780882E-002
   1.0457864137291752E-002  -2.3436174662783416E-003   6.2082830213919443E-002
   7.6988554621492920E-003  -2.1821224719770563E-003   5.5693920372290678E-002
   4.9398467870068186E-003  -2.1785164662757595E-003   5.0353430250894338E-002
   1.0408760820997429E-002  -2.0935163388490219E-003   7.9845476551573952E-002
   8.6552552199196144E-003  -1.7753343369492358E-003   7.1427063352330150E-002
   6.9017496188418046E-003  -1.5624115612137973E-003   6.3971236580983221E-002
   5.1482440177639663E-003  -1.4547480116428070E-003   5.7477996237533018E-002
   3.3947384166861522E-003  -1.4523436882362128E-003   5.1947342321979673E-002
   5.0834669908183987E-003  -1.0467582570172773E-003   8.1499638194453744E-002
   4.2496311714694509E-003  -8.8766722471896042E-004   7.3201190840495783E-002
   3.4157953521205095E-003  -7.8120565614934329E-004   6.5779496622098657E-002
   2.5819595327715786E-003  -7.2737355130853172E-004   5.9234555539262837E-002
   1.7481237134226203E-003  -7.2617091019666624E-004   5.3566367591987699E-002
  -2.9604513285264034E-012  -1.7518536621352609E-010   8.2968393986514510E-002
   6.6708373547275102E-010  -1.1248862952228933E-010   7.4842542240277754E-002
   1.3371279257434754E-009   2.4891529115667055E-010   6.7507610337266183E-002
   2.0071721160141998E-009   9.0902559438110764E-010   6.0963598277479977E-002
   2.6772162958765833E-009   1.8678429913876471E-009   5.5210506060918929E-002
  -7.2794513472640432E-012   0.0000000000000000        2.8449125879372497E-002
  -9.0196166507849895E-012   9.8367668177612444E-013   3.3412564336239230E-002
  -1.0759782604827239E-011   2.3021862194383402E-012   3.8382797761330349E-002
  -1.2499948233608837E-011   3.9555286129866474E-012   4.3359826154645877E-002
  -1.4240114729752174E-011   5.9436995256123559E-012   4.8343649516185763E-002
  -6.7983780325708400E-003   0.0000000000000000        2.8512836220908139E-002
  -6.8307778219669603E-003   1.4602115324222325E-004   3.3549082977999904E-002
  -6.8631776113630824E-003   3.2924324845884281E-004   3.8513735191555390E-002
  -6.8955774007592001E-003   5.4966628564985260E-004   4.3406792861574547E-002
  -6.9279771901553221E-003   8.0729026481526564E-004   4.8228255988057446E-002
  -1.3503353472911471E-002   0.0000000000000000        2.8703967243882550E-002
  -1.3646542561724227E-002   2.9204230550076895E-004   3.3850223242838914E-002
  -1.3789731650536985E-002   6.5848649461549939E-004   3.8846495186498291E-002
  -1.3932920739349743E-002   1.0993325673441861E-003   4.3692783074860707E-002
  -1.4076109828162498E-002   1.6145805236868322E-003   4.8389086907926135E-002
  -2.0114926328301346E-002   0.0000000000000000        2.9022518948295717E-002
  -2.0447294228291418E-002   4.3806345775931595E-004   3.4315985130756239E-002
  -2.0779662128281497E-002   9.8772974077215858E-004   3.9381077746159107E-002
  -2.1112030028271573E-002   1.6489988490385132E-003   4.4217796794504299E-002
  -2.1444397928261642E-002   2.4218707825584039E-003   4.8826142275791837E-002
  -2.6633096598740462E-002   0.0000000000000000        2.9468491334147657E-002
  -2.7233032821668536E-002   5.8408461001786122E-004   3.4946368641751893E-002
  -2.7832969044596610E-002   1.3169729869288126E-003   4.0117482870537798E-002
  -2.8432905267524688E-002   2.1986651307328436E-003   4.4981834020505360E-002
  -2.9032841490452762E-002   3.2291610414299631E-003   4.9539422091654572E-002
  -1.4240114729752174E-011   5.9436995256123559E-012   4.8343649516185763E-002
  -1.2545572653649417E-011   7.0648252872840267E-012   5.1510603882289618E-002
  -1.0851031228067964E-011   6.1169808367872447E-012   5.4543337778232504E-002
  -9.1564899109067288E-012   3.1001587473371284E-012   5.7441851204014432E-002
  -7.4619477263837553E-012  -1.9856269406481886E-012   6.0206144159635384E-002
  -6.9279771901553221E-003   8.0729026481526564E-004   4.8228255988057446E-002
  -7.0332386893672133E-003   1.0620490655163205E-003   5.1182548210837814E-002
  -7.1385001885791027E-003   1.2738765673142504E-003   5.4060537901966257E-002
  -7.2437616877909930E-003   1.4427727702090770E-003   5.6862225061442825E-002
  -7.3490231870028859E-003   1.5687376742007930E-003   5.9587609689267476E-002
  -1.4076109828162498E-002   1.6145805236868322E-003   4.8389086907926135E-002
  -1.4228714889771765E-002   2.1240981239678291E-003   5.1087785690548872E-002
  -1.4381319951381033E-002   2.5477531285115619E-003   5.3768099880028772E-002
  -1.4533925012990301E-002   2.8855455373180162E-003   5.6430029476365794E-002
  -1.4686530074599569E-002   3.1374753503872095E-003   5.9073574479559986E-002
  -2.1444397928261642E-002   2.4218707825584039E-003   4.8826142275791837E-002
  -2.1586428613759239E-002   3.1861471824193377E-003   5.1226316321422799E-002
  -2.1728459299256823E-002   3.8216296897088347E-003   5.3666023712419950E-002
  -2.1870489984754410E-002   4.3283183044269483E-003   5.6145264448783323E-002
  -2.2012520670251997E-002   4.7062130265736139E-003   5.8664038530512878E-002
  -2.9032841490452762E-002   3.2291610414299631E-003   4.9539422091654572E-002
  -2.9106379861329613E-002   4.2481962408708442E-003   5.1598140103459582E-002
  -2.9179918232206472E-002   5.0955062509061635E-003   5.3754309399139853E-002
  -2.9253456603083317E-002   5.7710910715358787E-003   5.6007929978695407E-002
  -2.9326994973960178E-002   6.2749507027600390E-003   5.8359001842126203E-002
  -7.4619477263837553E-012  -1.9856269406481886E-012   6.0206144159635384E-002
  -1.2470251394003373E-011  -6.5018927741800070E-012   6.1112981292295157E-002
  -1.7478555061622991E-011  -7.8100911155010166E-012   6.2157365601413161E-002
  -2.2486860463966085E-011  -5.9103845949370903E-012   6.3339297086989335E-002
  -2.7495162396862227E-011  -8.0255246892591003E-013   6.4658775749023789E-002
  -7.3490231870028859E-003   1.5687376742007930E-003   5.9587609689267476E-002
  -7.2239252056800988E-003   1.6652607937853760E-003   6.0485537790392827E-002
  -7.0988272243573038E-003   1.7458316434589109E-003   6.1496114687722182E-002
  -6.9737292430345167E-003   1.8104502232212790E-003   6.2619340381255509E-002
  -6.8486312617117243E-003   1.8591165330726078E-003   6.3855214870992799E-002
  -1.4686530074599569E-002   3.1374753503872095E-003   5.9073574479559986E-002
  -1.4461232487199927E-002   3.3305215940726499E-003   5.9946641276031831E-002
  -1.4235934899800292E-002   3.4916632947278843E-003   6.0907458488453400E-002
  -1.4010637312400648E-002   3.6209004523529145E-003   6.1956026116824672E-002
  -1.3785339725001015E-002   3.7182330669477265E-003   6.3092344161145703E-002
  -2.2012520670251997E-002   4.7062130265736139E-003   5.8664038530512878E-002
  -2.1711921857029755E-002   4.9957823943599074E-003   5.9496291749212081E-002
  -2.1411323043807499E-002   5.2374949459968786E-003   6.0391397003606788E-002
  -2.1110724230585250E-002   5.4313506814845230E-003   6.1349354293696978E-002
  -2.0810125417363001E-002   5.5773496008228382E-003   6.2370163619482617E-002
  -2.9326994973960178E-002   6.2749507027600390E-003   5.8359001842126203E-002
  -2.8975993315169559E-002   6.6610431946471892E-003   5.9134489209933645E-002
  -2.8624991656378947E-002   6.9833265972658581E-003   5.9947930233182359E-002
  -2.8273989997588334E-002   7.2418009106161862E-003   6.0799324911872274E-002
  -2.7922988338797715E-002   7.4364661346980054E-003   6.1688673246003495E-002
  -2.7495162396862227E-011  -8.0255246892591003E-013   6.4658775749023789E-002
  -3.1054863541823963E-012   5.0723522604378957E-012   6.4822314652477980E-002
   2.1284189688497435E-011   9.2736096579670857E-012   6.5116359561846637E-002
   4.5673868333262480E-011   1.1801080945783582E-011   6.5540910477129746E-002
   7.0063541773857096E-011   1.2654960412916694E-011   6.6095967398327266E-002
  -6.8486312617117243E-003   1.8591165330726078E-003   6.3855214870992799E-002
  -6.7059544138079177E-003   1.8887970999669074E-003   6.3931837754135620E-002
  -6.5632775659041050E-003   1.8964584508583751E-003   6.4163308278392325E-002
  -6.4206007180002932E-003   1.8821005857470336E-003   6.4549626443762775E-002
  -6.2779238700964857E-003   1.8457235046328013E-003   6.5090792250247068E-002
  -1.3785339725001015E-002   3.7182330669477265E-003   6.3092344161145703E-002
  -1.3475644418383725E-002   3.7775941948614659E-003   6.3060031809648115E-002
  -1.3165949111766446E-002   3.7929168924431683E-003   6.3206908734463621E-002
  -1.2856253805149164E-002   3.7642011596929308E-003   6.3532974935592290E-002
  -1.2546558498531877E-002   3.6914469966107116E-003   6.4038230413034108E-002
  -2.0810125417363001E-002   5.5773496008228382E-003   6.2370163619482617E-002
  -2.0309070016832919E-002   5.6663912897559673E-003   6.2206896819015436E-002
  -1.9808014616302830E-002   5.6893753340279893E-003   6.2247160930060719E-002
  -1.9306959215772742E-002   5.6463017336388834E-003   6.2490955952618478E-002
  -1.8805903815242660E-002   5.5371704885885734E-003   6.2938281886688638E-002
  -2.7922988338797715E-002   7.4364661346980054E-003   6.1688673246003495E-002
  -2.7206231209155496E-002   7.5551883846505657E-003   6.1372432782237557E-002
  -2.6489474079513263E-002   7.5858337756127200E-003   6.1284064865183424E-002
  -2.5772716949871034E-002   7.5284023075847788E-003   6.1423569494841061E-002
  -2.5055959820228811E-002   7.3828939805664906E-003   6.1790946671210573E-002
   7.0063541773857096E-011   1.2654960412916694E-011   6.6095967398327266E-002
   6.7083994609307140E-011   1.0136738670674106E-011   6.5929055079868321E-002
   6.4104443975310232E-011   2.5480520471354851E-012   6.5978159225151392E-002
   6.1124896810760276E-011  -1.0110861800582960E-011   6.6243279834176466E-002
   5.8145346176763368E-011  -2.7840285632407813E-011   6.6724416906943640E-002
  -6.2779238700964857E-003   1.8457235046328013E-003   6.5090792250247068E-002
  -6.0684852430331173E-003   1.7969309034354675E-003   6.4925185495196630E-002
  -5.8590466159697506E-003   1.7453264780747796E-003   6.4962439536490030E-002
  -5.6496079889063770E-003   1.6909102285507620E-003   6.5202554374127253E-002
  -5.4401693618430155E-003   1.6336821548633695E-003   6.5645530008108161E-002
  -1.2546558498531877E-002   3.6914469966107116E-003   6.4038230413034108E-002
  -1.2140836908823859E-002   3.5938617967343003E-003   6.3871117402299366E-002
  -1.1735115319115827E-002   3.4906529536015592E-003   6.3893709520510197E-002
  -1.1329393729407809E-002   3.3818204672124959E-003   6.4106006767666507E-002
  -1.0923672139699784E-002   3.2673643375670802E-003   6.4508009143768405E-002
  -1.8805903815242660E-002   5.5371704885885734E-003   6.2938281886688638E-002
  -1.8217054930288239E-002   5.3907926900330673E-003   6.2766850801176596E-002
  -1.7628206045333800E-002   5.2359794291283405E-003   6.2771969177211770E-002
  -1.7039357160379371E-002   5.0727307058741466E-003   6.2953637014794200E-002
  -1.6450508275424946E-002   4.9010465202707632E-003   6.3311854313923957E-002
  -2.5055959820228811E-002   7.3828939805664906E-003   6.1790946671210573E-002
  -2.4297139307426240E-002   7.1877235833318759E-003   6.1612385691828225E-002
  -2.3538318794623658E-002   6.9813059046550455E-003   6.1597218506594817E-002
  -2.2779498281821083E-002   6.7636409445358484E-003   6.1745445115510493E-002
  -2.2020677769018514E-002   6.5347287029745016E-003   6.2057065518575094E-002
   5.8145346176763368E-011  -2.7840285632407813E-011   6.6724416906943640E-002
   5.6538763254510016E-011  -4.3493791901383361E-011   6.5225105569987119E-002
   5.4932185536427092E-011  -4.9925188982946622E-011   6.4018375956244433E-002
   5.3325606083620691E-011  -4.7134188913000585E-011   6.3104228065715348E-002
   5.1719024896090815E-011  -3.5121017205597127E-011   6.2482661898400071E-002
  -5.4401693618430155E-003   1.6336821548633695E-003   6.5645530008108161E-002
  -5.1345510539542449E-003   1.5792885287051472E-003   6.4120162263786973E-002
  -4.8289327460654691E-003   1.5333756217687372E-003   6.2913449415242698E-002
  -4.5233144381767029E-003   1.4959434340541498E-003   6.2025391462475425E-002
  -4.2176961302879228E-003   1.4669919655614927E-003   6.1455988405485051E-002
  -1.0923672139699784E-002   3.2673643375670802E-003   6.4508009143768405E-002
  -1.0286362349752417E-002   3.1585771009041558E-003   6.2965065702081990E-002
  -9.6490525598050512E-003   3.0667512934627258E-003   6.1766850328735752E-002
  -9.0117427698576929E-003   2.9918869152426013E-003   6.0913363023729725E-002
  -8.3744329799103345E-003   2.9339839662440026E-003   6.0404603787064096E-002
  -1.6450508275424946E-002   4.9010465202707632E-003   6.3311854313923957E-002
  -1.5455433830855760E-002   4.7378656731032406E-003   6.1759815884871991E-002
  -1.4460359386286561E-002   4.6001269651565722E-003   6.0578578696723548E-002
  -1.3465284941717375E-002   4.4878303964311630E-003   5.9768142749478434E-002
  -1.2470210497148183E-002   4.4009759669265403E-003   5.9328508043136802E-002
  -2.2020677769018514E-002   6.5347287029745016E-003   6.2057065518575094E-002
  -2.0641765497264267E-002   6.3171542453021590E-003   6.0504412812157238E-002
  -1.9262853225510003E-002   6.1335026368505852E-003   5.9348634519205995E-002
  -1.7883940953755752E-002   5.9837738776194332E-003   5.8589730639721407E-002
  -1.6505028682001495E-002   5.8679679676090224E-003   5.8227701173703572E-002
   5.1719024896090815E-011  -3.5121017205597127E-011   6.2482661898400071E-002
   3.8049154105213034E-011  -3.1406821587864897E-011   6.7871986568195986E-002
   2.4379286783782206E-011  -5.3512874687022816E-011   7.3082716806147058E-002
   1.0709419462351377E-011  -1.0143911058357880E-010   7.8114852612253191E-002
  -2.9604513285264034E-012  -1.7518536621352609E-010   8.2968393986514510E-002
  -4.2176961302879228E-003   1.4669919655614927E-003   6.1455988405485051E-002
  -4.4341388498777643E-003   1.4221940109436226E-003   6.6848337274944242E-002
  -4.6505815694675903E-003   1.3372223648537990E-003   7.1986395164408523E-002
  -4.8670242890574292E-003   1.2120770272917893E-003   7.6870162073877771E-002
  -5.0834670086472578E-003   1.0467579982578745E-003   8.1499638003351749E-002
  -8.3744329799103345E-003   2.9339839662440026E-003   6.0404603787064096E-002
  -8.8830149535703007E-003   2.8443880532941501E-003   6.5759803190534746E-002
  -9.3915969272302668E-003   2.6744447832203685E-003   7.0785015065860296E-002
  -9.9001789008902347E-003   2.4241541560226908E-003   7.5480239413040454E-002
  -1.0408760874550208E-002   2.0935161717010875E-003   7.9845476232075593E-002
  -1.2470210497148183E-002   4.4009759669265403E-003   5.9328508043136802E-002
  -1.3346628273028453E-002   4.2665820956446360E-003   6.4606384314967111E-002
  -1.4223046048908724E-002   4.0116672015869902E-003   6.9478576510502127E-002
  -1.5099463824789012E-002   3.6362312847534250E-003   7.3945084629741545E-002
  -1.5975881600669272E-002   3.1402743451443144E-003   7.8005908672685823E-002
  -1.6505028682001495E-002   5.8679679676090224E-003   5.8227701173703572E-002
  -1.7824978808252255E-002   5.6887761379951496E-003   6.3388080648241640E-002
  -1.9144928934502984E-002   5.3488896199536257E-003   6.8067079498334154E-002
  -2.0464879060753720E-002   4.8483084134844957E-003   7.2264697723981100E-002
  -2.1784829187004480E-002   4.1870325185875967E-003   7.5980935325182408E-002
  -2.9604513285264034E-012  -1.7518536621352609E-010   8.2968393986514510E-002
   6.6708373547275102E-010  -1.1248862952228933E-010   7.4842542240277754E-002
   1.3371279257434754E-009   2.4891529115667055E-010   6.7507610337266183E-002
   2.0071721160141998E-009   9.0902559438110764E-010   6.0963598277479977E-002
   2.6772162958765833E-009   1.8678429913876471E-009   5.5210506060918929E-002
  -5.0834670086472578E-003   1.0467579982578745E-003   8.1499638003351749E-002
  -4.2496298449258615E-003   8.8766703249681944E-004   7.3201191105713437E-002
  -3.4157926812044825E-003   7.8120588475444341E-004   6.5779497352204480E-002
  -2.5819555174830793E-003   7.2737455503020521E-004   5.9234556742824199E-002
  -1.7481183537617073E-003   7.2617304332422972E-004   5.3566369277573744E-002
  -1.0408760874550208E-002   2.0935161717010875E-003   7.9845476232075593E-002
  -8.6552539162476801E-003   1.7753341774823517E-003   7.1427063702347193E-002
  -6.9017469579451688E-003   1.5624115205936442E-003   6.3971237617651722E-002
  -5.1482399996426349E-003   1.4547482010345645E-003   5.7477997977989775E-002
  -3.3947330413401297E-003   1.4523442188055791E-003   5.1947344783360216E-002
  -1.5975881600669272E-002   3.1402743451443144E-003   7.8005908672685823E-002
  -1.3216871546881713E-002   2.6630013224678423E-003   6.9520160030178912E-002
  -1.0457861493094139E-002   2.3436171564327098E-003   6.2082831133608997E-002
  -7.6988514393065751E-003   2.1821218470391606E-003   5.5693921982976187E-002
  -4.9398413855190181E-003   2.1785153942868174E-003   5.0353432578280094E-002
  -2.1784829187004480E-002   4.1870325185875967E-003   7.5980935325182408E-002
  -1.7934482736827937E-002   3.5506684674532218E-003   6.7480480089208539E-002
  -1.4084136286651401E-002   3.1248227922719835E-003   6.0114277900075591E-002
  -1.0233789836474844E-002   2.9094954930433924E-003   5.3882328757783274E-002
  -6.3834433862983292E-003   2.9046865697681667E-003   4.8784632662332239E-002
  -2.6633096598740462E-002   0.0000000000000000        2.9468491334147657E-002
  -2.7233032821668536E-002   5.8408461001786122E-004   3.4946368641751893E-002
  -2.7832969044596610E-002   1.3169729869288126E-003   4.0117482870537798E-002
  -2.8432905267524688E-002   2.1986651307328436E-003   4.4981834020505360E-002
  -2.9032841490452762E-002   3.2291610414299631E-003   4.9539422091654572E-002
  -3.3394025706819527E-002   0.0000000000000000        3.0177264209895506E-002
  -3.4235918779002818E-002   9.5954291531885703E-004   3.5267109260673231E-002
  -3.5077811851186122E-002   2.0224456114266657E-003   4.0179803691758866E-002
  -3.5919704923369412E-002   3.1887080883234243E-003   4.4915347503152382E-002
  -3.6761597995552717E-002   4.4583303460091327E-003   4.9473740694853788E-002
  -4.0733875075129239E-002   0.0000000000000000        3.1284217383996421E-002
  -4.1688112537441521E-002   1.3350012206198511E-003   3.5940586191843510E-002
  -4.2642349999753797E-002   2.7279182359245206E-003   4.0549416839124726E-002
  -4.3596587462066086E-002   4.1787510459140066E-003   4.5110709325840069E-002
  -4.4550824924378361E-002   5.6874996505883136E-003   4.9624463651989553E-002
  -4.8652644703669604E-002   0.0000000000000000        3.2789350856450399E-002
  -4.9589614096984619E-002   1.7104595259208452E-003   3.6966799435262689E-002
  -5.0526583490299655E-002   3.4333908604223750E-003   4.1226322312635372E-002
  -5.1463552883614677E-002   5.1687940035045916E-003   4.5567919488568413E-002
  -5.2400522276929713E-002   6.9166689551674893E-003   4.9991590963061827E-002
  -5.7150334592440608E-002   0.0000000000000000        3.4692664627257425E-002
  -5.7940423457632145E-002   2.0859178312218410E-003   3.8345748990930816E-002
  -5.8730512322823683E-002   4.1388634849202303E-003   4.2210520112290817E-002
  -5.9520601188015228E-002   6.1588369610951696E-003   4.6286977991337429E-002
  -6.0310690053206766E-002   8.1458382597466641E-003   5.0575122628070637E-002
  -2.9032841490452762E-002   3.2291610414299631E-003   4.9539422091654572E-002
  -2.9106379861329613E-002   4.2481962408708442E-003   5.1598140103459582E-002
  -2.9179918232206472E-002   5.0955062509061635E-003   5.3754309399139853E-002
  -2.9253456603083317E-002   5.7710910715358787E-003   5.6007929978695407E-002
  -2.9326994973960178E-002   6.2749507027600390E-003   5.8359001842126203E-002
  -3.6761597995552717E-002   4.4583303460091327E-003   4.9473740694853788E-002
  -3.6776023534522383E-002   5.6913507989525269E-003   5.1259505541125447E-002
  -3.6790449073492035E-002   6.7478078616223253E-003   5.3066044767336236E-002
  -3.6804874612461694E-002   7.6277015340185002E-003   5.4893358373486155E-002
  -3.6819300151431353E-002   8.3310318161410810E-003   5.6741446359575218E-002
  -4.4550824924378361E-002   5.6874996505883136E-003   4.9624463651989553E-002
  -4.4582814535376963E-002   7.1345053570342192E-003   5.1132437131859824E-002
  -4.4614804146375552E-002   8.4001094723384941E-003   5.2584508087733094E-002
  -4.4646793757374161E-002   9.4843119965011460E-003   5.3980676519609368E-002
  -4.4678783368372749E-002   1.0387112929522168E-002   5.5320942427488598E-002
  -5.2400522276929713E-002   6.9166689551674893E-003   4.9991590963061827E-002
  -5.2526752863893390E-002   8.5776599151159080E-003   5.1216934875662715E-002
  -5.2652983450857067E-002   1.0052411083054659E-002   5.2309699360330433E-002
  -5.2779214037820751E-002   1.1340922458983781E-002   5.3269884417064990E-002
  -5.2905444624784408E-002   1.2443194042903226E-002   5.4097490045866461E-002
  -6.0310690053206766E-002   8.1458382597466641E-003   5.0575122628070637E-002
  -6.0607838520071650E-002   1.0020814473197600E-002   5.1512998772534076E-002
  -6.0904986986936541E-002   1.1704712693770830E-002   5.2241618585128241E-002
  -6.1202135453801425E-002   1.3197532921466424E-002   5.2760982065853099E-002
  -6.1499283920666302E-002   1.4499275156284311E-002   5.3071089214708725E-002
  -2.9326994973960178E-002   6.2749507027600390E-003   5.8359001842126203E-002
  -2.8975993315169559E-002   6.6610431946471892E-003   5.9134489209933645E-002
  -2.8624991656378947E-002   6.9833265972658581E-003   5.9947930233182359E-002
  -2.8273989997588334E-002   7.2418009106161862E-003   6.0799324911872274E-002
  -2.7922988338797715E-002   7.4364661346980054E-003   6.1688673246003495E-002
  -3.6819300151431353E-002   8.3310318161410810E-003   5.6741446359575218E-002
  -3.6379337821182113E-002   8.8730064879034669E-003   5.7095784244072148E-002
  -3.5939375490932866E-002   9.2688333292190433E-003   5.7590089816045145E-002
  -3.5499413160683620E-002   9.5185123400877703E-003   5.8224363075494098E-002
  -3.5059450830434380E-002   9.6220435205096877E-003   5.8998604022419091E-002
  -4.4678783368372749E-002   1.0387112929522168E-002   5.5320942427488598E-002
  -4.4047846334630124E-002   1.1084969781159774E-002   5.5171792087496688E-002
  -4.3416909300887499E-002   1.1554340061172147E-002   5.5264623467015557E-002
  -4.2785972267144860E-002   1.1795223769559368E-002   5.5599436566045199E-002
  -4.2155035233402242E-002   1.1807620906321314E-002   5.6176231384585586E-002
  -5.2905444624784408E-002   1.2443194042903226E-002   5.4097490045866461E-002
  -5.1981518855513636E-002   1.3296933074416074E-002   5.3362512740207306E-002
  -5.1057593086242858E-002   1.3839846793125297E-002   5.2971531186093636E-002
  -5.0133667316972066E-002   1.4071935199030931E-002   5.2924545383525506E-002
  -4.9209741547701275E-002   1.3993198292132955E-002   5.3221555332502946E-002
  -6.1499283920666302E-002   1.4499275156284311E-002   5.3071089214708725E-002
  -6.0180355383832609E-002   1.5508896367672359E-002   5.1667946202203927E-002
  -5.8861426846998924E-002   1.6125353525078431E-002   5.0710812973279347E-002
  -5.7542498310165231E-002   1.6348646628502557E-002   5.0199689527935104E-002
  -5.6223569773331525E-002   1.6178775677944623E-002   5.0134575866171177E-002
  -2.7922988338797715E-002   7.4364661346980054E-003   6.1688673246003495E-002
  -2.7206231209155496E-002   7.5551883846505657E-003   6.1372432782237557E-002
  -2.6489474079513263E-002   7.5858337756127200E-003   6.1284064865183424E-002
  -2.5772716949871034E-002   7.5284023075847788E-003   6.1423569494841061E-002
  -2.5055959820228811E-002   7.3828939805664906E-003   6.1790946671210573E-002
  -3.5059450830434380E-002   9.6220435205096877E-003   5.8998604022419091E-002
  -3.4122216381594295E-002   9.6216103456640140E-003   5.8640917550268706E-002
  -3.3184981932754209E-002   9.5593962907299587E-003   5.8496313169802215E-002
  -3.2247747483914152E-002   9.4354013557076382E-003   5.8564790881019610E-002
  -3.1310513035074039E-002   9.2496255405970507E-003   5.8846350683920925E-002
  -4.2155035233402242E-002   1.1807620906321314E-002   5.6176231384585586E-002
  -4.1012113920392224E-002   1.1688032306677497E-002   5.5803394882952682E-002
  -3.9869192607382212E-002   1.1532958805847256E-002   5.5628850017975795E-002
  -3.8726271294372186E-002   1.1342400403830610E-002   5.5652596789654875E-002
  -3.7583349981362174E-002   1.1116357100627569E-002   5.5874635197989943E-002
  -4.9209741547701275E-002   1.3993198292132955E-002   5.3221555332502946E-002
  -4.7875923825549248E-002   1.3754454267690976E-002   5.2859864780289478E-002
  -4.6542106103397200E-002   1.3506521320964483E-002   5.2681675409704046E-002
  -4.5208288381245174E-002   1.3249399451953608E-002   5.2686987220746696E-002
  -4.3874470659093126E-002   1.2983088660658108E-002   5.2875800213417375E-002
  -5.6223569773331525E-002   1.6178775677944623E-002   5.0134575866171177E-002
  -5.4713646097065388E-002   1.5820876228704456E-002   4.9810327242279046E-002
  -5.3203722420799231E-002   1.5480083836081800E-002   4.9654789344987044E-002
  -5.1693798744533073E-002   1.5156398500076456E-002   4.9667962174295234E-002
  -5.0183875068266937E-002   1.4849820220688675E-002   4.9849845730203540E-002
  -2.5055959820228811E-002   7.3828939805664906E-003   6.1790946671210573E-002
  -2.4297139307426240E-002   7.1877235833318759E-003   6.1612385691828225E-002
  -2.3538318794623658E-002   6.9813059046550455E-003   6.1597218506594817E-002
  -2.2779498281821083E-002   6.7636409445358484E-003   6.1745445115510493E-002
  -2.2020677769018514E-002   6.5347287029745016E-003   6.2057065518575094E-002
  -3.1310513035074039E-002   9.2496255405970507E-003   5.8846350683920925E-002
  -3.0376039208014995E-002   9.0206944728105226E-003   5.8643877039850453E-002
  -2.9441565380955929E-002   8.7672337797610606E-003   5.8629316230143953E-002
  -2.8507091553896878E-002   8.4892434614483557E-003   5.8802668254801474E-002
  -2.7572617726837816E-002   8.1867235178725850E-003   5.9163933113822842E-002
  -3.7583349981362174E-002   1.1116357100627569E-002   5.5874635197989943E-002
  -3.6448703799831665E-002   1.0853665362289301E-002   5.5634966545410475E-002
  -3.5314057618301163E-002   1.0553161654867128E-002   5.5607729767409991E-002
  -3.4179411436770647E-002   1.0214845978360917E-002   5.5792924863988354E-002
  -3.3044765255240131E-002   9.8387183327707517E-003   5.6190551835145763E-002
  -4.3874470659093126E-002   1.2983088660658108E-002   5.2875800213417375E-002
  -4.2515133082876223E-002   1.2686636251768069E-002   5.2585654208508262E-002
  -4.1155795506659321E-002   1.2339089529973169E-002   5.2532459118392931E-002
  -3.9796457930442432E-002   1.1940448495273480E-002   5.2716214943071459E-002
  -3.8437120354225550E-002   1.1490713147668932E-002   5.3136921682543928E-002
  -5.0183875068266937E-002   1.4849820220688675E-002   4.9849845730203540E-002
  -4.8575327057148711E-002   1.4519607141246726E-002   4.9495940029143703E-002
  -4.6966779046030457E-002   1.4125017405079217E-002   4.9403504283092717E-002
  -4.5358231034912204E-002   1.3666051012185975E-002   4.9572538492050545E-002
  -4.3749683023793950E-002   1.3142707962567057E-002   5.0003042656017183E-002
  -2.2020677769018514E-002   6.5347287029745016E-003   6.2057065518575094E-002
  -2.0641765497264267E-002   6.3171542453021590E-003   6.0504412812157238E-002
  -1.9262853225510003E-002   6.1335026368505852E-003   5.9348634519205995E-002
  -1.7883940953755752E-002   5.9837738776194332E-003   5.8589730639721407E-002
  -1.6505028682001495E-002   5.8679679676090224E-003   5.8227701173703572E-002
  -2.7572617726837816E-002   8.1867235178725850E-003   5.9163933113822842E-002
  -2.5828604745419870E-002   7.8964178207732438E-003   5.7700739616737190E-002
  -2.4084591764001947E-002   7.6550702418897304E-003   5.6570873125512233E-002
  -2.2340578782584011E-002   7.4626807812223674E-003   5.5774333640147805E-002
  -2.0596565801166047E-002   7.3192494387708251E-003   5.5311121160644267E-002
  -3.3044765255240131E-002   9.8387183327707517E-003   5.6190551835145763E-002
  -3.0999198971764536E-002   9.4756813962442454E-003   5.4831852816387638E-002
  -2.8953632688288915E-002   9.1766378469290977E-003   5.3742933395884304E-002
  -2.6908066404813292E-002   8.9415876848252460E-003   5.2923793573635650E-002
  -2.4862500121337699E-002   8.7705309099326834E-003   5.2374433349641550E-002
  -3.8437120354225550E-002   1.1490713147668932E-002   5.3136921682543928E-002
  -3.6153548176298213E-002   1.1054944971715289E-002   5.1897752411108736E-002
  -3.3869975998370966E-002   1.0698205451968243E-002   5.0864815330322333E-002
  -3.1586403820443650E-002   1.0420494588428097E-002   5.0038110440184566E-002
  -2.9302831642516364E-002   1.0221812381094514E-002   4.9417637740695491E-002
  -4.3749683023793950E-002   1.3142707962567057E-002   5.0003042656017183E-002
  -4.1291652359021019E-002   1.2634208547186332E-002   4.8898438400900440E-002
  -3.8833621694248033E-002   1.2219773057007638E-002   4.7936518928826249E-002
  -3.6375591029475053E-002   1.1899401492030899E-002   4.7117284239794888E-002
  -3.3917560364702101E-002   1.1673093852256289E-002   4.6440734333806077E-002
  -1.6505028682001495E-002   5.8679679676090224E-003   5.8227701173703572E-002
  -1.7824978808252255E-002   5.6887761379951496E-003   6.3388080648241640E-002
  -1.9144928934502984E-002   5.3488896199536257E-003   6.8067079498334154E-002
  -2.0464879060753720E-002   4.8483084134844957E-003   7.2264697723981100E-002
  -2.1784829187004480E-002   4.1870325185875967E-003   7.5980935325182408E-002
  -2.0596565801166047E-002   7.3192494387708251E-003   5.5311121160644267E-002
  -2.2330763608807893E-002   7.1111583324925676E-003   6.0194750210081110E-002
  -2.4064961416449725E-002   6.7247895803449614E-003   6.4731264521181428E-002
  -2.5799159224091570E-002   6.1601431823278298E-003   6.8920664093945233E-002
  -2.7533357031733399E-002   5.4172191384408985E-003   7.2762948928372151E-002
  -2.4862500121337699E-002   8.7705309099326834E-003   5.2374433349641550E-002
  -2.6876679724261672E-002   8.5335405269900827E-003   5.6963729016535417E-002
  -2.8890859327185651E-002   8.1006895407362903E-003   6.1340175831201639E-002
  -3.0905038930109641E-002   7.4719779511710511E-003   6.5503773793640044E-002
  -3.2919218533033617E-002   6.6474057582942836E-003   6.9454522903850943E-002
  -2.9302831642516364E-002   1.0221812381094514E-002   4.9417637740695491E-002
  -3.1462727154613561E-002   9.9559227214875493E-003   5.3695017067604489E-002
  -3.3622622666710768E-002   9.4765895011277058E-003   5.7893813428394766E-002
  -3.5782518178807940E-002   8.7838127200142169E-003   6.2014026823066254E-002
  -3.7942413690905161E-002   7.8775923781476270E-003   6.6055657251618993E-002
  -3.3917560364702101E-002   1.1673093852256289E-002   4.6440734333806077E-002
  -3.6088905899863577E-002   1.1378304915985044E-002   5.0388614363288231E-002
  -3.8260251435025060E-002   1.0852489461518941E-002   5.4392177312760720E-002
  -4.0431596970186542E-002   1.0095647488857769E-002   5.8451423182223336E-002
  -4.2602942505348018E-002   9.1077789980010815E-003   6.2566351971676260E-002
  -2.1784829187004480E-002   4.1870325185875967E-003   7.5980935325182408E-002
  -1.7934482736827937E-002   3.5506684674532218E-003   6.7480480089208539E-002
  -1.4084136286651401E-002   3.1248227922719835E-003   6.0114277900075591E-002
  -1.0233789836474844E-002   2.9094954930433924E-003   5.3882328757783274E-002
  -6.3834433862983292E-003   2.9046865697681667E-003   4.8784632662332239E-002
  -2.7533357031733399E-002   5.4172191384408985E-003   7.2762948928372151E-002
  -2.2645255252527741E-002   4.6865396227150635E-003   6.4735304857087145E-002
  -1.7757153473322115E-002   4.1586268091804018E-003   5.7648918397019522E-002
  -1.2869051694116444E-002   3.8334806978369447E-003   5.1503789548169213E-002
  -7.9809499149107940E-003   3.7111012886850148E-003   4.6299918310536148E-002
  -3.2919218533033617E-002   6.6474057582942836E-003   6.9454522903850943E-002
  -2.7186356860422471E-002   5.8224107779767942E-003   6.1891938323493170E-002
  -2.1453495187811304E-002   5.1924308260887717E-003   5.5077615918729360E-002
  -1.5720633515200189E-002   4.7574659026305265E-003   4.9011555689558825E-002
  -9.9877718425890223E-003   4.5175160076016407E-003   4.3693757635982489E-002
  -3.7942413690905161E-002   7.8775923781476270E-003   6.6055657251618993E-002
  -3.1557787560512147E-002   6.9582819332384138E-003   5.8950380488426934E-002
  -2.5173161430119106E-002   6.2262348429971658E-003   5.2400370465204987E-002
  -1.8788535299726083E-002   5.6814511074238716E-003   4.6405627181953089E-002
  -1.2403909169333076E-002   5.3239307265184332E-003   4.0966150638671345E-002
  -4.2602942505348018E-002   9.1077789980010815E-003   6.2566351971676260E-002
  -3.5759547352796711E-002   8.0941530885004220E-003   5.5910631351888007E-002
  -2.8916152200245418E-002   7.2600388599055599E-003   4.9617182036446383E-002
  -2.2072757047694125E-002   6.6054363122175497E-003   4.3686004025351055E-002
  -1.5229361895142846E-002   6.1303454454351147E-003   3.8117097318602466E-002
  -5.7150334592440608E-002   0.0000000000000000        3.4692664627257425E-002
  -5.7940423457632145E-002   2.0859178312218410E-003   3.8345748990930816E-002
  -5.8730512322823683E-002   4.1388634849202303E-003   4.2210520112290817E-002
  -5.9520601188015228E-002   6.1588369610951696E-003   4.6286977991337429E-002
  -6.0310690053206766E-002   8.1458382597466641E-003   5.0575122628070637E-002
  -6.5816483211072946E-002   0.0000000000000000        3.7215579767883242E-002
  -6.6623417650086142E-002   2.9143709429543998E-003   4.0836593093480984E-002
  -6.7430352089099338E-002   5.7706310492814644E-003   4.4212228513748800E-002
  -6.8237286528112548E-002   8.5687803189811989E-003   4.7342486028686681E-002
  -6.9044220967125730E-002   1.1308818752053586E-002   5.0227365638294628E-002
  -7.4240629029197258E-002   0.0000000000000000        4.0579517349793565E-002
  -7.5521473705048664E-002   3.7428240546869621E-003   4.4143320978211754E-002
  -7.6802318380900056E-002   7.4023986136427010E-003   4.7004682038283500E-002
  -7.8083163056751448E-002   1.0978723676867218E-002   4.9163600530008761E-002
  -7.9364007732602868E-002   1.4471799244360508E-002   5.0620076453387557E-002
  -8.2422772046813558E-002   0.0000000000000000        4.4784477372988393E-002
  -8.4634591622519698E-002   4.5712771664195217E-003   4.8265932645123168E-002
  -8.6846411198225851E-002   9.0341661780039342E-003   5.0587880685894933E-002
  -8.9058230773931990E-002   1.3388667034753237E-002   5.1750321495303689E-002
  -9.1270050349638102E-002   1.7634779736667425E-002   5.1753255073349443E-002
  -9.0362912263921860E-002   0.0000000000000000        4.9830459837467714E-002
  -9.3962771402499284E-002   5.3997302781520831E-003   5.3204428094215175E-002
  -9.7562630541076695E-002   1.0665933742365170E-002   5.4961824456583097E-002
 -0.10116248967965411        1.5798610392639263E-002   5.5102648924571472E-002
 -0.10476234881823152        2.0797760228974352E-002   5.3626901498180300E-002
  -6.0310690053206766E-002   8.1458382597466641E-003   5.0575122628070637E-002
  -6.0607838520071650E-002   1.0020814473197600E-002   5.1512998772534076E-002
  -6.0904986986936541E-002   1.1704712693770830E-002   5.2241618585128241E-002
  -6.1202135453801425E-002   1.3197532921466424E-002   5.2760982065853099E-002
  -6.1499283920666302E-002   1.4499275156284311E-002   5.3071089214708725E-002
  -6.9044220967125730E-002   1.1308818752053586E-002   5.0227365638294628E-002
  -6.9313959192483510E-002   1.3751748609608656E-002   4.9452060350933816E-002
  -6.9583697417841262E-002   1.5658572152756452E-002   4.8940831878456555E-002
  -6.9853435643199041E-002   1.7029289381496976E-002   4.8693680220862776E-002
  -7.0123173868556821E-002   1.7863900295830196E-002   4.8710605378152555E-002
  -7.9364007732602868E-002   1.4471799244360508E-002   5.0620076453387557E-002
  -7.9133002569700725E-002   1.7482682746019742E-002   4.7786561412672915E-002
  -7.8901997406798569E-002   1.9612431611742091E-002   4.5690456333594601E-002
  -7.8670992243896412E-002   2.0861045841527540E-002   4.4331761216152593E-002
  -7.8439987080994256E-002   2.1228525435376101E-002   4.3710476060346920E-002
  -9.1270050349638102E-002   1.7634779736667425E-002   5.1753255073349443E-002
  -9.0064968651723254E-002   2.1213616882430817E-002   4.6516501957751359E-002
  -8.8859886953808379E-002   2.3566291070727705E-002   4.2490491950542407E-002
  -8.7654805255893573E-002   2.4692802301558094E-002   3.9675225051722537E-002
  -8.6449723557978697E-002   2.4593150574921983E-002   3.8070701261291799E-002
 -0.10476234881823152        2.0797760228974352E-002   5.3626901498180300E-002
 -0.10210985743855115        2.4944551018841882E-002   4.5641881986169142E-002
  -9.9457366058870803E-002   2.7520150529713357E-002   3.9340938729299973E-002
  -9.6804874679190439E-002   2.8524558761588662E-002   3.4724071727572602E-002
  -9.4152383299510062E-002   2.7957775714467899E-002   3.1791280980987220E-002
  -6.1499283920666302E-002   1.4499275156284311E-002   5.3071089214708725E-002
  -6.0180355383832609E-002   1.5508896367672359E-002   5.1667946202203927E-002
  -5.8861426846998924E-002   1.6125353525078431E-002   5.0710812973279347E-002
  -5.7542498310165231E-002   1.6348646628502557E-002   5.0199689527935104E-002
  -5.6223569773331525E-002   1.6178775677944623E-002   5.0134575866171177E-002
  -7.0123173868556821E-002   1.7863900295830196E-002   4.8710605378152555E-002
  -6.8402366369637896E-002   1.8319278237824158E-002   4.7262646437479044E-002
  -6.6681558870718999E-002   1.8552296549546866E-002   4.6172435637395676E-002
  -6.4960751371800102E-002   1.8562955230998299E-002   4.5439972977902476E-002
  -6.3239943872881177E-002   1.8351254282178542E-002   4.5065258458999322E-002
  -7.8439987080994256E-002   2.1228525435376101E-002   4.3710476060346920E-002
  -7.6405562262980342E-002   2.1129660107975942E-002   4.2388505615215497E-002
  -7.4371137444966373E-002   2.0979239574015277E-002   4.1336021667684013E-002
  -7.2336712626952446E-002   2.0777263833494101E-002   4.0553024217752497E-002
  -7.0302287808938463E-002   2.0523732886412405E-002   4.0039513265420913E-002
  -8.6449723557978697E-002   2.4593150574921983E-002   3.8070701261291799E-002
  -8.4189943063859865E-002   2.3940041978127755E-002   3.7045523735413192E-002
  -8.1930162569741061E-002   2.3406182598483725E-002   3.6201571064144303E-002
  -7.9670382075622243E-002   2.2991572435989857E-002   3.5538843247485297E-002
  -7.7410601581503438E-002   2.2696211490646281E-002   3.5057340285435973E-002
  -9.4152383299510062E-002   2.7957775714467899E-002   3.1791280980987220E-002
  -9.1755508772276548E-002   2.6750423848279518E-002   3.1233700798072160E-002
  -8.9358634245043048E-002   2.5833125622952105E-002   3.0769083826776674E-002
  -8.6961759717809534E-002   2.5205881038485690E-002   3.0397430067100821E-002
  -8.4564885190576033E-002   2.4868690094880186E-002   3.0118739519044535E-002
  -5.6223569773331525E-002   1.6178775677944623E-002   5.0134575866171177E-002
  -5.4713646097065388E-002   1.5820876228704456E-002   4.9810327242279046E-002
  -5.3203722420799231E-002   1.5480083836081800E-002   4.9654789344987044E-002
  -5.1693798744533073E-002   1.5156398500076456E-002   4.9667962174295234E-002
  -5.0183875068266937E-002   1.4849820220688675E-002   4.9849845730203540E-002
  -6.3239943872881177E-002   1.8351254282178542E-002   4.5065258458999322E-002
  -6.1550470346981009E-002   1.8012369244572106E-002   4.4698428376291142E-002
  -5.9860996821080842E-002   1.7641475659663695E-002   4.4521987266250881E-002
  -5.8171523295180640E-002   1.7238573527453324E-002   4.4535935128878552E-002
  -5.6482049769280472E-002   1.6803662847941048E-002   4.4740271964174128E-002
  -7.0302287808938463E-002   2.0523732886412405E-002   4.0039513265420913E-002
  -6.8411586187336504E-002   2.0203862260439728E-002   3.9580986119977311E-002
  -6.6520884565734559E-002   1.9802867483245671E-002   3.9334526193269354E-002
  -6.4630182944132614E-002   1.9320748554830215E-002   3.9300133485297047E-002
  -6.2739481322530627E-002   1.8757505475193406E-002   3.9477807996060398E-002
  -7.7410601581503438E-002   2.2696211490646281E-002   3.5057340285435973E-002
  -7.5296993618131941E-002   2.2395355276307378E-002   3.4458000473337476E-002
  -7.3183385654760430E-002   2.1964259306827660E-002   3.4092406126042439E-002
  -7.1069777691388905E-002   2.1402923582207179E-002   3.3960557243550772E-002
  -6.8956169728017408E-002   2.0711348102445744E-002   3.4062453825862551E-002
  -8.4564885190576033E-002   2.4868690094880186E-002   3.0118739519044535E-002
  -8.2206692639367224E-002   2.4586848292175001E-002   2.9329471436371726E-002
  -7.9848500088158414E-002   2.4125651130409598E-002   2.8795627064570117E-002
  -7.7490307536949604E-002   2.3485098609583976E-002   2.8517206403639708E-002
  -7.5132114985740794E-002   2.2665190729698137E-002   2.8494209453580416E-002
  -5.0183875068266937E-002   1.4849820220688675E-002   4.9849845730203540E-002
  -4.8575327057148711E-002   1.4519607141246726E-002   4.9495940029143703E-002
  -4.6966779046030457E-002   1.4125017405079217E-002   4.9403504283092717E-002
  -4.5358231034912204E-002   1.3666051012185975E-002   4.9572538492050545E-002
  -4.3749683023793950E-002   1.3142707962567057E-002   5.0003042656017183E-002
  -5.6482049769280472E-002   1.6803662847941048E-002   4.4740271964174128E-002
  -5.4633029592636176E-002   1.6338821769298531E-002   4.4359997167552831E-002
  -5.2784009415991859E-002   1.5846128439697481E-002   4.4199196746974936E-002
  -5.0934989239347549E-002   1.5325582859138076E-002   4.4257870702440291E-002
  -4.9085969062703218E-002   1.4777185027620071E-002   4.4536019033948909E-002
  -6.2739481322530627E-002   1.8757505475193406E-002   3.9477807996060398E-002
  -6.0691984559325743E-002   1.8158036397350197E-002   3.9107688509644932E-002
  -5.8644487796120887E-002   1.7567239474315769E-002   3.8915047820307330E-002
  -5.6596991032916037E-002   1.6985114706090036E-002   3.8899885928047440E-002
  -5.4549494269711160E-002   1.6411662092673002E-002   3.9062202832865434E-002
  -6.8956169728017408E-002   2.0711348102445744E-002   3.4062453825862551E-002
  -6.6752191957217502E-002   1.9977251025401932E-002   3.3739014055419979E-002
  -6.4548214186417555E-002   1.9288350508933988E-002   3.3551057503089780E-002
  -6.2344236415617628E-002   1.8644646553042068E-002   3.3498584168871880E-002
  -6.0140258644817667E-002   1.8046139157726057E-002   3.3581594052766277E-002
  -7.5132114985740794E-002   2.2665190729698137E-002   2.8494209453580416E-002
  -7.2813651786311287E-002   2.1796465653453695E-002   2.8253973804877985E-002
  -7.0495188586881835E-002   2.1009461543552377E-002   2.8107225795322419E-002
  -6.8176725387452342E-002   2.0304178399994127E-002   2.8053965424913688E-002
  -6.5858262188022876E-002   1.9680616222778946E-002   2.8094192693651709E-002
  -4.3749683023793950E-002   1.3142707962567057E-002   5.0003042656017183E-002
  -4.1291652359021019E-002   1.2634208547186332E-002   4.8898438400900440E-002
  -3.8833621694248033E-002   1.2219773057007638E-002   4.7936518928826249E-002
  -3.6375591029475053E-002   1.1899401492030899E-002   4.7117284239794888E-002
  -3.3917560364702101E-002   1.1673093852256289E-002   4.6440734333806077E-002
  -4.9085969062703218E-002   1.4777185027620071E-002   4.4536019033948909E-002
  -4.6425436530763524E-002   1.4248141206114978E-002   4.3444304792950805E-002
  -4.3764903998823768E-002   1.3785657655594440E-002   4.2614909503243509E-002
  -4.1104371466884046E-002   1.3389734376057885E-002   4.2047833164827145E-002
  -3.8443838934944331E-002   1.3060371367505985E-002   4.1743075777701422E-002
  -5.4549494269711160E-002   1.6411662092673002E-002   3.9062202832865434E-002
  -5.1566825702356468E-002   1.5862073865043735E-002   3.7955874951768172E-002
  -4.8584157135001818E-002   1.5351542254181075E-002   3.7231500190209987E-002
  -4.5601488567647147E-002   1.4880067260085093E-002   3.6889078548190880E-002
  -4.2618820000292476E-002   1.4447648882755765E-002   3.6928610025710698E-002
  -6.0140258644817667E-002   1.8046139157726057E-002   3.3581594052766277E-002
  -5.6715819873799922E-002   1.7476006523972437E-002   3.2433148877352255E-002
  -5.3291381102782129E-002   1.6917426852767876E-002   3.1786290989725574E-002
  -4.9866942331764329E-002   1.6370400144112132E-002   3.1641020389885990E-002
  -4.6442503560746529E-002   1.5834926398005503E-002   3.1997337077833768E-002
  -6.5858262188022876E-002   1.9680616222778946E-002   2.8094192693651709E-002
  -6.1872419045093802E-002   1.9089939182901194E-002   2.6876126569703396E-002
  -5.7886575902164686E-002   1.8483311451354470E-002   2.6279281901790463E-002
  -5.3900732759235577E-002   1.7860733028139304E-002   2.6303658689912815E-002
  -4.9914889616306496E-002   1.7222203913255241E-002   2.6949256934070687E-002
  -3.3917560364702101E-002   1.1673093852256289E-002   4.6440734333806077E-002
  -3.6088905899863577E-002   1.1378304915985044E-002   5.0388614363288231E-002
  -3.8260251435025060E-002   1.0852489461518941E-002   5.4392177312760720E-002
  -4.0431596970186542E-002   1.0095647488857769E-002   5.8451423182223336E-002
  -4.2602942505348018E-002   9.1077789980010815E-003   6.2566351971676260E-002
  -3.8443838934944331E-002   1.3060371367505985E-002   4.1743075777701422E-002
  -4.0672873986061460E-002   1.2645390008938800E-002   4.5694469131527082E-002
  -4.2901909037178582E-002   1.1992611679357210E-002   4.9474800533451282E-002
  -4.5130944088295703E-002   1.1102036378760931E-002   5.3084069983473960E-002
  -4.7359979139412825E-002   9.9736641071500598E-003   5.6522277481595162E-002
  -4.2618820000292476E-002   1.4447648882755765E-002   3.6928610025710698E-002
  -4.5132289439256935E-002   1.3912475101892710E-002   4.0876746251060192E-002
  -4.7645758878221374E-002   1.3132733897195541E-002   4.4427075652616603E-002
  -5.0159228317185847E-002   1.2108425268664262E-002   4.7579598230379910E-002
  -5.2672697756150327E-002   1.0839549216298872E-002   5.0334313984349843E-002
  -4.6442503560746529E-002   1.5834926398005503E-002   3.1997337077833768E-002
  -4.9467152259449969E-002   1.5179560194846543E-002   3.5935445721887685E-002
  -5.2491800958153464E-002   1.4272856115033896E-002   3.9249002670256758E-002
  -5.5516449656856919E-002   1.3114814158567675E-002   4.1938007922941022E-002
  -5.8541098355560400E-002   1.1705434325447822E-002   4.4002461479940455E-002
  -4.9914889616306496E-002   1.7222203913255241E-002   2.6949256934070687E-002
  -5.3677462446640678E-002   1.6446645287800321E-002   3.0870567544009464E-002
  -5.7440035276974832E-002   1.5412978332872182E-002   3.3940581586371726E-002
  -6.1202608107309001E-002   1.4121203048470959E-002   3.6159299061157432E-002
  -6.4965180937643169E-002   1.2571319434596606E-002   3.7526719968366706E-002
  -4.2602942505348018E-002   9.1077789980010815E-003   6.2566351971676260E-002
  -3.5759547352796711E-002   8.0941530885004220E-003   5.5910631351888007E-002
  -2.8916152200245418E-002   7.2600388599055599E-003   4.9617182036446383E-002
  -2.2072757047694125E-002   6.6054363122175497E-003   4.3686004025351055E-002
  -1.5229361895142846E-002   6.1303454454351147E-003   3.8117097318602466E-002
  -4.7359979139412825E-002   9.9736641071500598E-003   5.6522277481595162E-002
  -4.0002307236239390E-002   8.8891654579166812E-003   4.9715408273748152E-002
  -3.2644635333065920E-002   8.1302110244531600E-003   4.3574821262798963E-002
  -2.5286963429892412E-002   7.6968008067593990E-003   3.8100516448747623E-002
  -1.7929291526719016E-002   7.5889348048354677E-003   3.3292493831594494E-002
  -5.2672697756150327E-002   1.0839549216298872E-002   5.0334313984349843E-002
  -4.4496738209803238E-002   9.6841778273331347E-003   4.3522328723307496E-002
  -3.6320778663456163E-002   9.0003831890006492E-003   3.7680636551714372E-002
  -2.8144819117109116E-002   8.7881653013014982E-003   3.2809237469570651E-002
  -1.9968859570761943E-002   9.0475241642357096E-003   2.8908131476876375E-002
  -5.8541098355560400E-002   1.1705434325447822E-002   4.4002461479940455E-002
  -4.9242840273488256E-002   1.0479190196749547E-002   3.7331392700566207E-002
  -3.9944582191416181E-002   9.8705553535480273E-003   3.1934627903192708E-002
  -3.0646324109343929E-002   9.8795297958436945E-003   2.7812167087819958E-002
  -2.1348066027271840E-002   1.0506113523635896E-002   2.4964010254448041E-002
  -6.4965180937643169E-002   1.2571319434596606E-002   3.7526719968366706E-002
  -5.4240613427294582E-002   1.1274202566166014E-002   3.1142600205524062E-002
  -4.3516045916945870E-002   1.0740727518095669E-002   2.6336795317233791E-002
  -3.2791478406597303E-002   1.0970894290385596E-002   2.3109305303495545E-002
  -2.2066910896248626E-002   1.1964702883036304E-002   2.1460130164309810E-002
  -9.0362912263921860E-002   0.0000000000000000        4.9830459837467714E-002
  -9.3962771402499284E-002   5.3997302781520831E-003   5.3204428094215175E-002
  -9.7562630541076695E-002   1.0665933742365170E-002   5.4961824456583097E-002
 -0.10116248967965411        1.5798610392639263E-002   5.5102648924571472E-002
 -0.10476234881823152        2.0797760228974352E-002   5.3626901498180300E-002
 -0.10329758613906570        0.0000000000000000        5.8654185530968114E-002
 -0.10683302710254378        1.0883211436584017E-002   5.2113564068350667E-002
 -0.11036846806602187        1.9170930342577636E-002   4.7318350850311434E-002
 -0.11390390902949996        2.4863156717980853E-002   4.4268545876850432E-002
 -0.11743934999297803        2.7959890562793653E-002   4.2964149147967617E-002
 -0.12646333013078864        0.0000000000000000        7.4192375241226141E-002
 -0.12657237278020961        1.6366692595015952E-002   5.5275198342592383E-002
 -0.12668141542963060        2.7675926942790099E-002   4.1465409827494588E-002
 -0.12679045807905159        3.3927703043322439E-002   3.2763009695932793E-002
 -0.12689950072847256        3.5122020896612954E-002   2.9167997947906997E-002
 -0.15986014423909067        0.0000000000000000        9.6445028968241822E-002
 -0.15318080843549681        2.1850173753447881E-002   6.2689330916940317E-002
 -0.14650147263190291        3.6180923543002570E-002   3.7403001388132587E-002
 -0.13982213682830899        4.2992249368664019E-002   2.0586040381818625E-002
 -0.13314280102471510        4.2284151230432263E-002   1.2238447897998333E-002
 -0.20348802846397182        0.0000000000000000       0.12541214671201514     
 -0.18665833406840529        2.7333654911879824E-002   7.4355961791394518E-002
 -0.16982863967283876        4.4685920143215027E-002   3.5131125532225381E-002
 -0.15299894527727226        5.2056795694005606E-002   7.7376379345078100E-003
 -0.13616925088170573        4.9446281564251543E-002  -7.8245010017583133E-003
 -0.10476234881823152        2.0797760228974352E-002   5.3626901498180300E-002
 -0.10210985743855115        2.4944551018841882E-002   4.5641881986169142E-002
  -9.9457366058870803E-002   2.7520150529713357E-002   3.9340938729299973E-002
  -9.6804874679190439E-002   2.8524558761588662E-002   3.4724071727572602E-002
  -9.4152383299510062E-002   2.7957775714467899E-002   3.1791280980987220E-002
 -0.11743934999297803        2.7959890562793653E-002   4.2964149147967617E-002
 -0.11348900363904618        2.9433745976181907E-002   3.6699030988690651E-002
 -0.10953865728511433        3.0257337057311456E-002   3.1345546522774749E-002
 -0.10558831093118250        3.0430663806182336E-002   2.6903695750219909E-002
 -0.10163796457725061        2.9953726222794484E-002   2.3373478671026078E-002
 -0.12689950072847256        3.5122020896612954E-002   2.9167997947906997E-002
 -0.12242374196207005        3.3922940933521932E-002   2.5543708088101552E-002
 -0.11794798319566757        3.2994523584909605E-002   2.2058609359876347E-002
 -0.11347222442926505        3.2336768850775965E-002   1.8712701763231355E-002
 -0.10899646566286256        3.1949676731121035E-002   1.5505985298166663E-002
 -0.13314280102471510        4.2284151230432263E-002   1.2238447897998333E-002
 -0.12891407240762284        3.8412135890861933E-002   1.2175913284401832E-002
 -0.12468534379053052        3.5731710112507732E-002   1.1480127240604770E-002
 -0.12045661517343817        3.4242873895369640E-002   1.0151089766607094E-002
 -0.11622788655634592        3.3945627239447621E-002   8.1888008624087568E-003
 -0.13616925088170573        4.9446281564251543E-002  -7.8245010017583133E-003
 -0.13295999497570443        4.2901330848201982E-002  -3.4043534224083953E-003
 -0.12975073906970314        3.8468896640105846E-002  -3.8989983503996337E-004
 -0.12654148316370190        3.6148978939963286E-002   1.2188597603470077E-003
 -0.12333222725770057        3.5941577747774206E-002   1.4219253637526019E-003
  -9.4152383299510062E-002   2.7957775714467899E-002   3.1791280980987220E-002
  -9.1755508772276548E-002   2.6750423848279518E-002   3.1233700798072160E-002
  -8.9358634245043048E-002   2.5833125622952105E-002   3.0769083826776674E-002
  -8.6961759717809534E-002   2.5205881038485690E-002   3.0397430067100821E-002
  -8.4564885190576033E-002   2.4868690094880186E-002   3.0118739519044535E-002
 -0.10163796457725061        2.9953726222794484E-002   2.3373478671026078E-002
  -9.9139813409973937E-002   2.9178883861927640E-002   2.3123546317744031E-002
  -9.6641662242697296E-002   2.8458496278361584E-002   2.2983204032928691E-002
  -9.4143511075420627E-002   2.7792563472096257E-002   2.2952451816580038E-002
  -9.1645359908143972E-002   2.7181085443131803E-002   2.3031289668698121E-002
 -0.10899646566286256        3.1949676731121035E-002   1.5505985298166663E-002
 -0.10638041099869563        3.1607343875575761E-002   1.5328101910957454E-002
 -0.10376435633452873        3.1083866933771055E-002   1.5276435449061949E-002
 -0.10114830167036179        3.0379245905706894E-002   1.5350985912480415E-002
  -9.8532247006194854E-002   2.9493480791383364E-002   1.5551753301212556E-002
 -0.11622788655634592        3.3945627239447621E-002   8.1888008624087568E-003
 -0.11347730153844164        3.4035803889223878E-002   7.8473675777121690E-003
 -0.11072671652053732        3.3709237589180492E-002   7.6487780751764711E-003
 -0.10797613150263304        3.2965928339317531E-002   7.5930323548018290E-003
 -0.10522554648472875        3.1805876139635036E-002   7.6801304165878548E-003
 -0.12333222725770057        3.5941577747774206E-002   1.4219253637526019E-003
 -0.12043048502921183        3.6464263902871982E-002   6.8134331800839831E-004
 -0.11752874280072313        3.6334608244589971E-002   1.0023191127225134E-004
 -0.11462700057223441        3.5552610772928046E-002  -3.2140885645574359E-004
 -0.11172525834374569        3.4118271487886598E-002  -5.8357898517591433E-004
  -8.4564885190576033E-002   2.4868690094880186E-002   3.0118739519044535E-002
  -8.2206692639367224E-002   2.4586848292175001E-002   2.9329471436371726E-002
  -7.9848500088158414E-002   2.4125651130409598E-002   2.8795627064570117E-002
  -7.7490307536949604E-002   2.3485098609583976E-002   2.8517206403639708E-002
  -7.5132114985740794E-002   2.2665190729698137E-002   2.8494209453580416E-002
  -9.1645359908143972E-002   2.7181085443131803E-002   2.3031289668698121E-002
  -8.9042291784634658E-002   2.6573414193124159E-002   2.2311962777747996E-002
  -8.6439223661125386E-002   2.5918901723729626E-002   2.1826963320527706E-002
  -8.3836155537616072E-002   2.5217548034948120E-002   2.1576291297037198E-002
  -8.1233087414106744E-002   2.4469353126779780E-002   2.1559946707276539E-002
  -9.8532247006194854E-002   2.9493480791383364E-002   1.5551753301212556E-002
  -9.5705399587526482E-002   2.8559980094073317E-002   1.5034881741658519E-002
  -9.2878552168858070E-002   2.7712152317049682E-002   1.4731241338692927E-002
  -9.0051704750189657E-002   2.6949997460312375E-002   1.4640832092315655E-002
  -8.7224857331521313E-002   2.6273515523861452E-002   1.4763654002526827E-002
 -0.10522554648472875        3.1805876139635036E-002   7.6801304165878548E-003
 -0.10219601604804268        3.0546545995022378E-002   7.4982283281032382E-003
  -9.9166485611356547E-002   2.9505402910369558E-002   7.5084611190655293E-003
  -9.6136955174670413E-002   2.8682446885676491E-002   7.7108287894749362E-003
  -9.3107424737984376E-002   2.8077677920943026E-002   8.1053313393313516E-003
 -0.11172525834374569        3.4118271487886598E-002  -5.8357898517591433E-004
 -0.10851414116618324        3.2533111895971661E-002  -2.9799746291780949E-004
 -0.10530302398862082        3.1298653503689725E-002   1.5862266164565209E-004
 -0.10209190681105836        3.0414896311040652E-002   7.8628138851482426E-004
  -9.8880789633495947E-002   2.9881840318024822E-002   1.5849787176897556E-003
  -7.5132114985740794E-002   2.2665190729698137E-002   2.8494209453580416E-002
  -7.2813651786311287E-002   2.1796465653453695E-002   2.8253973804877985E-002
  -7.0495188586881835E-002   2.1009461543552377E-002   2.8107225795322419E-002
  -6.8176725387452342E-002   2.0304178399994127E-002   2.8053965424913688E-002
  -6.5858262188022876E-002   1.9680616222778946E-002   2.8094192693651709E-002
  -8.1233087414106744E-002   2.4469353126779780E-002   2.1559946707276539E-002
  -7.8802942517456398E-002   2.3688010490526740E-002   2.1478240992380132E-002
  -7.6372797620805954E-002   2.2887213617491603E-002   2.1526411032778844E-002
  -7.3942652724155566E-002   2.2066962507674114E-002   2.1704456828472531E-002
  -7.1512507827505137E-002   2.1227257161074431E-002   2.2012378379461323E-002
  -8.7224857331521313E-002   2.6273515523861452E-002   1.4763654002526827E-002
  -8.4646642621501761E-002   2.5579555327599965E-002   1.4739303018311084E-002
  -8.2068427911482195E-002   2.4764965691430829E-002   1.4881215905538682E-002
  -7.9490213201462670E-002   2.3829746615354044E-002   1.5189392664209503E-002
  -7.6911998491443090E-002   2.2773898099369916E-002   1.5663833294323651E-002
  -9.3107424737984376E-002   2.8077677920943026E-002   8.1053313393313516E-003
  -9.0344752098447431E-002   2.7471100164673044E-002   8.0371598826708551E-003
  -8.7582079458910486E-002   2.6642717765370055E-002   8.1716404136020181E-003
  -8.4819406819373583E-002   2.5592530723034114E-002   8.5087729321246738E-003
  -8.2056734179836610E-002   2.4320539037665401E-002   9.0485574382387912E-003
  -9.8880789633495947E-002   2.9881840318024822E-002   1.5849787176897556E-003
  -9.5897270948293423E-002   2.9362645001746152E-002   1.3718115854594037E-003
  -9.2913752263090871E-002   2.8520469839309406E-002   1.3976845569688146E-003
  -8.9930233577888333E-002   2.7355314830714062E-002   1.6625976322178909E-003
  -8.6946714892685795E-002   2.5867179975960775E-002   2.1665508112067022E-003
  -6.5858262188022876E-002   1.9680616222778946E-002   2.8094192693651709E-002
  -6.1872419045093802E-002   1.9089939182901194E-002   2.6876126569703396E-002
  -5.7886575902164686E-002   1.8483311451354470E-002   2.6279281901790463E-002
  -5.3900732759235577E-002   1.7860733028139304E-002   2.6303658689912815E-002
  -4.9914889616306496E-002   1.7222203913255241E-002   2.6949256934070687E-002
  -7.1512507827505137E-002   2.1227257161074431E-002   2.2012378379461323E-002
  -6.7048672472390144E-002   2.0426939709460884E-002   2.0946977654750815E-002
  -6.2584837117275055E-002   1.9724852284601635E-002   2.0216339898376651E-002
  -5.8121001762160077E-002   1.9120994886496809E-002   1.9820465110339226E-002
  -5.3657166407044987E-002   1.8615367515146253E-002   1.9759353290638076E-002
  -7.6911998491443090E-002   2.2773898099369916E-002   1.5663833294323651E-002
  -7.2256629411841022E-002   2.1763940236020768E-002   1.4865278687273872E-002
  -6.7601260332238844E-002   2.0966393117848571E-002   1.4115028560861810E-002
  -6.2945891252636693E-002   2.0381256744854366E-002   1.3413082915087440E-002
  -5.8290522173034598E-002   2.0008531117037320E-002   1.2759441749950626E-002
  -8.2056734179836610E-002   2.4320539037665401E-002   9.0485574382387912E-003
  -7.7496289863446338E-002   2.3100940762580360E-002   8.6310296672730685E-003
  -7.2935845547055955E-002   2.2207933951095844E-002   7.9753478892456795E-003
  -6.8375401230665656E-002   2.1641518603211788E-002   7.0815121041576416E-003
  -6.3814956914275286E-002   2.1401694718928249E-002   5.9495223120081195E-003
  -8.6946714892685795E-002   2.5867179975960775E-002   2.1665508112067022E-003
  -8.2767653827206189E-002   2.4437941289140175E-002   2.2442305947479313E-003
  -7.8588592761726472E-002   2.3449474784342783E-002   1.7972978835288228E-003
  -7.4409531696246783E-002   2.2901780461569377E-002   8.2575267754978962E-004
  -7.0230470630767150E-002   2.2794858320819289E-002  -6.7040502318937989E-004
  -4.9914889616306496E-002   1.7222203913255241E-002   2.6949256934070687E-002
  -5.3677462446640678E-002   1.6446645287800321E-002   3.0870567544009464E-002
  -5.7440035276974832E-002   1.5412978332872182E-002   3.3940581586371726E-002
  -6.1202608107309001E-002   1.4121203048470959E-002   3.6159299061157432E-002
  -6.4965180937643169E-002   1.2571319434596606E-002   3.7526719968366706E-002
  -5.3657166407044987E-002   1.8615367515146253E-002   1.9759353290638076E-002
  -5.7991710729053153E-002   1.8077042382443703E-002   2.2858043061762506E-002
  -6.2326255051061305E-002   1.7375091700282563E-002   2.5664086417115484E-002
  -6.6660799373069485E-002   1.6509515468663208E-002   2.8177483356696939E-002
  -7.0995343695077623E-002   1.5480313687585012E-002   3.0398233880507053E-002
  -5.8290522173034598E-002   2.0008531117037320E-002   1.2759441749950626E-002
  -6.2638387834911657E-002   1.9707439477087058E-002   1.5129993462275199E-002
  -6.6986253496788731E-002   1.9337205067692730E-002   1.7766548910633582E-002
  -7.1334119158665832E-002   1.8897827888855294E-002   2.0669108095025621E-002
  -7.5681984820542864E-002   1.8389307940573557E-002   2.3837671015451131E-002
  -6.3814956914275286E-002   2.1401694718928249E-002   5.9495223120081195E-003
  -6.7617493764216136E-002   2.1337836571730481E-002   7.6864187455477767E-003
  -7.1420030614157082E-002   2.1299318435103281E-002   1.0247969066926104E-002
  -7.5222567464098028E-002   2.1286140309047349E-002   1.3634173276143146E-002
  -7.9025104314038877E-002   2.1298302193561755E-002   1.7845031373198806E-002
  -7.0230470630767150E-002   2.2794858320819289E-002  -6.7040502318937989E-004
  -7.2929028516966810E-002   2.2968233666373628E-002   5.2731891157986599E-004
  -7.5627586403166414E-002   2.3261431802513360E-002   3.1083468859928742E-003
  -7.8326144289366073E-002   2.3674452729239424E-002   7.0726789000495754E-003
  -8.1024702175565677E-002   2.4207296446550397E-002   1.2420314953750289E-002
  -6.4965180937643169E-002   1.2571319434596606E-002   3.7526719968366706E-002
  -5.4240613427294582E-002   1.1274202566166014E-002   3.1142600205524062E-002
  -4.3516045916945870E-002   1.0740727518095669E-002   2.6336795317233791E-002
  -3.2791478406597303E-002   1.0970894290385596E-002   2.3109305303495545E-002
  -2.2066910896248626E-002   1.1964702883036304E-002   2.1460130164309810E-002
  -7.0995343695077623E-002   1.5480313687585012E-002   3.0398233880507053E-002
  -5.9081591378743664E-002   1.4391971068123816E-002   2.5372998527593116E-002
  -4.7167839062409719E-002   1.3348972321354957E-002   2.1147817912097661E-002
  -3.5254086746075754E-002   1.2351317447278201E-002   1.7722692034020687E-002
  -2.3340334429741760E-002   1.1399006445893534E-002   1.5097620893361974E-002
  -7.5681984820542864E-002   1.8389307940573557E-002   2.3837671015451131E-002
  -6.3357307835357396E-002   1.7509739570082034E-002   1.9453022124797714E-002
  -5.1032630850171887E-002   1.5957217124614141E-002   1.5090167834428840E-002
  -3.8707953864986308E-002   1.3731740604170558E-002   1.0749108144344464E-002
  -2.6383276879800854E-002   1.0833310008750874E-002   6.4298430545449703E-003
  -7.9025104314038877E-002   2.1298302193561755E-002   1.7845031373198806E-002
  -6.7067762797135583E-002   2.0627508072039932E-002   1.3382670997137650E-002
  -5.5110421280232379E-002   1.8565461927873544E-002   8.1638450842270085E-003
  -4.3153079763329147E-002   1.5112163761062763E-002   2.1885536344673348E-003
  -3.1195738246425922E-002   1.0267613571608158E-002  -4.5432033521413395E-003
  -8.1024702175565677E-002   2.4207296446550397E-002   1.2420314953750289E-002
  -7.0212956264078530E-002   2.3745276573997831E-002   7.1619451446128801E-003
  -5.9401210352591272E-002   2.1173706731132808E-002   3.6884966149253184E-004
  -4.8589464441103930E-002   1.6492586917955236E-002  -7.9589714956105340E-003
  -3.7777718529616866E-002   9.7019171344654431E-003  -1.7821518326696761E-002
 </DataArray>
 </PointData>
 </Piece>
 <Piece  NumberOfPoints="          1600 "  NumberOfCells="         1024 ">
 <Points>
 <DataArray  type="Float64" NumberOfComponents="3"  format="ascii" >
  0.50000000000000000        0.0000000000000000        0.0000000000000000     
  0.53125000000000000        0.0000000000000000        0.0000000000000000     
  0.56250000000000000        0.0000000000000000        0.0000000000000000     
  0.59375000000000000        0.0000000000000000        0.0000000000000000     
  0.62500000000000000        0.0000000000000000        0.0000000000000000     
  0.50000000000000000        3.1250000000000000E-002   0.0000000000000000     
  0.53125000000000000        3.1250000000000000E-002   0.0000000000000000     
  0.56250000000000000        3.1250000000000000E-002   0.0000000000000000     
  0.59375000000000000        3.1250000000000000E-002   0.0000000000000000     
  0.62500000000000000        3.1250000000000000E-002   0.0000000000000000     
  0.50000000000000000        6.2500000000000000E-002   0.0000000000000000     
  0.53125000000000000        6.2500000000000000E-002   0.0000000000000000     
  0.56250000000000000        6.2500000000000000E-002   0.0000000000000000     
  0.59375000000000000        6.2500000000000000E-002   0.0000000000000000     
  0.62500000000000000        6.2500000000000000E-002   0.0000000000000000     
  0.50000000000000000        9.3750000000000000E-002   0.0000000000000000     
  0.53125000000000000        9.3750000000000000E-002   0.0000000000000000     
  0.56250000000000000        9.3750000000000000E-002   0.0000000000000000     
  0.59375000000000000        9.3750000000000000E-002   0.0000000000000000     
  0.62500000000000000        9.3750000000000000E-002   0.0000000000000000     
  0.50000000000000000       0.12500000000000000        0.0000000000000000     
  0.53125000000000000       0.12500000000000000        0.0000000000000000     
  0.56250000000000000       0.12500000000000000        0.0000000000000000     
  0.59375000000000000       0.12500000000000000        0.0000000000000000     
  0.62500000000000000       0.12500000000000000        0.0000000000000000     
  0.62500000000000000        0.0000000000000000        0.0000000000000000     
  0.65625000000000000        0.0000000000000000        0.0000000000000000     
  0.68750000000000000        0.0000000000000000        0.0000000000000000     
  0.71875000000000000        0.0000000000000000        0.0000000000000000     
  0.75000000000000000        0.0000000000000000        0.0000000000000000     
  0.62500000000000000        3.1250000000000000E-002   0.0000000000000000     
  0.65625000000000000        3.1250000000000000E-002   0.0000000000000000     
  0.68750000000000000        3.1250000000000000E-002   0.0000000000000000     
  0.71875000000000000        3.1250000000000000E-002   0.0000000000000000     
  0.75000000000000000        3.1250000000000000E-002   0.0000000000000000     
  0.62500000000000000        6.2500000000000000E-002   0.0000000000000000     
  0.65625000000000000        6.2500000000000000E-002   0.0000000000000000     
  0.68750000000000000        6.2500000000000000E-002   0.0000000000000000     
  0.71875000000000000        6.2500000000000000E-002   0.0000000000000000     
  0.75000000000000000        6.2500000000000000E-002   0.0000000000000000     
  0.62500000000000000        9.3750000000000000E-002   0.0000000000000000     
  0.65625000000000000        9.3750000000000000E-002   0.0000000000000000     
  0.68750000000000000        9.3750000000000000E-002   0.0000000000000000     
  0.71875000000000000        9.3750000000000000E-002   0.0000000000000000     
  0.75000000000000000        9.3750000000000000E-002   0.0000000000000000     
  0.62500000000000000       0.12500000000000000        0.0000000000000000     
  0.65625000000000000       0.12500000000000000        0.0000000000000000     
  0.68750000000000000       0.12500000000000000        0.0000000000000000     
  0.71875000000000000       0.12500000000000000        0.0000000000000000     
  0.75000000000000000       0.12500000000000000        0.0000000000000000     
  0.75000000000000000        0.0000000000000000        0.0000000000000000     
  0.78125000000000000        0.0000000000000000        0.0000000000000000     
  0.81250000000000000        0.0000000000000000        0.0000000000000000     
  0.84375000000000000        0.0000000000000000        0.0000000000000000     
  0.87500000000000000        0.0000000000000000        0.0000000000000000     
  0.75000000000000000        3.1250000000000000E-002   0.0000000000000000     
  0.78125000000000000        3.1250000000000000E-002   0.0000000000000000     
  0.81250000000000000        3.1250000000000000E-002   0.0000000000000000     
  0.84375000000000000        3.1250000000000000E-002   0.0000000000000000     
  0.87500000000000000        3.1250000000000000E-002   0.0000000000000000     
  0.75000000000000000        6.2500000000000000E-002   0.0000000000000000     
  0.78125000000000000        6.2500000000000000E-002   0.0000000000000000     
  0.81250000000000000        6.2500000000000000E-002   0.0000000000000000     
  0.84375000000000000        6.2500000000000000E-002   0.0000000000000000     
  0.87500000000000000        6.2500000000000000E-002   0.0000000000000000     
  0.75000000000000000        9.3750000000000000E-002   0.0000000000000000     
  0.78125000000000000        9.3750000000000000E-002   0.0000000000000000     
  0.81250000000000000        9.3750000000000000E-002   0.0000000000000000     
  0.84375000000000000        9.3750000000000000E-002   0.0000000000000000     
  0.87500000000000000        9.3750000000000000E-002   0.0000000000000000     
  0.75000000000000000       0.12500000000000000        0.0000000000000000     
  0.78125000000000000       0.12500000000000000        0.0000000000000000     
  0.81250000000000000       0.12500000000000000        0.0000000000000000     
  0.84375000000000000       0.12500000000000000        0.0000000000000000     
  0.87500000000000000       0.12500000000000000        0.0000000000000000     
  0.87500000000000000        0.0000000000000000        0.0000000000000000     
  0.90625000000000000        0.0000000000000000        0.0000000000000000     
  0.93750000000000000        0.0000000000000000        0.0000000000000000     
  0.96875000000000000        0.0000000000000000        0.0000000000000000     
   1.0000000000000000        0.0000000000000000        0.0000000000000000     
  0.87500000000000000        3.1250000000000000E-002   0.0000000000000000     
  0.90625000000000000        3.1250000000000000E-002   0.0000000000000000     
  0.93750000000000000        3.1250000000000000E-002   0.0000000000000000     
  0.96875000000000000        3.1250000000000000E-002   0.0000000000000000     
   1.0000000000000000        3.1250000000000000E-002   0.0000000000000000     
  0.87500000000000000        6.2500000000000000E-002   0.0000000000000000     
  0.90625000000000000        6.2500000000000000E-002   0.0000000000000000     
  0.93750000000000000        6.2500000000000000E-002   0.0000000000000000     
  0.96875000000000000        6.2500000000000000E-002   0.0000000000000000     
   1.0000000000000000        6.2500000000000000E-002   0.0000000000000000     
  0.87500000000000000        9.3750000000000000E-002   0.0000000000000000     
  0.90625000000000000        9.3750000000000000E-002   0.0000000000000000     
  0.93750000000000000        9.3750000000000000E-002   0.0000000000000000     
  0.96875000000000000        9.3750000000000000E-002   0.0000000000000000     
   1.0000000000000000        9.3750000000000000E-002   0.0000000000000000     
  0.87500000000000000       0.12500000000000000        0.0000000000000000     
  0.90625000000000000       0.12500000000000000        0.0000000000000000     
  0.93750000000000000       0.12500000000000000        0.0000000000000000     
  0.96875000000000000       0.12500000000000000        0.0000000000000000     
   1.0000000000000000       0.12500000000000000        0.0000000000000000     
   1.0000000000000000        0.0000000000000000        0.0000000000000000     
   1.0312500000000000        0.0000000000000000        0.0000000000000000     
   1.0625000000000000        0.0000000000000000        0.0000000000000000     
   1.0937500000000000        0.0000000000000000        0.0000000000000000     
   1.1250000000000000        0.0000000000000000        0.0000000000000000     
   1.0000000000000000        3.1250000000000000E-002   0.0000000000000000     
   1.0312500000000000        3.1250000000000000E-002   0.0000000000000000     
   1.0625000000000000        3.1250000000000000E-002   0.0000000000000000     
   1.0937500000000000        3.1250000000000000E-002   0.0000000000000000     
   1.1250000000000000        3.1250000000000000E-002   0.0000000000000000     
   1.0000000000000000        6.2500000000000000E-002   0.0000000000000000     
   1.0312500000000000        6.2500000000000000E-002   0.0000000000000000     
   1.0625000000000000        6.2500000000000000E-002   0.0000000000000000     
   1.0937500000000000        6.2500000000000000E-002   0.0000000000000000     
   1.1250000000000000        6.2500000000000000E-002   0.0000000000000000     
   1.0000000000000000        9.3750000000000000E-002   0.0000000000000000     
   1.0312500000000000        9.3750000000000000E-002   0.0000000000000000     
   1.0625000000000000        9.3750000000000000E-002   0.0000000000000000     
   1.0937500000000000        9.3750000000000000E-002   0.0000000000000000     
   1.1250000000000000        9.3750000000000000E-002   0.0000000000000000     
   1.0000000000000000       0.12500000000000000        0.0000000000000000     
   1.0312500000000000       0.12500000000000000        0.0000000000000000     
   1.0625000000000000       0.12500000000000000        0.0000000000000000     
   1.0937500000000000       0.12500000000000000        0.0000000000000000     
   1.1250000000000000       0.12500000000000000        0.0000000000000000     
   1.1250000000000000        0.0000000000000000        0.0000000000000000     
   1.1562500000000000        0.0000000000000000        0.0000000000000000     
   1.1875000000000000        0.0000000000000000        0.0000000000000000     
   1.2187500000000000        0.0000000000000000        0.0000000000000000     
   1.2500000000000000        0.0000000000000000        0.0000000000000000     
   1.1250000000000000        3.1250000000000000E-002   0.0000000000000000     
   1.1562500000000000        3.1250000000000000E-002   0.0000000000000000     
   1.1875000000000000        3.1250000000000000E-002   0.0000000000000000     
   1.2187500000000000        3.1250000000000000E-002   0.0000000000000000     
   1.2500000000000000        3.1250000000000000E-002   0.0000000000000000     
   1.1250000000000000        6.2500000000000000E-002   0.0000000000000000     
   1.1562500000000000        6.2500000000000000E-002   0.0000000000000000     
   1.1875000000000000        6.2500000000000000E-002   0.0000000000000000     
   1.2187500000000000        6.2500000000000000E-002   0.0000000000000000     
   1.2500000000000000        6.2500000000000000E-002   0.0000000000000000     
   1.1250000000000000        9.3750000000000000E-002   0.0000000000000000     
   1.1562500000000000        9.3750000000000000E-002   0.0000000000000000     
   1.1875000000000000        9.3750000000000000E-002   0.0000000000000000     
   1.2187500000000000        9.3750000000000000E-002   0.0000000000000000     
   1.2500000000000000        9.3750000000000000E-002   0.0000000000000000     
   1.1250000000000000       0.12500000000000000        0.0000000000000000     
   1.1562500000000000       0.12500000000000000        0.0000000000000000     
   1.1875000000000000       0.12500000000000000        0.0000000000000000     
   1.2187500000000000       0.12500000000000000        0.0000000000000000     
   1.2500000000000000       0.12500000000000000        0.0000000000000000     
   1.2500000000000000        0.0000000000000000        0.0000000000000000     
   1.2812500000000000        0.0000000000000000        0.0000000000000000     
   1.3125000000000000        0.0000000000000000        0.0000000000000000     
   1.3437500000000000        0.0000000000000000        0.0000000000000000     
   1.3750000000000000        0.0000000000000000        0.0000000000000000     
   1.2500000000000000        3.1250000000000000E-002   0.0000000000000000     
   1.2812500000000000        3.1250000000000000E-002   0.0000000000000000     
   1.3125000000000000        3.1250000000000000E-002   0.0000000000000000     
   1.3437500000000000        3.1250000000000000E-002   0.0000000000000000     
   1.3750000000000000        3.1250000000000000E-002   0.0000000000000000     
   1.2500000000000000        6.2500000000000000E-002   0.0000000000000000     
   1.2812500000000000        6.2500000000000000E-002   0.0000000000000000     
   1.3125000000000000        6.2500000000000000E-002   0.0000000000000000     
   1.3437500000000000        6.2500000000000000E-002   0.0000000000000000     
   1.3750000000000000        6.2500000000000000E-002   0.0000000000000000     
   1.2500000000000000        9.3750000000000000E-002   0.0000000000000000     
   1.2812500000000000        9.3750000000000000E-002   0.0000000000000000     
   1.3125000000000000        9.3750000000000000E-002   0.0000000000000000     
   1.3437500000000000        9.3750000000000000E-002   0.0000000000000000     
   1.3750000000000000        9.3750000000000000E-002   0.0000000000000000     
   1.2500000000000000       0.12500000000000000        0.0000000000000000     
   1.2812500000000000       0.12500000000000000        0.0000000000000000     
   1.3125000000000000       0.12500000000000000        0.0000000000000000     
   1.3437500000000000       0.12500000000000000        0.0000000000000000     
   1.3750000000000000       0.12500000000000000        0.0000000000000000     
   1.3750000000000000        0.0000000000000000        0.0000000000000000     
   1.4062500000000000        0.0000000000000000        0.0000000000000000     
   1.4375000000000000        0.0000000000000000        0.0000000000000000     
   1.4687500000000000        0.0000000000000000        0.0000000000000000     
   1.5000000000000000        0.0000000000000000        0.0000000000000000     
   1.3750000000000000        3.1250000000000000E-002   0.0000000000000000     
   1.4062500000000000        3.1250000000000000E-002   0.0000000000000000     
   1.4375000000000000        3.1250000000000000E-002   0.0000000000000000     
   1.4687500000000000        3.1250000000000000E-002   0.0000000000000000     
   1.5000000000000000        3.1250000000000000E-002   0.0000000000000000     
   1.3750000000000000        6.2500000000000000E-002   0.0000000000000000     
   1.4062500000000000        6.2500000000000000E-002   0.0000000000000000     
   1.4375000000000000        6.2500000000000000E-002   0.0000000000000000     
   1.4687500000000000        6.2500000000000000E-002   0.0000000000000000     
   1.5000000000000000        6.2500000000000000E-002   0.0000000000000000     
   1.3750000000000000        9.3750000000000000E-002   0.0000000000000000     
   1.4062500000000000        9.3750000000000000E-002   0.0000000000000000     
   1.4375000000000000        9.3750000000000000E-002   0.0000000000000000     
   1.4687500000000000        9.3750000000000000E-002   0.0000000000000000     
   1.5000000000000000        9.3750000000000000E-002   0.0000000000000000     
   1.3750000000000000       0.12500000000000000        0.0000000000000000     
   1.4062500000000000       0.12500000000000000        0.0000000000000000     
   1.4375000000000000       0.12500000000000000        0.0000000000000000     
   1.4687500000000000       0.12500000000000000        0.0000000000000000     
   1.5000000000000000       0.12500000000000000        0.0000000000000000     
  0.50000000000000000       0.12500000000000000        0.0000000000000000     
  0.53125000000000000       0.12500000000000000        0.0000000000000000     
  0.56250000000000000       0.12500000000000000        0.0000000000000000     
  0.59375000000000000       0.12500000000000000        0.0000000000000000     
  0.62500000000000000       0.12500000000000000        0.0000000000000000     
  0.50000000000000000       0.15625000000000000        0.0000000000000000     
  0.53125000000000000       0.15625000000000000        0.0000000000000000     
  0.56250000000000000       0.15625000000000000        0.0000000000000000     
  0.59375000000000000       0.15625000000000000        0.0000000000000000     
  0.62500000000000000       0.15625000000000000        0.0000000000000000     
  0.50000000000000000       0.18750000000000000        0.0000000000000000     
  0.53125000000000000       0.18750000000000000        0.0000000000000000     
  0.56250000000000000       0.18750000000000000        0.0000000000000000     
  0.59375000000000000       0.18750000000000000        0.0000000000000000     
  0.62500000000000000       0.18750000000000000        0.0000000000000000     
  0.50000000000000000       0.21875000000000000        0.0000000000000000     
  0.53125000000000000       0.21875000000000000        0.0000000000000000     
  0.56250000000000000       0.21875000000000000        0.0000000000000000     
  0.59375000000000000       0.21875000000000000        0.0000000000000000     
  0.62500000000000000       0.21875000000000000        0.0000000000000000     
  0.50000000000000000       0.25000000000000000        0.0000000000000000     
  0.53125000000000000       0.25000000000000000        0.0000000000000000     
  0.56250000000000000       0.25000000000000000        0.0000000000000000     
  0.59375000000000000       0.25000000000000000        0.0000000000000000     
  0.62500000000000000       0.25000000000000000        0.0000000000000000     
  0.62500000000000000       0.12500000000000000        0.0000000000000000     
  0.65625000000000000       0.12500000000000000        0.0000000000000000     
  0.68750000000000000       0.12500000000000000        0.0000000000000000     
  0.71875000000000000       0.12500000000000000        0.0000000000000000     
  0.75000000000000000       0.12500000000000000        0.0000000000000000     
  0.62500000000000000       0.15625000000000000        0.0000000000000000     
  0.65625000000000000       0.15625000000000000        0.0000000000000000     
  0.68750000000000000       0.15625000000000000        0.0000000000000000     
  0.71875000000000000       0.15625000000000000        0.0000000000000000     
  0.75000000000000000       0.15625000000000000        0.0000000000000000     
  0.62500000000000000       0.18750000000000000        0.0000000000000000     
  0.65625000000000000       0.18750000000000000        0.0000000000000000     
  0.68750000000000000       0.18750000000000000        0.0000000000000000     
  0.71875000000000000       0.18750000000000000        0.0000000000000000     
  0.75000000000000000       0.18750000000000000        0.0000000000000000     
  0.62500000000000000       0.21875000000000000        0.0000000000000000     
  0.65625000000000000       0.21875000000000000        0.0000000000000000     
  0.68750000000000000       0.21875000000000000        0.0000000000000000     
  0.71875000000000000       0.21875000000000000        0.0000000000000000     
  0.75000000000000000       0.21875000000000000        0.0000000000000000     
  0.62500000000000000       0.25000000000000000        0.0000000000000000     
  0.65625000000000000       0.25000000000000000        0.0000000000000000     
  0.68750000000000000       0.25000000000000000        0.0000000000000000     
  0.71875000000000000       0.25000000000000000        0.0000000000000000     
  0.75000000000000000       0.25000000000000000        0.0000000000000000     
  0.75000000000000000       0.12500000000000000        0.0000000000000000     
  0.78125000000000000       0.12500000000000000        0.0000000000000000     
  0.81250000000000000       0.12500000000000000        0.0000000000000000     
  0.84375000000000000       0.12500000000000000        0.0000000000000000     
  0.87500000000000000       0.12500000000000000        0.0000000000000000     
  0.75000000000000000       0.15625000000000000        0.0000000000000000     
  0.78125000000000000       0.15625000000000000        0.0000000000000000     
  0.81250000000000000       0.15625000000000000        0.0000000000000000     
  0.84375000000000000       0.15625000000000000        0.0000000000000000     
  0.87500000000000000       0.15625000000000000        0.0000000000000000     
  0.75000000000000000       0.18750000000000000        0.0000000000000000     
  0.78125000000000000       0.18750000000000000        0.0000000000000000     
  0.81250000000000000       0.18750000000000000        0.0000000000000000     
  0.84375000000000000       0.18750000000000000        0.0000000000000000     
  0.87500000000000000       0.18750000000000000        0.0000000000000000     
  0.75000000000000000       0.21875000000000000        0.0000000000000000     
  0.78125000000000000       0.21875000000000000        0.0000000000000000     
  0.81250000000000000       0.21875000000000000        0.0000000000000000     
  0.84375000000000000       0.21875000000000000        0.0000000000000000     
  0.87500000000000000       0.21875000000000000        0.0000000000000000     
  0.75000000000000000       0.25000000000000000        0.0000000000000000     
  0.78125000000000000       0.25000000000000000        0.0000000000000000     
  0.81250000000000000       0.25000000000000000        0.0000000000000000     
  0.84375000000000000       0.25000000000000000        0.0000000000000000     
  0.87500000000000000       0.25000000000000000        0.0000000000000000     
  0.87500000000000000       0.12500000000000000        0.0000000000000000     
  0.90625000000000000       0.12500000000000000        0.0000000000000000     
  0.93750000000000000       0.12500000000000000        0.0000000000000000     
  0.96875000000000000       0.12500000000000000        0.0000000000000000     
   1.0000000000000000       0.12500000000000000        0.0000000000000000     
  0.87500000000000000       0.15625000000000000        0.0000000000000000     
  0.90625000000000000       0.15625000000000000        0.0000000000000000     
  0.93750000000000000       0.15625000000000000        0.0000000000000000     
  0.96875000000000000       0.15625000000000000        0.0000000000000000     
   1.0000000000000000       0.15625000000000000        0.0000000000000000     
  0.87500000000000000       0.18750000000000000        0.0000000000000000     
  0.90625000000000000       0.18750000000000000        0.0000000000000000     
  0.93750000000000000       0.18750000000000000        0.0000000000000000     
  0.96875000000000000       0.18750000000000000        0.0000000000000000     
   1.0000000000000000       0.18750000000000000        0.0000000000000000     
  0.87500000000000000       0.21875000000000000        0.0000000000000000     
  0.90625000000000000       0.21875000000000000        0.0000000000000000     
  0.93750000000000000       0.21875000000000000        0.0000000000000000     
  0.96875000000000000       0.21875000000000000        0.0000000000000000     
   1.0000000000000000       0.21875000000000000        0.0000000000000000     
  0.87500000000000000       0.25000000000000000        0.0000000000000000     
  0.90625000000000000       0.25000000000000000        0.0000000000000000     
  0.93750000000000000       0.25000000000000000        0.0000000000000000     
  0.96875000000000000       0.25000000000000000        0.0000000000000000     
   1.0000000000000000       0.25000000000000000        0.0000000000000000     
   1.0000000000000000       0.12500000000000000        0.0000000000000000     
   1.0312500000000000       0.12500000000000000        0.0000000000000000     
   1.0625000000000000       0.12500000000000000        0.0000000000000000     
   1.0937500000000000       0.12500000000000000        0.0000000000000000     
   1.1250000000000000       0.12500000000000000        0.0000000000000000     
   1.0000000000000000       0.15625000000000000        0.0000000000000000     
   1.0312500000000000       0.15625000000000000        0.0000000000000000     
   1.0625000000000000       0.15625000000000000        0.0000000000000000     
   1.0937500000000000       0.15625000000000000        0.0000000000000000     
   1.1250000000000000       0.15625000000000000        0.0000000000000000     
   1.0000000000000000       0.18750000000000000        0.0000000000000000     
   1.0312500000000000       0.18750000000000000        0.0000000000000000     
   1.0625000000000000       0.18750000000000000        0.0000000000000000     
   1.0937500000000000       0.18750000000000000        0.0000000000000000     
   1.1250000000000000       0.18750000000000000        0.0000000000000000     
   1.0000000000000000       0.21875000000000000        0.0000000000000000     
   1.0312500000000000       0.21875000000000000        0.0000000000000000     
   1.0625000000000000       0.21875000000000000        0.0000000000000000     
   1.0937500000000000       0.21875000000000000        0.0000000000000000     
   1.1250000000000000       0.21875000000000000        0.0000000000000000     
   1.0000000000000000       0.25000000000000000        0.0000000000000000     
   1.0312500000000000       0.25000000000000000        0.0000000000000000     
   1.0625000000000000       0.25000000000000000        0.0000000000000000     
   1.0937500000000000       0.25000000000000000        0.0000000000000000     
   1.1250000000000000       0.25000000000000000        0.0000000000000000     
   1.1250000000000000       0.12500000000000000        0.0000000000000000     
   1.1562500000000000       0.12500000000000000        0.0000000000000000     
   1.1875000000000000       0.12500000000000000        0.0000000000000000     
   1.2187500000000000       0.12500000000000000        0.0000000000000000     
   1.2500000000000000       0.12500000000000000        0.0000000000000000     
   1.1250000000000000       0.15625000000000000        0.0000000000000000     
   1.1562500000000000       0.15625000000000000        0.0000000000000000     
   1.1875000000000000       0.15625000000000000        0.0000000000000000     
   1.2187500000000000       0.15625000000000000        0.0000000000000000     
   1.2500000000000000       0.15625000000000000        0.0000000000000000     
   1.1250000000000000       0.18750000000000000        0.0000000000000000     
   1.1562500000000000       0.18750000000000000        0.0000000000000000     
   1.1875000000000000       0.18750000000000000        0.0000000000000000     
   1.2187500000000000       0.18750000000000000        0.0000000000000000     
   1.2500000000000000       0.18750000000000000        0.0000000000000000     
   1.1250000000000000       0.21875000000000000        0.0000000000000000     
   1.1562500000000000       0.21875000000000000        0.0000000000000000     
   1.1875000000000000       0.21875000000000000        0.0000000000000000     
   1.2187500000000000       0.21875000000000000        0.0000000000000000     
   1.2500000000000000       0.21875000000000000        0.0000000000000000     
   1.1250000000000000       0.25000000000000000        0.0000000000000000     
   1.1562500000000000       0.25000000000000000        0.0000000000000000     
   1.1875000000000000       0.25000000000000000        0.0000000000000000     
   1.2187500000000000       0.25000000000000000        0.0000000000000000     
   1.2500000000000000       0.25000000000000000        0.0000000000000000     
   1.2500000000000000       0.12500000000000000        0.0000000000000000     
   1.2812500000000000       0.12500000000000000        0.0000000000000000     
   1.3125000000000000       0.12500000000000000        0.0000000000000000     
   1.3437500000000000       0.12500000000000000        0.0000000000000000     
   1.3750000000000000       0.12500000000000000        0.0000000000000000     
   1.2500000000000000       0.15625000000000000        0.0000000000000000     
   1.2812500000000000       0.15625000000000000        0.0000000000000000     
   1.3125000000000000       0.15625000000000000        0.0000000000000000     
   1.3437500000000000       0.15625000000000000        0.0000000000000000     
   1.3750000000000000       0.15625000000000000        0.0000000000000000     
   1.2500000000000000       0.18750000000000000        0.0000000000000000     
   1.2812500000000000       0.18750000000000000        0.0000000000000000     
   1.3125000000000000       0.18750000000000000        0.0000000000000000     
   1.3437500000000000       0.18750000000000000        0.0000000000000000     
   1.3750000000000000       0.18750000000000000        0.0000000000000000     
   1.2500000000000000       0.21875000000000000        0.0000000000000000     
   1.2812500000000000       0.21875000000000000        0.0000000000000000     
   1.3125000000000000       0.21875000000000000        0.0000000000000000     
   1.3437500000000000       0.21875000000000000        0.0000000000000000     
   1.3750000000000000       0.21875000000000000        0.0000000000000000     
   1.2500000000000000       0.25000000000000000        0.0000000000000000     
   1.2812500000000000       0.25000000000000000        0.0000000000000000     
   1.3125000000000000       0.25000000000000000        0.0000000000000000     
   1.3437500000000000       0.25000000000000000        0.0000000000000000     
   1.3750000000000000       0.25000000000000000        0.0000000000000000     
   1.3750000000000000       0.12500000000000000        0.0000000000000000     
   1.4062500000000000       0.12500000000000000        0.0000000000000000     
   1.4375000000000000       0.12500000000000000        0.0000000000000000     
   1.4687500000000000       0.12500000000000000        0.0000000000000000     
   1.5000000000000000       0.12500000000000000        0.0000000000000000     
   1.3750000000000000       0.15625000000000000        0.0000000000000000     
   1.4062500000000000       0.15625000000000000        0.0000000000000000     
   1.4375000000000000       0.15625000000000000        0.0000000000000000     
   1.4687500000000000       0.15625000000000000        0.0000000000000000     
   1.5000000000000000       0.15625000000000000        0.0000000000000000     
   1.3750000000000000       0.18750000000000000        0.0000000000000000     
   1.4062500000000000       0.18750000000000000        0.0000000000000000     
   1.4375000000000000       0.18750000000000000        0.0000000000000000     
   1.4687500000000000       0.18750000000000000        0.0000000000000000     
   1.5000000000000000       0.18750000000000000        0.0000000000000000     
   1.3750000000000000       0.21875000000000000        0.0000000000000000     
   1.4062500000000000       0.21875000000000000        0.0000000000000000     
   1.4375000000000000       0.21875000000000000        0.0000000000000000     
   1.4687500000000000       0.21875000000000000        0.0000000000000000     
   1.5000000000000000       0.21875000000000000        0.0000000000000000     
   1.3750000000000000       0.25000000000000000        0.0000000000000000     
   1.4062500000000000       0.25000000000000000        0.0000000000000000     
   1.4375000000000000       0.25000000000000000        0.0000000000000000     
   1.4687500000000000       0.25000000000000000        0.0000000000000000     
   1.5000000000000000       0.25000000000000000        0.0000000000000000     
  0.50000000000000000       0.25000000000000000        0.0000000000000000     
  0.53125000000000000       0.25000000000000000        0.0000000000000000     
  0.56250000000000000       0.25000000000000000        0.0000000000000000     
  0.59375000000000000       0.25000000000000000        0.0000000000000000     
  0.62500000000000000       0.25000000000000000        0.0000000000000000     
  0.50000000000000000       0.28125000000000000        0.0000000000000000     
  0.53125000000000000       0.28125000000000000        0.0000000000000000     
  0.56250000000000000       0.28125000000000000        0.0000000000000000     
  0.59375000000000000       0.28125000000000000        0.0000000000000000     
  0.62500000000000000       0.28125000000000000        0.0000000000000000     
  0.50000000000000000       0.31250000000000000        0.0000000000000000     
  0.53125000000000000       0.31250000000000000        0.0000000000000000     
  0.56250000000000000       0.31250000000000000        0.0000000000000000     
  0.59375000000000000       0.31250000000000000        0.0000000000000000     
  0.62500000000000000       0.31250000000000000        0.0000000000000000     
  0.50000000000000000       0.34375000000000000        0.0000000000000000     
  0.53125000000000000       0.34375000000000000        0.0000000000000000     
  0.56250000000000000       0.34375000000000000        0.0000000000000000     
  0.59375000000000000       0.34375000000000000        0.0000000000000000     
  0.62500000000000000       0.34375000000000000        0.0000000000000000     
  0.50000000000000000       0.37500000000000000        0.0000000000000000     
  0.53125000000000000       0.37500000000000000        0.0000000000000000     
  0.56250000000000000       0.37500000000000000        0.0000000000000000     
  0.59375000000000000       0.37500000000000000        0.0000000000000000     
  0.62500000000000000       0.37500000000000000        0.0000000000000000     
  0.62500000000000000       0.25000000000000000        0.0000000000000000     
  0.65625000000000000       0.25000000000000000        0.0000000000000000     
  0.68750000000000000       0.25000000000000000        0.0000000000000000     
  0.71875000000000000       0.25000000000000000        0.0000000000000000     
  0.75000000000000000       0.25000000000000000        0.0000000000000000     
  0.62500000000000000       0.28125000000000000        0.0000000000000000     
  0.65625000000000000       0.28125000000000000        0.0000000000000000     
  0.68750000000000000       0.28125000000000000        0.0000000000000000     
  0.71875000000000000       0.28125000000000000        0.0000000000000000     
  0.75000000000000000       0.28125000000000000        0.0000000000000000     
  0.62500000000000000       0.31250000000000000        0.0000000000000000     
  0.65625000000000000       0.31250000000000000        0.0000000000000000     
  0.68750000000000000       0.31250000000000000        0.0000000000000000     
  0.71875000000000000       0.31250000000000000        0.0000000000000000     
  0.75000000000000000       0.31250000000000000        0.0000000000000000     
  0.62500000000000000       0.34375000000000000        0.0000000000000000     
  0.65625000000000000       0.34375000000000000        0.0000000000000000     
  0.68750000000000000       0.34375000000000000        0.0000000000000000     
  0.71875000000000000       0.34375000000000000        0.0000000000000000     
  0.75000000000000000       0.34375000000000000        0.0000000000000000     
  0.62500000000000000       0.37500000000000000        0.0000000000000000     
  0.65625000000000000       0.37500000000000000        0.0000000000000000     
  0.68750000000000000       0.37500000000000000        0.0000000000000000     
  0.71875000000000000       0.37500000000000000        0.0000000000000000     
  0.75000000000000000       0.37500000000000000        0.0000000000000000     
  0.75000000000000000       0.25000000000000000        0.0000000000000000     
  0.78125000000000000       0.25000000000000000        0.0000000000000000     
  0.81250000000000000       0.25000000000000000        0.0000000000000000     
  0.84375000000000000       0.25000000000000000        0.0000000000000000     
  0.87500000000000000       0.25000000000000000        0.0000000000000000     
  0.75000000000000000       0.28125000000000000        0.0000000000000000     
  0.78125000000000000       0.28125000000000000        0.0000000000000000     
  0.81250000000000000       0.28125000000000000        0.0000000000000000     
  0.84375000000000000       0.28125000000000000        0.0000000000000000     
  0.87500000000000000       0.28125000000000000        0.0000000000000000     
  0.75000000000000000       0.31250000000000000        0.0000000000000000     
  0.78125000000000000       0.31250000000000000        0.0000000000000000     
  0.81250000000000000       0.31250000000000000        0.0000000000000000     
  0.84375000000000000       0.31250000000000000        0.0000000000000000     
  0.87500000000000000       0.31250000000000000        0.0000000000000000     
  0.75000000000000000       0.34375000000000000        0.0000000000000000     
  0.78125000000000000       0.34375000000000000        0.0000000000000000     
  0.81250000000000000       0.34375000000000000        0.0000000000000000     
  0.84375000000000000       0.34375000000000000        0.0000000000000000     
  0.87500000000000000       0.34375000000000000        0.0000000000000000     
  0.75000000000000000       0.37500000000000000        0.0000000000000000     
  0.78125000000000000       0.37500000000000000        0.0000000000000000     
  0.81250000000000000       0.37500000000000000        0.0000000000000000     
  0.84375000000000000       0.37500000000000000        0.0000000000000000     
  0.87500000000000000       0.37500000000000000        0.0000000000000000     
  0.87500000000000000       0.25000000000000000        0.0000000000000000     
  0.90625000000000000       0.25000000000000000        0.0000000000000000     
  0.93750000000000000       0.25000000000000000        0.0000000000000000     
  0.96875000000000000       0.25000000000000000        0.0000000000000000     
   1.0000000000000000       0.25000000000000000        0.0000000000000000     
  0.87500000000000000       0.28125000000000000        0.0000000000000000     
  0.90625000000000000       0.28125000000000000        0.0000000000000000     
  0.93750000000000000       0.28125000000000000        0.0000000000000000     
  0.96875000000000000       0.28125000000000000        0.0000000000000000     
   1.0000000000000000       0.28125000000000000        0.0000000000000000     
  0.87500000000000000       0.31250000000000000        0.0000000000000000     
  0.90625000000000000       0.31250000000000000        0.0000000000000000     
  0.93750000000000000       0.31250000000000000        0.0000000000000000     
  0.96875000000000000       0.31250000000000000        0.0000000000000000     
   1.0000000000000000       0.31250000000000000        0.0000000000000000     
  0.87500000000000000       0.34375000000000000        0.0000000000000000     
  0.90625000000000000       0.34375000000000000        0.0000000000000000     
  0.93750000000000000       0.34375000000000000        0.0000000000000000     
  0.96875000000000000       0.34375000000000000        0.0000000000000000     
   1.0000000000000000       0.34375000000000000        0.0000000000000000     
  0.87500000000000000       0.37500000000000000        0.0000000000000000     
  0.90625000000000000       0.37500000000000000        0.0000000000000000     
  0.93750000000000000       0.37500000000000000        0.0000000000000000     
  0.96875000000000000       0.37500000000000000        0.0000000000000000     
   1.0000000000000000       0.37500000000000000        0.0000000000000000     
   1.0000000000000000       0.25000000000000000        0.0000000000000000     
   1.0312500000000000       0.25000000000000000        0.0000000000000000     
   1.0625000000000000       0.25000000000000000        0.0000000000000000     
   1.0937500000000000       0.25000000000000000        0.0000000000000000     
   1.1250000000000000       0.25000000000000000        0.0000000000000000     
   1.0000000000000000       0.28125000000000000        0.0000000000000000     
   1.0312500000000000       0.28125000000000000        0.0000000000000000     
   1.0625000000000000       0.28125000000000000        0.0000000000000000     
   1.0937500000000000       0.28125000000000000        0.0000000000000000     
   1.1250000000000000       0.28125000000000000        0.0000000000000000     
   1.0000000000000000       0.31250000000000000        0.0000000000000000     
   1.0312500000000000       0.31250000000000000        0.0000000000000000     
   1.0625000000000000       0.31250000000000000        0.0000000000000000     
   1.0937500000000000       0.31250000000000000        0.0000000000000000     
   1.1250000000000000       0.31250000000000000        0.0000000000000000     
   1.0000000000000000       0.34375000000000000        0.0000000000000000     
   1.0312500000000000       0.34375000000000000        0.0000000000000000     
   1.0625000000000000       0.34375000000000000        0.0000000000000000     
   1.0937500000000000       0.34375000000000000        0.0000000000000000     
   1.1250000000000000       0.34375000000000000        0.0000000000000000     
   1.0000000000000000       0.37500000000000000        0.0000000000000000     
   1.0312500000000000       0.37500000000000000        0.0000000000000000     
   1.0625000000000000       0.37500000000000000        0.0000000000000000     
   1.0937500000000000       0.37500000000000000        0.0000000000000000     
   1.1250000000000000       0.37500000000000000        0.0000000000000000     
   1.1250000000000000       0.25000000000000000        0.0000000000000000     
   1.1562500000000000       0.25000000000000000        0.0000000000000000     
   1.1875000000000000       0.25000000000000000        0.0000000000000000     
   1.2187500000000000       0.25000000000000000        0.0000000000000000     
   1.2500000000000000       0.25000000000000000        0.0000000000000000     
   1.1250000000000000       0.28125000000000000        0.0000000000000000     
   1.1562500000000000       0.28125000000000000        0.0000000000000000     
   1.1875000000000000       0.28125000000000000        0.0000000000000000     
   1.2187500000000000       0.28125000000000000        0.0000000000000000     
   1.2500000000000000       0.28125000000000000        0.0000000000000000     
   1.1250000000000000       0.31250000000000000        0.0000000000000000     
   1.1562500000000000       0.31250000000000000        0.0000000000000000     
   1.1875000000000000       0.31250000000000000        0.0000000000000000     
   1.2187500000000000       0.31250000000000000        0.0000000000000000     
   1.2500000000000000       0.31250000000000000        0.0000000000000000     
   1.1250000000000000       0.34375000000000000        0.0000000000000000     
   1.1562500000000000       0.34375000000000000        0.0000000000000000     
   1.1875000000000000       0.34375000000000000        0.0000000000000000     
   1.2187500000000000       0.34375000000000000        0.0000000000000000     
   1.2500000000000000       0.34375000000000000        0.0000000000000000     
   1.1250000000000000       0.37500000000000000        0.0000000000000000     
   1.1562500000000000       0.37500000000000000        0.0000000000000000     
   1.1875000000000000       0.37500000000000000        0.0000000000000000     
   1.2187500000000000       0.37500000000000000        0.0000000000000000     
   1.2500000000000000       0.37500000000000000        0.0000000000000000     
   1.2500000000000000       0.25000000000000000        0.0000000000000000     
   1.2812500000000000       0.25000000000000000        0.0000000000000000     
   1.3125000000000000       0.25000000000000000        0.0000000000000000     
   1.3437500000000000       0.25000000000000000        0.0000000000000000     
   1.3750000000000000       0.25000000000000000        0.0000000000000000     
   1.2500000000000000       0.28125000000000000        0.0000000000000000     
   1.2812500000000000       0.28125000000000000        0.0000000000000000     
   1.3125000000000000       0.28125000000000000        0.0000000000000000     
   1.3437500000000000       0.28125000000000000        0.0000000000000000     
   1.3750000000000000       0.28125000000000000        0.0000000000000000     
   1.2500000000000000       0.31250000000000000        0.0000000000000000     
   1.2812500000000000       0.31250000000000000        0.0000000000000000     
   1.3125000000000000       0.31250000000000000        0.0000000000000000     
   1.3437500000000000       0.31250000000000000        0.0000000000000000     
   1.3750000000000000       0.31250000000000000        0.0000000000000000     
   1.2500000000000000       0.34375000000000000        0.0000000000000000     
   1.2812500000000000       0.34375000000000000        0.0000000000000000     
   1.3125000000000000       0.34375000000000000        0.0000000000000000     
   1.3437500000000000       0.34375000000000000        0.0000000000000000     
   1.3750000000000000       0.34375000000000000        0.0000000000000000     
   1.2500000000000000       0.37500000000000000        0.0000000000000000     
   1.2812500000000000       0.37500000000000000        0.0000000000000000     
   1.3125000000000000       0.37500000000000000        0.0000000000000000     
   1.3437500000000000       0.37500000000000000        0.0000000000000000     
   1.3750000000000000       0.37500000000000000        0.0000000000000000     
   1.3750000000000000       0.25000000000000000        0.0000000000000000     
   1.4062500000000000       0.25000000000000000        0.0000000000000000     
   1.4375000000000000       0.25000000000000000        0.0000000000000000     
   1.4687500000000000       0.25000000000000000        0.0000000000000000     
   1.5000000000000000       0.25000000000000000        0.0000000000000000     
   1.3750000000000000       0.28125000000000000        0.0000000000000000     
   1.4062500000000000       0.28125000000000000        0.0000000000000000     
   1.4375000000000000       0.28125000000000000        0.0000000000000000     
   1.4687500000000000       0.28125000000000000        0.0000000000000000     
   1.5000000000000000       0.28125000000000000        0.0000000000000000     
   1.3750000000000000       0.31250000000000000        0.0000000000000000     
   1.4062500000000000       0.31250000000000000        0.0000000000000000     
   1.4375000000000000       0.31250000000000000        0.0000000000000000     
   1.4687500000000000       0.31250000000000000        0.0000000000000000     
   1.5000000000000000       0.31250000000000000        0.0000000000000000     
   1.3750000000000000       0.34375000000000000        0.0000000000000000     
   1.4062500000000000       0.34375000000000000        0.0000000000000000     
   1.4375000000000000       0.34375000000000000        0.0000000000000000     
   1.4687500000000000       0.34375000000000000        0.0000000000000000     
   1.5000000000000000       0.34375000000000000        0.0000000000000000     
   1.3750000000000000       0.37500000000000000        0.0000000000000000     
   1.4062500000000000       0.37500000000000000        0.0000000000000000     
   1.4375000000000000       0.37500000000000000        0.0000000000000000     
   1.4687500000000000       0.37500000000000000        0.0000000000000000     
   1.5000000000000000       0.37500000000000000        0.0000000000000000     
  0.50000000000000000       0.37500000000000000        0.0000000000000000     
  0.53125000000000000       0.37500000000000000        0.0000000000000000     
  0.56250000000000000       0.37500000000000000        0.0000000000000000     
  0.59375000000000000       0.37500000000000000        0.0000000000000000     
  0.62500000000000000       0.37500000000000000        0.0000000000000000     
  0.50000000000000000       0.40625000000000000        0.0000000000000000     
  0.53125000000000000       0.40625000000000000        0.0000000000000000     
  0.56250000000000000       0.40625000000000000        0.0000000000000000     
  0.59375000000000000       0.40625000000000000        0.0000000000000000     
  0.62500000000000000       0.40625000000000000        0.0000000000000000     
  0.50000000000000000       0.43750000000000000        0.0000000000000000     
  0.53125000000000000       0.43750000000000000        0.0000000000000000     
  0.56250000000000000       0.43750000000000000        0.0000000000000000     
  0.59375000000000000       0.43750000000000000        0.0000000000000000     
  0.62500000000000000       0.43750000000000000        0.0000000000000000     
  0.50000000000000000       0.46875000000000000        0.0000000000000000     
  0.53125000000000000       0.46875000000000000        0.0000000000000000     
  0.56250000000000000       0.46875000000000000        0.0000000000000000     
  0.59375000000000000       0.46875000000000000        0.0000000000000000     
  0.62500000000000000       0.46875000000000000        0.0000000000000000     
  0.50000000000000000       0.50000000000000000        0.0000000000000000     
  0.53125000000000000       0.50000000000000000        0.0000000000000000     
  0.56250000000000000       0.50000000000000000        0.0000000000000000     
  0.59375000000000000       0.50000000000000000        0.0000000000000000     
  0.62500000000000000       0.50000000000000000        0.0000000000000000     
  0.62500000000000000       0.37500000000000000        0.0000000000000000     
  0.65625000000000000       0.37500000000000000        0.0000000000000000     
  0.68750000000000000       0.37500000000000000        0.0000000000000000     
  0.71875000000000000       0.37500000000000000        0.0000000000000000     
  0.75000000000000000       0.37500000000000000        0.0000000000000000     
  0.62500000000000000       0.40625000000000000        0.0000000000000000     
  0.65625000000000000       0.40625000000000000        0.0000000000000000     
  0.68750000000000000       0.40625000000000000        0.0000000000000000     
  0.71875000000000000       0.40625000000000000        0.0000000000000000     
  0.75000000000000000       0.40625000000000000        0.0000000000000000     
  0.62500000000000000       0.43750000000000000        0.0000000000000000     
  0.65625000000000000       0.43750000000000000        0.0000000000000000     
  0.68750000000000000       0.43750000000000000        0.0000000000000000     
  0.71875000000000000       0.43750000000000000        0.0000000000000000     
  0.75000000000000000       0.43750000000000000        0.0000000000000000     
  0.62500000000000000       0.46875000000000000        0.0000000000000000     
  0.65625000000000000       0.46875000000000000        0.0000000000000000     
  0.68750000000000000       0.46875000000000000        0.0000000000000000     
  0.71875000000000000       0.46875000000000000        0.0000000000000000     
  0.75000000000000000       0.46875000000000000        0.0000000000000000     
  0.62500000000000000       0.50000000000000000        0.0000000000000000     
  0.65625000000000000       0.50000000000000000        0.0000000000000000     
  0.68750000000000000       0.50000000000000000        0.0000000000000000     
  0.71875000000000000       0.50000000000000000        0.0000000000000000     
  0.75000000000000000       0.50000000000000000        0.0000000000000000     
  0.75000000000000000       0.37500000000000000        0.0000000000000000     
  0.78125000000000000       0.37500000000000000        0.0000000000000000     
  0.81250000000000000       0.37500000000000000        0.0000000000000000     
  0.84375000000000000       0.37500000000000000        0.0000000000000000     
  0.87500000000000000       0.37500000000000000        0.0000000000000000     
  0.75000000000000000       0.40625000000000000        0.0000000000000000     
  0.78125000000000000       0.40625000000000000        0.0000000000000000     
  0.81250000000000000       0.40625000000000000        0.0000000000000000     
  0.84375000000000000       0.40625000000000000        0.0000000000000000     
  0.87500000000000000       0.40625000000000000        0.0000000000000000     
  0.75000000000000000       0.43750000000000000        0.0000000000000000     
  0.78125000000000000       0.43750000000000000        0.0000000000000000     
  0.81250000000000000       0.43750000000000000        0.0000000000000000     
  0.84375000000000000       0.43750000000000000        0.0000000000000000     
  0.87500000000000000       0.43750000000000000        0.0000000000000000     
  0.75000000000000000       0.46875000000000000        0.0000000000000000     
  0.78125000000000000       0.46875000000000000        0.0000000000000000     
  0.81250000000000000       0.46875000000000000        0.0000000000000000     
  0.84375000000000000       0.46875000000000000        0.0000000000000000     
  0.87500000000000000       0.46875000000000000        0.0000000000000000     
  0.75000000000000000       0.50000000000000000        0.0000000000000000     
  0.78125000000000000       0.50000000000000000        0.0000000000000000     
  0.81250000000000000       0.50000000000000000        0.0000000000000000     
  0.84375000000000000       0.50000000000000000        0.0000000000000000     
  0.87500000000000000       0.50000000000000000        0.0000000000000000     
  0.87500000000000000       0.37500000000000000        0.0000000000000000     
  0.90625000000000000       0.37500000000000000        0.0000000000000000     
  0.93750000000000000       0.37500000000000000        0.0000000000000000     
  0.96875000000000000       0.37500000000000000        0.0000000000000000     
   1.0000000000000000       0.37500000000000000        0.0000000000000000     
  0.87500000000000000       0.40625000000000000        0.0000000000000000     
  0.90625000000000000       0.40625000000000000        0.0000000000000000     
  0.93750000000000000       0.40625000000000000        0.0000000000000000     
  0.96875000000000000       0.40625000000000000        0.0000000000000000     
   1.0000000000000000       0.40625000000000000        0.0000000000000000     
  0.87500000000000000       0.43750000000000000        0.0000000000000000     
  0.90625000000000000       0.43750000000000000        0.0000000000000000     
  0.93750000000000000       0.43750000000000000        0.0000000000000000     
  0.96875000000000000       0.43750000000000000        0.0000000000000000     
   1.0000000000000000       0.43750000000000000        0.0000000000000000     
  0.87500000000000000       0.46875000000000000        0.0000000000000000     
  0.90625000000000000       0.46875000000000000        0.0000000000000000     
  0.93750000000000000       0.46875000000000000        0.0000000000000000     
  0.96875000000000000       0.46875000000000000        0.0000000000000000     
   1.0000000000000000       0.46875000000000000        0.0000000000000000     
  0.87500000000000000       0.50000000000000000        0.0000000000000000     
  0.90625000000000000       0.50000000000000000        0.0000000000000000     
  0.93750000000000000       0.50000000000000000        0.0000000000000000     
  0.96875000000000000       0.50000000000000000        0.0000000000000000     
   1.0000000000000000       0.50000000000000000        0.0000000000000000     
   1.0000000000000000       0.37500000000000000        0.0000000000000000     
   1.0312500000000000       0.37500000000000000        0.0000000000000000     
   1.0625000000000000       0.37500000000000000        0.0000000000000000     
   1.0937500000000000       0.37500000000000000        0.0000000000000000     
   1.1250000000000000       0.37500000000000000        0.0000000000000000     
   1.0000000000000000       0.40625000000000000        0.0000000000000000     
   1.0312500000000000       0.40625000000000000        0.0000000000000000     
   1.0625000000000000       0.40625000000000000        0.0000000000000000     
   1.0937500000000000       0.40625000000000000        0.0000000000000000     
   1.1250000000000000       0.40625000000000000        0.0000000000000000     
   1.0000000000000000       0.43750000000000000        0.0000000000000000     
   1.0312500000000000       0.43750000000000000        0.0000000000000000     
   1.0625000000000000       0.43750000000000000        0.0000000000000000     
   1.0937500000000000       0.43750000000000000        0.0000000000000000     
   1.1250000000000000       0.43750000000000000        0.0000000000000000     
   1.0000000000000000       0.46875000000000000        0.0000000000000000     
   1.0312500000000000       0.46875000000000000        0.0000000000000000     
   1.0625000000000000       0.46875000000000000        0.0000000000000000     
   1.0937500000000000       0.46875000000000000        0.0000000000000000     
   1.1250000000000000       0.46875000000000000        0.0000000000000000     
   1.0000000000000000       0.50000000000000000        0.0000000000000000     
   1.0312500000000000       0.50000000000000000        0.0000000000000000     
   1.0625000000000000       0.50000000000000000        0.0000000000000000     
   1.0937500000000000       0.50000000000000000        0.0000000000000000     
   1.1250000000000000       0.50000000000000000        0.0000000000000000     
   1.1250000000000000       0.37500000000000000        0.0000000000000000     
   1.1562500000000000       0.37500000000000000        0.0000000000000000     
   1.1875000000000000       0.37500000000000000        0.0000000000000000     
   1.2187500000000000       0.37500000000000000        0.0000000000000000     
   1.2500000000000000       0.37500000000000000        0.0000000000000000     
   1.1250000000000000       0.40625000000000000        0.0000000000000000     
   1.1562500000000000       0.40625000000000000        0.0000000000000000     
   1.1875000000000000       0.40625000000000000        0.0000000000000000     
   1.2187500000000000       0.40625000000000000        0.0000000000000000     
   1.2500000000000000       0.40625000000000000        0.0000000000000000     
   1.1250000000000000       0.43750000000000000        0.0000000000000000     
   1.1562500000000000       0.43750000000000000        0.0000000000000000     
   1.1875000000000000       0.43750000000000000        0.0000000000000000     
   1.2187500000000000       0.43750000000000000        0.0000000000000000     
   1.2500000000000000       0.43750000000000000        0.0000000000000000     
   1.1250000000000000       0.46875000000000000        0.0000000000000000     
   1.1562500000000000       0.46875000000000000        0.0000000000000000     
   1.1875000000000000       0.46875000000000000        0.0000000000000000     
   1.2187500000000000       0.46875000000000000        0.0000000000000000     
   1.2500000000000000       0.46875000000000000        0.0000000000000000     
   1.1250000000000000       0.50000000000000000        0.0000000000000000     
   1.1562500000000000       0.50000000000000000        0.0000000000000000     
   1.1875000000000000       0.50000000000000000        0.0000000000000000     
   1.2187500000000000       0.50000000000000000        0.0000000000000000     
   1.2500000000000000       0.50000000000000000        0.0000000000000000     
   1.2500000000000000       0.37500000000000000        0.0000000000000000     
   1.2812500000000000       0.37500000000000000        0.0000000000000000     
   1.3125000000000000       0.37500000000000000        0.0000000000000000     
   1.3437500000000000       0.37500000000000000        0.0000000000000000     
   1.3750000000000000       0.37500000000000000        0.0000000000000000     
   1.2500000000000000       0.40625000000000000        0.0000000000000000     
   1.2812500000000000       0.40625000000000000        0.0000000000000000     
   1.3125000000000000       0.40625000000000000        0.0000000000000000     
   1.3437500000000000       0.40625000000000000        0.0000000000000000     
   1.3750000000000000       0.40625000000000000        0.0000000000000000     
   1.2500000000000000       0.43750000000000000        0.0000000000000000     
   1.2812500000000000       0.43750000000000000        0.0000000000000000     
   1.3125000000000000       0.43750000000000000        0.0000000000000000     
   1.3437500000000000       0.43750000000000000        0.0000000000000000     
   1.3750000000000000       0.43750000000000000        0.0000000000000000     
   1.2500000000000000       0.46875000000000000        0.0000000000000000     
   1.2812500000000000       0.46875000000000000        0.0000000000000000     
   1.3125000000000000       0.46875000000000000        0.0000000000000000     
   1.3437500000000000       0.46875000000000000        0.0000000000000000     
   1.3750000000000000       0.46875000000000000        0.0000000000000000     
   1.2500000000000000       0.50000000000000000        0.0000000000000000     
   1.2812500000000000       0.50000000000000000        0.0000000000000000     
   1.3125000000000000       0.50000000000000000        0.0000000000000000     
   1.3437500000000000       0.50000000000000000        0.0000000000000000     
   1.3750000000000000       0.50000000000000000        0.0000000000000000     
   1.3750000000000000       0.37500000000000000        0.0000000000000000     
   1.4062500000000000       0.37500000000000000        0.0000000000000000     
   1.4375000000000000       0.37500000000000000        0.0000000000000000     
   1.4687500000000000       0.37500000000000000        0.0000000000000000     
   1.5000000000000000       0.37500000000000000        0.0000000000000000     
   1.3750000000000000       0.40625000000000000        0.0000000000000000     
   1.4062500000000000       0.40625000000000000        0.0000000000000000     
   1.4375000000000000       0.40625000000000000        0.0000000000000000     
   1.4687500000000000       0.40625000000000000        0.0000000000000000     
   1.5000000000000000       0.40625000000000000        0.0000000000000000     
   1.3750000000000000       0.43750000000000000        0.0000000000000000     
   1.4062500000000000       0.43750000000000000        0.0000000000000000     
   1.4375000000000000       0.43750000000000000        0.0000000000000000     
   1.4687500000000000       0.43750000000000000        0.0000000000000000     
   1.5000000000000000       0.43750000000000000        0.0000000000000000     
   1.3750000000000000       0.46875000000000000        0.0000000000000000     
   1.4062500000000000       0.46875000000000000        0.0000000000000000     
   1.4375000000000000       0.46875000000000000        0.0000000000000000     
   1.4687500000000000       0.46875000000000000        0.0000000000000000     
   1.5000000000000000       0.46875000000000000        0.0000000000000000     
   1.3750000000000000       0.50000000000000000        0.0000000000000000     
   1.4062500000000000       0.50000000000000000        0.0000000000000000     
   1.4375000000000000       0.50000000000000000        0.0000000000000000     
   1.4687500000000000       0.50000000000000000        0.0000000000000000     
   1.5000000000000000       0.50000000000000000        0.0000000000000000     
  0.50000000000000000       0.50000000000000000        0.0000000000000000     
  0.53125000000000000       0.50000000000000000        0.0000000000000000     
  0.56250000000000000       0.50000000000000000        0.0000000000000000     
  0.59375000000000000       0.50000000000000000        0.0000000000000000     
  0.62500000000000000       0.50000000000000000        0.0000000000000000     
  0.50000000000000000       0.53125000000000000        0.0000000000000000     
  0.53125000000000000       0.53125000000000000        0.0000000000000000     
  0.56250000000000000       0.53125000000000000        0.0000000000000000     
  0.59375000000000000       0.53125000000000000        0.0000000000000000     
  0.62500000000000000       0.53125000000000000        0.0000000000000000     
  0.50000000000000000       0.56250000000000000        0.0000000000000000     
  0.53125000000000000       0.56250000000000000        0.0000000000000000     
  0.56250000000000000       0.56250000000000000        0.0000000000000000     
  0.59375000000000000       0.56250000000000000        0.0000000000000000     
  0.62500000000000000       0.56250000000000000        0.0000000000000000     
  0.50000000000000000       0.59375000000000000        0.0000000000000000     
  0.53125000000000000       0.59375000000000000        0.0000000000000000     
  0.56250000000000000       0.59375000000000000        0.0000000000000000     
  0.59375000000000000       0.59375000000000000        0.0000000000000000     
  0.62500000000000000       0.59375000000000000        0.0000000000000000     
  0.50000000000000000       0.62500000000000000        0.0000000000000000     
  0.53125000000000000       0.62500000000000000        0.0000000000000000     
  0.56250000000000000       0.62500000000000000        0.0000000000000000     
  0.59375000000000000       0.62500000000000000        0.0000000000000000     
  0.62500000000000000       0.62500000000000000        0.0000000000000000     
  0.62500000000000000       0.50000000000000000        0.0000000000000000     
  0.65625000000000000       0.50000000000000000        0.0000000000000000     
  0.68750000000000000       0.50000000000000000        0.0000000000000000     
  0.71875000000000000       0.50000000000000000        0.0000000000000000     
  0.75000000000000000       0.50000000000000000        0.0000000000000000     
  0.62500000000000000       0.53125000000000000        0.0000000000000000     
  0.65625000000000000       0.53125000000000000        0.0000000000000000     
  0.68750000000000000       0.53125000000000000        0.0000000000000000     
  0.71875000000000000       0.53125000000000000        0.0000000000000000     
  0.75000000000000000       0.53125000000000000        0.0000000000000000     
  0.62500000000000000       0.56250000000000000        0.0000000000000000     
  0.65625000000000000       0.56250000000000000        0.0000000000000000     
  0.68750000000000000       0.56250000000000000        0.0000000000000000     
  0.71875000000000000       0.56250000000000000        0.0000000000000000     
  0.75000000000000000       0.56250000000000000        0.0000000000000000     
  0.62500000000000000       0.59375000000000000        0.0000000000000000     
  0.65625000000000000       0.59375000000000000        0.0000000000000000     
  0.68750000000000000       0.59375000000000000        0.0000000000000000     
  0.71875000000000000       0.59375000000000000        0.0000000000000000     
  0.75000000000000000       0.59375000000000000        0.0000000000000000     
  0.62500000000000000       0.62500000000000000        0.0000000000000000     
  0.65625000000000000       0.62500000000000000        0.0000000000000000     
  0.68750000000000000       0.62500000000000000        0.0000000000000000     
  0.71875000000000000       0.62500000000000000        0.0000000000000000     
  0.75000000000000000       0.62500000000000000        0.0000000000000000     
  0.75000000000000000       0.50000000000000000        0.0000000000000000     
  0.78125000000000000       0.50000000000000000        0.0000000000000000     
  0.81250000000000000       0.50000000000000000        0.0000000000000000     
  0.84375000000000000       0.50000000000000000        0.0000000000000000     
  0.87500000000000000       0.50000000000000000        0.0000000000000000     
  0.75000000000000000       0.53125000000000000        0.0000000000000000     
  0.78125000000000000       0.53125000000000000        0.0000000000000000     
  0.81250000000000000       0.53125000000000000        0.0000000000000000     
  0.84375000000000000       0.53125000000000000        0.0000000000000000     
  0.87500000000000000       0.53125000000000000        0.0000000000000000     
  0.75000000000000000       0.56250000000000000        0.0000000000000000     
  0.78125000000000000       0.56250000000000000        0.0000000000000000     
  0.81250000000000000       0.56250000000000000        0.0000000000000000     
  0.84375000000000000       0.56250000000000000        0.0000000000000000     
  0.87500000000000000       0.56250000000000000        0.0000000000000000     
  0.75000000000000000       0.59375000000000000        0.0000000000000000     
  0.78125000000000000       0.59375000000000000        0.0000000000000000     
  0.81250000000000000       0.59375000000000000        0.0000000000000000     
  0.84375000000000000       0.59375000000000000        0.0000000000000000     
  0.87500000000000000       0.59375000000000000        0.0000000000000000     
  0.75000000000000000       0.62500000000000000        0.0000000000000000     
  0.78125000000000000       0.62500000000000000        0.0000000000000000     
  0.81250000000000000       0.62500000000000000        0.0000000000000000     
  0.84375000000000000       0.62500000000000000        0.0000000000000000     
  0.87500000000000000       0.62500000000000000        0.0000000000000000     
  0.87500000000000000       0.50000000000000000        0.0000000000000000     
  0.90625000000000000       0.50000000000000000        0.0000000000000000     
  0.93750000000000000       0.50000000000000000        0.0000000000000000     
  0.96875000000000000       0.50000000000000000        0.0000000000000000     
   1.0000000000000000       0.50000000000000000        0.0000000000000000     
  0.87500000000000000       0.53125000000000000        0.0000000000000000     
  0.90625000000000000       0.53125000000000000        0.0000000000000000     
  0.93750000000000000       0.53125000000000000        0.0000000000000000     
  0.96875000000000000       0.53125000000000000        0.0000000000000000     
   1.0000000000000000       0.53125000000000000        0.0000000000000000     
  0.87500000000000000       0.56250000000000000        0.0000000000000000     
  0.90625000000000000       0.56250000000000000        0.0000000000000000     
  0.93750000000000000       0.56250000000000000        0.0000000000000000     
  0.96875000000000000       0.56250000000000000        0.0000000000000000     
   1.0000000000000000       0.56250000000000000        0.0000000000000000     
  0.87500000000000000       0.59375000000000000        0.0000000000000000     
  0.90625000000000000       0.59375000000000000        0.0000000000000000     
  0.93750000000000000       0.59375000000000000        0.0000000000000000     
  0.96875000000000000       0.59375000000000000        0.0000000000000000     
   1.0000000000000000       0.59375000000000000        0.0000000000000000     
  0.87500000000000000       0.62500000000000000        0.0000000000000000     
  0.90625000000000000       0.62500000000000000        0.0000000000000000     
  0.93750000000000000       0.62500000000000000        0.0000000000000000     
  0.96875000000000000       0.62500000000000000        0.0000000000000000     
   1.0000000000000000       0.62500000000000000        0.0000000000000000     
   1.0000000000000000       0.50000000000000000        0.0000000000000000     
   1.0312500000000000       0.50000000000000000        0.0000000000000000     
   1.0625000000000000       0.50000000000000000        0.0000000000000000     
   1.0937500000000000       0.50000000000000000        0.0000000000000000     
   1.1250000000000000       0.50000000000000000        0.0000000000000000     
   1.0000000000000000       0.53125000000000000        0.0000000000000000     
   1.0312500000000000       0.53125000000000000        0.0000000000000000     
   1.0625000000000000       0.53125000000000000        0.0000000000000000     
   1.0937500000000000       0.53125000000000000        0.0000000000000000     
   1.1250000000000000       0.53125000000000000        0.0000000000000000     
   1.0000000000000000       0.56250000000000000        0.0000000000000000     
   1.0312500000000000       0.56250000000000000        0.0000000000000000     
   1.0625000000000000       0.56250000000000000        0.0000000000000000     
   1.0937500000000000       0.56250000000000000        0.0000000000000000     
   1.1250000000000000       0.56250000000000000        0.0000000000000000     
   1.0000000000000000       0.59375000000000000        0.0000000000000000     
   1.0312500000000000       0.59375000000000000        0.0000000000000000     
   1.0625000000000000       0.59375000000000000        0.0000000000000000     
   1.0937500000000000       0.59375000000000000        0.0000000000000000     
   1.1250000000000000       0.59375000000000000        0.0000000000000000     
   1.0000000000000000       0.62500000000000000        0.0000000000000000     
   1.0312500000000000       0.62500000000000000        0.0000000000000000     
   1.0625000000000000       0.62500000000000000        0.0000000000000000     
   1.0937500000000000       0.62500000000000000        0.0000000000000000     
   1.1250000000000000       0.62500000000000000        0.0000000000000000     
   1.1250000000000000       0.50000000000000000        0.0000000000000000     
   1.1562500000000000       0.50000000000000000        0.0000000000000000     
   1.1875000000000000       0.50000000000000000        0.0000000000000000     
   1.2187500000000000       0.50000000000000000        0.0000000000000000     
   1.2500000000000000       0.50000000000000000        0.0000000000000000     
   1.1250000000000000       0.53125000000000000        0.0000000000000000     
   1.1562500000000000       0.53125000000000000        0.0000000000000000     
   1.1875000000000000       0.53125000000000000        0.0000000000000000     
   1.2187500000000000       0.53125000000000000        0.0000000000000000     
   1.2500000000000000       0.53125000000000000        0.0000000000000000     
   1.1250000000000000       0.56250000000000000        0.0000000000000000     
   1.1562500000000000       0.56250000000000000        0.0000000000000000     
   1.1875000000000000       0.56250000000000000        0.0000000000000000     
   1.2187500000000000       0.56250000000000000        0.0000000000000000     
   1.2500000000000000       0.56250000000000000        0.0000000000000000     
   1.1250000000000000       0.59375000000000000        0.0000000000000000     
   1.1562500000000000       0.59375000000000000        0.0000000000000000     
   1.1875000000000000       0.59375000000000000        0.0000000000000000     
   1.2187500000000000       0.59375000000000000        0.0000000000000000     
   1.2500000000000000       0.59375000000000000        0.0000000000000000     
   1.1250000000000000       0.62500000000000000        0.0000000000000000     
   1.1562500000000000       0.62500000000000000        0.0000000000000000     
   1.1875000000000000       0.62500000000000000        0.0000000000000000     
   1.2187500000000000       0.62500000000000000        0.0000000000000000     
   1.2500000000000000       0.62500000000000000        0.0000000000000000     
   1.2500000000000000       0.50000000000000000        0.0000000000000000     
   1.2812500000000000       0.50000000000000000        0.0000000000000000     
   1.3125000000000000       0.50000000000000000        0.0000000000000000     
   1.3437500000000000       0.50000000000000000        0.0000000000000000     
   1.3750000000000000       0.50000000000000000        0.0000000000000000     
   1.2500000000000000       0.53125000000000000        0.0000000000000000     
   1.2812500000000000       0.53125000000000000        0.0000000000000000     
   1.3125000000000000       0.53125000000000000        0.0000000000000000     
   1.3437500000000000       0.53125000000000000        0.0000000000000000     
   1.3750000000000000       0.53125000000000000        0.0000000000000000     
   1.2500000000000000       0.56250000000000000        0.0000000000000000     
   1.2812500000000000       0.56250000000000000        0.0000000000000000     
   1.3125000000000000       0.56250000000000000        0.0000000000000000     
   1.3437500000000000       0.56250000000000000        0.0000000000000000     
   1.3750000000000000       0.56250000000000000        0.0000000000000000     
   1.2500000000000000       0.59375000000000000        0.0000000000000000     
   1.2812500000000000       0.59375000000000000        0.0000000000000000     
   1.3125000000000000       0.59375000000000000        0.0000000000000000     
   1.3437500000000000       0.59375000000000000        0.0000000000000000     
   1.3750000000000000       0.59375000000000000        0.0000000000000000     
   1.2500000000000000       0.62500000000000000        0.0000000000000000     
   1.2812500000000000       0.62500000000000000        0.0000000000000000     
   1.3125000000000000       0.62500000000000000        0.0000000000000000     
   1.3437500000000000       0.62500000000000000        0.0000000000000000     
   1.3750000000000000       0.62500000000000000        0.0000000000000000     
   1.3750000000000000       0.50000000000000000        0.0000000000000000     
   1.4062500000000000       0.50000000000000000        0.0000000000000000     
   1.4375000000000000       0.50000000000000000        0.0000000000000000     
   1.4687500000000000       0.50000000000000000        0.0000000000000000     
   1.5000000000000000       0.50000000000000000        0.0000000000000000     
   1.3750000000000000       0.53125000000000000        0.0000000000000000     
   1.4062500000000000       0.53125000000000000        0.0000000000000000     
   1.4375000000000000       0.53125000000000000        0.0000000000000000     
   1.4687500000000000       0.53125000000000000        0.0000000000000000     
   1.5000000000000000       0.53125000000000000        0.0000000000000000     
   1.3750000000000000       0.56250000000000000        0.0000000000000000     
   1.4062500000000000       0.56250000000000000        0.0000000000000000     
   1.4375000000000000       0.56250000000000000        0.0000000000000000     
   1.4687500000000000       0.56250000000000000        0.0000000000000000     
   1.5000000000000000       0.56250000000000000        0.0000000000000000     
   1.3750000000000000       0.59375000000000000        0.0000000000000000     
   1.4062500000000000       0.59375000000000000        0.0000000000000000     
   1.4375000000000000       0.59375000000000000        0.0000000000000000     
   1.4687500000000000       0.59375000000000000        0.0000000000000000     
   1.5000000000000000       0.59375000000000000        0.0000000000000000     
   1.3750000000000000       0.62500000000000000        0.0000000000000000     
   1.4062500000000000       0.62500000000000000        0.0000000000000000     
   1.4375000000000000       0.62500000000000000        0.0000000000000000     
   1.4687500000000000       0.62500000000000000        0.0000000000000000     
   1.5000000000000000       0.62500000000000000        0.0000000000000000     
  0.50000000000000000       0.62500000000000000        0.0000000000000000     
  0.53125000000000000       0.62500000000000000        0.0000000000000000     
  0.56250000000000000       0.62500000000000000        0.0000000000000000     
  0.59375000000000000       0.62500000000000000        0.0000000000000000     
  0.62500000000000000       0.62500000000000000        0.0000000000000000     
  0.50000000000000000       0.65625000000000000        0.0000000000000000     
  0.53125000000000000       0.65625000000000000        0.0000000000000000     
  0.56250000000000000       0.65625000000000000        0.0000000000000000     
  0.59375000000000000       0.65625000000000000        0.0000000000000000     
  0.62500000000000000       0.65625000000000000        0.0000000000000000     
  0.50000000000000000       0.68750000000000000        0.0000000000000000     
  0.53125000000000000       0.68750000000000000        0.0000000000000000     
  0.56250000000000000       0.68750000000000000        0.0000000000000000     
  0.59375000000000000       0.68750000000000000        0.0000000000000000     
  0.62500000000000000       0.68750000000000000        0.0000000000000000     
  0.50000000000000000       0.71875000000000000        0.0000000000000000     
  0.53125000000000000       0.71875000000000000        0.0000000000000000     
  0.56250000000000000       0.71875000000000000        0.0000000000000000     
  0.59375000000000000       0.71875000000000000        0.0000000000000000     
  0.62500000000000000       0.71875000000000000        0.0000000000000000     
  0.50000000000000000       0.75000000000000000        0.0000000000000000     
  0.53125000000000000       0.75000000000000000        0.0000000000000000     
  0.56250000000000000       0.75000000000000000        0.0000000000000000     
  0.59375000000000000       0.75000000000000000        0.0000000000000000     
  0.62500000000000000       0.75000000000000000        0.0000000000000000     
  0.62500000000000000       0.62500000000000000        0.0000000000000000     
  0.65625000000000000       0.62500000000000000        0.0000000000000000     
  0.68750000000000000       0.62500000000000000        0.0000000000000000     
  0.71875000000000000       0.62500000000000000        0.0000000000000000     
  0.75000000000000000       0.62500000000000000        0.0000000000000000     
  0.62500000000000000       0.65625000000000000        0.0000000000000000     
  0.65625000000000000       0.65625000000000000        0.0000000000000000     
  0.68750000000000000       0.65625000000000000        0.0000000000000000     
  0.71875000000000000       0.65625000000000000        0.0000000000000000     
  0.75000000000000000       0.65625000000000000        0.0000000000000000     
  0.62500000000000000       0.68750000000000000        0.0000000000000000     
  0.65625000000000000       0.68750000000000000        0.0000000000000000     
  0.68750000000000000       0.68750000000000000        0.0000000000000000     
  0.71875000000000000       0.68750000000000000        0.0000000000000000     
  0.75000000000000000       0.68750000000000000        0.0000000000000000     
  0.62500000000000000       0.71875000000000000        0.0000000000000000     
  0.65625000000000000       0.71875000000000000        0.0000000000000000     
  0.68750000000000000       0.71875000000000000        0.0000000000000000     
  0.71875000000000000       0.71875000000000000        0.0000000000000000     
  0.75000000000000000       0.71875000000000000        0.0000000000000000     
  0.62500000000000000       0.75000000000000000        0.0000000000000000     
  0.65625000000000000       0.75000000000000000        0.0000000000000000     
  0.68750000000000000       0.75000000000000000        0.0000000000000000     
  0.71875000000000000       0.75000000000000000        0.0000000000000000     
  0.75000000000000000       0.75000000000000000        0.0000000000000000     
  0.75000000000000000       0.62500000000000000        0.0000000000000000     
  0.78125000000000000       0.62500000000000000        0.0000000000000000     
  0.81250000000000000       0.62500000000000000        0.0000000000000000     
  0.84375000000000000       0.62500000000000000        0.0000000000000000     
  0.87500000000000000       0.62500000000000000        0.0000000000000000     
  0.75000000000000000       0.65625000000000000        0.0000000000000000     
  0.78125000000000000       0.65625000000000000        0.0000000000000000     
  0.81250000000000000       0.65625000000000000        0.0000000000000000     
  0.84375000000000000       0.65625000000000000        0.0000000000000000     
  0.87500000000000000       0.65625000000000000        0.0000000000000000     
  0.75000000000000000       0.68750000000000000        0.0000000000000000     
  0.78125000000000000       0.68750000000000000        0.0000000000000000     
  0.81250000000000000       0.68750000000000000        0.0000000000000000     
  0.84375000000000000       0.68750000000000000        0.0000000000000000     
  0.87500000000000000       0.68750000000000000        0.0000000000000000     
  0.75000000000000000       0.71875000000000000        0.0000000000000000     
  0.78125000000000000       0.71875000000000000        0.0000000000000000     
  0.81250000000000000       0.71875000000000000        0.0000000000000000     
  0.84375000000000000       0.71875000000000000        0.0000000000000000     
  0.87500000000000000       0.71875000000000000        0.0000000000000000     
  0.75000000000000000       0.75000000000000000        0.0000000000000000     
  0.78125000000000000       0.75000000000000000        0.0000000000000000     
  0.81250000000000000       0.75000000000000000        0.0000000000000000     
  0.84375000000000000       0.75000000000000000        0.0000000000000000     
  0.87500000000000000       0.75000000000000000        0.0000000000000000     
  0.87500000000000000       0.62500000000000000        0.0000000000000000     
  0.90625000000000000       0.62500000000000000        0.0000000000000000     
  0.93750000000000000       0.62500000000000000        0.0000000000000000     
  0.96875000000000000       0.62500000000000000        0.0000000000000000     
   1.0000000000000000       0.62500000000000000        0.0000000000000000     
  0.87500000000000000       0.65625000000000000        0.0000000000000000     
  0.90625000000000000       0.65625000000000000        0.0000000000000000     
  0.93750000000000000       0.65625000000000000        0.0000000000000000     
  0.96875000000000000       0.65625000000000000        0.0000000000000000     
   1.0000000000000000       0.65625000000000000        0.0000000000000000     
  0.87500000000000000       0.68750000000000000        0.0000000000000000     
  0.90625000000000000       0.68750000000000000        0.0000000000000000     
  0.93750000000000000       0.68750000000000000        0.0000000000000000     
  0.96875000000000000       0.68750000000000000        0.0000000000000000     
   1.0000000000000000       0.68750000000000000        0.0000000000000000     
  0.87500000000000000       0.71875000000000000        0.0000000000000000     
  0.90625000000000000       0.71875000000000000        0.0000000000000000     
  0.93750000000000000       0.71875000000000000        0.0000000000000000     
  0.96875000000000000       0.71875000000000000        0.0000000000000000     
   1.0000000000000000       0.71875000000000000        0.0000000000000000     
  0.87500000000000000       0.75000000000000000        0.0000000000000000     
  0.90625000000000000       0.75000000000000000        0.0000000000000000     
  0.93750000000000000       0.75000000000000000        0.0000000000000000     
  0.96875000000000000       0.75000000000000000        0.0000000000000000     
   1.0000000000000000       0.75000000000000000        0.0000000000000000     
   1.0000000000000000       0.62500000000000000        0.0000000000000000     
   1.0312500000000000       0.62500000000000000        0.0000000000000000     
   1.0625000000000000       0.62500000000000000        0.0000000000000000     
   1.0937500000000000       0.62500000000000000        0.0000000000000000     
   1.1250000000000000       0.62500000000000000        0.0000000000000000     
   1.0000000000000000       0.65625000000000000        0.0000000000000000     
   1.0312500000000000       0.65625000000000000        0.0000000000000000     
   1.0625000000000000       0.65625000000000000        0.0000000000000000     
   1.0937500000000000       0.65625000000000000        0.0000000000000000     
   1.1250000000000000       0.65625000000000000        0.0000000000000000     
   1.0000000000000000       0.68750000000000000        0.0000000000000000     
   1.0312500000000000       0.68750000000000000        0.0000000000000000     
   1.0625000000000000       0.68750000000000000        0.0000000000000000     
   1.0937500000000000       0.68750000000000000        0.0000000000000000     
   1.1250000000000000       0.68750000000000000        0.0000000000000000     
   1.0000000000000000       0.71875000000000000        0.0000000000000000     
   1.0312500000000000       0.71875000000000000        0.0000000000000000     
   1.0625000000000000       0.71875000000000000        0.0000000000000000     
   1.0937500000000000       0.71875000000000000        0.0000000000000000     
   1.1250000000000000       0.71875000000000000        0.0000000000000000     
   1.0000000000000000       0.75000000000000000        0.0000000000000000     
   1.0312500000000000       0.75000000000000000        0.0000000000000000     
   1.0625000000000000       0.75000000000000000        0.0000000000000000     
   1.0937500000000000       0.75000000000000000        0.0000000000000000     
   1.1250000000000000       0.75000000000000000        0.0000000000000000     
   1.1250000000000000       0.62500000000000000        0.0000000000000000     
   1.1562500000000000       0.62500000000000000        0.0000000000000000     
   1.1875000000000000       0.62500000000000000        0.0000000000000000     
   1.2187500000000000       0.62500000000000000        0.0000000000000000     
   1.2500000000000000       0.62500000000000000        0.0000000000000000     
   1.1250000000000000       0.65625000000000000        0.0000000000000000     
   1.1562500000000000       0.65625000000000000        0.0000000000000000     
   1.1875000000000000       0.65625000000000000        0.0000000000000000     
   1.2187500000000000       0.65625000000000000        0.0000000000000000     
   1.2500000000000000       0.65625000000000000        0.0000000000000000     
   1.1250000000000000       0.68750000000000000        0.0000000000000000     
   1.1562500000000000       0.68750000000000000        0.0000000000000000     
   1.1875000000000000       0.68750000000000000        0.0000000000000000     
   1.2187500000000000       0.68750000000000000        0.0000000000000000     
   1.2500000000000000       0.68750000000000000        0.0000000000000000     
   1.1250000000000000       0.71875000000000000        0.0000000000000000     
   1.1562500000000000       0.71875000000000000        0.0000000000000000     
   1.1875000000000000       0.71875000000000000        0.0000000000000000     
   1.2187500000000000       0.71875000000000000        0.0000000000000000     
   1.2500000000000000       0.71875000000000000        0.0000000000000000     
   1.1250000000000000       0.75000000000000000        0.0000000000000000     
   1.1562500000000000       0.75000000000000000        0.0000000000000000     
   1.1875000000000000       0.75000000000000000        0.0000000000000000     
   1.2187500000000000       0.75000000000000000        0.0000000000000000     
   1.2500000000000000       0.75000000000000000        0.0000000000000000     
   1.2500000000000000       0.62500000000000000        0.0000000000000000     
   1.2812500000000000       0.62500000000000000        0.0000000000000000     
   1.3125000000000000       0.62500000000000000        0.0000000000000000     
   1.3437500000000000       0.62500000000000000        0.0000000000000000     
   1.3750000000000000       0.62500000000000000        0.0000000000000000     
   1.2500000000000000       0.65625000000000000        0.0000000000000000     
   1.2812500000000000       0.65625000000000000        0.0000000000000000     
   1.3125000000000000       0.65625000000000000        0.0000000000000000     
   1.3437500000000000       0.65625000000000000        0.0000000000000000     
   1.3750000000000000       0.65625000000000000        0.0000000000000000     
   1.2500000000000000       0.68750000000000000        0.0000000000000000     
   1.2812500000000000       0.68750000000000000        0.0000000000000000     
   1.3125000000000000       0.68750000000000000        0.0000000000000000     
   1.3437500000000000       0.68750000000000000        0.0000000000000000     
   1.3750000000000000       0.68750000000000000        0.0000000000000000     
   1.2500000000000000       0.71875000000000000        0.0000000000000000     
   1.2812500000000000       0.71875000000000000        0.0000000000000000     
   1.3125000000000000       0.71875000000000000        0.0000000000000000     
   1.3437500000000000       0.71875000000000000        0.0000000000000000     
   1.3750000000000000       0.71875000000000000        0.0000000000000000     
   1.2500000000000000       0.75000000000000000        0.0000000000000000     
   1.2812500000000000       0.75000000000000000        0.0000000000000000     
   1.3125000000000000       0.75000000000000000        0.0000000000000000     
   1.3437500000000000       0.75000000000000000        0.0000000000000000     
   1.3750000000000000       0.75000000000000000        0.0000000000000000     
   1.3750000000000000       0.62500000000000000        0.0000000000000000     
   1.4062500000000000       0.62500000000000000        0.0000000000000000     
   1.4375000000000000       0.62500000000000000        0.0000000000000000     
   1.4687500000000000       0.62500000000000000        0.0000000000000000     
   1.5000000000000000       0.62500000000000000        0.0000000000000000     
   1.3750000000000000       0.65625000000000000        0.0000000000000000     
   1.4062500000000000       0.65625000000000000        0.0000000000000000     
   1.4375000000000000       0.65625000000000000        0.0000000000000000     
   1.4687500000000000       0.65625000000000000        0.0000000000000000     
   1.5000000000000000       0.65625000000000000        0.0000000000000000     
   1.3750000000000000       0.68750000000000000        0.0000000000000000     
   1.4062500000000000       0.68750000000000000        0.0000000000000000     
   1.4375000000000000       0.68750000000000000        0.0000000000000000     
   1.4687500000000000       0.68750000000000000        0.0000000000000000     
   1.5000000000000000       0.68750000000000000        0.0000000000000000     
   1.3750000000000000       0.71875000000000000        0.0000000000000000     
   1.4062500000000000       0.71875000000000000        0.0000000000000000     
   1.4375000000000000       0.71875000000000000        0.0000000000000000     
   1.4687500000000000       0.71875000000000000        0.0000000000000000     
   1.5000000000000000       0.71875000000000000        0.0000000000000000     
   1.3750000000000000       0.75000000000000000        0.0000000000000000     
   1.4062500000000000       0.75000000000000000        0.0000000000000000     
   1.4375000000000000       0.75000000000000000        0.0000000000000000     
   1.4687500000000000       0.75000000000000000        0.0000000000000000     
   1.5000000000000000       0.75000000000000000        0.0000000000000000     
  0.50000000000000000       0.75000000000000000        0.0000000000000000     
  0.53125000000000000       0.75000000000000000        0.0000000000000000     
  0.56250000000000000       0.75000000000000000        0.0000000000000000     
  0.59375000000000000       0.75000000000000000        0.0000000000000000     
  0.62500000000000000       0.75000000000000000        0.0000000000000000     
  0.50000000000000000       0.78125000000000000        0.0000000000000000     
  0.53125000000000000       0.78125000000000000        0.0000000000000000     
  0.56250000000000000       0.78125000000000000        0.0000000000000000     
  0.59375000000000000       0.78125000000000000        0.0000000000000000     
  0.62500000000000000       0.78125000000000000        0.0000000000000000     
  0.50000000000000000       0.81250000000000000        0.0000000000000000     
  0.53125000000000000       0.81250000000000000        0.0000000000000000     
  0.56250000000000000       0.81250000000000000        0.0000000000000000     
  0.59375000000000000       0.81250000000000000        0.0000000000000000     
  0.62500000000000000       0.81250000000000000        0.0000000000000000     
  0.50000000000000000       0.84375000000000000        0.0000000000000000     
  0.53125000000000000       0.84375000000000000        0.0000000000000000     
  0.56250000000000000       0.84375000000000000        0.0000000000000000     
  0.59375000000000000       0.84375000000000000        0.0000000000000000     
  0.62500000000000000       0.84375000000000000        0.0000000000000000     
  0.50000000000000000       0.87500000000000000        0.0000000000000000     
  0.53125000000000000       0.87500000000000000        0.0000000000000000     
  0.56250000000000000       0.87500000000000000        0.0000000000000000     
  0.59375000000000000       0.87500000000000000        0.0000000000000000     
  0.62500000000000000       0.87500000000000000        0.0000000000000000     
  0.62500000000000000       0.75000000000000000        0.0000000000000000     
  0.65625000000000000       0.75000000000000000        0.0000000000000000     
  0.68750000000000000       0.75000000000000000        0.0000000000000000     
  0.71875000000000000       0.75000000000000000        0.0000000000000000     
  0.75000000000000000       0.75000000000000000        0.0000000000000000     
  0.62500000000000000       0.78125000000000000        0.0000000000000000     
  0.65625000000000000       0.78125000000000000        0.0000000000000000     
  0.68750000000000000       0.78125000000000000        0.0000000000000000     
  0.71875000000000000       0.78125000000000000        0.0000000000000000     
  0.75000000000000000       0.78125000000000000        0.0000000000000000     
  0.62500000000000000       0.81250000000000000        0.0000000000000000     
  0.65625000000000000       0.81250000000000000        0.0000000000000000     
  0.68750000000000000       0.81250000000000000        0.0000000000000000     
  0.71875000000000000       0.81250000000000000        0.0000000000000000     
  0.75000000000000000       0.81250000000000000        0.0000000000000000     
  0.62500000000000000       0.84375000000000000        0.0000000000000000     
  0.65625000000000000       0.84375000000000000        0.0000000000000000     
  0.68750000000000000       0.84375000000000000        0.0000000000000000     
  0.71875000000000000       0.84375000000000000        0.0000000000000000     
  0.75000000000000000       0.84375000000000000        0.0000000000000000     
  0.62500000000000000       0.87500000000000000        0.0000000000000000     
  0.65625000000000000       0.87500000000000000        0.0000000000000000     
  0.68750000000000000       0.87500000000000000        0.0000000000000000     
  0.71875000000000000       0.87500000000000000        0.0000000000000000     
  0.75000000000000000       0.87500000000000000        0.0000000000000000     
  0.75000000000000000       0.75000000000000000        0.0000000000000000     
  0.78125000000000000       0.75000000000000000        0.0000000000000000     
  0.81250000000000000       0.75000000000000000        0.0000000000000000     
  0.84375000000000000       0.75000000000000000        0.0000000000000000     
  0.87500000000000000       0.75000000000000000        0.0000000000000000     
  0.75000000000000000       0.78125000000000000        0.0000000000000000     
  0.78125000000000000       0.78125000000000000        0.0000000000000000     
  0.81250000000000000       0.78125000000000000        0.0000000000000000     
  0.84375000000000000       0.78125000000000000        0.0000000000000000     
  0.87500000000000000       0.78125000000000000        0.0000000000000000     
  0.75000000000000000       0.81250000000000000        0.0000000000000000     
  0.78125000000000000       0.81250000000000000        0.0000000000000000     
  0.81250000000000000       0.81250000000000000        0.0000000000000000     
  0.84375000000000000       0.81250000000000000        0.0000000000000000     
  0.87500000000000000       0.81250000000000000        0.0000000000000000     
  0.75000000000000000       0.84375000000000000        0.0000000000000000     
  0.78125000000000000       0.84375000000000000        0.0000000000000000     
  0.81250000000000000       0.84375000000000000        0.0000000000000000     
  0.84375000000000000       0.84375000000000000        0.0000000000000000     
  0.87500000000000000       0.84375000000000000        0.0000000000000000     
  0.75000000000000000       0.87500000000000000        0.0000000000000000     
  0.78125000000000000       0.87500000000000000        0.0000000000000000     
  0.81250000000000000       0.87500000000000000        0.0000000000000000     
  0.84375000000000000       0.87500000000000000        0.0000000000000000     
  0.87500000000000000       0.87500000000000000        0.0000000000000000     
  0.87500000000000000       0.75000000000000000        0.0000000000000000     
  0.90625000000000000       0.75000000000000000        0.0000000000000000     
  0.93750000000000000       0.75000000000000000        0.0000000000000000     
  0.96875000000000000       0.75000000000000000        0.0000000000000000     
   1.0000000000000000       0.75000000000000000        0.0000000000000000     
  0.87500000000000000       0.78125000000000000        0.0000000000000000     
  0.90625000000000000       0.78125000000000000        0.0000000000000000     
  0.93750000000000000       0.78125000000000000        0.0000000000000000     
  0.96875000000000000       0.78125000000000000        0.0000000000000000     
   1.0000000000000000       0.78125000000000000        0.0000000000000000     
  0.87500000000000000       0.81250000000000000        0.0000000000000000     
  0.90625000000000000       0.81250000000000000        0.0000000000000000     
  0.93750000000000000       0.81250000000000000        0.0000000000000000     
  0.96875000000000000       0.81250000000000000        0.0000000000000000     
   1.0000000000000000       0.81250000000000000        0.0000000000000000     
  0.87500000000000000       0.84375000000000000        0.0000000000000000     
  0.90625000000000000       0.84375000000000000        0.0000000000000000     
  0.93750000000000000       0.84375000000000000        0.0000000000000000     
  0.96875000000000000       0.84375000000000000        0.0000000000000000     
   1.0000000000000000       0.84375000000000000        0.0000000000000000     
  0.87500000000000000       0.87500000000000000        0.0000000000000000     
  0.90625000000000000       0.87500000000000000        0.0000000000000000     
  0.93750000000000000       0.87500000000000000        0.0000000000000000     
  0.96875000000000000       0.87500000000000000        0.0000000000000000     
   1.0000000000000000       0.87500000000000000        0.0000000000000000     
   1.0000000000000000       0.75000000000000000        0.0000000000000000     
   1.0312500000000000       0.75000000000000000        0.0000000000000000     
   1.0625000000000000       0.75000000000000000        0.0000000000000000     
   1.0937500000000000       0.75000000000000000        0.0000000000000000     
   1.1250000000000000       0.75000000000000000        0.0000000000000000     
   1.0000000000000000       0.78125000000000000        0.0000000000000000     
   1.0312500000000000       0.78125000000000000        0.0000000000000000     
   1.0625000000000000       0.78125000000000000        0.0000000000000000     
   1.0937500000000000       0.78125000000000000        0.0000000000000000     
   1.1250000000000000       0.78125000000000000        0.0000000000000000     
   1.0000000000000000       0.81250000000000000        0.0000000000000000     
   1.0312500000000000       0.81250000000000000        0.0000000000000000     
   1.0625000000000000       0.81250000000000000        0.0000000000000000     
   1.0937500000000000       0.81250000000000000        0.0000000000000000     
   1.1250000000000000       0.81250000000000000        0.0000000000000000     
   1.0000000000000000       0.84375000000000000        0.0000000000000000     
   1.0312500000000000       0.84375000000000000        0.0000000000000000     
   1.0625000000000000       0.84375000000000000        0.0000000000000000     
   1.0937500000000000       0.84375000000000000        0.0000000000000000     
   1.1250000000000000       0.84375000000000000        0.0000000000000000     
   1.0000000000000000       0.87500000000000000        0.0000000000000000     
   1.0312500000000000       0.87500000000000000        0.0000000000000000     
   1.0625000000000000       0.87500000000000000        0.0000000000000000     
   1.0937500000000000       0.87500000000000000        0.0000000000000000     
   1.1250000000000000       0.87500000000000000        0.0000000000000000     
   1.1250000000000000       0.75000000000000000        0.0000000000000000     
   1.1562500000000000       0.75000000000000000        0.0000000000000000     
   1.1875000000000000       0.75000000000000000        0.0000000000000000     
   1.2187500000000000       0.75000000000000000        0.0000000000000000     
   1.2500000000000000       0.75000000000000000        0.0000000000000000     
   1.1250000000000000       0.78125000000000000        0.0000000000000000     
   1.1562500000000000       0.78125000000000000        0.0000000000000000     
   1.1875000000000000       0.78125000000000000        0.0000000000000000     
   1.2187500000000000       0.78125000000000000        0.0000000000000000     
   1.2500000000000000       0.78125000000000000        0.0000000000000000     
   1.1250000000000000       0.81250000000000000        0.0000000000000000     
   1.1562500000000000       0.81250000000000000        0.0000000000000000     
   1.1875000000000000       0.81250000000000000        0.0000000000000000     
   1.2187500000000000       0.81250000000000000        0.0000000000000000     
   1.2500000000000000       0.81250000000000000        0.0000000000000000     
   1.1250000000000000       0.84375000000000000        0.0000000000000000     
   1.1562500000000000       0.84375000000000000        0.0000000000000000     
   1.1875000000000000       0.84375000000000000        0.0000000000000000     
   1.2187500000000000       0.84375000000000000        0.0000000000000000     
   1.2500000000000000       0.84375000000000000        0.0000000000000000     
   1.1250000000000000       0.87500000000000000        0.0000000000000000     
   1.1562500000000000       0.87500000000000000        0.0000000000000000     
   1.1875000000000000       0.87500000000000000        0.0000000000000000     
   1.2187500000000000       0.87500000000000000        0.0000000000000000     
   1.2500000000000000       0.87500000000000000        0.0000000000000000     
   1.2500000000000000       0.75000000000000000        0.0000000000000000     
   1.2812500000000000       0.75000000000000000        0.0000000000000000     
   1.3125000000000000       0.75000000000000000        0.0000000000000000     
   1.3437500000000000       0.75000000000000000        0.0000000000000000     
   1.3750000000000000       0.75000000000000000        0.0000000000000000     
   1.2500000000000000       0.78125000000000000        0.0000000000000000     
   1.2812500000000000       0.78125000000000000        0.0000000000000000     
   1.3125000000000000       0.78125000000000000        0.0000000000000000     
   1.3437500000000000       0.78125000000000000        0.0000000000000000     
   1.3750000000000000       0.78125000000000000        0.0000000000000000     
   1.2500000000000000       0.81250000000000000        0.0000000000000000     
   1.2812500000000000       0.81250000000000000        0.0000000000000000     
   1.3125000000000000       0.81250000000000000        0.0000000000000000     
   1.3437500000000000       0.81250000000000000        0.0000000000000000     
   1.3750000000000000       0.81250000000000000        0.0000000000000000     
   1.2500000000000000       0.84375000000000000        0.0000000000000000     
   1.2812500000000000       0.84375000000000000        0.0000000000000000     
   1.3125000000000000       0.84375000000000000        0.0000000000000000     
   1.3437500000000000       0.84375000000000000        0.0000000000000000     
   1.3750000000000000       0.84375000000000000        0.0000000000000000     
   1.2500000000000000       0.87500000000000000        0.0000000000000000     
   1.2812500000000000       0.87500000000000000        0.0000000000000000     
   1.3125000000000000       0.87500000000000000        0.0000000000000000     
   1.3437500000000000       0.87500000000000000        0.0000000000000000     
   1.3750000000000000       0.87500000000000000        0.0000000000000000     
   1.3750000000000000       0.75000000000000000        0.0000000000000000     
   1.4062500000000000       0.75000000000000000        0.0000000000000000     
   1.4375000000000000       0.75000000000000000        0.0000000000000000     
   1.4687500000000000       0.75000000000000000        0.0000000000000000     
   1.5000000000000000       0.75000000000000000        0.0000000000000000     
   1.3750000000000000       0.78125000000000000        0.0000000000000000     
   1.4062500000000000       0.78125000000000000        0.0000000000000000     
   1.4375000000000000       0.78125000000000000        0.0000000000000000     
   1.4687500000000000       0.78125000000000000        0.0000000000000000     
   1.5000000000000000       0.78125000000000000        0.0000000000000000     
   1.3750000000000000       0.81250000000000000        0.0000000000000000     
   1.4062500000000000       0.81250000000000000        0.0000000000000000     
   1.4375000000000000       0.81250000000000000        0.0000000000000000     
   1.4687500000000000       0.81250000000000000        0.0000000000000000     
   1.5000000000000000       0.81250000000000000        0.0000000000000000     
   1.3750000000000000       0.84375000000000000        0.0000000000000000     
   1.4062500000000000       0.84375000000000000        0.0000000000000000     
   1.4375000000000000       0.84375000000000000        0.0000000000000000     
   1.4687500000000000       0.84375000000000000        0.0000000000000000     
   1.5000000000000000       0.84375000000000000        0.0000000000000000     
   1.3750000000000000       0.87500000000000000        0.0000000000000000     
   1.4062500000000000       0.87500000000000000        0.0000000000000000     
   1.4375000000000000       0.87500000000000000        0.0000000000000000     
   1.4687500000000000       0.87500000000000000        0.0000000000000000     
   1.5000000000000000       0.87500000000000000        0.0000000000000000     
  0.50000000000000000       0.87500000000000000        0.0000000000000000     
  0.53125000000000000       0.87500000000000000        0.0000000000000000     
  0.56250000000000000       0.87500000000000000        0.0000000000000000     
  0.59375000000000000       0.87500000000000000        0.0000000000000000     
  0.62500000000000000       0.87500000000000000        0.0000000000000000     
  0.50000000000000000       0.90625000000000000        0.0000000000000000     
  0.53125000000000000       0.90625000000000000        0.0000000000000000     
  0.56250000000000000       0.90625000000000000        0.0000000000000000     
  0.59375000000000000       0.90625000000000000        0.0000000000000000     
  0.62500000000000000       0.90625000000000000        0.0000000000000000     
  0.50000000000000000       0.93750000000000000        0.0000000000000000     
  0.53125000000000000       0.93750000000000000        0.0000000000000000     
  0.56250000000000000       0.93750000000000000        0.0000000000000000     
  0.59375000000000000       0.93750000000000000        0.0000000000000000     
  0.62500000000000000       0.93750000000000000        0.0000000000000000     
  0.50000000000000000       0.96875000000000000        0.0000000000000000     
  0.53125000000000000       0.96875000000000000        0.0000000000000000     
  0.56250000000000000       0.96875000000000000        0.0000000000000000     
  0.59375000000000000       0.96875000000000000        0.0000000000000000     
  0.62500000000000000       0.96875000000000000        0.0000000000000000     
  0.50000000000000000        1.0000000000000000        0.0000000000000000     
  0.53125000000000000        1.0000000000000000        0.0000000000000000     
  0.56250000000000000        1.0000000000000000        0.0000000000000000     
  0.59375000000000000        1.0000000000000000        0.0000000000000000     
  0.62500000000000000        1.0000000000000000        0.0000000000000000     
  0.62500000000000000       0.87500000000000000        0.0000000000000000     
  0.65625000000000000       0.87500000000000000        0.0000000000000000     
  0.68750000000000000       0.87500000000000000        0.0000000000000000     
  0.71875000000000000       0.87500000000000000        0.0000000000000000     
  0.75000000000000000       0.87500000000000000        0.0000000000000000     
  0.62500000000000000       0.90625000000000000        0.0000000000000000     
  0.65625000000000000       0.90625000000000000        0.0000000000000000     
  0.68750000000000000       0.90625000000000000        0.0000000000000000     
  0.71875000000000000       0.90625000000000000        0.0000000000000000     
  0.75000000000000000       0.90625000000000000        0.0000000000000000     
  0.62500000000000000       0.93750000000000000        0.0000000000000000     
  0.65625000000000000       0.93750000000000000        0.0000000000000000     
  0.68750000000000000       0.93750000000000000        0.0000000000000000     
  0.71875000000000000       0.93750000000000000        0.0000000000000000     
  0.75000000000000000       0.93750000000000000        0.0000000000000000     
  0.62500000000000000       0.96875000000000000        0.0000000000000000     
  0.65625000000000000       0.96875000000000000        0.0000000000000000     
  0.68750000000000000       0.96875000000000000        0.0000000000000000     
  0.71875000000000000       0.96875000000000000        0.0000000000000000     
  0.75000000000000000       0.96875000000000000        0.0000000000000000     
  0.62500000000000000        1.0000000000000000        0.0000000000000000     
  0.65625000000000000        1.0000000000000000        0.0000000000000000     
  0.68750000000000000        1.0000000000000000        0.0000000000000000     
  0.71875000000000000        1.0000000000000000        0.0000000000000000     
  0.75000000000000000        1.0000000000000000        0.0000000000000000     
  0.75000000000000000       0.87500000000000000        0.0000000000000000     
  0.78125000000000000       0.87500000000000000        0.0000000000000000     
  0.81250000000000000       0.87500000000000000        0.0000000000000000     
  0.84375000000000000       0.87500000000000000        0.0000000000000000     
  0.87500000000000000       0.87500000000000000        0.0000000000000000     
  0.75000000000000000       0.90625000000000000        0.0000000000000000     
  0.78125000000000000       0.90625000000000000        0.0000000000000000     
  0.81250000000000000       0.90625000000000000        0.0000000000000000     
  0.84375000000000000       0.90625000000000000        0.0000000000000000     
  0.87500000000000000       0.90625000000000000        0.0000000000000000     
  0.75000000000000000       0.93750000000000000        0.0000000000000000     
  0.78125000000000000       0.93750000000000000        0.0000000000000000     
  0.81250000000000000       0.93750000000000000        0.0000000000000000     
  0.84375000000000000       0.93750000000000000        0.0000000000000000     
  0.87500000000000000       0.93750000000000000        0.0000000000000000     
  0.75000000000000000       0.96875000000000000        0.0000000000000000     
  0.78125000000000000       0.96875000000000000        0.0000000000000000     
  0.81250000000000000       0.96875000000000000        0.0000000000000000     
  0.84375000000000000       0.96875000000000000        0.0000000000000000     
  0.87500000000000000       0.96875000000000000        0.0000000000000000     
  0.75000000000000000        1.0000000000000000        0.0000000000000000     
  0.78125000000000000        1.0000000000000000        0.0000000000000000     
  0.81250000000000000        1.0000000000000000        0.0000000000000000     
  0.84375000000000000        1.0000000000000000        0.0000000000000000     
  0.87500000000000000        1.0000000000000000        0.0000000000000000     
  0.87500000000000000       0.87500000000000000        0.0000000000000000     
  0.90625000000000000       0.87500000000000000        0.0000000000000000     
  0.93750000000000000       0.87500000000000000        0.0000000000000000     
  0.96875000000000000       0.87500000000000000        0.0000000000000000     
   1.0000000000000000       0.87500000000000000        0.0000000000000000     
  0.87500000000000000       0.90625000000000000        0.0000000000000000     
  0.90625000000000000       0.90625000000000000        0.0000000000000000     
  0.93750000000000000       0.90625000000000000        0.0000000000000000     
  0.96875000000000000       0.90625000000000000        0.0000000000000000     
   1.0000000000000000       0.90625000000000000        0.0000000000000000     
  0.87500000000000000       0.93750000000000000        0.0000000000000000     
  0.90625000000000000       0.93750000000000000        0.0000000000000000     
  0.93750000000000000       0.93750000000000000        0.0000000000000000     
  0.96875000000000000       0.93750000000000000        0.0000000000000000     
   1.0000000000000000       0.93750000000000000        0.0000000000000000     
  0.87500000000000000       0.96875000000000000        0.0000000000000000     
  0.90625000000000000       0.96875000000000000        0.0000000000000000     
  0.93750000000000000       0.96875000000000000        0.0000000000000000     
  0.96875000000000000       0.96875000000000000        0.0000000000000000     
   1.0000000000000000       0.96875000000000000        0.0000000000000000     
  0.87500000000000000        1.0000000000000000        0.0000000000000000     
  0.90625000000000000        1.0000000000000000        0.0000000000000000     
  0.93750000000000000        1.0000000000000000        0.0000000000000000     
  0.96875000000000000        1.0000000000000000        0.0000000000000000     
   1.0000000000000000        1.0000000000000000        0.0000000000000000     
   1.0000000000000000       0.87500000000000000        0.0000000000000000     
   1.0312500000000000       0.87500000000000000        0.0000000000000000     
   1.0625000000000000       0.87500000000000000        0.0000000000000000     
   1.0937500000000000       0.87500000000000000        0.0000000000000000     
   1.1250000000000000       0.87500000000000000        0.0000000000000000     
   1.0000000000000000       0.90625000000000000        0.0000000000000000     
   1.0312500000000000       0.90625000000000000        0.0000000000000000     
   1.0625000000000000       0.90625000000000000        0.0000000000000000     
   1.0937500000000000       0.90625000000000000        0.0000000000000000     
   1.1250000000000000       0.90625000000000000        0.0000000000000000     
   1.0000000000000000       0.93750000000000000        0.0000000000000000     
   1.0312500000000000       0.93750000000000000        0.0000000000000000     
   1.0625000000000000       0.93750000000000000        0.0000000000000000     
   1.0937500000000000       0.93750000000000000        0.0000000000000000     
   1.1250000000000000       0.93750000000000000        0.0000000000000000     
   1.0000000000000000       0.96875000000000000        0.0000000000000000     
   1.0312500000000000       0.96875000000000000        0.0000000000000000     
   1.0625000000000000       0.96875000000000000        0.0000000000000000     
   1.0937500000000000       0.96875000000000000        0.0000000000000000     
   1.1250000000000000       0.96875000000000000        0.0000000000000000     
   1.0000000000000000        1.0000000000000000        0.0000000000000000     
   1.0312500000000000        1.0000000000000000        0.0000000000000000     
   1.0625000000000000        1.0000000000000000        0.0000000000000000     
   1.0937500000000000        1.0000000000000000        0.0000000000000000     
   1.1250000000000000        1.0000000000000000        0.0000000000000000     
   1.1250000000000000       0.87500000000000000        0.0000000000000000     
   1.1562500000000000       0.87500000000000000        0.0000000000000000     
   1.1875000000000000       0.87500000000000000        0.0000000000000000     
   1.2187500000000000       0.87500000000000000        0.0000000000000000     
   1.2500000000000000       0.87500000000000000        0.0000000000000000     
   1.1250000000000000       0.90625000000000000        0.0000000000000000     
   1.1562500000000000       0.90625000000000000        0.0000000000000000     
   1.1875000000000000       0.90625000000000000        0.0000000000000000     
   1.2187500000000000       0.90625000000000000        0.0000000000000000     
   1.2500000000000000       0.90625000000000000        0.0000000000000000     
   1.1250000000000000       0.93750000000000000        0.0000000000000000     
   1.1562500000000000       0.93750000000000000        0.0000000000000000     
   1.1875000000000000       0.93750000000000000        0.0000000000000000     
   1.2187500000000000       0.93750000000000000        0.0000000000000000     
   1.2500000000000000       0.93750000000000000        0.0000000000000000     
   1.1250000000000000       0.96875000000000000        0.0000000000000000     
   1.1562500000000000       0.96875000000000000        0.0000000000000000     
   1.1875000000000000       0.96875000000000000        0.0000000000000000     
   1.2187500000000000       0.96875000000000000        0.0000000000000000     
   1.2500000000000000       0.96875000000000000        0.0000000000000000     
   1.1250000000000000        1.0000000000000000        0.0000000000000000     
   1.1562500000000000        1.0000000000000000        0.0000000000000000     
   1.1875000000000000        1.0000000000000000        0.0000000000000000     
   1.2187500000000000        1.0000000000000000        0.0000000000000000     
   1.2500000000000000        1.0000000000000000        0.0000000000000000     
   1.2500000000000000       0.87500000000000000        0.0000000000000000     
   1.2812500000000000       0.87500000000000000        0.0000000000000000     
   1.3125000000000000       0.87500000000000000        0.0000000000000000     
   1.3437500000000000       0.87500000000000000        0.0000000000000000     
   1.3750000000000000       0.87500000000000000        0.0000000000000000     
   1.2500000000000000       0.90625000000000000        0.0000000000000000     
   1.2812500000000000       0.90625000000000000        0.0000000000000000     
   1.3125000000000000       0.90625000000000000        0.0000000000000000     
   1.3437500000000000       0.90625000000000000        0.0000000000000000     
   1.3750000000000000       0.90625000000000000        0.0000000000000000     
   1.2500000000000000       0.93750000000000000        0.0000000000000000     
   1.2812500000000000       0.93750000000000000        0.0000000000000000     
   1.3125000000000000       0.93750000000000000        0.0000000000000000     
   1.3437500000000000       0.93750000000000000        0.0000000000000000     
   1.3750000000000000       0.93750000000000000        0.0000000000000000     
   1.2500000000000000       0.96875000000000000        0.0000000000000000     
   1.2812500000000000       0.96875000000000000        0.0000000000000000     
   1.3125000000000000       0.96875000000000000        0.0000000000000000     
   1.3437500000000000       0.96875000000000000        0.0000000000000000     
   1.3750000000000000       0.96875000000000000        0.0000000000000000     
   1.2500000000000000        1.0000000000000000        0.0000000000000000     
   1.2812500000000000        1.0000000000000000        0.0000000000000000     
   1.3125000000000000        1.0000000000000000        0.0000000000000000     
   1.3437500000000000        1.0000000000000000        0.0000000000000000     
   1.3750000000000000        1.0000000000000000        0.0000000000000000     
   1.3750000000000000       0.87500000000000000        0.0000000000000000     
   1.4062500000000000       0.87500000000000000        0.0000000000000000     
   1.4375000000000000       0.87500000000000000        0.0000000000000000     
   1.4687500000000000       0.87500000000000000        0.0000000000000000     
   1.5000000000000000       0.87500000000000000        0.0000000000000000     
   1.3750000000000000       0.90625000000000000        0.0000000000000000     
   1.4062500000000000       0.90625000000000000        0.0000000000000000     
   1.4375000000000000       0.90625000000000000        0.0000000000000000     
   1.4687500000000000       0.90625000000000000        0.0000000000000000     
   1.5000000000000000       0.90625000000000000        0.0000000000000000     
   1.3750000000000000       0.93750000000000000        0.0000000000000000     
   1.4062500000000000       0.93750000000000000        0.0000000000000000     
   1.4375000000000000       0.93750000000000000        0.0000000000000000     
   1.4687500000000000       0.93750000000000000        0.0000000000000000     
   1.5000000000000000       0.93750000000000000        0.0000000000000000     
   1.3750000000000000       0.96875000000000000        0.0000000000000000     
   1.4062500000000000       0.96875000000000000        0.0000000000000000     
   1.4375000000000000       0.96875000000000000        0.0000000000000000     
   1.4687500000000000       0.96875000000000000        0.0000000000000000     
   1.5000000000000000       0.96875000000000000        0.0000000000000000     
   1.3750000000000000        1.0000000000000000        0.0000000000000000     
   1.4062500000000000        1.0000000000000000        0.0000000000000000     
   1.4375000000000000        1.0000000000000000        0.0000000000000000     
   1.4687500000000000        1.0000000000000000        0.0000000000000000     
   1.5000000000000000        1.0000000000000000        0.0000000000000000     
 </DataArray>
 </Points>
 <Cells>
 <DataArray  type="Int32"  Name="connectivity"  format="ascii">
           0           1           6           5
           1           2           7           6
           2           3           8           7
           3           4           9           8
           5           6          11          10
           6           7          12          11
           7           8          13          12
           8           9          14          13
          10          11          16          15
          11          12          17          16
          12          13          18          17
          13          14          19          18
          15          16          21          20
          16          17          22          21
          17          18          23          22
          18          19          24          23
          25          26          31          30
          26          27          32          31
          27          28          33          32
          28          29          34          33
          30          31          36          35
          31          32          37          36
          32          33          38          37
          33          34          39          38
          35          36          41          40
          36          37          42          41
          37          38          43          42
          38          39          44          43
          40          41          46          45
          41          42          47          46
          42          43          48          47
          43          44          49          48
          50          51          56          55
          51          52          57          56
          52          53          58          57
          53          54          59          58
          55          56          61          60
          56          57          62          61
          57          58          63          62
          58          59          64          63
          60          61          66          65
          61          62          67          66
          62          63          68          67
          63          64          69          68
          65          66          71          70
          66          67          72          71
          67          68          73          72
          68          69          74          73
          75          76          81          80
          76          77          82          81
          77          78          83          82
          78          79          84          83
          80          81          86          85
          81          82          87          86
          82          83          88          87
          83          84          89          88
          85          86          91          90
          86          87          92          91
          87          88          93          92
          88          89          94          93
          90          91          96          95
          91          92          97          96
          92          93          98          97
          93          94          99          98
         100         101         106         105
         101         102         107         106
         102         103         108         107
         103         104         109         108
         105         106         111         110
         106         107         112         111
         107         108         113         112
         108         109         114         113
         110         111         116         115
         111         112         117         116
         112         113         118         117
         113         114         119         118
         115         116         121         120
         116         117         122         121
         117         118         123         122
         118         119         124         123
         125         126         131         130
         126         127         132         131
         127         128         133         132
         128         129         134         133
         130         131         136         135
         131         132         137         136
         132         133         138         137
         133         134         139         138
         135         136         141         140
         136         137         142         141
         137         138         143         142
         138         139         144         143
         140         141         146         145
         141         142         147         146
         142         143         148         147
         143         144         149         148
         150         151         156         155
         151         152         157         156
         152         153         158         157
         153         154         159         158
         155         156         161         160
         156         157         162         161
         157         158         163         162
         158         159         164         163
         160         161         166         165
         161         162         167         166
         162         163         168         167
         163         164         169         168
         165         166         171         170
         166         167         172         171
         167         168         173         172
         168         169         174         173
         175         176         181         180
         176         177         182         181
         177         178         183         182
         178         179         184         183
         180         181         186         185
         181         182         187         186
         182         183         188         187
         183         184         189         188
         185         186         191         190
         186         187         192         191
         187         188         193         192
         188         189         194         193
         190         191         196         195
         191         192         197         196
         192         193         198         197
         193         194         199         198
         200         201         206         205
         201         202         207         206
         202         203         208         207
         203         204         209         208
         205         206         211         210
         206         207         212         211
         207         208         213         212
         208         209         214         213
         210         211         216         215
         211         212         217         216
         212         213         218         217
         213         214         219         218
         215         216         221         220
         216         217         222         221
         217         218         223         222
         218         219         224         223
         225         226         231         230
         226         227         232         231
         227         228         233         232
         228         229         234         233
         230         231         236         235
         231         232         237         236
         232         233         238         237
         233         234         239         238
         235         236         241         240
         236         237         242         241
         237         238         243         242
         238         239         244         243
         240         241         246         245
         241         242         247         246
         242         243         248         247
         243         244         249         248
         250         251         256         255
         251         252         257         256
         252         253         258         257
         253         254         259         258
         255         256         261         260
         256         257         262         261
         257         258         263         262
         258         259         264         263
         260         261         266         265
         261         262         267         266
         262         263         268         267
         263         264         269         268
         265         266         271         270
         266         267         272         271
         267         268         273         272
         268         269         274         273
         275         276         281         280
         276         277         282         281
         277         278         283         282
         278         279         284         283
         280         281         286         285
         281         282         287         286
         282         283         288         287
         283         284         289         288
         285         286         291         290
         286         287         292         291
         287         288         293         292
         288         289         294         293
         290         291         296         295
         291         292         297         296
         292         293         298         297
         293         294         299         298
         300         301         306         305
         301         302         307         306
         302         303         308         307
         303         304         309         308
         305         306         311         310
         306         307         312         311
         307         308         313         312
         308         309         314         313
         310         311         316         315
         311         312         317         316
         312         313         318         317
         313         314         319         318
         315         316         321         320
         316         317         322         321
         317         318         323         322
         318         319         324         323
         325         326         331         330
         326         327         332         331
         327         328         333         332
         328         329         334         333
         330         331         336         335
         331         332         337         336
         332         333         338         337
         333         334         339         338
         335         336         341         340
         336         337         342         341
         337         338         343         342
         338         339         344         343
         340         341         346         345
         341         342         347         346
         342         343         348         347
         343         344         349         348
         350         351         356         355
         351         352         357         356
         352         353         358         357
         353         354         359         358
         355         356         361         360
         356         357         362         361
         357         358         363         362
         358         359         364         363
         360         361         366         365
         361         362         367         366
         362         363         368         367
         363         364         369         368
         365         366         371         370
         366         367         372         371
         367         368         373         372
         368         369         374         373
         375         376         381         380
         376         377         382         381
         377         378         383         382
         378         379         384         383
         380         381         386         385
         381         382         387         386
         382         383         388         387
         383         384         389         388
         385         386         391         390
         386         387         392         391
         387         388         393         392
         388         389         394         393
         390         391         396         395
         391         392         397         396
         392         393         398         397
         393         394         399         398
         400         401         406         405
         401         402         407         406
         402         403         408         407
         403         404         409         408
         405         406         411         410
         406         407         412         411
         407         408         413         412
         408         409         414         413
         410         411         416         415
         411         412         417         416
         412         413         418         417
         413         414         419         418
         415         416         421         420
         416         417         422         421
         417         418         423         422
         418         419         424         423
         425         426         431         430
         426         427         432         431
         427         428         433         432
         428         429         434         433
         430         431         436         435
         431         432         437         436
         432         433         438         437
         433         434         439         438
         435         436         441         440
         436         437         442         441
         437         438         443         442
         438         439         444         443
         440         441         446         445
         441         442         447         446
         442         443         448         447
         443         444         449         448
         450         451         456         455
         451         452         457         456
         452         453         458         457
         453         454         459         458
         455         456         461         460
         456         457         462         461
         457         458         463         462
         458         459         464         463
         460         461         466         465
         461         462         467         466
         462         463         468         467
         463         464         469         468
         465         466         471         470
         466         467         472         471
         467         468         473         472
         468         469         474         473
         475         476         481         480
         476         477         482         481
         477         478         483         482
         478         479         484         483
         480         481         486         485
         481         482         487         486
         482         483         488         487
         483         484         489         488
         485         486         491         490
         486         487         492         491
         487         488         493         492
         488         489         494         493
         490         491         496         495
         491         492         497         496
         492         493         498         497
         493         494         499         498
         500         501         506         505
         501         502         507         506
         502         503         508         507
         503         504         509         508
         505         506         511         510
         506         507         512         511
         507         508         513         512
         508         509         514         513
         510         511         516         515
         511         512         517         516
         512         513         518         517
         513         514         519         518
         515         516         521         520
         516         517         522         521
         517         518         523         522
         518         519         524         523
         525         526         531         530
         526         527         532         531
         527         528         533         532
         528         529         534         533
         530         531         536         535
         531         532         537         536
         532         533         538         537
         533         534         539         538
         535         536         541         540
         536         537         542         541
         537         538         543         542
         538         539         544         543
         540         541         546         545
         541         542         547         546
         542         543         548         547
         543         544         549         548
         550         551         556         555
         551         552         557         556
         552         553         558         557
         553         554         559         558
         555         556         561         560
         556         557         562         561
         557         558         563         562
         558         559         564         563
         560         561         566         565
         561         562         567         566
         562         563         568         567
         563         564         569         568
         565         566         571         570
         566         567         572         571
         567         568         573         572
         568         569         574         573
         575         576         581         580
         576         577         582         581
         577         578         583         582
         578         579         584         583
         580         581         586         585
         581         582         587         586
         582         583         588         587
         583         584         589         588
         585         586         591         590
         586         587         592         591
         587         588         593         592
         588         589         594         593
         590         591         596         595
         591         592         597         596
         592         593         598         597
         593         594         599         598
         600         601         606         605
         601         602         607         606
         602         603         608         607
         603         604         609         608
         605         606         611         610
         606         607         612         611
         607         608         613         612
         608         609         614         613
         610         611         616         615
         611         612         617         616
         612         613         618         617
         613         614         619         618
         615         616         621         620
         616         617         622         621
         617         618         623         622
         618         619         624         623
         625         626         631         630
         626         627         632         631
         627         628         633         632
         628         629         634         633
         630         631         636         635
         631         632         637         636
         632         633         638         637
         633         634         639         638
         635         636         641         640
         636         637         642         641
         637         638         643         642
         638         639         644         643
         640         641         646         645
         641         642         647         646
         642         643         648         647
         643         644         649         648
         650         651         656         655
         651         652         657         656
         652         653         658         657
         653         654         659         658
         655         656         661         660
         656         657         662         661
         657         658         663         662
         658         659         664         663
         660         661         666         665
         661         662         667         666
         662         663         668         667
         663         664         669         668
         665         666         671         670
         666         667         672         671
         667         668         673         672
         668         669         674         673
         675         676         681         680
         676         677         682         681
         677         678         683         682
         678         679         684         683
         680         681         686         685
         681         682         687         686
         682         683         688         687
         683         684         689         688
         685         686         691         690
         686         687         692         691
         687         688         693         692
         688         689         694         693
         690         691         696         695
         691         692         697         696
         692         693         698         697
         693         694         699         698
         700         701         706         705
         701         702         707         706
         702         703         708         707
         703         704         709         708
         705         706         711         710
         706         707         712         711
         707         708         713         712
         708         709         714         713
         710         711         716         715
         711         712         717         716
         712         713         718         717
         713         714         719         718
         715         716         721         720
         716         717         722         721
         717         718         723         722
         718         719         724         723
         725         726         731         730
         726         727         732         731
         727         728         733         732
         728         729         734         733
         730         731         736         735
         731         732         737         736
         732         733         738         737
         733         734         739         738
         735         736         741         740
         736         737         742         741
         737         738         743         742
         738         739         744         743
         740         741         746         745
         741         742         747         746
         742         743         748         747
         743         744         749         748
         750         751         756         755
         751         752         757         756
         752         753         758         757
         753         754         759         758
         755         756         761         760
         756         757         762         761
         757         758         763         762
         758         759         764         763
         760         761         766         765
         761         762         767         766
         762         763         768         767
         763         764         769         768
         765         766         771         770
         766         767         772         771
         767         768         773         772
         768         769         774         773
         775         776         781         780
         776         777         782         781
         777         778         783         782
         778         779         784         783
         780         781         786         785
         781         782         787         786
         782         783         788         787
         783         784         789         788
         785         786         791         790
         786         787         792         791
         787         788         793         792
         788         789         794         793
         790         791         796         795
         791         792         797         796
         792         793         798         797
         793         794         799         798
         800         801         806         805
         801         802         807         806
         802         803         808         807
         803         804         809         808
         805         806         811         810
         806         807         812         811
         807         808         813         812
         808         809         814         813
         810         811         816         815
         811         812         817         816
         812         813         818         817
         813         814         819         818
         815         816         821         820
         816         817         822         821
         817         818         823         822
         818         819         824         823
         825         826         831         830
         826         827         832         831
         827         828         833         832
         828         829         834         833
         830         831         836         835
         831         832         837         836
         832         833         838         837
         833         834         839         838
         835         836         841         840
         836         837         842         841
         837         838         843         842
         838         839         844         843
         840         841         846         845
         841         842         847         846
         842         843         848         847
         843         844         849         848
         850         851         856         855
         851         852         857         856
         852         853         858         857
         853         854         859         858
         855         856         861         860
         856         857         862         861
         857         858         863         862
         858         859         864         863
         860         861         866         865
         861         862         867         866
         862         863         868         867
         863         864         869         868
         865         866         871         870
         866         867         872         871
         867         868         873         872
         868         869         874         873
         875         876         881         880
         876         877         882         881
         877         878         883         882
         878         879         884         883
         880         881         886         885
         881         882         887         886
         882         883         888         887
         883         884         889         888
         885         886         891         890
         886         887         892         891
         887         888         893         892
         888         889         894         893
         890         891         896         895
         891         892         897         896
         892         893         898         897
         893         894         899         898
         900         901         906         905
         901         902         907         906
         902         903         908         907
         903         904         909         908
         905         906         911         910
         906         907         912         911
         907         908         913         912
         908         909         914         913
         910         911         916         915
         911         912         917         916
         912         913         918         917
         913         914         919         918
         915         916         921         920
         916         917         922         921
         917         918         923         922
         918         919         924         923
         925         926         931         930
         926         927         932         931
         927         928         933         932
         928         929         934         933
         930         931         936         935
         931         932         937         936
         932         933         938         937
         933         934         939         938
         935         936         941         940
         936         937         942         941
         937         938         943         942
         938         939         944         943
         940         941         946         945
         941         942         947         946
         942         943         948         947
         943         944         949         948
         950         951         956         955
         951         952         957         956
         952         953         958         957
         953         954         959         958
         955         956         961         960
         956         957         962         961
         957         958         963         962
         958         959         964         963
         960         961         966         965
         961         962         967         966
         962         963         968         967
         963         964         969         968
         965         966         971         970
         966         967         972         971
         967         968         973         972
         968         969         974         973
         975         976         981         980
         976         977         982         981
         977         978         983         982
         978         979         984         983
         980         981         986         985
         981         982         987         986
         982         983         988         987
         983         984         989         988
         985         986         991         990
         986         987         992         991
         987         988         993         992
         988         989         994         993
         990         991         996         995
         991         992         997         996
         992         993         998         997
         993         994         999         998
        1000        1001        1006        1005
        1001        1002        1007        1006
        1002        1003        1008        1007
        1003        1004        1009        1008
        1005        1006        1011        1010
        1006        1007        1012        1011
        1007        1008        1013        1012
        1008        1009        1014        1013
        1010        1011        1016        1015
        1011        1012        1017        1016
        1012        1013        1018        1017
        1013        1014        1019        1018
        1015        1016        1021        1020
        1016        1017        1022        1021
        1017        1018        1023        1022
        1018        1019        1024        1023
        1025        1026        1031        1030
        1026        1027        1032        1031
        1027        1028        1033        1032
        1028        1029        1034        1033
        1030        1031        1036        1035
        1031        1032        1037        1036
        1032        1033        1038        1037
        1033        1034        1039        1038
        1035        1036        1041        1040
        1036        1037        1042        1041
        1037        1038        1043        1042
        1038        1039        1044        1043
        1040        1041        1046        1045
        1041        1042        1047        1046
        1042        1043        1048        1047
        1043        1044        1049        1048
        1050        1051        1056        1055
        1051        1052        1057        1056
        1052        1053        1058        1057
        1053        1054        1059        1058
        1055        1056        1061        1060
        1056        1057        1062        1061
        1057        1058        1063        1062
        1058        1059        1064        1063
        1060        1061        1066        1065
        1061        1062        1067        1066
        1062        1063        1068        1067
        1063        1064        1069        1068
        1065        1066        1071        1070
        1066        1067        1072        1071
        1067        1068        1073        1072
        1068        1069        1074        1073
        1075        1076        1081        1080
        1076        1077        1082        1081
        1077        1078        1083        1082
        1078        1079        1084        1083
        1080        1081        1086        1085
        1081        1082        1087        1086
        1082        1083        1088        1087
        1083        1084        1089        1088
        1085        1086        1091        1090
        1086        1087        1092        1091
        1087        1088        1093        1092
        1088        1089        1094        1093
        1090        1091        1096        1095
        1091        1092        1097        1096
        1092        1093        1098        1097
        1093        1094        1099        1098
        1100        1101        1106        1105
        1101        1102        1107        1106
        1102        1103        1108        1107
        1103        1104        1109        1108
        1105        1106        1111        1110
        1106        1107        1112        1111
        1107        1108        1113        1112
        1108        1109        1114        1113
        1110        1111        1116        1115
        1111        1112        1117        1116
        1112        1113        1118        1117
        1113        1114        1119        1118
        1115        1116        1121        1120
        1116        1117        1122        1121
        1117        1118        1123        1122
        1118        1119        1124        1123
        1125        1126        1131        1130
        1126        1127        1132        1131
        1127        1128        1133        1132
        1128        1129        1134        1133
        1130        1131        1136        1135
        1131        1132        1137        1136
        1132        1133        1138        1137
        1133        1134        1139        1138
        1135        1136        1141        1140
        1136        1137        1142        1141
        1137        1138        1143        1142
        1138        1139        1144        1143
        1140        1141        1146        1145
        1141        1142        1147        1146
        1142        1143        1148        1147
        1143        1144        1149        1148
        1150        1151        1156        1155
        1151        1152        1157        1156
        1152        1153        1158        1157
        1153        1154        1159        1158
        1155        1156        1161        1160
        1156        1157        1162        1161
        1157        1158        1163        1162
        1158        1159        1164        1163
        1160        1161        1166        1165
        1161        1162        1167        1166
        1162        1163        1168        1167
        1163        1164        1169        1168
        1165        1166        1171        1170
        1166        1167        1172        1171
        1167        1168        1173        1172
        1168        1169        1174        1173
        1175        1176        1181        1180
        1176        1177        1182        1181
        1177        1178        1183        1182
        1178        1179        1184        1183
        1180        1181        1186        1185
        1181        1182        1187        1186
        1182        1183        1188        1187
        1183        1184        1189        1188
        1185        1186        1191        1190
        1186        1187        1192        1191
        1187        1188        1193        1192
        1188        1189        1194        1193
        1190        1191        1196        1195
        1191        1192        1197        1196
        1192        1193        1198        1197
        1193        1194        1199        1198
        1200        1201        1206        1205
        1201        1202        1207        1206
        1202        1203        1208        1207
        1203        1204        1209        1208
        1205        1206        1211        1210
        1206        1207        1212        1211
        1207        1208        1213        1212
        1208        1209        1214        1213
        1210        1211        1216        1215
        1211        1212        1217        1216
        1212        1213        1218        1217
        1213        1214        1219        1218
        1215        1216        1221        1220
        1216        1217        1222        1221
        1217        1218        1223        1222
        1218        1219        1224        1223
        1225        1226        1231        1230
        1226        1227        1232        1231
        1227        1228        1233        1232
        1228        1229        1234        1233
        1230        1231        1236        1235
        1231        1232        1237        1236
        1232        1233        1238        1237
        1233        1234        1239        1238
        1235        1236        1241        1240
        1236        1237        1242        1241
        1237        1238        1243        1242
        1238        1239        1244        1243
        1240        1241        1246        1245
        1241        1242        1247        1246
        1242        1243        1248        1247
        1243        1244        1249        1248
        1250        1251        1256        1255
        1251        1252        1257        1256
        1252        1253        1258        1257
        1253        1254        1259        1258
        1255        1256        1261        1260
        1256        1257        1262        1261
        1257        1258        1263        1262
        1258        1259        1264        1263
        1260        1261        1266        1265
        1261        1262        1267        1266
        1262        1263        1268        1267
        1263        1264        1269        1268
        1265        1266        1271        1270
        1266        1267        1272        1271
        1267        1268        1273        1272
        1268        1269        1274        1273
        1275        1276        1281        1280
        1276        1277        1282        1281
        1277        1278        1283        1282
        1278        1279        1284        1283
        1280        1281        1286        1285
        1281        1282        1287        1286
        1282        1283        1288        1287
        1283        1284        1289        1288
        1285        1286        1291        1290
        1286        1287        1292        1291
        1287        1288        1293        1292
        1288        1289        1294        1293
        1290        1291        1296        1295
        1291        1292        1297        1296
        1292        1293        1298        1297
        1293        1294        1299        1298
        1300        1301        1306        1305
        1301        1302        1307        1306
        1302        1303        1308        1307
        1303        1304        1309        1308
        1305        1306        1311        1310
        1306        1307        1312        1311
        1307        1308        1313        1312
        1308        1309        1314        1313
        1310        1311        1316        1315
        1311        1312        1317        1316
        1312        1313        1318        1317
        1313        1314        1319        1318
        1315        1316        1321        1320
        1316        1317        1322        1321
        1317        1318        1323        1322
        1318        1319        1324        1323
        1325        1326        1331        1330
        1326        1327        1332        1331
        1327        1328        1333        1332
        1328        1329        1334        1333
        1330        1331        1336        1335
        1331        1332        1337        1336
        1332        1333        1338        1337
        1333        1334        1339        1338
        1335        1336        1341        1340
        1336        1337        1342        1341
        1337        1338        1343        1342
        1338        1339        1344        1343
        1340        1341        1346        1345
        1341        1342        1347        1346
        1342        1343        1348        1347
        1343        1344        1349        1348
        1350        1351        1356        1355
        1351        1352        1357        1356
        1352        1353        1358        1357
        1353        1354        1359        1358
        1355        1356        1361        1360
        1356        1357        1362        1361
        1357        1358        1363        1362
        1358        1359        1364        1363
        1360        1361        1366        1365
        1361        1362        1367        1366
        1362        1363        1368        1367
        1363        1364        1369        1368
        1365        1366        1371        1370
        1366        1367        1372        1371
        1367        1368        1373        1372
        1368        1369        1374        1373
        1375        1376        1381        1380
        1376        1377        1382        1381
        1377        1378        1383        1382
        1378        1379        1384        1383
        1380        1381        1386        1385
        1381        1382        1387        1386
        1382        1383        1388        1387
        1383        1384        1389        1388
        1385        1386        1391        1390
        1386        1387        1392        1391
        1387        1388        1393        1392
        1388        1389        1394        1393
        1390        1391        1396        1395
        1391        1392        1397        1396
        1392        1393        1398        1397
        1393        1394        1399        1398
        1400        1401        1406        1405
        1401        1402        1407        1406
        1402        1403        1408        1407
        1403        1404        1409        1408
        1405        1406        1411        1410
        1406        1407        1412        1411
        1407        1408        1413        1412
        1408        1409        1414        1413
        1410        1411        1416        1415
        1411        1412        1417        1416
        1412        1413        1418        1417
        1413        1414        1419        1418
        1415        1416        1421        1420
        1416        1417        1422        1421
        1417        1418        1423        1422
        1418        1419        1424        1423
        1425        1426        1431        1430
        1426        1427        1432        1431
        1427        1428        1433        1432
        1428        1429        1434        1433
        1430        1431        1436        1435
        1431        1432        1437        1436
        1432        1433        1438        1437
        1433        1434        1439        1438
        1435        1436        1441        1440
        1436        1437        1442        1441
        1437        1438        1443        1442
        1438        1439        1444        1443
        1440        1441        1446        1445
        1441        1442        1447        1446
        1442        1443        1448        1447
        1443        1444        1449        1448
        1450        1451        1456        1455
        1451        1452        1457        1456
        1452        1453        1458        1457
        1453        1454        1459        1458
        1455        1456        1461        1460
        1456        1457        1462        1461
        1457        1458        1463        1462
        1458        1459        1464        1463
        1460        1461        1466        1465
        1461        1462        1467        1466
        1462        1463        1468        1467
        1463        1464        1469        1468
        1465        1466        1471        1470
        1466        1467        1472        1471
        1467        1468        1473        1472
        1468        1469        1474        1473
        1475        1476        1481        1480
        1476        1477        1482        1481
        1477        1478        1483        1482
        1478        1479        1484        1483
        1480        1481        1486        1485
        1481        1482        1487        1486
        1482        1483        1488        1487
        1483        1484        1489        1488
        1485        1486        1491        1490
        1486        1487        1492        1491
        1487        1488        1493        1492
        1488        1489        1494        1493
        1490        1491        1496        1495
        1491        1492        1497        1496
        1492        1493        1498        1497
        1493        1494        1499        1498
        1500        1501        1506        1505
        1501        1502        1507        1506
        1502        1503        1508        1507
        1503        1504        1509        1508
        1505        1506        1511        1510
        1506        1507        1512        1511
        1507        1508        1513        1512
        1508        1509        1514        1513
        1510        1511        1516        1515
        1511        1512        1517        1516
        1512        1513        1518        1517
        1513        1514        1519        1518
        1515        1516        1521        1520
        1516        1517        1522        1521
        1517        1518        1523        1522
        1518        1519        1524        1523
        1525        1526        1531        1530
        1526        1527        1532        1531
        1527        1528        1533        1532
        1528        1529        1534        1533
        1530        1531        1536        1535
        1531        1532        1537        1536
        1532        1533        1538        1537
        1533        1534        1539        1538
        1535        1536        1541        1540
        1536        1537        1542        1541
        1537        1538        1543        1542
        1538        1539        1544        1543
        1540        1541        1546        1545
        1541        1542        1547        1546
        1542        1543        1548        1547
        1543        1544        1549        1548
        1550        1551        1556        1555
        1551        1552        1557        1556
        1552        1553        1558        1557
        1553        1554        1559        1558
        1555        1556        1561        1560
        1556        1557        1562        1561
        1557        1558        1563        1562
        1558        1559        1564        1563
        1560        1561        1566        1565
        1561        1562        1567        1566
        1562        1563        1568        1567
        1563        1564        1569        1568
        1565        1566        1571        1570
        1566        1567        1572        1571
        1567        1568        1573        1572
        1568        1569        1574        1573
        1575        1576        1581        1580
        1576        1577        1582        1581
        1577        1578        1583        1582
        1578        1579        1584        1583
        1580        1581        1586        1585
        1581        1582        1587        1586
        1582        1583        1588        1587
        1583        1584        1589        1588
        1585        1586        1591        1590
        1586        1587        1592        1591
        1587        1588        1593        1592
        1588        1589        1594        1593
        1590        1591        1596        1595
        1591        1592        1597        1596
        1592        1593        1598        1597
        1593        1594        1599        1598
 </DataArray>
 <DataArray  type="Int32"  Name="offsets"  format="ascii"> 
           4
           8
          12
          16
          20
          24
          28
          32
          36
          40
          44
          48
          52
          56
          60
          64
          68
          72
          76
          80
          84
          88
          92
          96
         100
         104
         108
         112
         116
         120
         124
         128
         132
         136
         140
         144
         148
         152
         156
         160
         164
         168
         172
         176
         180
         184
         188
         192
         196
         200
         204
         208
         212
         216
         220
         224
         228
         232
         236
         240
         244
         248
         252
         256
         260
         264
         268
         272
         276
         280
         284
         288
         292
         296
         300
         304
         308
         312
         316
         320
         324
         328
         332
         336
         340
         344
         348
         352
         356
         360
         364
         368
         372
         376
         380
         384
         388
         392
         396
         400
         404
         408
         412
         416
         420
         424
         428
         432
         436
         440
         444
         448
         452
         456
         460
         464
         468
         472
         476
         480
         484
         488
         492
         496
         500
         504
         508
         512
         516
         520
         524
         528
         532
         536
         540
         544
         548
         552
         556
         560
         564
         568
         572
         576
         580
         584
         588
         592
         596
         600
         604
         608
         612
         616
         620
         624
         628
         632
         636
         640
         644
         648
         652
         656
         660
         664
         668
         672
         676
         680
         684
         688
         692
         696
         700
         704
         708
         712
         716
         720
         724
         728
         732
         736
         740
         744
         748
         752
         756
         760
         764
         768
         772
         776
         780
         784
         788
         792
         796
         800
         804
         808
         812
         816
         820
         824
         828
         832
         836
         840
         844
         848
         852
         856
         860
         864
         868
         872
         876
         880
         884
         888
         892
         896
         900
         904
         908
         912
         916
         920
         924
         928
         932
         936
         940
         944
         948
         952
         956
         960
         964
         968
         972
         976
         980
         984
         988
         992
         996
        1000
        1004
        1008
        1012
        1016
        1020
        1024
        1028
        1032
        1036
        1040
        1044
        1048
        1052
        1056
        1060
        1064
        1068
        1072
        1076
        1080
        1084
        1088
        1092
        1096
        1100
        1104
        1108
        1112
        1116
        1120
        1124
        1128
        1132
        1136
        1140
        1144
        1148
        1152
        1156
        1160
        1164
        1168
        1172
        1176
        1180
        1184
        1188
        1192
        1196
        1200
        1204
        1208
        1212
        1216
        1220
        1224
        1228
        1232
        1236
        1240
        1244
        1248
        1252
        1256
        1260
        1264
        1268
        1272
        1276
        1280
        1284
        1288
        1292
        1296
        1300
        1304
        1308
        1312
        1316
        1320
        1324
        1328
        1332
        1336
        1340
        1344
        1348
        1352
        1356
        1360
        1364
        1368
        1372
        1376
        1380
        1384
        1388
        1392
        1396
        1400
        1404
        1408
        1412
        1416
        1420
        1424
        1428
        1432
        1436
        1440
        1444
        1448
        1452
        1456
        1460
        1464
        1468
        1472
        1476
        1480
        1484
        1488
        1492
        1496
        1500
        1504
        1508
        1512
        1516
        1520
        1524
        1528
        1532
        1536
        1540
        1544
        1548
        1552
        1556
        1560
        1564
        1568
        1572
        1576
        1580
        1584
        1588
        1592
        1596
        1600
        1604
        1608
        1612
        1616
        1620
        1624
        1628
        1632
        1636
        1640
        1644
        1648
        1652
        1656
        1660
        1664
        1668
        1672
        1676
        1680
        1684
        1688
        1692
        1696
        1700
        1704
        1708
        1712
        1716
        1720
        1724
        1728
        1732
        1736
        1740
        1744
        1748
        1752
        1756
        1760
        1764
        1768
        1772
        1776
        1780
        1784
        1788
        1792
        1796
        1800
        1804
        1808
        1812
        1816
        1820
        1824
        1828
        1832
        1836
        1840
        1844
        1848
        1852
        1856
        1860
        1864
        1868
        1872
        1876
        1880
        1884
        1888
        1892
        1896
        1900
        1904
        1908
        1912
        1916
        1920
        1924
        1928
        1932
        1936
        1940
        1944
        1948
        1952
        1956
        1960
        1964
        1968
        1972
        1976
        1980
        1984
        1988
        1992
        1996
        2000
        2004
        2008
        2012
        2016
        2020
        2024
        2028
        2032
        2036
        2040
        2044
        2048
        2052
        2056
        2060
        2064
        2068
        2072
        2076
        2080
        2084
        2088
        2092
        2096
        2100
        2104
        2108
        2112
        2116
        2120
        2124
        2128
        2132
        2136
        2140
        2144
        2148
        2152
        2156
        2160
        2164
        2168
        2172
        2176
        2180
        2184
        2188
        2192
        2196
        2200
        2204
        2208
        2212
        2216
        2220
        2224
        2228
        2232
        2236
        2240
        2244
        2248
        2252
        2256
        2260
        2264
        2268
        2272
        2276
        2280
        2284
        2288
        2292
        2296
        2300
        2304
        2308
        2312
        2316
        2320
        2324
        2328
        2332
        2336
        2340
        2344
        2348
        2352
        2356
        2360
        2364
        2368
        2372
        2376
        2380
        2384
        2388
        2392
        2396
        2400
        2404
        2408
        2412
        2416
        2420
        2424
        2428
        2432
        2436
        2440
        2444
        2448
        2452
        2456
        2460
        2464
        2468
        2472
        2476
        2480
        2484
        2488
        2492
        2496
        2500
        2504
        2508
        2512
        2516
        2520
        2524
        2528
        2532
        2536
        2540
        2544
        2548
        2552
        2556
        2560
        2564
        2568
        2572
        2576
        2580
        2584
        2588
        2592
        2596
        2600
        2604
        2608
        2612
        2616
        2620
        2624
        2628
        2632
        2636
        2640
        2644
        2648
        2652
        2656
        2660
        2664
        2668
        2672
        2676
        2680
        2684
        2688
        2692
        2696
        2700
        2704
        2708
        2712
        2716
        2720
        2724
        2728
        2732
        2736
        2740
        2744
        2748
        2752
        2756
        2760
        2764
        2768
        2772
        2776
        2780
        2784
        2788
        2792
        2796
        2800
        2804
        2808
        2812
        2816
        2820
        2824
        2828
        2832
        2836
        2840
        2844
        2848
        2852
        2856
        2860
        2864
        2868
        2872
        2876
        2880
        2884
        2888
        2892
        2896
        2900
        2904
        2908
        2912
        2916
        2920
        2924
        2928
        2932
        2936
        2940
        2944
        2948
        2952
        2956
        2960
        2964
        2968
        2972
        2976
        2980
        2984
        2988
        2992
        2996
        3000
        3004
        3008
        3012
        3016
        3020
        3024
        3028
        3032
        3036
        3040
        3044
        3048
        3052
        3056
        3060
        3064
        3068
        3072
        3076
        3080
        3084
        3088
        3092
        3096
        3100
        3104
        3108
        3112
        3116
        3120
        3124
        3128
        3132
        3136
        3140
        3144
        3148
        3152
        3156
        3160
        3164
        3168
        3172
        3176
        3180
        3184
        3188
        3192
        3196
        3200
        3204
        3208
        3212
        3216
        3220
        3224
        3228
        3232
        3236
        3240
        3244
        3248
        3252
        3256
        3260
        3264
        3268
        3272
        3276
        3280
        3284
        3288
        3292
        3296
        3300
        3304
        3308
        3312
        3316
        3320
        3324
        3328
        3332
        3336
        3340
        3344
        3348
        3352
        3356
        3360
        3364
        3368
        3372
        3376
        3380
        3384
        3388
        3392
        3396
        3400
        3404
        3408
        3412
        3416
        3420
        3424
        3428
        3432
        3436
        3440
        3444
        3448
        3452
        3456
        3460
        3464
        3468
        3472
        3476
        3480
        3484
        3488
        3492
        3496
        3500
        3504
        3508
        3512
        3516
        3520
        3524
        3528
        3532
        3536
        3540
        3544
        3548
        3552
        3556
        3560
        3564
        3568
        3572
        3576
        3580
        3584
        3588
        3592
        3596
        3600
        3604
        3608
        3612
        3616
        3620
        3624
        3628
        3632
        3636
        3640
        3644
        3648
        3652
        3656
        3660
        3664
        3668
        3672
        3676
        3680
        3684
        3688
        3692
        3696
        3700
        3704
        3708
        3712
        3716
        3720
        3724
        3728
        3732
        3736
        3740
        3744
        3748
        3752
        3756
        3760
        3764
        3768
        3772
        3776
        3780
        3784
        3788
        3792
        3796
        3800
        3804
        3808
        3812
        3816
        3820
        3824
        3828
        3832
        3836
        3840
        3844
        3848
        3852
        3856
        3860
        3864
        3868
        3872
        3876
        3880
        3884
        3888
        3892
        3896
        3900
        3904
        3908
        3912
        3916
        3920
        3924
        3928
        3932
        3936
        3940
        3944
        3948
        3952
        3956
        3960
        3964
        3968
        3972
        3976
        3980
        3984
        3988
        3992
        3996
        4000
        4004
        4008
        4012
        4016
        4020
        4024
        4028
        4032
        4036
        4040
        4044
        4048
        4052
        4056
        4060
        4064
        4068
        4072
        4076
        4080
        4084
        4088
        4092
        4096
 </DataArray>
 <DataArray  type="UInt8"  Name="types"  format="ascii">
 9
 9
 9
 9
 9
 9
 9
 9
 9
 9
 9
 9
 9
 9
 9
 9
 9
 9
 9
 9
 9
 9
 9
 9
 9
 9
 9
 9
 9
 9
 9
 9
 9
 9
 9
 9
 9
 9
 9
 9
 9
 9
 9
 9
 9
 9
 9
 9
 9
 9
 9
 9
 9
 9
 9
 9
 9
 9
 9
 9
 9
 9
 9
 9
 9
 9
 9
 9
 9
 9
 9
 9
 9
 9
 9
 9
 9
 9
 9
 9
 9
 9
 9
 9
 9
 9
 9
 9
 9
 9
 9
 9
 9
 9
 9
 9
 9
 9
 9
 9
 9
 9
 9
 9
 9
 9
 9
 9
 9
 9
 9
 9
 9
 9
 9
 9
 9
 9
 9
 9
 9
 9
 9
 9
 9
 9
 9
 9
 9
 9
 9
 9
 9
 9
 9
 9
 9
 9
 9
 9
 9
 9
 9
 9
 9
 9
 9
 9
 9
 9
 9
 9
 9
 9
 9
 9
 9
 9
 9
 9
 9
 9
 9
 9
 9
 9
 9
 9
 9
 9
 9
 9
 9
 9
 9
 9
 9
 9
 9
 9
 9
 9
 9
 9
 9
 9
 9
 9
 9
 9
 9
 9
 9
 9
 9
 9
 9
 9
 9
 9
 9
 9
 9
 9
 9
 9
 9
 9
 9
 9
 9
 9
 9
 9
 9
 9
 9
 9
 9
 9
 9
 9
 9
 9
 9
 9
 9
 9
 9
 9
 9
 9
 9
 9
 9
 9
 9
 9
 9
 9
 9
 9
 9
 9
 9
 9
 9
 9
 9
 9
 9
 9
 9
 9
 9
 9
 9
 9
 9
 9
 9
 9
 9
 9
 9
 9
 9
 9
 9
 9
 9
 9
 9
 9
 9
 9
 9
 9
 9
 9
 9
 9
 9
 9
 9
 9
 9
 9
 9
 9
 9
 9
 9
 9
 9
 9
 9
 9
 9
 9
 9
 9
 9
 9
 9
 9
 9
 9
 9
 9
 9
 9
 9
 9
 9
 9
 9
 9
 9
 9
 9
 9
 9
 9
 9
 9
 9
 9
 9
 9
 9
 9
 9
 9
 9
 9
 9
 9
 9
 9
 9
 9
 9
 9
 9
 9
 9
 9
 9
 9
 9
 9
 9
 9
 9
 9
 9
 9
 9
 9
 9
 9
 9
 9
 9
 9
 9
 9
 9
 9
 9
 9
 9
 9
 9
 9
 9
 9
 9
 9
 9
 9
 9
 9
 9
 9
 9
 9
 9
 9
 9
 9
 9
 9
 9
 9
 9
 9
 9
 9
 9
 9
 9
 9
 9
 9
 9
 9
 9
 9
 9
 9
 9
 9
 9
 9
 9
 9
 9
 9
 9
 9
 9
 9
 9
 9
 9
 9
 9
 9
 9
 9
 9
 9
 9
 9
 9
 9
 9
 9
 9
 9
 9
 9
 9
 9
 9
 9
 9
 9
 9
 9
 9
 9
 9
 9
 9
 9
 9
 9
 9
 9
 9
 9
 9
 9
 9
 9
 9
 9
 9
 9
 9
 9
 9
 9
 9
 9
 9
 9
 9
 9
 9
 9
 9
 9
 9
 9
 9
 9
 9
 9
 9
 9
 9
 9
 9
 9
 9
 9
 9
 9
 9
 9
 9
 9
 9
 9
 9
 9
 9
 9
 9
 9
 9
 9
 9
 9
 9
 9
 9
 9
 9
 9
 9
 9
 9
 9
 9
 9
 9
 9
 9
 9
 9
 9
 9
 9
 9
 9
 9
 9
 9
 9
 9
 9
 9
 9
 9
 9
 9
 9
 9
 9
 9
 9
 9
 9
 9
 9
 9
 9
 9
 9
 9
 9
 9
 9
 9
 9
 9
 9
 9
 9
 9
 9
 9
 9
 9
 9
 9
 9
 9
 9
 9
 9
 9
 9
 9
 9
 9
 9
 9
 9
 9
 9
 9
 9
 9
 9
 9
 9
 9
 9
 9
 9
 9
 9
 9
 9
 9
 9
 9
 9
 9
 9
 9
 9
 9
 9
 9
 9
 9
 9
 9
 9
 9
 9
 9
 9
 9
 9
 9
 9
 9
 9
 9
 9
 9
 9
 9
 9
 9
 9
 9
 9
 9
 9
 9
 9
 9
 9
 9
 9
 9
 9
 9
 9
 9
 9
 9
 9
 9
 9
 9
 9
 9
 9
 9
 9
 9
 9
 9
 9
 9
 9
 9
 9
 9
 9
 9
 9
 9
 9
 9
 9
 9
 9
 9
 9
 9
 9
 9
 9
 9
 9
 9
 9
 9
 9
 9
 9
 9
 9
 9
 9
 9
 9
 9
 9
 9
 9
 9
 9
 9
 9
 9
 9
 9
 9
 9
 9
 9
 9
 9
 9
 9
 9
 9
 9
 9
 9
 9
 9
 9
 9
 9
 9
 9
 9
 9
 9
 9
 9
 9
 9
 9
 9
 9
 9
 9
 9
 9
 9
 9
 9
 9
 9
 9
 9
 9
 9
 9
 9
 9
 9
 9
 9
 9
 9
 9
 9
 9
 9
 9
 9
 9
 9
 9
 9
 9
 9
 9
 9
 9
 9
 9
 9
 9
 9
 9
 9
 9
 9
 9
 9
 9
 9
 9
 9
 9
 9
 9
 9
 9
 9
 9
 9
 9
 9
 9
 9
 9
 9
 9
 9
 9
 9
 9
 9
 9
 9
 9
 9
 9
 9
 9
 9
 9
 9
 9
 9
 9
 9
 9
 9
 9
 9
 9
 9
 9
 9
 9
 9
 9
 9
 9
 9
 9
 9
 9
 9
 9
 9
 9
 9
 9
 9
 9
 9
 9
 9
 9
 9
 9
 9
 9
 9
 9
 9
 9
 9
 9
 9
 9
 9
 9
 9
 9
 9
 9
 9
 9
 9
 9
 9
 9
 9
 9
 9
 9
 9
 9
 9
 9
 9
 9
 9
 9
 9
 9
 9
 9
 9
 9
 9
 9
 9
 9
 9
 9
 9
 9
 9
 9
 9
 9
 9
 9
 9
 9
 9
 9
 9
 9
 9
 9
 9
 9
 9
 9
 9
 9
 9
 9
 9
 9
 9
 9
 9
 9
 9
 9
 9
 9
 9
 9
 9
 9
 9
 9
 9
 9
 9
 9
 9
 9
 9
 9
 9
 9
 9
 9
 9
 9
 9
 9
 9
 9
 9
 9
 9
 9
 9
 9
 9
 9
 9
 9
 9
 9
 9
 9
 9
 9
 9
 9
 9
 9
 9
 9
 9
 9
 9
 9
 9
 9
 9
 9
 9
 9
 9
 9
 9
 9
 9
 9
 9
 9
 9
 9
 9
 9
 9
 9
 9
 9
 9
 9
 9
 9
 9
 9
 9
 </DataArray>
 </Cells> 
 <PointData>
 <DataArray  type="Float64" Name="disp" NumberOfComponents="3" format="ascii">
   6.5046986625437786E-002   6.2894009802842973E-002   0.0000000000000000     
   6.8404511341065233E-002   6.8177001857049307E-002   0.0000000000000000     
   7.1576702904835476E-002   7.3696868932760617E-002   0.0000000000000000     
   7.4563561316748475E-002   7.9453611029976903E-002   0.0000000000000000     
   7.7365086576804257E-002   8.5447228148698151E-002   0.0000000000000000     
   6.0049295067473085E-002   6.1924751503258574E-002   0.0000000000000000     
   6.3006166206342584E-002   6.7301111232929173E-002   0.0000000000000000     
   6.5859215397173682E-002   7.2885121622934299E-002   0.0000000000000000     
   6.8608442639966391E-002   7.8676782673273951E-002   0.0000000000000000     
   7.1253847934720699E-002   8.4676094383948144E-002   0.0000000000000000     
   5.5185739809058124E-002   6.1035361103713354E-002   0.0000000000000000     
   5.7820257023086977E-002   6.6479862797485620E-002   0.0000000000000000     
   6.0404264746267977E-002   7.2113663204328521E-002   0.0000000000000000     
   6.2937762978601153E-002   7.7936762324242070E-002   0.0000000000000000     
   6.5420751720086462E-002   8.3949160157226241E-002   0.0000000000000000     
   5.0456320850192887E-002   6.0225838604207299E-002   0.0000000000000000     
   5.2846783791298410E-002   6.5713256550718649E-002   0.0000000000000000     
   5.5211850952118363E-002   7.1382493676943298E-002   0.0000000000000000     
   5.7551522332652746E-002   7.7233549982881247E-002   0.0000000000000000     
   5.9865797932901546E-002   8.3266425468532468E-002   0.0000000000000000     
   4.5861038190877376E-002   5.9496184004740438E-002   0.0000000000000000     
   4.8085746510976884E-002   6.5001292492628274E-002   0.0000000000000000     
   5.0281974014724819E-002   7.0691613040778631E-002   0.0000000000000000     
   5.2449720702121165E-002   7.6567145649191468E-002   0.0000000000000000     
   5.4588986573165944E-002   8.2627890317866839E-002   0.0000000000000000     
   7.7365086576804257E-002   8.5447228148698151E-002   0.0000000000000000     
   8.0043189900586412E-002   9.1632384831558472E-002   0.0000000000000000     
   8.2659782503678558E-002   9.7963745621191964E-002   0.0000000000000000     
   8.5214864386080655E-002  0.10444131051759863        0.0000000000000000     
   8.7708435547792757E-002  0.11106507952077846        0.0000000000000000     
   7.1253847934720699E-002   8.4676094383948144E-002   0.0000000000000000     
   7.3816596265512957E-002   9.0859871972663847E-002   0.0000000000000000     
   7.6317852616419490E-002   9.7204930657128083E-002   0.0000000000000000     
   7.8757616987440340E-002  0.10371127043734084        0.0000000000000000     
   8.1135889378575465E-002  0.11037889131330213        0.0000000000000000     
   6.5420751720086462E-002   8.3949160157226241E-002   0.0000000000000000     
   6.7848083703818729E-002   9.0141365814985580E-002   0.0000000000000000     
   7.0214611662892779E-002   9.6503888409224567E-002   0.0000000000000000     
   7.2520335597308624E-002  0.10303672793994324        0.0000000000000000     
   7.4765255507066225E-002  0.10973988440714157        0.0000000000000000     
   5.9865797932901546E-002   8.3266425468532468E-002   0.0000000000000000     
   6.2137652215503776E-002   8.9476866358523657E-002   0.0000000000000000     
   6.4350059643098437E-002   9.5860618877481429E-002   0.0000000000000000     
   6.6503020215685521E-002  0.10241768302540581        0.0000000000000000     
   6.8596533933265008E-002  0.10914805880229678        0.0000000000000000     
   5.4588986573165944E-002   8.2627890317866839E-002   0.0000000000000000     
   5.6685301800568057E-002   8.8866373603278120E-002   0.0000000000000000     
   5.8724196557036409E-002   9.5275122061898698E-002   0.0000000000000000     
   6.0705670842571016E-002  0.10185413569372860        0.0000000000000000     
   6.2629724657171870E-002  0.10860341449876779        0.0000000000000000     
   8.7708435547792757E-002  0.11106507952077846        0.0000000000000000     
   9.0082712921277147E-002  0.11781188048878313        0.0000000000000000     
   9.2279913438996164E-002  0.12465854127966433        0.0000000000000000     
   9.4300037100949821E-002  0.13160506189342205        0.0000000000000000     
   9.6143083907138091E-002  0.13865144233005630        0.0000000000000000     
   8.1135889378575465E-002  0.11037889131330213        0.0000000000000000     
   8.3392848344746695E-002  0.11717395001651816        0.0000000000000000     
   8.5468672440875845E-002  0.12406260327849525        0.0000000000000000     
   8.7363361666962902E-002  0.13104485109923336        0.0000000000000000     
   8.9076916023007879E-002  0.13812069347873249        0.0000000000000000     
   7.4765255507066225E-002  0.10973988440714157        0.0000000000000000     
   7.6890500068684628E-002  0.11657326433051507        0.0000000000000000     
   7.8837197958682895E-002  0.12349677422975931        0.0000000000000000     
   8.0605349177061011E-002  0.13051041410487432        0.0000000000000000     
   8.2194953723818978E-002  0.13761418395586000        0.0000000000000000     
   6.8596533933265008E-002  0.10914805880229678        0.0000000000000000     
   7.0575668093090974E-002  0.11600982343077387        0.0000000000000000     
   7.2385489992417340E-002  0.12296105413345654        0.0000000000000000     
   7.4025999631244149E-002  0.13000175091034488        0.0000000000000000     
   7.5497197009571401E-002  0.13713191376143877        0.0000000000000000     
   6.2629724657171870E-002  0.10860341449876779        0.0000000000000000     
   6.4448352417965676E-002  0.11548362731729450        0.0000000000000000     
   6.6113548542079167E-002  0.12245544298958692        0.0000000000000000     
   6.7625313029512329E-002  0.12951886151564507        0.0000000000000000     
   6.8983645880265149E-002  0.13667388289546889        0.0000000000000000     
   9.6143083907138091E-002  0.13865144233005630        0.0000000000000000     
   9.7882509661560937E-002  0.14582038159511637        0.0000000000000000     
   9.9591770168218324E-002  0.15313457869415151        0.0000000000000000     
  0.10127086542711025       0.16059403362716176        0.0000000000000000     
  0.10291979543823671       0.16819874639414714        0.0000000000000000     
   8.9076916023007879E-002  0.13812069347873249        0.0000000000000000     
   9.0689164221832513E-002  0.14531403542760379        0.0000000000000000     
   9.2279934976258596E-002  0.15264878195645837        0.0000000000000000     
   9.3849228286286140E-002  0.16012493306529624        0.0000000000000000     
   9.5397044151915106E-002  0.16774248875411732        0.0000000000000000     
   8.2194953723818978E-002  0.13761418395586000        0.0000000000000000     
   8.3687111733407468E-002  0.14483231357757051        0.0000000000000000     
   8.5162923340277197E-002  0.15218903276485993        0.0000000000000000     
   8.6622388544428136E-002  0.15968434151772823        0.0000000000000000     
   8.8065507345860300E-002  0.16731823983617544        0.0000000000000000     
   7.5497197009571401E-002  0.13713191376143877        0.0000000000000000     
   7.6876352196285830E-002  0.14437521604501652        0.0000000000000000     
   7.8240735260274086E-002  0.15175533111935621        0.0000000000000000     
   7.9590346201536266E-002  0.15927225898445788        0.0000000000000000     
   8.0925185020072288E-002  0.16692599964032148        0.0000000000000000     
   6.8983645880265149E-002  0.13667388289546889        0.0000000000000000     
   7.0256885610467529E-002  0.14394274282994185        0.0000000000000000     
   7.1513370736249318E-002  0.15134767701994725        0.0000000000000000     
   7.2753101257610503E-002  0.15888868546548512        0.0000000000000000     
   7.3976077174551097E-002  0.16656576816655544        0.0000000000000000     
  0.10291979543823671       0.16819874639414714        0.0000000000000000     
  0.10450331019187112       0.17591226436199670        0.0000000000000000     
  0.10598615967828694       0.18369813489759948        0.0000000000000000     
  0.10736834389748412       0.19155635800095555        0.0000000000000000     
  0.10864986284946272       0.19948693367206488        0.0000000000000000     
   9.5397044151915106E-002  0.16774248875411732        0.0000000000000000     
   9.6884629637454492E-002  0.17546997198963274        0.0000000000000000     
   9.8273231807213327E-002  0.18327590573855346        0.0000000000000000     
   9.9562850661191596E-002  0.19116029000087942        0.0000000000000000     
  0.10075348619938927       0.19912312477661065        0.0000000000000000     
   8.8065507345860300E-002  0.16731823983617544        0.0000000000000000     
   8.9452398745117664E-002  0.17506270924696221        0.0000000000000000     
   9.0743181742744206E-002  0.18288973127684932        0.0000000000000000     
   9.1937856338739979E-002  0.19079930592583660        0.0000000000000000     
   9.3036422533104915E-002  0.19879143319392423        0.0000000000000000     
   8.0925185020072288E-002  0.16692599964032148        0.0000000000000000     
   8.2206617514860608E-002  0.17469047613398522        0.0000000000000000     
   8.3396009484879602E-002  0.18253961151248710        0.0000000000000000     
   8.4493360930129283E-002  0.19047340577582725        0.0000000000000000     
   8.5498671850609637E-002  0.19849185892400559        0.0000000000000000     
   7.3976077174551097E-002  0.16656576816655544        0.0000000000000000     
   7.5147285946683365E-002  0.17435327265070155        0.0000000000000000     
   7.6231715033619502E-002  0.18222554644546682        0.0000000000000000     
   7.7229364435359535E-002  0.19018258955085121        0.0000000000000000     
   7.8140234151903465E-002  0.19822440196685467        0.0000000000000000     
  0.10864986284946272       0.19948693367206488        0.0000000000000000     
  0.10984586068752344       0.20749811229505838        0.0000000000000000     
  0.11097148156496704       0.21559814425406698        0.0000000000000000     
  0.11202672548179349       0.22378702954909060        0.0000000000000000     
  0.11301159243800282       0.23206476818012933        0.0000000000000000     
  0.10075348619938927       0.19912312477661065        0.0000000000000000     
  0.10186004321043737       0.20716609794224100        0.0000000000000000     
  0.10289742648296687       0.21529089737426418        0.0000000000000000     
  0.10386563601697775       0.22349752307268028        0.0000000000000000     
  0.10476467181247001       0.23178597503748916        0.0000000000000000     
   9.3036422533104915E-002  0.19879143319392423        0.0000000000000000     
   9.4052535203215382E-002  0.20686351642582040        0.0000000000000000     
   9.4999849226447691E-002  0.21501295896623354        0.0000000000000000     
   9.5878364602801844E-002  0.22323976081516356        0.0000000000000000     
   9.6688081332277853E-002  0.23154392197261053        0.0000000000000000     
   8.5498671850609637E-002  0.19849185892400559        0.0000000000000000     
   8.6423336665857470E-002  0.20659036774579662        0.0000000000000000     
   8.7278749795409519E-002  0.21476432902997500        0.0000000000000000     
   8.8064911239265811E-002  0.22301374277654060        0.0000000000000000     
   8.8781820997426319E-002  0.23133860898549341        0.0000000000000000     
   7.8140234151903465E-002  0.19822440196685467        0.0000000000000000     
   7.8972447598363624E-002  0.20634665190216966        0.0000000000000000     
   7.9734128189852344E-002  0.21454500756548850        0.0000000000000000     
   8.0425275926369610E-002  0.22281946895681121        0.0000000000000000     
   8.1045890807915438E-002  0.23117003607613779        0.0000000000000000     
  0.11301159243800282       0.23206476818012933        0.0000000000000000     
  0.11395083872636794       0.24044299755556101        0.0000000000000000     
  0.11486922063966172       0.24893335508376355        0.0000000000000000     
  0.11576673817788422       0.25753584076473690        0.0000000000000000     
  0.11664339134103541       0.26625045459848118        0.0000000000000000     
  0.10476467181247001       0.23178597503748916        0.0000000000000000     
  0.10559701203015941       0.24017692076666719        0.0000000000000000     
  0.10636513483076165       0.24869102775819049        0.0000000000000000     
  0.10706904021427675       0.25732829601205920        0.0000000000000000     
  0.10770872818070473       0.26608872552827312        0.0000000000000000     
   9.6688081332277853E-002  0.23154392197261053        0.0000000000000000     
   9.7417890154480380E-002  0.23995056123240213        0.0000000000000000     
   9.8056681809014196E-002  0.24848479738836624        0.0000000000000000     
   9.8604456295879259E-002  0.25714663044050279        0.0000000000000000     
   9.9061213615075583E-002  0.26593606038881179        0.0000000000000000     
   8.8781820997426319E-002  0.23133860898549341        0.0000000000000000     
   8.9413473099330898E-002  0.23976391895276594        0.0000000000000000     
   8.9943861574419373E-002  0.24831466397429075        0.0000000000000000     
   9.0372986422691731E-002  0.25699084405006778        0.0000000000000000     
   9.0700847644147958E-002  0.26579245918009697        0.0000000000000000     
   8.1045890807915438E-002  0.23117003607613779        0.0000000000000000     
   8.1583760864710933E-002  0.23961699392775865        0.0000000000000000     
   8.2026674126977159E-002  0.24818062751596409        0.0000000000000000     
   8.2374630594714129E-002  0.25686093684075417        0.0000000000000000     
   8.2627630267921873E-002  0.26565792190212889        0.0000000000000000     
  0.11664339134103541       0.26625045459848118        0.0000000000000000     
  0.11744087057419622       0.27524392644633422        0.0000000000000000     
  0.11810086632244765       0.28468298616963400        0.0000000000000000     
  0.11862337858578964       0.29456763376838052        0.0000000000000000     
  0.11900840736422225       0.30489786924257389        0.0000000000000000     
  0.10770872818070473       0.26608872552827312        0.0000000000000000     
  0.10826592511834784       0.27510540128115468        0.0000000000000000     
  0.10872235741550840       0.28451140824502585        0.0000000000000000     
  0.10907802507218634       0.29430674641988674        0.0000000000000000     
  0.10933292808838174       0.30449141580573735        0.0000000000000000     
   9.9061213615075583E-002  0.26593606038881179        0.0000000000000000     
   9.9438285565583651E-002  0.27495153572133840        0.0000000000000000     
   9.9747003946383944E-002  0.28429150492612781        0.0000000000000000     
   9.9987368757476464E-002  0.29395596800318019        0.0000000000000000     
  0.10015937999886121       0.30394492495249525        0.0000000000000000     
   9.0700847644147958E-002  0.26579245918009697        0.0000000000000000     
   9.0957951915903654E-002  0.27478232976688549        0.0000000000000000     
   9.1174805915074320E-002  0.28402327621294005        0.0000000000000000     
   9.1351409641659984E-002  0.29351529851826086        0.0000000000000000     
   9.1487763095660646E-002  0.30325839668284782        0.0000000000000000     
   8.2627630267921873E-002  0.26565792190212889        0.0000000000000000     
   8.2824924169307826E-002  0.27459778341779578        0.0000000000000000     
   8.3005763321579509E-002  0.28370672210546244        0.0000000000000000     
   8.3170147724736909E-002  0.29298473796512875        0.0000000000000000     
   8.3318077378780053E-002  0.30243183099679483        0.0000000000000000     
   4.5861038190877376E-002   5.9496184004740438E-002   0.0000000000000000     
   4.8085746510976884E-002   6.5001292492628274E-002   0.0000000000000000     
   5.0281974014724819E-002   7.0691613040778631E-002   0.0000000000000000     
   5.2449720702121165E-002   7.6567145649191468E-002   0.0000000000000000     
   5.4588986573165944E-002   8.2627890317866839E-002   0.0000000000000000     
   4.1407799736735876E-002   5.8834148192224489E-002   0.0000000000000000     
   4.3495854246693957E-002   6.4345608504987356E-002   0.0000000000000000     
   4.5541731393112683E-002   7.0049908086393900E-002   0.0000000000000000     
   4.7545431175992067E-002   7.5947046936444121E-002   0.0000000000000000     
   4.9506953595332109E-002   8.2037025055138033E-002   0.0000000000000000     
   3.7104513393392692E-002   5.8227482053571228E-002   0.0000000000000000     
   3.9035816063021173E-002   6.3747842469568772E-002   0.0000000000000000     
   4.0918220546307289E-002   6.9466265604348529E-002   0.0000000000000000     
   4.2751726843251049E-002   7.5382751457910555E-002   0.0000000000000000     
   4.4536334953852452E-002   8.1497300030254780E-002   0.0000000000000000     
   3.2951179160847804E-002   5.7676185588780626E-002   0.0000000000000000     
   3.4705631959958530E-002   6.3207994386372507E-002   0.0000000000000000     
   3.6411441474308637E-002   6.8940685594642531E-002   0.0000000000000000     
   3.8068607703898125E-002   7.4874259213590713E-002   0.0000000000000000     
   3.9677130648726994E-002   8.1008715243217067E-002   0.0000000000000000     
   2.8947797039101223E-002   5.7180258797852705E-002   0.0000000000000000     
   3.0505301937506037E-002   6.2726064255398561E-002   0.0000000000000000     
   3.2021394177116726E-002   6.8473168057275893E-002   0.0000000000000000     
   3.3496073757933301E-002   7.4421570203484652E-002   0.0000000000000000     
   3.4929340679955734E-002   8.0571270694024893E-002   0.0000000000000000     
   5.4588986573165944E-002   8.2627890317866839E-002   0.0000000000000000     
   5.6685301800568057E-002   8.8866373603278120E-002   0.0000000000000000     
   5.8724196557036409E-002   9.5275122061898698E-002   0.0000000000000000     
   6.0705670842571016E-002  0.10185413569372860        0.0000000000000000     
   6.2629724657171870E-002  0.10860341449876779        0.0000000000000000     
   4.9506953595332109E-002   8.2037025055138033E-002   0.0000000000000000     
   5.1420064107220449E-002   8.8306072108428738E-002   0.0000000000000000     
   5.3278528167744754E-002   9.4740417762269352E-002   0.0000000000000000     
   5.5082345776905024E-002  0.10134006201665988        0.0000000000000000     
   5.6831516934701259E-002  0.10810500487160031        0.0000000000000000     
   4.4536334953852452E-002   8.1497300030254780E-002   0.0000000000000000     
   4.6270970783669818E-002   8.7792146433155388E-002   0.0000000000000000     
   4.7954560238261487E-002   9.4249525778386439E-002   0.0000000000000000     
   4.9587103317627446E-002  0.10086943806594798        0.0000000000000000     
   5.1168600021767693E-002  0.10765188329584002        0.0000000000000000     
   3.9677130648726994E-002   8.1008715243217067E-002   0.0000000000000000     
   4.1238021829916177E-002   8.7324596577458016E-002   0.0000000000000000     
   4.2752292768586601E-002   9.3802446110249946E-002   0.0000000000000000     
   4.4219943464738252E-002  0.10044226384159292        0.0000000000000000     
   4.5640973918371165E-002  0.10724404977148692        0.0000000000000000     
   3.4929340679955734E-002   8.0571270694024893E-002   0.0000000000000000     
   3.6321217245959513E-002   8.6903422541336636E-002   0.0000000000000000     
   3.7671725758720104E-002   9.3399178757859885E-002   0.0000000000000000     
   3.8980866218237487E-002  0.10005853934359471        0.0000000000000000     
   4.0248638624511682E-002  0.10688150429854104        0.0000000000000000     
   6.2629724657171870E-002  0.10860341449876779        0.0000000000000000     
   6.4448352417965676E-002  0.11548362731729450        0.0000000000000000     
   6.6113548542079167E-002  0.12245544298958692        0.0000000000000000     
   6.7625313029512329E-002  0.12951886151564507        0.0000000000000000     
   6.8983645880265149E-002  0.13667388289546889        0.0000000000000000     
   5.6831516934701259E-002  0.10810500487160031        0.0000000000000000     
   5.8485523380478965E-002  0.11499973322300848        0.0000000000000000     
   6.0003846853583662E-002  0.12198873396680228        0.0000000000000000     
   6.1386487354015355E-002  0.12907200710298170        0.0000000000000000     
   6.2633444881774053E-002  0.13624955263154670        0.0000000000000000     
   5.1168600021767693E-002  0.10765188329584002        0.0000000000000000     
   5.2664151317800993E-002  0.11456319838084722        0.0000000000000000     
   5.4038858172846135E-002  0.12156972023375440        0.0000000000000000     
   5.5292720586903099E-002  0.12867144885456150        0.0000000000000000     
   5.6425738559971884E-002  0.13586838424326853        0.0000000000000000     
   4.5640973918371165E-002  0.10724404977148692        0.0000000000000000     
   4.6984236229931774E-002  0.11417402279081076        0.0000000000000000     
   4.8218582499866568E-002  0.12119840179044329        0.0000000000000000     
   4.9344012728175540E-002  0.12831718677038451        0.0000000000000000     
   5.0360526914858691E-002  0.13553037773063439        0.0000000000000000     
   4.0248638624511682E-002  0.10688150429854104        0.0000000000000000     
   4.1445778116871300E-002  0.11383220645289907        0.0000000000000000     
   4.2543019834644966E-002  0.12087477863686896        0.0000000000000000     
   4.3540363777832679E-002  0.12800922085045072        0.0000000000000000     
   4.4437809946434439E-002  0.13523553309364431        0.0000000000000000     
   6.8983645880265149E-002  0.13667388289546889        0.0000000000000000     
   7.0256885610467529E-002  0.14394274282994185        0.0000000000000000     
   7.1513370736249318E-002  0.15134767701994725        0.0000000000000000     
   7.2753101257610503E-002  0.15888868546548512        0.0000000000000000     
   7.3976077174551097E-002  0.16656576816655544        0.0000000000000000     
   6.2633444881774053E-002  0.13624955263154670        0.0000000000000000     
   6.3802796868708739E-002  0.14354234457693160        0.0000000000000000     
   6.4952620746668424E-002  0.15097135696357070        0.0000000000000000     
   6.6082916515653137E-002  0.15853658979146393        0.0000000000000000     
   6.7193684175662849E-002  0.16623804306061138        0.0000000000000000     
   5.6425738559971884E-002  0.13586838424326853        0.0000000000000000     
   5.7488170863765536E-002  0.14318147193057096        0.0000000000000000     
   5.8530276269997045E-002  0.15063165744716422        0.0000000000000000     
   5.9552054778666430E-002  0.15821894079304841        0.0000000000000000     
   6.0553506389773679E-002  0.16594332196822337        0.0000000000000000     
   5.0360526914858691E-002  0.13553037773063439        0.0000000000000000     
   5.1313007595637922E-002  0.14286012489085989        0.0000000000000000     
   5.2246337306235145E-002  0.15032857847072792        0.0000000000000000     
   5.3160516046650369E-002  0.15793573847023840        0.0000000000000000     
   5.4055543816883593E-002  0.16568160488939143        0.0000000000000000     
   4.4437809946434439E-002  0.13523553309364431        0.0000000000000000     
   4.5277307064325915E-002  0.14257830345779843        0.0000000000000000     
   4.6100803855382753E-002  0.15006212003426167        0.0000000000000000     
   4.6908300319604981E-002  0.15768698282303403        0.0000000000000000     
   4.7699796456992585E-002  0.16545289182411552        0.0000000000000000     
   7.3976077174551097E-002  0.16656576816655544        0.0000000000000000     
   7.5147285946683365E-002  0.17435327265070155        0.0000000000000000     
   7.6231715033619502E-002  0.18222554644546682        0.0000000000000000     
   7.7229364435359535E-002  0.19018258955085121        0.0000000000000000     
   7.8140234151903465E-002  0.19822440196685467        0.0000000000000000     
   6.7193684175662849E-002  0.16623804306061138        0.0000000000000000     
   6.8254191085489163E-002  0.17404957674025456        0.0000000000000000     
   6.9233704603923654E-002  0.18194505079963502        0.0000000000000000     
   7.0132224730966364E-002  0.18992446523875284        0.0000000000000000     
   7.0949751466617250E-002  0.19798782005760784        0.0000000000000000     
   6.0553506389773679E-002  0.16594332196822337        0.0000000000000000     
   6.1507119976181336E-002  0.17377786634578735        0.0000000000000000     
   6.2385384410751935E-002  0.18169563929883831        0.0000000000000000     
   6.3188299693485453E-002  0.18969664082737622        0.0000000000000000     
   6.3915865824381926E-002  0.19778087093140129        0.0000000000000000     
   5.4055543816883593E-002  0.16568160488939143        0.0000000000000000     
   5.4906072618759870E-002  0.17353814146729987        0.0000000000000000     
   5.5686754454104266E-002  0.18147731194307659        0.0000000000000000     
   5.6397589322916802E-002  0.18949911631672164        0.0000000000000000     
   5.7038577225197458E-002  0.19760355458823498        0.0000000000000000     
   4.7699796456992585E-002  0.16545289182411552        0.0000000000000000     
   4.8451049013224758E-002  0.17333040210479214        0.0000000000000000     
   4.9137814733980691E-002  0.18129006873234993        0.0000000000000000     
   4.9760093619260391E-002  0.18933189170678888        0.0000000000000000     
   5.0317885669063860E-002  0.19745587102810896        0.0000000000000000     
   7.8140234151903465E-002  0.19822440196685467        0.0000000000000000     
   7.8972447598363624E-002  0.20634665190216966        0.0000000000000000     
   7.9734128189852344E-002  0.21454500756548850        0.0000000000000000     
   8.0425275926369610E-002  0.22281946895681121        0.0000000000000000     
   8.1045890807915438E-002  0.23117003607613779        0.0000000000000000     
   7.0949751466617250E-002  0.19798782005760784        0.0000000000000000     
   7.1691263215188900E-002  0.20613182424716903        0.0000000000000000     
   7.2361738380993842E-002  0.21435318679840529        0.0000000000000000     
   7.2961176964032107E-002  0.22265190771131657        0.0000000000000000     
   7.3489578964303692E-002  0.23102798698590293        0.0000000000000000     
   6.3915865824381926E-002  0.19778087093140129        0.0000000000000000     
   6.4571178730788339E-002  0.20594534013302429        0.0000000000000000     
   6.5157334340051762E-002  0.21418705895435644        0.0000000000000000     
   6.5674332652172138E-002  0.22250602739539763        0.0000000000000000     
   6.6122173667149536E-002  0.23090224545614799        0.0000000000000000     
   5.7038577225197458E-002  0.19760355458823498        0.0000000000000000     
   5.7612194145161957E-002  0.20578719955973546        0.0000000000000000     
   5.8120916067026060E-002  0.21404662403334196        0.0000000000000000     
   5.8564742990789745E-002  0.22238182800905446        0.0000000000000000     
   5.8943674916453005E-002  0.23079281148687289        0.0000000000000000     
   5.0317885669063860E-002  0.19745587102810896        0.0000000000000000     
   5.0814309458309760E-002  0.20565740252730252        0.0000000000000000     
   5.1252483561916758E-002  0.21393188203536184        0.0000000000000000     
   5.1632407979884859E-002  0.22227930955228695        0.0000000000000000     
   5.1954082712214064E-002  0.23069968507807775        0.0000000000000000     
   8.1045890807915438E-002  0.23117003607613779        0.0000000000000000     
   8.1583760864710933E-002  0.23961699392775865        0.0000000000000000     
   8.2026674126977159E-002  0.24818062751596409        0.0000000000000000     
   8.2374630594714129E-002  0.25686093684075417        0.0000000000000000     
   8.2627630267921873E-002  0.26565792190212889        0.0000000000000000     
   7.3489578964303692E-002  0.23102798698590293        0.0000000000000000     
   7.3942008545881718E-002  0.23949462247449690        0.0000000000000000     
   7.4313529872839332E-002  0.24806501202943110        0.0000000000000000     
   7.4604142945176560E-002  0.25673915565070554        0.0000000000000000     
   7.4813847762893362E-002  0.26551705333832021        0.0000000000000000     
   6.6122173667149536E-002  0.23090224545614799        0.0000000000000000     
   6.6501471238104515E-002  0.23938164091009756        0.0000000000000000     
   6.6812839218157657E-002  0.24795014153073672        0.0000000000000000     
   6.7056277607308992E-002  0.25660774731806540        0.0000000000000000     
   6.7231786405558491E-002  0.26535445827208365        0.0000000000000000     
   5.8943674916453005E-002  0.23079281148687289        0.0000000000000000     
   5.9262148941379308E-002  0.23927804923456064        0.0000000000000000     
   5.9524602162932115E-002  0.24783601601988098        0.0000000000000000     
   5.9731034581111453E-002  0.25646671184283382        0.0000000000000000     
   5.9881446195917287E-002  0.26517013670341938        0.0000000000000000     
   5.1954082712214064E-002  0.23069968507807775        0.0000000000000000     
   5.2224041655706099E-002  0.23918384744788612        0.0000000000000000     
   5.2448818707162732E-002  0.24772263549686382        0.0000000000000000     
   5.2628413866583929E-002  0.25631604922501083        0.0000000000000000     
   5.2762827133969722E-002  0.26496408863232718        0.0000000000000000     
   8.2627630267921873E-002  0.26565792190212889        0.0000000000000000     
   8.2824924169307826E-002  0.27459778341779578        0.0000000000000000     
   8.3005763321579509E-002  0.28370672210546244        0.0000000000000000     
   8.3170147724736909E-002  0.29298473796512875        0.0000000000000000     
   8.3318077378780053E-002  0.30243183099679483        0.0000000000000000     
   7.4813847762893362E-002  0.26551705333832021        0.0000000000000000     
   7.4984049113361567E-002  0.27439236794565408        0.0000000000000000     
   7.5156151783952962E-002  0.28335876232608620        0.0000000000000000     
   7.5330155774667562E-002  0.29241623647961656        0.0000000000000000     
   7.5506061085505366E-002  0.30156479040624529        0.0000000000000000     
   6.7231786405558491E-002  0.26535445827208365        0.0000000000000000     
   6.7380173535630195E-002  0.27416055462204492        0.0000000000000000     
   6.7542246920248100E-002  0.28299631659720276        0.0000000000000000     
   6.7718006559412208E-002  0.29186174419755706        0.0000000000000000     
   6.7907452453122519E-002  0.30075683742310794        0.0000000000000000     
   5.9881446195917287E-002  0.26517013670341938        0.0000000000000000     
   6.0013297436113736E-002  0.27390234344696834        0.0000000000000000     
   6.0164048730464922E-002  0.28261938491881194        0.0000000000000000     
   6.0333700078970855E-002  0.29132126111895013        0.0000000000000000     
   6.0522251481631519E-002  0.30000797204738289        0.0000000000000000     
   5.2762827133969722E-002  0.26496408863232718        0.0000000000000000     
   5.2883420814812190E-002  0.27361773442042431        0.0000000000000000     
   5.3021557214603443E-002  0.28222796729091387        0.0000000000000000     
   5.3177236333343494E-002  0.29079478724379582        0.0000000000000000     
   5.3350458171032344E-002  0.29931819427907003        0.0000000000000000     
   2.8947797039101223E-002   5.7180258797852705E-002   0.0000000000000000     
   3.0505301937506037E-002   6.2726064255398561E-002   0.0000000000000000     
   3.2021394177116726E-002   6.8473168057275893E-002   0.0000000000000000     
   3.3496073757933301E-002   7.4421570203484652E-002   0.0000000000000000     
   3.4929340679955734E-002   8.0571270694024893E-002   0.0000000000000000     
   2.5068753807155474E-002   5.6741809484638819E-002   0.0000000000000000     
   2.6421520408169433E-002   6.2301618990073859E-002   0.0000000000000000     
   2.7742447682830143E-002   6.8062153200037986E-002   0.0000000000000000     
   2.9031535631137608E-002   7.4023412114531242E-002   0.0000000000000000     
   3.0288784253091824E-002   8.0185395733553613E-002   0.0000000000000000     
   2.1288436244013074E-002   5.6362945452990316E-002   0.0000000000000000     
   2.2440981784454452E-002   6.1934225503825241E-002   0.0000000000000000     
   2.3568971019547465E-002   6.7706081230718251E-002   0.0000000000000000     
   2.4672403949292130E-002   7.3678512633669327E-002   0.0000000000000000     
   2.5751280573688435E-002   7.9851519712678495E-002   0.0000000000000000     
   1.7606844349674040E-002   5.6043666702907224E-002   0.0000000000000000     
   1.8563686066361097E-002   6.1623883796652741E-002   0.0000000000000000     
   1.9500964187268707E-002   6.7404952149316633E-002   0.0000000000000000     
   2.0418678712396863E-002   7.3386871760898933E-002   0.0000000000000000     
   2.1316829641745565E-002   7.9569642631399623E-002   0.0000000000000000     
   1.4023978124138359E-002   5.5783973234389508E-002   0.0000000000000000     
   1.4789633253889375E-002   6.1370593868556339E-002   0.0000000000000000     
   1.5538427185993856E-002   6.7158765955833186E-002   0.0000000000000000     
   1.6270359920451803E-002   7.3148489496220048E-002   0.0000000000000000     
   1.6985431457263219E-002   7.9339764489716927E-002   0.0000000000000000     
   3.4929340679955734E-002   8.0571270694024893E-002   0.0000000000000000     
   3.6321217245959513E-002   8.6903422541336636E-002   0.0000000000000000     
   3.7671725758720104E-002   9.3399178757859885E-002   0.0000000000000000     
   3.8980866218237487E-002  0.10005853934359471        0.0000000000000000     
   4.0248638624511682E-002  0.10688150429854104        0.0000000000000000     
   3.0288784253091824E-002   8.0185395733553613E-002   0.0000000000000000     
   3.1512264174140131E-002   8.6530769647573960E-002   0.0000000000000000     
   3.2700046019729867E-002   9.3042199447061241E-002   0.0000000000000000     
   3.3852129789861012E-002   9.9719685132015415E-002   0.0000000000000000     
   3.4968515484533592E-002  0.10656322670243655        0.0000000000000000     
   2.5751280573688435E-002   7.9851519712678495E-002   0.0000000000000000     
   2.6802869756798336E-002   8.6208783218952756E-002   0.0000000000000000     
   2.7824440362683767E-002   9.2733983903699010E-002   0.0000000000000000     
   2.8815992391344736E-002   9.9427121766917301E-002   0.0000000000000000     
   2.9777525842781247E-002  0.10628819680860761        0.0000000000000000     
   2.1316829641745565E-002   7.9569642631399623E-002   0.0000000000000000     
   2.2193033993934116E-002   8.5937463255472912E-002   0.0000000000000000     
   2.3044908787581815E-002   9.2474532127773151E-002   0.0000000000000000     
   2.3872454022688658E-002   9.9180849248300257E-002   0.0000000000000000     
   2.4675669699254641E-002  0.10605641461705430        0.0000000000000000     
   1.6985431457263219E-002   7.9339764489716927E-002   0.0000000000000000     
   1.7682756885547490E-002   8.5716809757134568E-002   0.0000000000000000     
   1.8361451294424003E-002   9.2263844119283706E-002   0.0000000000000000     
   1.9021514683892769E-002   9.8980867576164380E-002   0.0000000000000000     
   1.9662947053953782E-002  0.10586788012777654        0.0000000000000000     
   4.0248638624511682E-002  0.10688150429854104        0.0000000000000000     
   4.1445778116871300E-002  0.11383220645289907        0.0000000000000000     
   4.2543019834644966E-002  0.12087477863686896        0.0000000000000000     
   4.3540363777832679E-002  0.12800922085045072        0.0000000000000000     
   4.4437809946434439E-002  0.13523553309364431        0.0000000000000000     
   3.4968515484533592E-002  0.10656322670243655        0.0000000000000000     
   3.6021335759634648E-002  0.11353418566816594        0.0000000000000000     
   3.6982723271051246E-002  0.12059392353904502        0.0000000000000000     
   3.7852678018783371E-002  0.12774244031507381        0.0000000000000000     
   3.8631200002831038E-002  0.13497973599625224        0.0000000000000000     
   2.9777525842781247E-002  0.10628819680860761        0.0000000000000000     
   3.0683467939236903E-002  0.11327639673766517        0.0000000000000000     
   3.1508245902955312E-002  0.12035090926298508        0.0000000000000000     
   3.2251859733936475E-002  0.12751173438456739        0.0000000000000000     
   3.2914309432180391E-002  0.13475887210241205        0.0000000000000000     
   2.4675669699254641E-002  0.10605641461705430        0.0000000000000000     
   2.5432174655678052E-002  0.11305883966139674        0.0000000000000000     
   2.6119587730357167E-002  0.12014573580868915        0.0000000000000000     
   2.6737908923291975E-002  0.12731710305893151        0.0000000000000000     
   2.7287138234482491E-002  0.13457294141212384        0.0000000000000000     
   1.9662947053953782E-002  0.10586788012777654        0.0000000000000000     
   2.0267455908958107E-002  0.11288151443936068        0.0000000000000000     
   2.0816748753256804E-002  0.11997840317615721        0.0000000000000000     
   2.1310825586849883E-002  0.12715854633816615        0.0000000000000000     
   2.1749686409737339E-002  0.13442194392538750        0.0000000000000000     
   4.4437809946434439E-002  0.13523553309364431        0.0000000000000000     
   4.5277307064325915E-002  0.14257830345779843        0.0000000000000000     
   4.6100803855382753E-002  0.15006212003426167        0.0000000000000000     
   4.6908300319604981E-002  0.15768698282303403        0.0000000000000000     
   4.7699796456992585E-002  0.16545289182411552        0.0000000000000000     
   3.8631200002831038E-002  0.13497973599625224        0.0000000000000000     
   3.9357838890349710E-002  0.14233319846833797        0.0000000000000000     
   4.0072144348494869E-002  0.14983021561708854        0.0000000000000000     
   4.0774116377266502E-002  0.15747078744250392        0.0000000000000000     
   4.1463754976664616E-002  0.16525491394458416        0.0000000000000000     
   3.2914309432180391E-002  0.13475887210241205        0.0000000000000000     
   3.3531372694229566E-002  0.14212200075942982        0.0000000000000000     
   3.4138827216626505E-002  0.14963079869853141        0.0000000000000000     
   3.4736672999371193E-002  0.15728526591971670        0.0000000000000000     
   3.5324910042463652E-002  0.16508540242298583        0.0000000000000000     
   2.7287138234482491E-002  0.13457294141212384        0.0000000000000000     
   2.7797908475965468E-002  0.14194471033107411        0.0000000000000000     
   2.8300852459777658E-002  0.14946386927859029        0.0000000000000000     
   2.8795970185919065E-002  0.15713041825467247        0.0000000000000000     
   2.9283261654389686E-002  0.16494435725932052        0.0000000000000000     
   2.1749686409737339E-002  0.13442194392538750        0.0000000000000000     
   2.2157446235557411E-002  0.14180132718327074        0.0000000000000000     
   2.2558220077948332E-002  0.14932942735726526        0.0000000000000000     
   2.2952007936910098E-002  0.15700624444737110        0.0000000000000000     
   2.3338809812442723E-002  0.16483177845358826        0.0000000000000000     
   4.7699796456992585E-002  0.16545289182411552        0.0000000000000000     
   4.8451049013224758E-002  0.17333040210479214        0.0000000000000000     
   4.9137814733980691E-002  0.18129006873234993        0.0000000000000000     
   4.9760093619260391E-002  0.18933189170678888        0.0000000000000000     
   5.0317885669063860E-002  0.19745587102810896        0.0000000000000000     
   4.1463754976664616E-002  0.16525491394458416        0.0000000000000000     
   4.2117882062852462E-002  0.17315167174556523        0.0000000000000000     
   4.2713319551993277E-002  0.18113013746768317        0.0000000000000000     
   4.3250067444087069E-002  0.18919031111093795        0.0000000000000000     
   4.3728125739133837E-002  0.19733219267532959        0.0000000000000000     
   3.5324910042463652E-002  0.16508540242298583        0.0000000000000000     
   3.5882404670919424E-002  0.17299897387692015        0.0000000000000000     
   3.6388023209754088E-002  0.18099374595010115        0.0000000000000000     
   3.6841765658967650E-002  0.18906971864252881        0.0000000000000000     
   3.7243632018560076E-002  0.19722689195420320        0.0000000000000000     
   2.9283261654389686E-002  0.16494435725932052        0.0000000000000000     
   2.9744616837425669E-002  0.17287230849885687        0.0000000000000000     
   3.0161925707263147E-002  0.18088089417960385        0.0000000000000000     
   3.0535188263902120E-002  0.18897011430156146        0.0000000000000000     
   3.0864404507342597E-002  0.19713996886472976        0.0000000000000000     
   2.3338809812442723E-002  0.16483177845358826        0.0000000000000000     
   2.3704518562371175E-002  0.17277167561137541        0.0000000000000000     
   2.4035027044520429E-002  0.18079158215619129        0.0000000000000000     
   2.4330335258890497E-002  0.18889149808803593        0.0000000000000000     
   2.4590443205481368E-002  0.19707142340690931        0.0000000000000000     
   5.0317885669063860E-002  0.19745587102810896        0.0000000000000000     
   5.0814309458309760E-002  0.20565740252730252        0.0000000000000000     
   5.1252483561916758E-002  0.21393188203536184        0.0000000000000000     
   5.1632407979884859E-002  0.22227930955228695        0.0000000000000000     
   5.1954082712214064E-002  0.23069968507807775        0.0000000000000000     
   4.3728125739133837E-002  0.19733219267532959        0.0000000000000000     
   4.4151602218797319E-002  0.20554964808003467        0.0000000000000000     
   4.4524604664741257E-002  0.21383654324422990        0.0000000000000000     
   4.4847133076965646E-002  0.22219287816791516        0.0000000000000000     
   4.5119187455470486E-002  0.23061865285109051        0.0000000000000000     
   3.7243632018560076E-002  0.19722689195420320        0.0000000000000000     
   3.7598149975190238E-002  0.20545763526224123        0.0000000000000000     
   3.7909847215516941E-002  0.21375431794375990        0.0000000000000000     
   3.8178723739540198E-002  0.22211693999875920        0.0000000000000000     
   3.8404779547260022E-002  0.23054550142723923        0.0000000000000000     
   3.0864404507342597E-002  0.19713996886472976        0.0000000000000000     
   3.1153952727488513E-002  0.20538136407392207        0.0000000000000000     
   3.1408211214243829E-002  0.21368520613395187        0.0000000000000000     
   3.1627179967608554E-002  0.22205149504481911        0.0000000000000000     
   3.1810858987582666E-002  0.23048023080652380        0.0000000000000000     
   2.4590443205481368E-002  0.19707142340690931        0.0000000000000000     
   2.4819010475692141E-002  0.20532083451507727        0.0000000000000000     
   2.5019696660921908E-002  0.21362920781480579        0.0000000000000000     
   2.5192501761170667E-002  0.22199654330609478        0.0000000000000000     
   2.5337425776438421E-002  0.23042284098894431        0.0000000000000000     
   5.1954082712214064E-002  0.23069968507807775        0.0000000000000000     
   5.2224041655706099E-002  0.23918384744788612        0.0000000000000000     
   5.2448818707162732E-002  0.24772263549686382        0.0000000000000000     
   5.2628413866583929E-002  0.25631604922501083        0.0000000000000000     
   5.2762827133969722E-002  0.26496408863232718        0.0000000000000000     
   4.5119187455470486E-002  0.23061865285109051        0.0000000000000000     
   4.5348161509822002E-002  0.23909770745181053        0.0000000000000000     
   4.5541448949586429E-002  0.24761388212812976        0.0000000000000000     
   4.5699049774763759E-002  0.25616717688004825        0.0000000000000000     
   4.5820963985354006E-002  0.26475759170756585        0.0000000000000000     
   3.8404779547260022E-002  0.23054550142723923        0.0000000000000000     
   3.8595520632464110E-002  0.23901830114807035        0.0000000000000000     
   3.8758452988940185E-002  0.24751363808012322        0.0000000000000000     
   3.8893576616688262E-002  0.25603151222339782        0.0000000000000000     
   3.9000891515708340E-002  0.26457192357789416        0.0000000000000000     
   3.1810858987582666E-002  0.23048023080652380        0.0000000000000000     
   3.1966119023632403E-002  0.23894562853666559        0.0000000000000000     
   3.2099830825224003E-002  0.24742190335284425        0.0000000000000000     
   3.2211994392357439E-002  0.25590905525505969        0.0000000000000000     
   3.2302609725032731E-002  0.26440708424331194        0.0000000000000000     
   2.5337425776438421E-002  0.23042284098894431        0.0000000000000000     
   2.5459956683326908E-002  0.23887968961759629        0.0000000000000000     
   2.5565582458437864E-002  0.24733867794629280        0.0000000000000000     
   2.5654303101771282E-002  0.25579980597503377        0.0000000000000000     
   2.5726118613327180E-002  0.26426307370381924        0.0000000000000000     
   5.2762827133969722E-002  0.26496408863232718        0.0000000000000000     
   5.2883420814812190E-002  0.27361773442042431        0.0000000000000000     
   5.3021557214603443E-002  0.28222796729091387        0.0000000000000000     
   5.3177236333343494E-002  0.29079478724379582        0.0000000000000000     
   5.3350458171032344E-002  0.29931819427907003        0.0000000000000000     
   4.5820963985354006E-002  0.26475759170756585        0.0000000000000000     
   4.5931763737685087E-002  0.27333536404509862        0.0000000000000000     
   4.6056021188084967E-002  0.28185073132706223        0.0000000000000000     
   4.6193736336553638E-002  0.29030369355345692        0.0000000000000000     
   4.6344909183091115E-002  0.29869425072428235        0.0000000000000000     
   3.9000891515708340E-002  0.26457192357789416        0.0000000000000000     
   3.9099546270691996E-002  0.27308386882367691        0.0000000000000000     
   3.9208689466330805E-002  0.28151634464081093        0.0000000000000000     
   3.9328321102624783E-002  0.28986935102929623        0.0000000000000000     
   3.9458441179573922E-002  0.29814288798913274        0.0000000000000000     
   3.2302609725032731E-002  0.26440708424331194        0.0000000000000000     
   3.2386768413832895E-002  0.27286324875615925        0.0000000000000000     
   3.2479562049340958E-002  0.28122480723215987        0.0000000000000000     
   3.2580990631556915E-002  0.28949175967131385        0.0000000000000000     
   3.2691054160480765E-002  0.29766410607362109        0.0000000000000000     
   2.5726118613327180E-002  0.26426307370381924        0.0000000000000000     
   2.5793430167107802E-002  0.27267350384254552        0.0000000000000000     
   2.5868638937115426E-002  0.28097611910110898        0.0000000000000000     
   2.5951744923350038E-002  0.28917091947950968        0.0000000000000000     
   2.6042748125811650E-002  0.29725790497774751        0.0000000000000000     
   1.4023978124138359E-002   5.5783973234389508E-002   0.0000000000000000     
   1.4789633253889375E-002   6.1370593868556339E-002   0.0000000000000000     
   1.5538427185993856E-002   6.7158765955833186E-002   0.0000000000000000     
   1.6270359920451803E-002   7.3148489496220048E-002   0.0000000000000000     
   1.6985431457263219E-002   7.9339764489716927E-002   0.0000000000000000     
   1.0497351959236102E-002   5.5582809996088244E-002   0.0000000000000000     
   1.1073457662713355E-002   6.1173925327779863E-002   0.0000000000000000     
   1.1634923926403001E-002   6.6967390547798489E-002   0.0000000000000000     
   1.2181750750305040E-002   7.2963205656144142E-002   0.0000000000000000     
   1.2713938134419475E-002   7.9161370652816782E-002   0.0000000000000000     
   6.9844802467973451E-003   5.5439121936654470E-002   0.0000000000000000     
   7.3697936085071192E-003   6.1033447782567120E-002   0.0000000000000000     
   7.7440183191762229E-003   6.6830693822743190E-002   0.0000000000000000     
   8.1071543788046579E-003   7.2830860057182673E-002   0.0000000000000000     
   8.4592017873924251E-003   7.9033946485885576E-002   0.0000000000000000     
   3.4853629868220846E-003   5.5352909056088188E-002   0.0000000000000000     
   3.6786410912706658E-003   6.0949161232918110E-002   0.0000000000000000     
   3.8657103643135226E-003   6.6748675780667260E-002   0.0000000000000000     
   4.0465708059506562E-003   7.2751452699335653E-002   0.0000000000000000     
   4.2212224161820647E-003   7.8957491988923295E-002   0.0000000000000000     
   1.7931032136528358E-010   5.5324171354389405E-002   0.0000000000000000     
   1.1100399592567367E-010   6.0921065678832848E-002   0.0000000000000000     
   6.1814899878463725E-011   6.6721336421570743E-002   0.0000000000000000     
   3.1743034172330639E-011   7.2724983582603098E-002   0.0000000000000000     
   2.0788397045445883E-011   7.8932007161929912E-002   0.0000000000000000     
   1.6985431457263219E-002   7.9339764489716927E-002   0.0000000000000000     
   1.7682756885547490E-002   8.5716809757134568E-002   0.0000000000000000     
   1.8361451294424003E-002   9.2263844119283706E-002   0.0000000000000000     
   1.9021514683892769E-002   9.8980867576164380E-002   0.0000000000000000     
   1.9662947053953782E-002  0.10586788012777654        0.0000000000000000     
   1.2713938134419475E-002   7.9161370652816782E-002   0.0000000000000000     
   1.3232211245550915E-002   8.5545904525111197E-002   0.0000000000000000     
   1.3737295250503968E-002   9.2100826260322094E-002   0.0000000000000000     
   1.4229190149278634E-002   9.8826135858449501E-002   0.0000000000000000     
   1.4707895941874912E-002  0.10572183331949339        0.0000000000000000     
   8.4592017873924251E-003   7.9033946485885576E-002   0.0000000000000000     
   8.8015698878568631E-003   8.5423829360576409E-002   0.0000000000000000     
   9.1356680231153200E-003   9.1984384932979751E-002   0.0000000000000000     
   9.4614961931677923E-003   9.8715613203095548E-002   0.0000000000000000     
   9.7790543980142801E-003  0.10561751417092381        0.0000000000000000     
   4.2212224161820647E-003   7.8957491988923295E-002   0.0000000000000000     
   4.3908328124653388E-003   8.5350584263530246E-002   0.0000000000000000     
   4.5565696122580679E-003   9.1914520137256650E-002   0.0000000000000000     
   4.7184328155602511E-003   9.8649299610102548E-002   0.0000000000000000     
   4.8764224223718901E-003  0.10555492268206787        0.0000000000000000     
   2.0788397045445883E-011   7.8932007161929912E-002   0.0000000000000000     
   1.9376339508575535E-011   8.5326169233972668E-002   0.0000000000000000     
   1.7932209970400459E-011   9.1891231873152845E-002   0.0000000000000000     
   1.6456010057223913E-011   9.8627195079470473E-002   0.0000000000000000     
   1.4947738359583074E-011  0.10553405885292552        0.0000000000000000     
   1.9662947053953782E-002  0.10586788012777654        0.0000000000000000     
   2.0267455908958107E-002  0.11288151443936068        0.0000000000000000     
   2.0816748753256804E-002  0.11997840317615721        0.0000000000000000     
   2.1310825586849883E-002  0.12715854633816615        0.0000000000000000     
   2.1749686409737339E-002  0.13442194392538750        0.0000000000000000     
   1.4707895941874912E-002  0.10572183331949339        0.0000000000000000     
   1.5159666306756032E-002  0.11274395630647752        0.0000000000000000     
   1.5570754922385232E-002  0.11984854248242566        0.0000000000000000     
   1.5941161788762499E-002  0.12703559184733779        0.0000000000000000     
   1.6270886905887846E-002  0.13430510440121396        0.0000000000000000     
   9.7790543980142801E-003  0.10561751417092381        0.0000000000000000     
   1.0079160456750818E-002  0.11264570049766785        0.0000000000000000     
   1.0352632188473434E-002  0.11975578484453087        0.0000000000000000     
   1.0599469593182134E-002  0.12694776721151294        0.0000000000000000     
   1.0819672670876914E-002  0.13422164759861402        0.0000000000000000     
   4.8764224223718901E-003  0.10555492268206787        0.0000000000000000     
   5.0259383589424536E-003  0.11258674701293164        0.0000000000000000     
   5.1623805515214199E-003  0.11970013026247288        0.0000000000000000     
   5.2857490001087838E-003  0.12689507243069156        0.0000000000000000     
   5.3960437047045479E-003  0.13417157351758768        0.0000000000000000     
   1.4947738359583074E-011  0.10553405885292552        0.0000000000000000     
   1.3330945722311860E-011  0.11256709585226891        0.0000000000000000     
   1.1529182773403757E-011  0.11968157873625164        0.0000000000000000     
   9.5424509765316967E-012  0.12687750750487364        0.0000000000000000     
   7.3707472417194886E-012  0.13415488215813495        0.0000000000000000     
   2.1749686409737339E-002  0.13442194392538750        0.0000000000000000     
   2.2157446235557411E-002  0.14180132718327074        0.0000000000000000     
   2.2558220077948332E-002  0.14932942735726526        0.0000000000000000     
   2.2952007936910098E-002  0.15700624444737110        0.0000000000000000     
   2.3338809812442723E-002  0.16483177845358826        0.0000000000000000     
   1.6270886905887846E-002  0.13430510440121396        0.0000000000000000     
   1.6577134907543895E-002  0.14169070136429379        0.0000000000000000     
   1.6877110427513289E-002  0.14922600395681693        0.0000000000000000     
   1.7170813465796027E-002  0.15691101217878334        0.0000000000000000     
   1.7458244022392100E-002  0.16474572603019311        0.0000000000000000     
   1.0819672670876914E-002  0.13422164759861402        0.0000000000000000     
   1.1024123426463420E-002  0.14161168292241727        0.0000000000000000     
   1.1223703864847298E-002  0.14915213009950593        0.0000000000000000     
   1.1418413986028546E-002  0.15684298912987993        0.0000000000000000     
   1.1608253790007163E-002  0.16468426001353925        0.0000000000000000     
   5.3960437047045479E-003  0.13417157351758768        0.0000000000000000     
   5.4984117923159810E-003  0.14156427185764126        0.0000000000000000     
   5.5980003899503521E-003  0.14910780578533228        0.0000000000000000     
   5.6948094976076611E-003  0.15680217530066076        0.0000000000000000     
   5.7888391152879064E-003  0.16464738040362667        0.0000000000000000     
   7.3707472417194886E-012  0.13415488215813495        0.0000000000000000     
   5.1015788815611529E-012  0.14154846816996569        0.0000000000000000     
   2.8224553770550553E-012  0.14909303101429602        0.0000000000000000     
   5.3337293349359216E-013  0.15678857069112587        0.0000000000000000     
  -1.7656666059795434E-012  0.16463508720045533        0.0000000000000000     
   2.3338809812442723E-002  0.16483177845358826        0.0000000000000000     
   2.3704518562371175E-002  0.17277167561137541        0.0000000000000000     
   2.4035027044520429E-002  0.18079158215619129        0.0000000000000000     
   2.4330335258890497E-002  0.18889149808803593        0.0000000000000000     
   2.4590443205481368E-002  0.19707142340690931        0.0000000000000000     
   1.7458244022392100E-002  0.16474572603019311        0.0000000000000000     
   1.7729546030116262E-002  0.17269501104947887        0.0000000000000000     
   1.7974863421783255E-002  0.18072373277507331        0.0000000000000000     
   1.8194196197393077E-002  0.18883189120697638        0.0000000000000000     
   1.8387544356945725E-002  0.19701948634518818        0.0000000000000000     
   1.1608253790007163E-002  0.16468426001353925        0.0000000000000000     
   1.1787135425021255E-002  0.17264025064817040        0.0000000000000000     
   1.1948971039308922E-002  0.18067526893145966        0.0000000000000000     
   1.2093760632870163E-002  0.18878931486340719        0.0000000000000000     
   1.2221504205704982E-002  0.19698238844401281        0.0000000000000000     
   5.7888391152879064E-003  0.16464738040362667        0.0000000000000000     
   5.8772867470861453E-003  0.17260739440744990        0.0000000000000000     
   5.9573498970974274E-003  0.18064619062535045        0.0000000000000000     
   6.0290285653217578E-003  0.18876376905732817        0.0000000000000000     
   6.0923227517591322E-003  0.19696012970338317        0.0000000000000000     
  -1.7656666059795434E-012  0.16463508720045533        0.0000000000000000     
  -3.6890642450548849E-012  0.17259644232731752        0.0000000000000000     
  -4.8512242400294836E-012  0.18063649785674554        0.0000000000000000     
  -5.2521415493632373E-012  0.18875525378873947        0.0000000000000000     
  -4.8918195882929894E-012  0.19695271012329926        0.0000000000000000     
   2.4590443205481368E-002  0.19707142340690931        0.0000000000000000     
   2.4819010475692141E-002  0.20532083451507727        0.0000000000000000     
   2.5019696660921908E-002  0.21362920781480579        0.0000000000000000     
   2.5192501761170667E-002  0.22199654330609478        0.0000000000000000     
   2.5337425776438421E-002  0.23042284098894431        0.0000000000000000     
   1.8387544356945725E-002  0.19701948634518818        0.0000000000000000     
   1.8557586255313396E-002  0.20527475811400958        0.0000000000000000     
   1.8707000247368266E-002  0.21358594643774159        0.0000000000000000     
   1.8835786333110345E-002  0.22195305131638413        0.0000000000000000     
   1.8943944512539630E-002  0.23037607274993724        0.0000000000000000     
   1.2221504205704982E-002  0.19698238844401281        0.0000000000000000     
   1.2333943101864539E-002  0.20524184639902179        0.0000000000000000     
   1.2432818665399999E-002  0.21355504545417922        0.0000000000000000     
   1.2518130896311363E-002  0.22192198560948503        0.0000000000000000     
   1.2589879794598628E-002  0.23034266686493934        0.0000000000000000     
   6.0923227517591322E-003  0.19696012970338317        0.0000000000000000     
   6.1480810153455743E-003  0.20522209937011388        0.0000000000000000     
   6.1971519150171009E-003  0.21353650486411860        0.0000000000000000     
   6.2395354507737144E-003  0.22190334618539750        0.0000000000000000     
   6.2752316226154107E-003  0.23032262333395048        0.0000000000000000     
  -4.8918195882929894E-012  0.19695271012329926        0.0000000000000000     
  -4.2435007330948737E-012  0.20521551702728580        0.0000000000000000     
  -3.7804258421619830E-012  0.21353032466755986        0.0000000000000000     
  -3.5025982223109431E-012  0.22189713304412148        0.0000000000000000     
  -3.4100148919857798E-012  0.23031594215697065        0.0000000000000000     
   2.5337425776438421E-002  0.23042284098894431        0.0000000000000000     
   2.5459956683326908E-002  0.23887968961759629        0.0000000000000000     
   2.5565582458437864E-002  0.24733867794629280        0.0000000000000000     
   2.5654303101771282E-002  0.25579980597503377        0.0000000000000000     
   2.5726118613327180E-002  0.26426307370381924        0.0000000000000000     
   1.8943944512539630E-002  0.23037607274993724        0.0000000000000000     
   1.9035302360875427E-002  0.23882493905379629        0.0000000000000000     
   1.9113687453337042E-002  0.24726957854335629        0.0000000000000000     
   1.9179099789924478E-002  0.25570999121861737        0.0000000000000000     
   1.9231539370637731E-002  0.26414617707957944        0.0000000000000000     
   1.2589879794598628E-002  0.23034266686493934        0.0000000000000000     
   1.2650424805605777E-002  0.23878583150819929        0.0000000000000000     
   1.2702125374676798E-002  0.24722022182692194        0.0000000000000000     
   1.2744981501811690E-002  0.25564583782110750        0.0000000000000000     
   1.2778993187010451E-002  0.26406267949075574        0.0000000000000000     
   6.2752316226154107E-003  0.23032262333395048        0.0000000000000000     
   6.3053240175179612E-003  0.23876236698080536        0.0000000000000000     
   6.3308962224571308E-003  0.24719060779698998        0.0000000000000000     
   6.3519482374329228E-003  0.25560734578250421        0.0000000000000000     
   6.3684800624453329E-003  0.26401258093734820        0.0000000000000000     
  -3.4100148919857798E-012  0.23031594215697065        0.0000000000000000     
  -3.3880198993530009E-012  0.23875454547161454        0.0000000000000000     
  -3.3219570757386796E-012  0.24718073645356020        0.0000000000000000     
  -3.2118235480070589E-012  0.25559451510280767        0.0000000000000000     
  -3.0576231650758512E-012  0.26399588141935693        0.0000000000000000     
   2.5726118613327180E-002  0.26426307370381924        0.0000000000000000     
   2.5793430167107802E-002  0.27267350384254552        0.0000000000000000     
   2.5868638937115426E-002  0.28097611910110898        0.0000000000000000     
   2.5951744923350038E-002  0.28917091947950968        0.0000000000000000     
   2.6042748125811650E-002  0.29725790497774751        0.0000000000000000     
   1.9231539370637731E-002  0.26414617707957944        0.0000000000000000     
   1.9281126950239546E-002  0.27252098492292609        0.0000000000000000     
   1.9337983283492663E-002  0.28077726354534083        0.0000000000000000     
   1.9402108370397072E-002  0.28891501294682359        0.0000000000000000     
   1.9473502210952783E-002  0.29693423312737455        0.0000000000000000     
   1.2778993187010451E-002  0.26406267949075574        0.0000000000000000     
   1.2811454182950969E-002  0.27241204283739107        0.0000000000000000     
   1.2849658242311126E-002  0.28063522386253770        0.0000000000000000     
   1.2893605365090923E-002  0.28873222256619563        0.0000000000000000     
   1.2943295551290361E-002  0.29670303894836469        0.0000000000000000     
   6.3684800624453329E-003  0.26401258093734820        0.0000000000000000     
   6.3844118652420651E-003  0.27234667758594050        0.0000000000000000     
   6.4036638135708170E-003  0.28055000005269953        0.0000000000000000     
   6.4262359074315940E-003  0.28862254833762535        0.0000000000000000     
   6.4521281468243926E-003  0.29656432244071801        0.0000000000000000     
  -3.0576231650758512E-012  0.26399588141935693        0.0000000000000000     
  -2.8871651163581147E-012  0.27232488916857439        0.0000000000000000     
  -2.7282630364958149E-012  0.28052159211582639        0.0000000000000000     
  -2.5809168441737890E-012  0.28858599026111303        0.0000000000000000     
  -2.4451265664970911E-012  0.29651808360443443        0.0000000000000000     
   1.7931032136528358E-010   5.5324171354389405E-002   0.0000000000000000     
   1.1100399592567367E-010   6.0921065678832848E-002   0.0000000000000000     
   6.1814899878463725E-011   6.6721336421570743E-002   0.0000000000000000     
   3.1743034172330639E-011   7.2724983582603098E-002   0.0000000000000000     
   2.0788397045445883E-011   7.8932007161929912E-002   0.0000000000000000     
  -3.4853626267857072E-003   5.5352908878491112E-002   0.0000000000000000     
  -3.6786408695929900E-003   6.0949161144304743E-002   0.0000000000000000     
  -3.8657102420529281E-003   6.6748675753567244E-002   0.0000000000000000     
  -4.0465707441655193E-003   7.2751452706278572E-002   0.0000000000000000     
  -4.2212223759307650E-003   7.8957492002438789E-002   0.0000000000000000     
  -6.9844798825137644E-003   5.5439121675326317E-002   0.0000000000000000     
  -7.3697933878203933E-003   6.1033447653327230E-002   0.0000000000000000     
  -7.7440182010232450E-003   6.6830693784770356E-002   0.0000000000000000     
  -8.1071543221223116E-003   7.2830860069655695E-002   0.0000000000000000     
  -8.4592017511176051E-003   7.9033946507983274E-002   0.0000000000000000     
  -1.0497351587873849E-002   5.5582809744895018E-002   0.0000000000000000     
  -1.1073457443678212E-002   6.1173925205900301E-002   0.0000000000000000     
  -1.1634923815096050E-002   6.6967390515180095E-002   0.0000000000000000     
  -1.2181750702127353E-002   7.2963205672734469E-002   0.0000000000000000     
  -1.2713938104772124E-002   7.9161370678563381E-002   0.0000000000000000     
  -1.4023977742865961E-002   5.5783973087197222E-002   0.0000000000000000     
  -1.4789633037166454E-002   6.1370593802023962E-002   0.0000000000000000     
  -1.5538427084271344E-002   6.7158765944796528E-002   0.0000000000000000     
  -1.6270359884180633E-002   7.3148489515514878E-002   0.0000000000000000     
  -1.6985431436894325E-002   7.9339764514179068E-002   0.0000000000000000     
   2.0788397045445883E-011   7.8932007161929912E-002   0.0000000000000000     
   1.9376339508575535E-011   8.5326169233972668E-002   0.0000000000000000     
   1.7932209970400459E-011   9.1891231873152845E-002   0.0000000000000000     
   1.6456010057223913E-011   9.8627195079470473E-002   0.0000000000000000     
   1.4947738359583074E-011  0.10553405885292552        0.0000000000000000     
  -4.2212223759307650E-003   7.8957492002438789E-002   0.0000000000000000     
  -4.3908327744100004E-003   8.5350584270937113E-002   0.0000000000000000     
  -4.5565695766645563E-003   9.1914520140662787E-002   0.0000000000000000     
  -4.7184327826944386E-003   9.8649299611615796E-002   0.0000000000000000     
  -4.8764223924996448E-003  0.10555492268379617        0.0000000000000000     
  -8.4592017511176051E-003   7.9033946507983274E-002   0.0000000000000000     
  -8.8015698518935405E-003   8.5423829373457050E-002   0.0000000000000000     
  -9.1356679883345393E-003   9.1984384939780964E-002   0.0000000000000000     
  -9.4614961604405998E-003   9.8715613206955030E-002   0.0000000000000000     
  -9.7790543682117290E-003  0.10561751417497925        0.0000000000000000     
  -1.2713938104772124E-002   7.9161370678563381E-002   0.0000000000000000     
  -1.3232211213074281E-002   8.5545904541532450E-002   0.0000000000000000     
  -1.3737295217077731E-002   9.2100826270507391E-002   0.0000000000000000     
  -1.4229190116782474E-002   9.8826135865488135E-002   0.0000000000000000     
  -1.4707895912188518E-002  0.10572183332647474        0.0000000000000000     
  -1.6985431436894325E-002   7.9339764514179068E-002   0.0000000000000000     
  -1.7682756857952224E-002   8.5716809775163341E-002   0.0000000000000000     
  -1.8361451262894138E-002   9.2263844132842041E-002   0.0000000000000000     
  -1.9021514651720063E-002   9.8980867587215138E-002   0.0000000000000000     
  -1.9662947024430007E-002  0.10586788013828266        0.0000000000000000     
   1.4947738359583074E-011  0.10553405885292552        0.0000000000000000     
   1.3330945722311860E-011  0.11256709585226891        0.0000000000000000     
   1.1529182773403757E-011  0.11968157873625164        0.0000000000000000     
   9.5424509765316967E-012  0.12687750750487364        0.0000000000000000     
   7.3707472417194886E-012  0.13415488215813495        0.0000000000000000     
  -4.8764223924996448E-003  0.10555492268379617        0.0000000000000000     
  -5.0259383323639426E-003  0.11258674701566485        0.0000000000000000     
  -5.1623805285711021E-003  0.11970013026568282        0.0000000000000000     
  -5.2857489811211217E-003  0.12689507243385006        0.0000000000000000     
  -5.3960436900140022E-003  0.13417157352016656        0.0000000000000000     
  -9.7790543682117290E-003  0.10561751417497925        0.0000000000000000     
  -1.0079160430422444E-002  0.11264570050310460        0.0000000000000000     
  -1.0352632165847260E-002  0.11975578485058205        0.0000000000000000     
  -1.0599469574486190E-002  0.12694776721741161        0.0000000000000000     
  -1.0819672656339220E-002  0.13422164760359329        0.0000000000000000     
  -1.4707895912188518E-002  0.10572183332647474        0.0000000000000000     
  -1.5159666280844556E-002  0.11274395631458814        0.0000000000000000     
  -1.5570754900299300E-002  0.11984854249094933        0.0000000000000000     
  -1.5941161770552749E-002  0.12703559185555832        0.0000000000000000     
  -1.6270886891604899E-002  0.13430510440841506        0.0000000000000000     
  -1.9662947024430007E-002  0.10586788013828266        0.0000000000000000     
  -2.0267455883630287E-002  0.11288151445011553        0.0000000000000000     
  -2.0816748731927216E-002  0.11997840318678470        0.0000000000000000     
  -2.1310825569320801E-002  0.12715854634829016        0.0000000000000000     
  -2.1749686395811041E-002  0.13442194393463192        0.0000000000000000     
   7.3707472417194886E-012  0.13415488215813495        0.0000000000000000     
   5.1015788815611529E-012  0.14154846816996569        0.0000000000000000     
   2.8224553770550553E-012  0.14909303101429602        0.0000000000000000     
   5.3337293349359216E-013  0.15678857069112587        0.0000000000000000     
  -1.7656666059795434E-012  0.16463508720045533        0.0000000000000000     
  -5.3960436900140022E-003  0.13417157352016656        0.0000000000000000     
  -5.4984117821081984E-003  0.14156427185946557        0.0000000000000000     
  -5.5980003842621504E-003  0.14910780578658020        0.0000000000000000     
  -5.6948094964758634E-003  0.15680217530151050        0.0000000000000000     
  -5.7888391187493355E-003  0.16464738040425644        0.0000000000000000     
  -1.0819672656339220E-002  0.13422164760359329        0.0000000000000000     
  -1.1024123416241760E-002  0.14161168292621581        0.0000000000000000     
  -1.1223703859029219E-002  0.14915213010236794        0.0000000000000000     
  -1.1418413984701592E-002  0.15684298913204969        0.0000000000000000     
  -1.1608253793258879E-002  0.16468426001526104        0.0000000000000000     
  -1.6270886891604899E-002  0.13430510440841506        0.0000000000000000     
  -1.6577134897299107E-002  0.14169070137021644        0.0000000000000000     
  -1.6877110421478752E-002  0.14922600396165922        0.0000000000000000     
  -1.7170813464143803E-002  0.15691101218274356        0.0000000000000000     
  -1.7458244025294296E-002  0.16474572603346924        0.0000000000000000     
  -2.1749686395811041E-002  0.13442194393463192        0.0000000000000000     
  -2.2157446225280250E-002  0.14180132719146743        0.0000000000000000     
  -2.2558220071610742E-002  0.14932942736445412        0.0000000000000000     
  -2.2952007934802520E-002  0.15700624445359196        0.0000000000000000     
  -2.3338809814855581E-002  0.16483177845888100        0.0000000000000000     
  -1.7656666059795434E-012  0.16463508720045533        0.0000000000000000     
  -3.6890642450548849E-012  0.17259644232731752        0.0000000000000000     
  -4.8512242400294836E-012  0.18063649785674554        0.0000000000000000     
  -5.2521415493632373E-012  0.18875525378873947        0.0000000000000000     
  -4.8918195882929894E-012  0.19695271012329926        0.0000000000000000     
  -5.7888391187493355E-003  0.16464738040425644        0.0000000000000000     
  -5.8772867543955866E-003  0.17260739440796741        0.0000000000000000     
  -5.9573499067276398E-003  0.18064619062579282        0.0000000000000000     
  -6.0290285757454909E-003  0.18876376905773273        0.0000000000000000     
  -6.0923227614491449E-003  0.19696012970378707        0.0000000000000000     
  -1.1608253793258879E-002  0.16468426001526104        0.0000000000000000     
  -1.1787135432124639E-002  0.17264025064959390        0.0000000000000000     
  -1.1948971048722430E-002  0.18067526893264010        0.0000000000000000     
  -1.2093760643052254E-002  0.18878931486439962        0.0000000000000000     
  -1.2221504215114106E-002  0.19698238844487248        0.0000000000000000     
  -1.7458244025294296E-002  0.16474572603346924        0.0000000000000000     
  -1.7729546036876216E-002  0.17269501105219698        0.0000000000000000     
  -1.7974863430835597E-002  0.18072373277728726        0.0000000000000000     
  -1.8194196207172424E-002  0.18883189120874008        0.0000000000000000     
  -1.8387544365886712E-002  0.19701948634655553        0.0000000000000000     
  -2.3338809814855581E-002  0.16483177845888100        0.0000000000000000     
  -2.3704518568650322E-002  0.17277167561577661        0.0000000000000000     
  -2.4035027053067131E-002  0.18079158215973437        0.0000000000000000     
  -2.4330335268106004E-002  0.18889149809075423        0.0000000000000000     
  -2.4590443213766952E-002  0.19707142340883621        0.0000000000000000     
  -4.8918195882929894E-012  0.19695271012329926        0.0000000000000000     
  -4.2435007330948737E-012  0.20521551702728580        0.0000000000000000     
  -3.7804258421619830E-012  0.21353032466755986        0.0000000000000000     
  -3.5025982223109431E-012  0.22189713304412148        0.0000000000000000     
  -3.4100148919857798E-012  0.23031594215697065        0.0000000000000000     
  -6.0923227614491449E-003  0.19696012970378707        0.0000000000000000     
  -6.1480810237252801E-003  0.20522209937050667        0.0000000000000000     
  -6.1971519224605885E-003  0.21353650486444239        0.0000000000000000     
  -6.2395354576550675E-003  0.22190334618559424        0.0000000000000000     
  -6.2752316293087206E-003  0.23032262333396214        0.0000000000000000     
  -1.2221504215114106E-002  0.19698238844487248        0.0000000000000000     
  -1.2333943109922363E-002  0.20524184639974558        0.0000000000000000     
  -1.2432818672491392E-002  0.21355504545470569        0.0000000000000000     
  -1.2518130902821193E-002  0.22192198560975288        0.0000000000000000     
  -1.2589879800911769E-002  0.23034266686488716        0.0000000000000000     
  -1.8387544365886712E-002  0.19701948634655553        0.0000000000000000     
  -1.8557586262834748E-002  0.20527475811500243        0.0000000000000000     
  -1.8707000253872834E-002  0.21358594643834977        0.0000000000000000     
  -1.8835786339000977E-002  0.22195305131659746        0.0000000000000000     
  -1.8943944518219163E-002  0.23037607274974561        0.0000000000000000     
  -2.4590443213766952E-002  0.19707142340883621        0.0000000000000000     
  -2.4819010482462434E-002  0.20532083451627731        0.0000000000000000     
  -2.5019696666604922E-002  0.21362920781537456        0.0000000000000000     
  -2.5192501766194406E-002  0.22199654330612800        0.0000000000000000     
  -2.5337425781230903E-002  0.23042284098853763        0.0000000000000000     
  -3.4100148919857798E-012  0.23031594215697065        0.0000000000000000     
  -3.3880198993530009E-012  0.23875454547161454        0.0000000000000000     
  -3.3219570757386796E-012  0.24718073645356020        0.0000000000000000     
  -3.2118235480070589E-012  0.25559451510280767        0.0000000000000000     
  -3.0576231650758512E-012  0.26399588141935693        0.0000000000000000     
  -6.2752316293087206E-003  0.23032262333396214        0.0000000000000000     
  -6.3053240241668215E-003  0.23876236698062139        0.0000000000000000     
  -6.3308962289746534E-003  0.24719060779664720        0.0000000000000000     
  -6.3519482437322207E-003  0.25560734578203953        0.0000000000000000     
  -6.3684800684395172E-003  0.26401258093679836        0.0000000000000000     
  -1.2589879800911769E-002  0.23034266686488716        0.0000000000000000     
  -1.2650424811873093E-002  0.23878583150782060        0.0000000000000000     
  -1.2702125380815152E-002  0.24722022182626546        0.0000000000000000     
  -1.2744981507737936E-002  0.25564583782022160        0.0000000000000000     
  -1.2778993192641449E-002  0.26406267948968909        0.0000000000000000     
  -1.8943944518219163E-002  0.23037607274974561        0.0000000000000000     
  -1.9035302366506843E-002  0.23882493905321214        0.0000000000000000     
  -1.9113687458843443E-002  0.24726957854241491        0.0000000000000000     
  -1.9179099795228974E-002  0.25570999121735394        0.0000000000000000     
  -1.9231539375663416E-002  0.26414617707802929        0.0000000000000000     
  -2.5337425781230903E-002  0.23042284098853763        0.0000000000000000     
  -2.5459956688068063E-002  0.23887968961679595        0.0000000000000000     
  -2.5565582463059528E-002  0.24733867794509559        0.0000000000000000     
  -2.5654303106205322E-002  0.25579980597343649        0.0000000000000000     
  -2.5726118617505428E-002  0.26426307370181878        0.0000000000000000     
  -3.0576231650758512E-012  0.26399588141935693        0.0000000000000000     
  -2.8871651163581147E-012  0.27232488916857439        0.0000000000000000     
  -2.7282630364958149E-012  0.28052159211582639        0.0000000000000000     
  -2.5809168441737890E-012  0.28858599026111303        0.0000000000000000     
  -2.4451265664970911E-012  0.29651808360443443        0.0000000000000000     
  -6.3684800684395172E-003  0.26401258093679836        0.0000000000000000     
  -6.3844118708988561E-003  0.27234667758530101        0.0000000000000000     
  -6.4036638189125545E-003  0.28055000005192499        0.0000000000000000     
  -6.4262359124806099E-003  0.28862254833667023        0.0000000000000000     
  -6.4521281516030215E-003  0.29656432243953662        0.0000000000000000     
  -1.2778993192641449E-002  0.26406267948968909        0.0000000000000000     
  -1.2811454188255149E-002  0.27241204283612885        0.0000000000000000     
  -1.2849658247308495E-002  0.28063522386100187        0.0000000000000000     
  -1.2893605369801484E-002  0.28873222256430803        0.0000000000000000     
  -1.2943295555734115E-002  0.29670303894604733        0.0000000000000000     
  -1.9231539375663416E-002  0.26414617707802929        0.0000000000000000     
  -1.9281126954956044E-002  0.27252098492105792        0.0000000000000000     
  -1.9337983287916079E-002  0.28077726354305704        0.0000000000000000     
  -1.9402108374543540E-002  0.28891501294402649        0.0000000000000000     
  -1.9473502214838411E-002  0.29693423312396644        0.0000000000000000     
  -2.5726118617505428E-002  0.26426307370181878        0.0000000000000000     
  -2.5793430171001535E-002  0.27267350384008815        0.0000000000000000     
  -2.5868638940735315E-002  0.28097611909809039        0.0000000000000000     
  -2.5951744926706776E-002  0.28917091947582574        0.0000000000000000     
  -2.6042748128915910E-002  0.29725790497329396        0.0000000000000000     
  -1.4023977742865961E-002   5.5783973087197222E-002   0.0000000000000000     
  -1.4789633037166454E-002   6.1370593802023962E-002   0.0000000000000000     
  -1.5538427084271344E-002   6.7158765944796528E-002   0.0000000000000000     
  -1.6270359884180633E-002   7.3148489515514878E-002   0.0000000000000000     
  -1.6985431436894325E-002   7.9339764514179068E-002   0.0000000000000000     
  -1.7606843965752440E-002   5.6043666693199559E-002   0.0000000000000000     
  -1.8563685854640698E-002   6.1623883803042956E-002   0.0000000000000000     
  -1.9500964094854613E-002   6.7404952166326942E-002   0.0000000000000000     
  -2.0418678686394187E-002   7.3386871783051533E-002   0.0000000000000000     
  -2.1316829629259411E-002   7.9569642653216685E-002   0.0000000000000000     
  -2.1288435874795619E-002   5.6362945553868678E-002   0.0000000000000000     
  -2.2440981582456540E-002   6.1934225570302023E-002   0.0000000000000000     
  -2.3568970933151343E-002   6.7706081272478791E-002   0.0000000000000000     
  -2.4672403926880020E-002   7.3678512660398973E-002   0.0000000000000000     
  -2.5751280563642585E-002   7.9851519734062570E-002   0.0000000000000000     
  -2.5068753469995497E-002   5.6741809669204592E-002   0.0000000000000000     
  -2.6421520220613986E-002   6.2301619103801179E-002   0.0000000000000000     
  -2.7742447599161529E-002   6.8062153263252059E-002   0.0000000000000000     
  -2.9031535605638151E-002   7.4023412147557255E-002   0.0000000000000000     
  -3.0288784240043845E-002   8.0185395756716724E-002   0.0000000000000000     
  -2.8947796751352076E-002   5.7180259039207280E-002   0.0000000000000000     
  -3.0505301769113015E-002   6.2726064403540380E-002   0.0000000000000000     
  -3.2021394092885187E-002   6.8473168138646734E-002   0.0000000000000000     
  -3.3496073722668579E-002   7.4421570244526322E-002   0.0000000000000000     
  -3.4929340658463190E-002   8.0571270721179158E-002   0.0000000000000000     
  -1.6985431436894325E-002   7.9339764514179068E-002   0.0000000000000000     
  -1.7682756857952224E-002   8.5716809775163341E-002   0.0000000000000000     
  -1.8361451262894138E-002   9.2263844132842041E-002   0.0000000000000000     
  -1.9021514651720063E-002   9.8980867587215138E-002   0.0000000000000000     
  -1.9662947024430007E-002  0.10586788013828266        0.0000000000000000     
  -2.1316829629259411E-002   7.9569642653216685E-002   0.0000000000000000     
  -2.2193033970711901E-002   8.5937463274497847E-002   0.0000000000000000     
  -2.3044908758013270E-002   9.2474532144570451E-002   0.0000000000000000     
  -2.3872453991163514E-002   9.9180849263434456E-002   0.0000000000000000     
  -2.4675669670162645E-002  0.10605641463108992        0.0000000000000000     
  -2.5751280563642585E-002   7.9851519734062570E-002   0.0000000000000000     
  -2.6802869735537849E-002   8.6208783239684103E-002   0.0000000000000000     
  -2.7824440334664649E-002   9.2733983923478092E-002   0.0000000000000000     
  -2.8815992361022988E-002   9.9427121785444550E-002   0.0000000000000000     
  -2.9777525814612862E-002  0.10628819682558345        0.0000000000000000     
  -3.0288784240043845E-002   8.0185395756716724E-002   0.0000000000000000     
  -3.1512264152430060E-002   8.6530769670722138E-002   0.0000000000000000     
  -3.2700045992848273E-002   9.3042199469565032E-002   0.0000000000000000     
  -3.3852129761298470E-002   9.9719685153245405E-002   0.0000000000000000     
  -3.4968515457780673E-002  0.10656322672176327        0.0000000000000000     
  -3.4929340658463190E-002   8.0571270721179158E-002   0.0000000000000000     
  -3.6321217221388549E-002   8.6903422567611910E-002   0.0000000000000000     
  -3.7671725732564144E-002   9.3399178782831188E-002   0.0000000000000000     
  -3.8980866191989989E-002  0.10005853936683699        0.0000000000000000     
  -4.0248638599666063E-002  0.10688150431962934        0.0000000000000000     
  -1.9662947024430007E-002  0.10586788013828266        0.0000000000000000     
  -2.0267455883630287E-002  0.11288151445011553        0.0000000000000000     
  -2.0816748731927216E-002  0.11997840318678470        0.0000000000000000     
  -2.1310825569320801E-002  0.12715854634829016        0.0000000000000000     
  -2.1749686395811041E-002  0.13442194393463192        0.0000000000000000     
  -2.4675669670162645E-002  0.10605641463108992        0.0000000000000000     
  -2.5432174631019551E-002  0.11305883967464050        0.0000000000000000     
  -2.6119587709743135E-002  0.12014573582118994        0.0000000000000000     
  -2.6737908906333412E-002  0.12731710307073824        0.0000000000000000     
  -2.7287138220790368E-002  0.13457294142328538        0.0000000000000000     
  -2.9777525814612862E-002  0.10628819682558345        0.0000000000000000     
  -3.0683467915252265E-002  0.11327639675311689        0.0000000000000000     
  -3.1508245882759189E-002  0.12035090927726694        0.0000000000000000     
  -3.2251859717133631E-002  0.12751173439803362        0.0000000000000000     
  -3.2914309418375594E-002  0.13475887211541693        0.0000000000000000     
  -3.4968515457780673E-002  0.10656322672176327        0.0000000000000000     
  -3.6021335736328437E-002  0.11353418568554470        0.0000000000000000     
  -3.6982723250975374E-002  0.12059392355501572        0.0000000000000000     
  -3.7852678001721471E-002  0.12774244033017634        0.0000000000000000     
  -3.8631199988566726E-002  0.13497973601102659        0.0000000000000000     
  -4.0248638599666063E-002  0.10688150431962934        0.0000000000000000     
  -4.1445778094248070E-002  0.11383220647192388        0.0000000000000000     
  -4.2543019814391694E-002  0.12087477865443623        0.0000000000000000     
  -4.3540363760096935E-002  0.12800922086716640        0.0000000000000000     
  -4.4437809931363773E-002  0.13523553311011438        0.0000000000000000     
  -2.1749686395811041E-002  0.13442194393463192        0.0000000000000000     
  -2.2157446225280250E-002  0.14180132719146743        0.0000000000000000     
  -2.2558220071610742E-002  0.14932942736445412        0.0000000000000000     
  -2.2952007934802520E-002  0.15700624445359196        0.0000000000000000     
  -2.3338809814855581E-002  0.16483177845888100        0.0000000000000000     
  -2.7287138220790368E-002  0.13457294142328538        0.0000000000000000     
  -2.7797908465533955E-002  0.14194471034153516        0.0000000000000000     
  -2.8300852452984145E-002  0.14946386928819128        0.0000000000000000     
  -2.8795970183140930E-002  0.15713041826325383        0.0000000000000000     
  -2.9283261656004308E-002  0.16494435726672274        0.0000000000000000     
  -3.2914309418375594E-002  0.13475887211541693        0.0000000000000000     
  -3.3531372683409041E-002  0.14212200077198589        0.0000000000000000     
  -3.4138827209157924E-002  0.14963079871030957        0.0000000000000000     
  -3.4736672995622261E-002  0.15728526593038797        0.0000000000000000     
  -3.5324910042802034E-002  0.16508540243222103        0.0000000000000000     
  -3.8631199988566726E-002  0.13497973601102659        0.0000000000000000     
  -3.9357838878905496E-002  0.14233319848281972        0.0000000000000000     
  -4.0072144340132086E-002  0.14983021563080898        0.0000000000000000     
  -4.0774116372246504E-002  0.15747078745499432        0.0000000000000000     
  -4.1463754975248762E-002  0.16525491395537587        0.0000000000000000     
  -4.4437809931363773E-002  0.13523553311011438        0.0000000000000000     
  -4.5277307052023305E-002  0.14257830347403658        0.0000000000000000     
  -4.6100803845906604E-002  0.15006212004968944        0.0000000000000000     
  -4.6908300313013671E-002  0.15768698283707303        0.0000000000000000     
  -4.7699796453344490E-002  0.16545289183618719        0.0000000000000000     
  -2.3338809814855581E-002  0.16483177845888100        0.0000000000000000     
  -2.3704518568650322E-002  0.17277167561577661        0.0000000000000000     
  -2.4035027053067131E-002  0.18079158215973437        0.0000000000000000     
  -2.4330335268106004E-002  0.18889149809075423        0.0000000000000000     
  -2.4590443213766952E-002  0.19707142340883621        0.0000000000000000     
  -2.9283261656004308E-002  0.16494435726672274        0.0000000000000000     
  -2.9744616842827875E-002  0.17287230850500690        0.0000000000000000     
  -3.0161925714865229E-002  0.18088089418451514        0.0000000000000000     
  -3.0535188272116376E-002  0.18897011430524749        0.0000000000000000     
  -3.0864404514581317E-002  0.19713996886720389        0.0000000000000000     
  -3.5324910042802034E-002  0.16508540243222103        0.0000000000000000     
  -3.5882404674789793E-002  0.17299897388456181        0.0000000000000000     
  -3.6388023215678085E-002  0.18099374595616322        0.0000000000000000     
  -3.6841765665466916E-002  0.18906971864702535        0.0000000000000000     
  -3.7243632024156280E-002  0.19722689195714810        0.0000000000000000     
  -4.1463754975248762E-002  0.16525491395537587        0.0000000000000000     
  -4.2117882064536080E-002  0.17315167175444129        0.0000000000000000     
  -4.2713319555505697E-002  0.18113013747467863        0.0000000000000000     
  -4.3250067448157611E-002  0.18919031111608775        0.0000000000000000     
  -4.3728125742491838E-002  0.19733219267866872        0.0000000000000000     
  -4.7699796453344490E-002  0.16545289183618719        0.0000000000000000     
  -4.8451049012066739E-002  0.17333040211464548        0.0000000000000000     
  -4.9137814734348077E-002  0.18129006874006137        0.0000000000000000     
  -4.9760093620188503E-002  0.18933189171243478        0.0000000000000000     
  -5.0317885669588010E-002  0.19745587103176573        0.0000000000000000     
  -2.4590443213766952E-002  0.19707142340883621        0.0000000000000000     
  -2.4819010482462434E-002  0.20532083451627731        0.0000000000000000     
  -2.5019696666604922E-002  0.21362920781537456        0.0000000000000000     
  -2.5192501766194406E-002  0.22199654330612800        0.0000000000000000     
  -2.5337425781230903E-002  0.23042284098853763        0.0000000000000000     
  -3.0864404514581317E-002  0.19713996886720389        0.0000000000000000     
  -3.1153952733177229E-002  0.20538136407529814        0.0000000000000000     
  -3.1408211218821314E-002  0.21368520613444394        0.0000000000000000     
  -3.1627179971513562E-002  0.22205149504464131        0.0000000000000000     
  -3.1810858991253972E-002  0.23048023080589017        0.0000000000000000     
  -3.7243632024156280E-002  0.19722689195714810        0.0000000000000000     
  -3.7598149979350945E-002  0.20545763526379304        0.0000000000000000     
  -3.7909847218655680E-002  0.21375431794422178        0.0000000000000000     
  -3.8178723742070486E-002  0.22211693999843427        0.0000000000000000     
  -3.8404779549595369E-002  0.23054550142643046        0.0000000000000000     
  -4.3728125742491838E-002  0.19733219267866872        0.0000000000000000     
  -4.4151602220983570E-002  0.20554964808176193        0.0000000000000000     
  -4.4524604666108018E-002  0.21383654324470794        0.0000000000000000     
  -4.4847133077865198E-002  0.22219287816750677        0.0000000000000000     
  -4.5119187456255087E-002  0.23061865285015842        0.0000000000000000     
  -5.0317885669588010E-002  0.19745587103176573        0.0000000000000000     
  -5.0814309458075121E-002  0.20565740252920484        0.0000000000000000     
  -5.1252483561178334E-002  0.21393188203590260        0.0000000000000000     
  -5.1632407978897676E-002  0.22227930955185898        0.0000000000000000     
  -5.1954082711233120E-002  0.23069968507707406        0.0000000000000000     
  -2.5337425781230903E-002  0.23042284098853763        0.0000000000000000     
  -2.5459956688068063E-002  0.23887968961679595        0.0000000000000000     
  -2.5565582463059528E-002  0.24733867794509559        0.0000000000000000     
  -2.5654303106205322E-002  0.25579980597343649        0.0000000000000000     
  -2.5726118617505428E-002  0.26426307370181878        0.0000000000000000     
  -3.1810858991253972E-002  0.23048023080589017        0.0000000000000000     
  -3.1966119027258912E-002  0.23894562853565901        0.0000000000000000     
  -3.2099830828744742E-002  0.24742190335141614        0.0000000000000000     
  -3.2211994395711444E-002  0.25590905525316154        0.0000000000000000     
  -3.2302609728159036E-002  0.26440708424089537        0.0000000000000000     
  -3.8404779549595369E-002  0.23054550142643046        0.0000000000000000     
  -3.8595520634781590E-002  0.23901830114688818        0.0000000000000000     
  -3.8758452991180393E-002  0.24751363807848512        0.0000000000000000     
  -3.8893576618791795E-002  0.25603151222122134        0.0000000000000000     
  -3.9000891517615772E-002  0.26457192357509690        0.0000000000000000     
  -4.5119187456255087E-002  0.23061865285015842        0.0000000000000000     
  -4.5348161510636059E-002  0.23909770745048348        0.0000000000000000     
  -4.5541448950366492E-002  0.24761388212630264        0.0000000000000000     
  -4.5699049775446358E-002  0.25616717687761587        0.0000000000000000     
  -4.5820963985875672E-002  0.26475759170442320        0.0000000000000000     
  -5.1954082711233120E-002  0.23069968507707406        0.0000000000000000     
  -5.2224041654822348E-002  0.23918384744644491        0.0000000000000000     
  -5.2448818706303024E-002  0.24772263549486856        0.0000000000000000     
  -5.2628413865675142E-002  0.25631604922234513        0.0000000000000000     
  -5.2762827132938707E-002  0.26496408862887433        0.0000000000000000     
  -2.5726118617505428E-002  0.26426307370181878        0.0000000000000000     
  -2.5793430171001535E-002  0.27267350384008815        0.0000000000000000     
  -2.5868638940735315E-002  0.28097611909809039        0.0000000000000000     
  -2.5951744926706776E-002  0.28917091947582574        0.0000000000000000     
  -2.6042748128915910E-002  0.29725790497329396        0.0000000000000000     
  -3.2302609728159036E-002  0.26440708424089537        0.0000000000000000     
  -3.2386768416703744E-002  0.27286324875314777        0.0000000000000000     
  -3.2479562051961848E-002  0.28122480722844900        0.0000000000000000     
  -3.2580990633933327E-002  0.28949175966679908        0.0000000000000000     
  -3.2691054162618173E-002  0.29766410606819804        0.0000000000000000     
  -3.9000891517615772E-002  0.26457192357509690        0.0000000000000000     
  -3.9099546272374809E-002  0.27308386882016511        0.0000000000000000     
  -3.9208689467791318E-002  0.28151634463647951        0.0000000000000000     
  -3.9328321103865305E-002  0.28986935102404005        0.0000000000000000     
  -3.9458441180596771E-002  0.29814288798284683        0.0000000000000000     
  -4.5820963985875672E-002  0.26475759170442320        0.0000000000000000     
  -4.5931763738014719E-002  0.27333536404114001        0.0000000000000000     
  -4.6056021188223717E-002  0.28185073132218191        0.0000000000000000     
  -4.6193736336502721E-002  0.29030369354754854        0.0000000000000000     
  -4.6344909182851703E-002  0.29869425071724021        0.0000000000000000     
  -5.2762827132938707E-002  0.26496408862887433        0.0000000000000000     
  -5.2883420813623447E-002  0.27361773441607268        0.0000000000000000     
  -5.3021557213259067E-002  0.28222796728555610        0.0000000000000000     
  -5.3177236331845575E-002  0.29079478723732460        0.0000000000000000     
  -5.3350458169382969E-002  0.29931819427137824        0.0000000000000000     
  -2.8947796751352076E-002   5.7180259039207280E-002   0.0000000000000000     
  -3.0505301769113015E-002   6.2726064403540380E-002   0.0000000000000000     
  -3.2021394092885187E-002   6.8473168138646734E-002   0.0000000000000000     
  -3.3496073722668579E-002   7.4421570244526322E-002   0.0000000000000000     
  -3.4929340658463190E-002   8.0571270721179158E-002   0.0000000000000000     
  -3.2951178940004038E-002   5.7676185844298969E-002   0.0000000000000000     
  -3.4705631820453803E-002   6.3207994545932081E-002   0.0000000000000000     
  -3.6411441393719636E-002   6.8940685684936456E-002   0.0000000000000000     
  -3.8068607659801516E-002   7.4874259261312123E-002   0.0000000000000000     
  -3.9677130618699458E-002   8.1008715275059040E-002   0.0000000000000000     
  -3.7104513257090056E-002   5.8227482264901841E-002   0.0000000000000000     
  -3.9035815967136511E-002   6.3747842607388666E-002   0.0000000000000000     
  -4.0918220481062230E-002   6.9466265688394868E-002   0.0000000000000000     
  -4.2751726798867212E-002   7.5382751507920523E-002   0.0000000000000000     
  -4.4536334920551458E-002   8.1497300065965533E-002   0.0000000000000000     
  -4.1407799702610139E-002   5.8834148301015930E-002   0.0000000000000000     
  -4.3495854209161119E-002   6.4345608587910150E-002   0.0000000000000000     
  -4.5541731354912962E-002   7.0049908149022011E-002   0.0000000000000000     
  -4.7545431139865667E-002   7.5947046984351493E-002   0.0000000000000000     
  -4.9506953564019206E-002   8.2037025093898652E-002   0.0000000000000000     
  -4.5861038276564278E-002   5.9496183952641210E-002   0.0000000000000000     
  -4.8085746546527655E-002   6.5001292487496531E-002   0.0000000000000000     
  -5.0281974015271839E-002   7.0691613066817829E-002   0.0000000000000000     
  -5.2449720682796852E-002   7.6567145690605118E-002   0.0000000000000000     
  -5.4588986549102686E-002   8.2627890358858369E-002   0.0000000000000000     
  -3.4929340658463190E-002   8.0571270721179158E-002   0.0000000000000000     
  -3.6321217221388549E-002   8.6903422567611910E-002   0.0000000000000000     
  -3.7671725732564144E-002   9.3399178782831188E-002   0.0000000000000000     
  -3.8980866191989989E-002  0.10005853936683699        0.0000000000000000     
  -4.0248638599666063E-002  0.10688150431962934        0.0000000000000000     
  -3.9677130618699458E-002   8.1008715275059040E-002   0.0000000000000000     
  -4.1238021802477959E-002   8.7324596606806609E-002   0.0000000000000000     
  -4.2752292743201553E-002   9.3802446137184151E-002   0.0000000000000000     
  -4.4219943440870199E-002  0.10044226386619175        0.0000000000000000     
  -4.5640973895483911E-002  0.10724404979382932        0.0000000000000000     
  -4.4536334920551458E-002   8.1497300065965533E-002   0.0000000000000000     
  -4.6270970755762975E-002   8.7792146464759399E-002   0.0000000000000000     
  -4.7954560214149754E-002   9.4249525806531551E-002   0.0000000000000000     
  -4.9587103295711789E-002  0.10086943809128200        0.0000000000000000     
  -5.1168600000449080E-002  0.10765188331901072        0.0000000000000000     
  -4.9506953564019206E-002   8.2037025093898652E-002   0.0000000000000000     
  -5.1420064081243569E-002   8.8306072141470293E-002   0.0000000000000000     
  -5.3278528145408767E-002   9.4740417790873346E-002   0.0000000000000000     
  -5.5082345756514765E-002  0.10134006204210777        0.0000000000000000     
  -5.6831516914561592E-002  0.10810500489517362        0.0000000000000000     
  -5.4588986549102686E-002   8.2627890358858369E-002   0.0000000000000000     
  -5.6685301778919769E-002   8.8866373636939305E-002   0.0000000000000000     
  -5.8724196536978600E-002   9.5275122090209538E-002   0.0000000000000000     
  -6.0705670823279129E-002  0.10185413571866911        0.0000000000000000     
  -6.2629724637821405E-002  0.10860341452231796        0.0000000000000000     
  -4.0248638599666063E-002  0.10688150431962934        0.0000000000000000     
  -4.1445778094248070E-002  0.11383220647192388        0.0000000000000000     
  -4.2543019814391694E-002  0.12087477865443623        0.0000000000000000     
  -4.3540363760096935E-002  0.12800922086716640        0.0000000000000000     
  -4.4437809931363773E-002  0.13523553311011438        0.0000000000000000     
  -4.5640973895483911E-002  0.10724404979382932        0.0000000000000000     
  -4.6984236208006534E-002  0.11417402281121500        0.0000000000000000     
  -4.8218582479401910E-002  0.12119840180946696        0.0000000000000000     
  -4.9344012709670003E-002  0.12831718678858511        0.0000000000000000     
  -5.0360526898810834E-002  0.13553037774856957        0.0000000000000000     
  -5.1168600000449080E-002  0.10765188331901072        0.0000000000000000     
  -5.2664151296599224E-002  0.11456319840237857        0.0000000000000000     
  -5.4038858152399755E-002  0.12156972025404630        0.0000000000000000     
  -5.5292720567850694E-002  0.12867144887401397        0.0000000000000000     
  -5.6425738542952041E-002  0.13586838426228154        0.0000000000000000     
  -5.6831516914561592E-002  0.10810500489517362        0.0000000000000000     
  -5.8485523360026111E-002  0.11499973324541456        0.0000000000000000     
  -6.0003846833385249E-002  0.12198873398817432        0.0000000000000000     
  -6.1386487334639007E-002  0.12907200712345290        0.0000000000000000     
  -6.2633444863787399E-002  0.13624955265125033        0.0000000000000000     
  -6.2629724637821405E-002  0.10860341452231796        0.0000000000000000     
  -6.4448352398287223E-002  0.11548362734032297        0.0000000000000000     
  -6.6113548522358401E-002  0.12245544301185096        0.0000000000000000     
  -6.7625313010034951E-002  0.12951886153690192        0.0000000000000000     
  -6.8983645861316875E-002  0.13667388291547583        0.0000000000000000     
  -4.4437809931363773E-002  0.13523553311011438        0.0000000000000000     
  -4.5277307052023305E-002  0.14257830347403658        0.0000000000000000     
  -4.6100803845906604E-002  0.15006212004968944        0.0000000000000000     
  -4.6908300313013671E-002  0.15768698283707303        0.0000000000000000     
  -4.7699796453344490E-002  0.16545289183618719        0.0000000000000000     
  -5.0360526898810834E-002  0.13553037774856957        0.0000000000000000     
  -5.1313007582236850E-002  0.14286012490849515        0.0000000000000000     
  -5.2246337295360469E-002  0.15032857848743683        0.0000000000000000     
  -5.3160516038181692E-002  0.15793573848539449        0.0000000000000000     
  -5.4055543810700518E-002  0.16568160490236830        0.0000000000000000     
  -5.6425738542952041E-002  0.13586838426228154        0.0000000000000000     
  -5.7488170849020456E-002  0.14318147194905415        0.0000000000000000     
  -5.8530276257372622E-002  0.15063165746453680        0.0000000000000000     
  -5.9552054768008518E-002  0.15821894080872956        0.0000000000000000     
  -6.0553506380928150E-002  0.16594332198163236        0.0000000000000000     
  -6.2633444863787399E-002  0.13624955265125033        0.0000000000000000     
  -6.3802796852374152E-002  0.14354234459571349        0.0000000000000000     
  -6.4952620731943078E-002  0.15097135698098940        0.0000000000000000     
  -6.6082916502494149E-002  0.15853658980707802        0.0000000000000000     
  -6.7193684164027365E-002  0.16623804307397941        0.0000000000000000     
  -6.8983645861316875E-002  0.13667388291547583        0.0000000000000000     
  -7.0256885592297924E-002  0.14394274284847325        0.0000000000000000     
  -7.1513370719071823E-002  0.15134767703679461        0.0000000000000000     
  -7.2753101241638571E-002  0.15888868548044002        0.0000000000000000     
  -7.3976077159998196E-002  0.16656576817940941        0.0000000000000000     
  -4.7699796453344490E-002  0.16545289183618719        0.0000000000000000     
  -4.8451049012066739E-002  0.17333040211464548        0.0000000000000000     
  -4.9137814734348077E-002  0.18129006874006137        0.0000000000000000     
  -4.9760093620188503E-002  0.18933189171243478        0.0000000000000000     
  -5.0317885669588010E-002  0.19745587103176573        0.0000000000000000     
  -5.4055543810700518E-002  0.16568160490236830        0.0000000000000000     
  -5.4906072614475665E-002  0.17353814147784252        0.0000000000000000     
  -5.5686754451065808E-002  0.18147731195130162        0.0000000000000000     
  -5.6397589320470974E-002  0.18949911632274558        0.0000000000000000     
  -5.7038577222691150E-002  0.19760355459217438        0.0000000000000000     
  -6.0553506380928150E-002  0.16594332198163236        0.0000000000000000     
  -6.1507119968856737E-002  0.17377786635670059        0.0000000000000000     
  -6.2385384404519517E-002  0.18169563930738958        0.0000000000000000     
  -6.3188299687916477E-002  0.18969664083369922        0.0000000000000000     
  -6.3915865819047651E-002  0.19778087093562968        0.0000000000000000     
  -6.7193684164027365E-002  0.16623804307397941        0.0000000000000000     
  -6.8254191075209969E-002  0.17404957675121974        0.0000000000000000     
  -6.9233704594709192E-002  0.18194505080832521        0.0000000000000000     
  -7.0132224722525033E-002  0.18992446524529583        0.0000000000000000     
  -7.0949751458657478E-002  0.19798782006213161        0.0000000000000000     
  -7.3976077159998196E-002  0.16656576817940941        0.0000000000000000     
  -7.5147285933535368E-002  0.17435327266139988        0.0000000000000000     
  -7.6231715021634852E-002  0.18222554645410849        0.0000000000000000     
  -7.7229364424296620E-002  0.19018258955753531        0.0000000000000000     
  -7.8140234141520673E-002  0.19822440197168023        0.0000000000000000     
  -5.0317885669588010E-002  0.19745587103176573        0.0000000000000000     
  -5.0814309458075121E-002  0.20565740252920484        0.0000000000000000     
  -5.1252483561178334E-002  0.21393188203590260        0.0000000000000000     
  -5.1632407978897676E-002  0.22227930955185898        0.0000000000000000     
  -5.1954082711233120E-002  0.23069968507707406        0.0000000000000000     
  -5.7038577222691150E-002  0.19760355459217438        0.0000000000000000     
  -5.7612194142343615E-002  0.20578719956184585        0.0000000000000000     
  -5.8120916064045659E-002  0.21404662403401795        0.0000000000000000     
  -5.8564742987797257E-002  0.22238182800869055        0.0000000000000000     
  -5.8943674913598448E-002  0.23079281148586370        0.0000000000000000     
  -6.3915865819047651E-002  0.19778087093562968        0.0000000000000000     
  -6.4571178725507106E-002  0.20594534013540922        0.0000000000000000     
  -6.5157334334888975E-002  0.21418705895526641        0.0000000000000000     
  -6.5674332647193287E-002  0.22250602739520120        0.0000000000000000     
  -6.6122173662420014E-002  0.23090224545521357        0.0000000000000000     
  -7.0949751458657478E-002  0.19798782006213161        0.0000000000000000     
  -7.1691263207565567E-002  0.20613182424989493        0.0000000000000000     
  -7.2361738373708337E-002  0.21435318679964802        0.0000000000000000     
  -7.2961176957085719E-002  0.22265190771139096        0.0000000000000000     
  -7.3489578957697838E-002  0.23102798698512372        0.0000000000000000     
  -7.8140234141520673E-002  0.19822440197168023        0.0000000000000000     
  -7.8972447588519026E-002  0.20634665190530285        0.0000000000000000     
  -7.9734128180503669E-002  0.21454500756716272        0.0000000000000000     
  -8.0425275917474642E-002  0.22281946895725976        0.0000000000000000     
  -8.1045890799431905E-002  0.23117003607559405        0.0000000000000000     
  -5.1954082711233120E-002  0.23069968507707406        0.0000000000000000     
  -5.2224041654822348E-002  0.23918384744644491        0.0000000000000000     
  -5.2448818706303024E-002  0.24772263549486856        0.0000000000000000     
  -5.2628413865675142E-002  0.25631604922234513        0.0000000000000000     
  -5.2762827132938707E-002  0.26496408862887433        0.0000000000000000     
  -5.8943674913598448E-002  0.23079281148586370        0.0000000000000000     
  -5.9262148938695768E-002  0.23927804923304585        0.0000000000000000     
  -5.9524602160335810E-002  0.24783601601774533        0.0000000000000000     
  -5.9731034578518569E-002  0.25646671183996228        0.0000000000000000     
  -5.9881446193244044E-002  0.26517013669969663        0.0000000000000000     
  -6.6122173662420014E-002  0.23090224545521357        0.0000000000000000     
  -6.6501471233611636E-002  0.23938164090855962        0.0000000000000000     
  -6.6812839213810649E-002  0.24795014152849543        0.0000000000000000     
  -6.7056277603017050E-002  0.25660774731502095        0.0000000000000000     
  -6.7231786401230828E-002  0.26535445826813620        0.0000000000000000     
  -7.3489578957697838E-002  0.23102798698512372        0.0000000000000000     
  -7.3942008539569962E-002  0.23949462247298631        0.0000000000000000     
  -7.4313529866727540E-002  0.24806501202711867        0.0000000000000000     
  -7.4604142939170587E-002  0.25673915564752092        0.0000000000000000     
  -7.4813847756899060E-002  0.26551705333419306        0.0000000000000000     
  -8.1045890799431905E-002  0.23117003607559405        0.0000000000000000     
  -8.1583760856570750E-002  0.23961699392632585        0.0000000000000000     
  -8.2026674119086526E-002  0.24818062751361525        0.0000000000000000     
  -8.2374630586979178E-002  0.25686093683746242        0.0000000000000000     
  -8.2627630260248733E-002  0.26565792189786719        0.0000000000000000     
  -5.2762827132938707E-002  0.26496408862887433        0.0000000000000000     
  -5.2883420813623447E-002  0.27361773441607268        0.0000000000000000     
  -5.3021557213259067E-002  0.28222796728555610        0.0000000000000000     
  -5.3177236331845575E-002  0.29079478723732460        0.0000000000000000     
  -5.3350458169382969E-002  0.29931819427137824        0.0000000000000000     
  -5.9881446193244044E-002  0.26517013669969663        0.0000000000000000     
  -6.0013297433319665E-002  0.27390234344228265        0.0000000000000000     
  -6.0164048727552877E-002  0.28261938491305444        0.0000000000000000     
  -6.0333700075943644E-002  0.29132126111201229        0.0000000000000000     
  -6.0522251478491988E-002  0.30000797203915586        0.0000000000000000     
  -6.7231786401230828E-002  0.26535445826813620        0.0000000000000000     
  -6.7380173531222012E-002  0.27416055461708949        0.0000000000000000     
  -6.7542246915760634E-002  0.28299631659112928        0.0000000000000000     
  -6.7718006554846708E-002  0.29186174419025540        0.0000000000000000     
  -6.7907452448480191E-002  0.30075683741446801        0.0000000000000000     
  -7.4813847756899060E-002  0.26551705333419306        0.0000000000000000     
  -7.4984049107330475E-002  0.27439236794049343        0.0000000000000000     
  -7.5156151777882388E-002  0.28335876231978041        0.0000000000000000     
  -7.5330155768554743E-002  0.29241623647205428        0.0000000000000000     
  -7.5506061079347583E-002  0.30156479039731465        0.0000000000000000     
  -8.2627630260248733E-002  0.26565792189786719        0.0000000000000000     
  -8.2824924161645080E-002  0.27459778341249425        0.0000000000000000     
  -8.3005763313918096E-002  0.28370672209900805        0.0000000000000000     
  -8.3170147717067794E-002  0.29298473795740859        0.0000000000000000     
  -8.3318077371094174E-002  0.30243183098769588        0.0000000000000000     
  -4.5861038276564278E-002   5.9496183952641210E-002   0.0000000000000000     
  -4.8085746546527655E-002   6.5001292487496531E-002   0.0000000000000000     
  -5.0281974015271839E-002   7.0691613066817829E-002   0.0000000000000000     
  -5.2449720682796852E-002   7.6567145690605118E-002   0.0000000000000000     
  -5.4588986549102686E-002   8.2627890358858369E-002   0.0000000000000000     
  -5.0456321007478717E-002   6.0225838417805370E-002   0.0000000000000000     
  -5.2846783874465959E-002   6.5713256470165737E-002   0.0000000000000000     
  -5.5211850981834037E-002   7.1382493669510994E-002   0.0000000000000000     
  -5.7551522329582945E-002   7.7233550015841118E-002   0.0000000000000000     
  -5.9865797917712710E-002   8.3266425509156139E-002   0.0000000000000000     
  -5.5185739923879686E-002   6.1035360894536088E-002   0.0000000000000000     
  -5.7820257088205901E-002   6.6479862699935763E-002   0.0000000000000000     
  -6.0404264774294704E-002   7.2113663184830187E-002   0.0000000000000000     
  -6.2937762982146109E-002   7.7936762349219368E-002   0.0000000000000000     
  -6.5420751711760095E-002   8.3949160193103334E-002   0.0000000000000000     
  -6.0049295025767196E-002   6.1924751382833369E-002   0.0000000000000000     
  -6.3006166187747473E-002   6.7301111176806580E-002   0.0000000000000000     
  -6.5859215392653853E-002   7.2885121612775397E-002   0.0000000000000000     
  -6.8608442640486295E-002   7.8676782690739869E-002   0.0000000000000000     
  -7.1253847931244854E-002   8.4676094410699954E-002   0.0000000000000000     
  -6.5046986313141236E-002   6.2894009882697208E-002   0.0000000000000000     
  -6.8404511173090682E-002   6.8177001900778189E-002   0.0000000000000000     
  -7.1576702836911463E-002   7.3696868953346650E-002   0.0000000000000000     
  -7.4563561304603551E-002   7.9453611040402577E-002   0.0000000000000000     
  -7.7365086576166975E-002   8.5447228161945998E-002   0.0000000000000000     
  -5.4588986549102686E-002   8.2627890358858369E-002   0.0000000000000000     
  -5.6685301778919769E-002   8.8866373636939305E-002   0.0000000000000000     
  -5.8724196536978600E-002   9.5275122090209538E-002   0.0000000000000000     
  -6.0705670823279129E-002  0.10185413571866911        0.0000000000000000     
  -6.2629724637821405E-002  0.10860341452231796        0.0000000000000000     
  -5.9865797917712710E-002   8.3266425509156139E-002   0.0000000000000000     
  -6.2137652198733878E-002   8.9476866391551974E-002   0.0000000000000000     
  -6.4350059625157080E-002   9.5860618905124567E-002   0.0000000000000000     
  -6.6503020196982288E-002  0.10241768304987395        0.0000000000000000     
  -6.8596533914209529E-002  0.10914805882580006        0.0000000000000000     
  -6.5420751711760095E-002   8.3949160193103334E-002   0.0000000000000000     
  -6.7848083690628253E-002   9.0141365845693877E-002   0.0000000000000000     
  -7.0214611646242112E-002   9.6503888436202862E-002   0.0000000000000000     
  -7.2520335578601672E-002  0.10303672796463027        0.0000000000000000     
  -7.4765255487706947E-002  0.10973988443097615        0.0000000000000000     
  -7.1253847931244854E-002   8.4676094410699954E-002   0.0000000000000000     
  -7.3816596254602851E-002   9.0859871999364988E-002   0.0000000000000000     
  -7.6317852600233646E-002   9.7204930683444421E-002   0.0000000000000000     
  -7.8757616968137281E-002  0.10371127046293817        0.0000000000000000     
  -8.1135889358313687E-002  0.11037889133784626        0.0000000000000000     
  -7.7365086576166975E-002   8.5447228161945998E-002   0.0000000000000000     
  -8.0043189890657701E-002   9.1632384852565391E-002   0.0000000000000000     
  -8.2659782487131725E-002   9.7963745646849260E-002   0.0000000000000000     
  -8.5214864365589074E-002  0.10444131054479758        0.0000000000000000     
  -8.7708435526029721E-002  0.11106507954641037        0.0000000000000000     
  -6.2629724637821405E-002  0.10860341452231796        0.0000000000000000     
  -6.4448352398287223E-002  0.11548362734032297        0.0000000000000000     
  -6.6113548522358401E-002  0.12245544301185096        0.0000000000000000     
  -6.7625313010034951E-002  0.12951886153690192        0.0000000000000000     
  -6.8983645861316875E-002  0.13667388291547583        0.0000000000000000     
  -6.8596533914209529E-002  0.10914805882580006        0.0000000000000000     
  -7.0575668073881090E-002  0.11600982345416755        0.0000000000000000     
  -7.2385489973039258E-002  0.12296105415624103        0.0000000000000000     
  -7.4025999611684073E-002  0.13000175093202052        0.0000000000000000     
  -7.5497196989815496E-002  0.13713191378150597        0.0000000000000000     
  -7.4765255487706947E-002  0.10973988443097615        0.0000000000000000     
  -7.6890500049306254E-002  0.11657326435401198        0.0000000000000000     
  -7.8837197939147910E-002  0.12349677425250932        0.0000000000000000     
  -8.0605349157231901E-002  0.13051041412646822        0.0000000000000000     
  -8.2194953703558241E-002  0.13761418397588859        0.0000000000000000     
  -8.1135889358313687E-002  0.11037889133784626        0.0000000000000000     
  -8.3392848324562757E-002  0.11717395003985630        0.0000000000000000     
  -8.5468672420684358E-002  0.12406260330065587        0.0000000000000000     
  -8.7363361646678489E-002  0.13104485112024497        0.0000000000000000     
  -8.9076916002545123E-002  0.13812069349862369        0.0000000000000000     
  -8.7708435526029721E-002  0.11106507954641037        0.0000000000000000     
  -9.0082712899650585E-002  0.11781188051170045        0.0000000000000000     
  -9.2279913417648601E-002  0.12465854130068060        0.0000000000000000     
  -9.4300037080023796E-002  0.13160506191335086        0.0000000000000000     
  -9.6143083886776115E-002  0.13865144234971122        0.0000000000000000     
  -6.8983645861316875E-002  0.13667388291547583        0.0000000000000000     
  -7.0256885592297924E-002  0.14394274284847325        0.0000000000000000     
  -7.1513370719071823E-002  0.15134767703679461        0.0000000000000000     
  -7.2753101241638571E-002  0.15888868548044002        0.0000000000000000     
  -7.3976077159998196E-002  0.16656576817940941        0.0000000000000000     
  -7.5497196989815496E-002  0.13713191378150597        0.0000000000000000     
  -7.6876352176547230E-002  0.14437521606321002        0.0000000000000000     
  -7.8240735240992926E-002  0.15175533113564521        0.0000000000000000     
  -7.9590346183152583E-002  0.15927225899881159        0.0000000000000000     
  -8.0925185003026229E-002  0.16692599965270907        0.0000000000000000     
  -8.2194953703558241E-002  0.13761418397588859        0.0000000000000000     
  -8.3687111712877557E-002  0.14483231359580048        0.0000000000000000     
  -8.5162923319940464E-002  0.15218903278123383        0.0000000000000000     
  -8.6622388524746990E-002  0.15968434153218874        0.0000000000000000     
  -8.8065507327297093E-002  0.16731823984866503        0.0000000000000000     
  -8.9076916002545123E-002  0.13812069349862369        0.0000000000000000     
  -9.0689164201288891E-002  0.14531403544624463        0.0000000000000000     
  -9.2279934955914411E-002  0.15264878197356055        0.0000000000000000     
  -9.3849228266421711E-002  0.16012493308057146        0.0000000000000000     
  -9.5397044132810777E-002  0.16774248876727735        0.0000000000000000     
  -9.6143083886776115E-002  0.13865144234971122        0.0000000000000000     
  -9.7882509641781260E-002  0.14582038161454242        0.0000000000000000     
  -9.9591770148914821E-002  0.15313457871262531        0.0000000000000000     
 -0.10127086540817683       0.16059403364395983        0.0000000000000000     
 -0.10291979541956728       0.16819874640854598        0.0000000000000000     
  -7.3976077159998196E-002  0.16656576817940941        0.0000000000000000     
  -7.5147285933535368E-002  0.17435327266139988        0.0000000000000000     
  -7.6231715021634852E-002  0.18222554645410849        0.0000000000000000     
  -7.7229364424296620E-002  0.19018258955753531        0.0000000000000000     
  -7.8140234141520673E-002  0.19822440197168023        0.0000000000000000     
  -8.0925185003026229E-002  0.16692599965270907        0.0000000000000000     
  -8.2206617499263709E-002  0.17469047614443234        0.0000000000000000     
  -8.3396009470514870E-002  0.18253961152107609        0.0000000000000000     
  -8.4493360916779753E-002  0.19047340578264021        0.0000000000000000     
  -8.5498671838058329E-002  0.19849185892912477        0.0000000000000000     
  -8.8065507327297093E-002  0.16731823984866503        0.0000000000000000     
  -8.9452398727825691E-002  0.17506270925750844        0.0000000000000000     
  -9.0743181726567645E-002  0.18288973128556449        0.0000000000000000     
  -9.1937856323522957E-002  0.19079930593283315        0.0000000000000000     
  -9.3036422518691625E-002  0.19879143319931447        0.0000000000000000     
  -9.5397044132810777E-002  0.16774248876727735        0.0000000000000000     
  -9.6884629619221313E-002  0.17546997200062811        0.0000000000000000     
  -9.8273231789793136E-002  0.18327590574757371        0.0000000000000000     
  -9.9562850644526191E-002  0.19116029000811416        0.0000000000000000     
 -0.10075348618342050       0.19912312478224933        0.0000000000000000     
 -0.10291979541956728       0.16819874640854598        0.0000000000000000     
 -0.10450331017345064       0.17591226437379143        0.0000000000000000     
 -0.10598615966019138       0.18369813490710379        0.0000000000000000     
 -0.10736834387978950       0.19155635800848311        0.0000000000000000     
 -0.10864986283224498       0.19948693367792936        0.0000000000000000     
  -7.8140234141520673E-002  0.19822440197168023        0.0000000000000000     
  -7.8972447588519026E-002  0.20634665190530285        0.0000000000000000     
  -7.9734128180503669E-002  0.21454500756716272        0.0000000000000000     
  -8.0425275917474642E-002  0.22281946895725976        0.0000000000000000     
  -8.1045890799431905E-002  0.23117003607559405        0.0000000000000000     
  -8.5498671838058329E-002  0.19849185892912477        0.0000000000000000     
  -8.6423336653964511E-002  0.20659036774933867        0.0000000000000000     
  -8.7278749784112208E-002  0.21476432903209083        0.0000000000000000     
  -8.8064911228501366E-002  0.22301374277738123        0.0000000000000000     
  -8.8781820987132040E-002  0.23133860898520986        0.0000000000000000     
  -9.3036422518691625E-002  0.19879143319931447        0.0000000000000000     
  -9.4052535189499173E-002  0.20686351642970779        0.0000000000000000     
  -9.4999849213371096E-002  0.21501295896871253        0.0000000000000000     
  -9.5878364590307380E-002  0.22323976081632874        0.0000000000000000     
  -9.6688081320308081E-002  0.23154392197255630        0.0000000000000000     
 -0.10075348618342050       0.19912312478224933        0.0000000000000000     
 -0.10186004319512292       0.20716609794641025        0.0000000000000000     
 -0.10289742646828030       0.21529089737702792        0.0000000000000000     
 -0.10386563600289268       0.22349752307410226        0.0000000000000000     
 -0.10476467179896003       0.23178597503763335        0.0000000000000000     
 -0.10864986283224498       0.19948693367792936        0.0000000000000000     
 -0.10984586067083579       0.20749811229944612        0.0000000000000000     
 -0.11097148154883987       0.21559814425703697        0.0000000000000000     
 -0.11202672546625723       0.22378702955070193        0.0000000000000000     
 -0.11301159242308786       0.23206476818044097        0.0000000000000000     
  -8.1045890799431905E-002  0.23117003607559405        0.0000000000000000     
  -8.1583760856570750E-002  0.23961699392632585        0.0000000000000000     
  -8.2026674119086526E-002  0.24818062751361525        0.0000000000000000     
  -8.2374630586979178E-002  0.25686093683746242        0.0000000000000000     
  -8.2627630260248733E-002  0.26565792189786719        0.0000000000000000     
  -8.8781820987132040E-002  0.23133860898520986        0.0000000000000000     
  -8.9413473089428153E-002  0.23976391895144170        0.0000000000000000     
  -8.9943861564813724E-002  0.24831466397194157        0.0000000000000000     
  -9.0372986413288725E-002  0.25699084404670952        0.0000000000000000     
  -9.0700847634853157E-002  0.26579245917574557        0.0000000000000000     
  -9.6688081320308081E-002  0.23154392197255630        0.0000000000000000     
  -9.7417890142956348E-002  0.23995056123119743        0.0000000000000000     
  -9.8056681797835346E-002  0.24848479738605428        0.0000000000000000     
  -9.8604456284945088E-002  0.25714663043712677        0.0000000000000000     
  -9.9061213604285603E-002  0.26593606038441497        0.0000000000000000     
 -0.10476467179896003       0.23178597503763335        0.0000000000000000     
 -0.10559701201715527       0.24017692076559302        0.0000000000000000     
 -0.10636513481815138       0.24869102775595328        0.0000000000000000     
 -0.10706904020194828       0.25732829600871404        0.0000000000000000     
 -0.10770872816854607       0.26608872552387547        0.0000000000000000     
 -0.11301159242308786       0.23206476818044097        0.0000000000000000     
 -0.11395083871202498       0.24044299755462845        0.0000000000000000     
 -0.11486922062576180       0.24893335508163861        0.0000000000000000     
 -0.11576673816429832       0.25753584076147151        0.0000000000000000     
 -0.11664339132763457       0.26625045459412705        0.0000000000000000     
  -8.2627630260248733E-002  0.26565792189786719        0.0000000000000000     
  -8.2824924161645080E-002  0.27459778341249425        0.0000000000000000     
  -8.3005763313918096E-002  0.28370672209900805        0.0000000000000000     
  -8.3170147717067794E-002  0.29298473795740859        0.0000000000000000     
  -8.3318077371094174E-002  0.30243183098769588        0.0000000000000000     
  -9.0700847634853157E-002  0.26579245917574557        0.0000000000000000     
  -9.0957951906661283E-002  0.27478232976149286        0.0000000000000000     
  -9.1174805905867351E-002  0.28402327620639473        0.0000000000000000     
  -9.1351409632471361E-002  0.29351529851045111        0.0000000000000000     
  -9.1487763086473328E-002  0.30325839667366206        0.0000000000000000     
  -9.9061213604285603E-002  0.26593606038441497        0.0000000000000000     
  -9.9438285554874578E-002  0.27495153571589004        0.0000000000000000     
  -9.9747003935729703E-002  0.28429150491952310        0.0000000000000000     
  -9.9987368746851005E-002  0.29395596799531426        0.0000000000000000     
 -0.10015937998823848       0.30394492494326347        0.0000000000000000     
 -0.10770872816854607       0.26608872552387547        0.0000000000000000     
 -0.10826592510628494       0.27510540127568578        0.0000000000000000     
 -0.10872235740350515       0.28451140823839333        0.0000000000000000     
 -0.10907802506020670       0.29430674641199817        0.0000000000000000     
 -0.10933292807638961       0.30449141579650024        0.0000000000000000     
 -0.11664339132763457       0.26625045459412705        0.0000000000000000     
 -0.11744087056089242       0.27524392644088008        0.0000000000000000     
 -0.11810086630919372       0.28468298616300525        0.0000000000000000     
 -0.11862337857253849       0.29456763376050266        0.0000000000000000     
 -0.11900840735092674       0.30489786923337225        0.0000000000000000     
 </DataArray>
 <DataArray  type="Float64" Name="stress" NumberOfComponents="3" format="ascii">
   6640739059.3579578        54572598.567728043        73694647.912095979     
   6316788657.5711193        160870097.83114505       -76160156.674963936     
   5970899258.8180494        194037607.20714641       -155410227.37922341     
   5603070863.0987587        154075126.69573188       -164055564.20066708     
   5213303470.4132557        40982656.296945333       -102096167.13931288     
   5759967946.5900660       -56312367.187415361        252488116.66228268     
   5592030183.9101410        48355557.991895437        138873526.78060123     
   5409035303.8356180        102833091.85587573        75039980.963928714     
   5210983306.3664865        107120234.40451407        60987479.212250389     
   4997874191.5027485        61216985.637790680        96716021.525570750     
   5074148623.3214922       -108711796.09276938        408638938.04075193     
   5002727243.1261902       -23522321.984242439        339293422.36467433     
   4923130625.1079016        34416359.381015539        298905260.93579686     
   4835358769.2666330        65104248.002981186        287474453.75411791     
   4739411675.6023808        68541343.881684542        305001000.81963265     
   4583281089.5522642       -102625688.14831662        542147112.04749906     
   4548879835.2192774       -54763542.097264051        525099530.07725573     
   4513185222.6349287       -11212590.217426777        516185612.53640324     
   4476197251.7992144        28027167.491199255        515405359.42493951     
   4437915922.7121344        62955731.028611660        522758770.74286848     
   4287365345.2823563       -38054043.354067802        653012638.68253577     
   4230487960.1893859       -45368102.347186089        696291849.91834056     
   4179199096.4166803       -34053756.939444304        726881035.76573372     
   4133498753.9642262       -4111007.1308572292        744780196.22471321     
   4093386932.8320279        44460147.078580618        749989331.29527080     
   5213303470.4132557        40982656.296945333       -102096167.13931288     
   5079545882.5557261       -11207357.478666067       -71908013.919637248     
   4957243455.5159235       -25213501.861855984       -41953115.893040165     
   4846396189.2938585       -1035776.8525841236       -12231473.059486395     
   4747004083.8895264        61325817.549126625        17256914.581000358     
   4997874191.5027485        61216985.637790680        96716021.525570750     
   4870363755.6679773        29730870.790415287        123223412.82914253     
   4750484632.9710741        23682466.402614355        149991738.05214351     
   4638236823.4120646        43071772.474451542        177020997.19458359     
   4533620326.9909220        87898789.005859375        204311190.25645095     
   4739411675.6023808        68541343.881684542        305001000.81963265     
   4619560360.6831989        58182718.630390644        323366474.58060873     
   4503516511.2220402        60515644.905842304        342487071.37350923     
   4391280127.2189121        75540122.708059311        362362791.19833636     
   4282851208.6738038        103256152.03702164        382993634.05509567     
   4437915922.7121344        62955731.028611660        522758770.74286848     
   4327135697.6013908        74148186.041256189        528521171.33474910     
   4216339090.2688122        85286033.647801876        535532884.07105350     
   4105526100.7144079        96369273.848258257        543793908.95177472     
   3994696728.9381828        107397906.64264107        553304245.97692287     
   4093386932.8320279        44460147.078580618        749989331.29527080     
   3993089766.4225492        77627273.023004293        738687503.09156692     
   3888952370.1113939        97993632.628502131        729129176.14478290     
   3780974743.8985610        105559225.89507198        721314350.45490956     
   3669156887.7840481        100324052.82270312        715243026.02194953     
   4747004083.8895264        61325817.549126625        17256914.581000358     
   4407081675.9200401        61543001.215877056        9679866.5932049323     
   4062307192.8699160        45586601.280519485       -3347855.0876708813     
   3712680634.7391367        13456617.742978573       -21826250.461620677     
   3358202001.5277452       -34846949.396624804       -45755319.528638050     
   4533620326.9909220        87898789.005859375        204311190.25645095     
   4178846468.3814998        64582428.577129364        181476595.42177221     
   3820993273.5768275        31001614.164240360        158099299.34840548     
   3460060742.5769215       -12843654.232759714        134179302.03635871     
   3096048875.3817725       -66953376.613914490        109716603.48561178     
   4282851208.6738038        103256152.03702164        382993634.05509567     
   3927248677.8655477        60613081.045123339        346969687.73982960     
   3570339549.7474456        13614685.687080860        315311012.64026815     
   3212123824.3195038       -37739034.037105322        288017608.75640297     
   2852601501.5817122       -93448078.127443790        265089476.08824658     
   3994696728.9381828        107397906.64264107        553304245.97692287     
   3652288304.3722034        49634958.619919777        506159143.54737735     
   3310346021.3817792       -6574184.1509511471        468287284.78791267     
   2968869879.9669042       -61229521.669995308        439688669.69854116     
   2627859880.1275859       -114331053.93717289        420363298.27925897     
   3669156887.7840481        100324052.82270312        715243026.02194953     
   3353965347.9014549        31648061.301487327        659044962.84441197     
   3041012688.4798079       -29564995.349902153        617028115.79135513     
   2730298909.5191216       -83315117.131433725        589192484.86277270     
   2421824011.0193820       -129602304.04313874        575538070.05866075     
   3358202001.5277452       -34846949.396624804       -45755319.528638050     
   3309880895.2920461       -2859717.8166379929       -35020603.076305270     
   3258792220.5942926        19902285.556526423       -16557012.130096877     
   3204935977.4344602        33439060.722738385        9635453.3100076243     
   3148312165.8125792        37750607.682140827        43556793.243987739     
   3096048875.3817725       -66953376.613914490        109716603.48561178     
   3066301764.9093456       -28654767.371207476        122839587.53442006     
   3034444257.4060321        2609185.1018825769        141064914.36970404     
   3000476352.8718333        26838480.805353642        164392583.99145666     
   2964398051.3067493        44033119.739206314        192822596.39967087     
   2852601501.5817122       -93448078.127443790        265089476.08824658     
   2833924010.5656676       -51089404.114073515        281367427.73657662     
   2813793293.9499125       -13574815.433067083        300121190.46395743     
   2792209351.7344356        19095687.915537238        321350764.27039319     
   2769172183.9192433        46922105.931755781        345056149.15588808     
   2627859880.1275859       -114331053.93717289        420363298.27925897     
   2612747632.2610102       -70163628.045231819        440562917.53013551     
   2596839330.2259026       -28649716.048409939        460611816.15266150     
   2580134974.0222502        10210682.053271651        480509994.14681554     
   2562634563.6500583        46417566.259814739        500257451.51261657     
   2421824011.0193820       -129602304.04313874        575538070.05866075     
   2402772629.9953856       -85877439.164673567        600426056.91513336     
   2383582366.2340255       -42615516.744092703        622536791.43581772     
   2364253219.7352924        183463.21858274937        641870273.62073779     
   2344785190.4991903        42519500.723355412        658426503.46987092     
   3148312165.8125792        37750607.682140827        43556793.243987739     
   2943803000.6756811        311100.75821757317        27905624.322198078     
   2743785284.5532799       -22156909.450693369        13056033.307256278     
   2548259017.4453821       -29653422.944606066       -991979.80083765869     
   2357224199.3519611       -22178439.723594069       -14238415.002109351     
   2964398051.3067493        44033119.739206314        192822596.39967087     
   2765349753.7982187        14032015.706401229        178155890.83666292     
   2569529604.4083004       -5208594.5976923704        165171720.25992420     
   2376937603.1369843       -13688711.173097968        153870084.66944000     
   2187573749.9843054       -11408334.019736052        144250984.06523147     
   2769172183.9192433        46922105.931755781        345056149.15588808     
   2578101774.2660112        25114510.858134627        329900055.90645409     
   2388996211.8355136        9856406.5269782543        317307454.72271204     
   2201855496.6277447        1147792.9382371902        307278345.60466033     
   2016679628.6426940       -1011329.9080977440        299812728.55230880     
   2562634563.6500583        46417566.259814739        500257451.51261657     
   2382059062.0790653        33558586.213472962        483138119.53156269     
   2202185106.8349199        23038093.923300743        469463236.69562411     
   2023012697.9176111        14856089.389251113        459232803.00480890     
   1844541835.3271670        9012572.6113955975        452446818.45910883     
   2344785190.4991903        42519500.723355412        658426503.46987092     
   2177221617.2373681        39364241.772366047        637870081.71199381     
   2009096289.4065199        34336467.591288209        621639066.17866421     
   1840409207.0066209        27436178.180039525        609733456.86988580     
   1671160370.0376837        18663373.538668931        602153253.78564990     
   2357224199.3519611       -22178439.723594069       -14238415.002109351     
   2229711036.0209317        3190230.4559706450       -14301726.289522011     
   2096939736.1126125        11031778.711214542       -13170733.088892965     
   1958910299.6270392        1346205.0422888994       -10845435.400250394     
   1815622726.5641661       -25866490.550968766       -7325833.2235456221     
   2187573749.9843054       -11408334.019736052        144250984.06523147     
   2060900068.0153313        9057985.9361300468        138257395.69678962     
   1930588715.8051794        17398738.421431899        132846569.32427034     
   1796639693.3538704        13613923.436183691        128018504.94768071     
   1659053000.6613872       -2296459.0196443796        123773202.56702521     
   2016679628.6426940       -1011329.9080977440        299812728.55230880     
   1889098163.7726238        14028460.545200825        289779407.16162348     
   1759499494.9974716        22344237.981564999        279717305.27475059     
   1627883622.3172631        23936002.401073158        269626422.89170653     
   1494250545.7319734        18803753.803642929        259506760.01247939     
   1844541835.3271670        9012572.6113955975        452446818.45910883     
   1714305323.2928107        18101654.283118129        440264308.10497034     
   1583672073.6894908        25868277.391630530        427441474.76253682     
   1452642086.5172098        32312441.936928868        413978318.43182135     
   1321215361.7759497        37434147.918983877        399874839.11281115     
   1671160370.0376837        18663373.538668931        602153253.78564990     
   1536521546.5758877        21277567.149902463        589712098.52683997     
   1403106451.8812218        27970856.651576340        576019077.78763509     
   1270915085.9537017        38743242.043733358        561074191.56802690     
   1139947448.7933166        53594723.326328695        544877439.86802232     
   1815622726.5641661       -25866490.550968766       -7325833.2235456221     
   1778707993.2489901       -15383601.145195246       -5084791.1307238238     
   1750864846.8900015        25337911.447881103       -40970287.671455890     
   1732093287.4872103        96298047.228281260       -114982322.84575975     
   1722393315.0406237        197496806.19601947       -227120896.65362772     
   1659053000.6613872       -2296459.0196443796        123773202.56702521     
   1532552567.5716612       -12973099.961040139        137392301.10048756     
   1410947736.7892685       -7331066.5446583629        125108830.05949406     
   1294238508.3141990        14629641.229473233        86922789.444069684     
   1182424882.1464522        52909023.361335993        22834179.254221503     
   1494250545.7319734        18803753.803642929        259506760.01247939     
   1313090038.7509379       -2554729.7198634744        279631932.89620584     
   1132649149.4283457       -21514487.715238035        286078505.26462191     
   952927877.76418972       -38075520.182473421        278846477.11771595     
   773926223.75848436       -52237827.121546328        257935848.45550346     
   1321215361.7759497        37434147.918983877        399874839.11281115     
   1120320406.7868011        15871509.578255832        421634104.25645286     
   915969084.80721712       -17212352.063901007        441938737.94391960     
   708161395.83720374       -61817437.007493436        460788740.17518932     
   496897339.87675846       -117943745.25253937        478184110.95027095     
   1139947448.7933166        53594723.326328695        544877439.86802232     
   954243671.67926264        42305617.933381259        563398815.18123996     
   760907542.92589653        5575340.4093767405        592689528.09739459     
   559939062.53323364       -56596109.245605767        632749578.61647630     
   351338230.50125527       -144208731.03164560        683578966.73848844     
   1722393315.0406237        197496806.19601947       -227120896.65362772     
   1454729143.5908990        185177204.78381783       -97722551.493452698     
   1154172000.1218333        63214363.307157934        60381810.591890141     
   820721884.63344955       -168391718.23389608        247192189.60241488     
   454378797.12577993       -509641039.83924699        462708585.53813565     
   1182424882.1464522        52909023.361335993        22834179.254221503     
   976786303.97003090        12340795.195065022        155112999.92865866     
   732823469.84087908       -155974952.81361869        312916712.36986977     
   450536379.75902259       -452038220.66465676        496245316.57781893     
   129925033.72444457       -875849008.35813332        705098812.55254722     
   773926223.75848436       -52237827.121546328        257935848.45550346     
   621224309.83130753       -123781360.74906430        386758646.72193313     
   424766856.01801860       -341176693.99694228        537925211.59668970     
   184553862.31858033       -704423826.86529577        711435543.07977033     
  -99414671.266961277       -1213522759.3540409        907289641.17118883     
   496897339.87675846       -117943745.25253937        478184110.95027095     
   388043161.17475140       -223189263.04850686        597214388.88635635     
   230002158.65322524       -492390860.24287140        735407308.27235794     
   22774332.312166870       -925548536.83568931        892762869.10825598     
  -233640317.84842947       -1522662292.8269670        1069281071.3940707     
   351338230.50125527       -144208731.03164560        683578966.73848844     
   277242858.00035024       -285882911.70330286        786480226.42193294     
   148529377.74653015       -609617451.55133295        905363002.39686859     
  -34802210.260248482       -1115412350.5758936        1040227294.6632756     
  -272751906.01996267       -1803267608.7769127        1191073103.2211621     
   4287365345.2823563       -38054043.354067802        653012638.68253577     
   4230487960.1893859       -45368102.347186089        696291849.91834056     
   4179199096.4166803       -34053756.939444304        726881035.76573372     
   4133498753.9642262       -4111007.1308572292        744780196.22471321     
   4093386932.8320279        44460147.078580618        749989331.29527080     
   4048537105.6929035       -3392741.4145705700        765620883.46978891     
   3964374487.3413091       -13999675.934735537        799690872.44813180     
   3884278890.5871682       -11049871.796730995        826222140.19910419     
   3808250315.4304767        5456670.9994440079        845214686.72271347     
   3736288761.8712363        35519952.453789949        856668512.01895881     
   3759945225.0368323        16339468.204938173        880998475.31991649     
   3663215385.3153186        6855061.7243368626        904084159.03085136     
   3569031067.4684572        5855728.1592264175        924782425.67546988     
   3477392271.4962378        13341467.509601593        943093275.25377595     
   3388298997.3986683        29312279.775466442        959016707.76576042     
   3421589703.3141274        21142585.504456520        999145414.23290253     
   3327010654.1114130        17196110.630035400        1009471709.6665019     
   3233455627.0605359        16663042.928417444        1022561892.1948260     
   3140924622.1615071        19543382.399608374        1038415961.8178850     
   3049417639.4143200        25837129.043606997        1057033918.5356798     
   3033470540.5248022        11016610.483992219        1120061700.2087648     
   2955760293.7295928        17023470.782362580        1115853524.3550832     
   2877552569.3634224        21372072.510857224        1119560539.7571754     
   2798847367.4262877        24062415.669471622        1131182746.4150479     
   2719644687.9181919        25094500.258217216        1150720144.3287108     
   4093386932.8320279        44460147.078580618        749989331.29527080     
   3993089766.4225492        77627273.023004293        738687503.09156692     
   3888952370.1113939        97993632.628502131        729129176.14478290     
   3780974743.8985610        105559225.89507198        721314350.45490956     
   3669156887.7840481        100324052.82270312        715243026.02194953     
   3736288761.8712363        35519952.453789949        856668512.01895881     
   3638828752.2206554        60390542.348366022        845192008.70144749     
   3538921618.9512749        77104053.513610601        836069017.64537168     
   3436567362.0631084        85660485.949561954        829299538.85072136     
   3331765981.5561395        86059839.656165600        824883572.31750441     
   3388298997.3986683        29312279.775466442        959016707.76576042     
   3295419033.0913124        46409200.195481300        948990819.99780464     
   3201485051.4480453        59992729.495785475        941928455.49579895     
   3106497052.4688697        70062867.676392317        937829614.25974369     
   3010455036.1537819        76619614.737288594        936694296.28963685     
   3049417639.4143200        25837129.043606997        1057033918.5356798     
   2962860609.0345259        35683246.564359307        1050083936.9806433     
   2876642667.6017094        46659660.575031996        1046707489.6960756     
   2790763815.1158590        58766371.075594544        1046904576.6819749     
   2705224051.5769844        72003378.066077232        1050675197.9383367     
   2719644687.9181919        25094500.258217216        1150720144.3287108     
   2641153480.0502968        28212681.455023050        1148471359.6499629     
   2564394467.4122543        37104846.751335502        1150406120.2461948     
   2489367650.0040722        51770996.147180319        1156524426.1174145     
   2416073027.8257432        72211129.642539144        1166826277.2636127     
   3669156887.7840481        100324052.82270312        715243026.02194953     
   3353965347.9014549        31648061.301487327        659044962.84441197     
   3041012688.4798079       -29564995.349902153        617028115.79135513     
   2730298909.5191216       -83315117.131433725        589192484.86277270     
   2421824011.0193820       -129602304.04313874        575538070.05866075     
   3331765981.5561395        86059839.656165600        824883572.31750441     
   3055333174.0992293        32988173.240393281        775210336.62915289     
   2780040946.0606232       -16281561.781053185        737569296.27328920     
   2505889297.4403248       -61749365.408132076        711960451.24991238     
   2232878228.2383270       -103415237.64087880        698383801.55901814     
   3010455036.1537819        76619614.737288594        936694296.28963685     
   2766640901.7168822        37310255.605257034        892264536.87404072     
   2522869045.6556349       -1858175.6079348326        857717951.99895012     
   2279139467.9700451       -40885678.902271509        833054541.66435695     
   2035452168.6601083       -79772254.277768016        818274305.87026465     
   2705224051.5769844        72003378.066077232        1050675197.9383367     
   2487888530.7544122        44614308.396088362        1010207563.5790765     
   2269496987.2648396        13705163.169432998        977474082.96833432     
   2050049421.1082780       -20724057.613855720        952474756.10610306     
   1829545832.2847192       -58673353.953798294        935209582.99237716     
   2416073027.8257432        72211129.642539144        1166826277.2636127     
   2219076061.2118163        54900331.612878561        1129039416.7442694     
   2019924770.8882425        30408454.551067591        1096837689.1814454     
   1818619156.8550262       -1264501.5428867340        1070221094.5751503     
   1615159219.1121633       -40118536.668998718        1049189632.9253684     
   2421824011.0193820       -129602304.04313874        575538070.05866075     
   2402772629.9953856       -85877439.164673567        600426056.91513336     
   2383582366.2340255       -42615516.744092703        622536791.43581772     
   2364253219.7352924        183463.21858274937        641870273.62073779     
   2344785190.4991903        42519500.723355412        658426503.46987092     
   2232878228.2383270       -103415237.64087880        698383801.55901814     
   2205673418.9887791       -69118037.699428916        721140769.96504068     
   2178792553.9616723       -33741023.683179855        742578737.82649231     
   2152235633.1569963        2715804.4078332186        762697705.14337480     
   2126002656.5747573        40252446.573651671        781497671.91568565     
   2035452168.6601083       -79772254.277768016        818274305.87026465     
   2004260364.8741753       -53652789.166580081        839440220.61227250     
   1973855332.2704849       -24910753.447923899        860745386.60091889     
   1944237070.8490303        6453852.8781894445        882189803.83621001     
   1915405580.6098192        40441029.811782956        903773472.31813443     
   1829545832.2847192       -58673353.953798294        935209582.99237716     
   1798533467.6515627       -39481693.566145658        955324408.85681653     
   1768770701.1604581       -16124706.038321376        977036737.75909638     
   1740257532.8114002        11397608.629653096        1000346569.6992344     
   1712993962.6043782        43085250.437760115        1025253904.6772141     
   1615159219.1121633       -40118536.668998718        1049189632.9253684     
   1588492727.3209600       -26604750.898088098        1068793334.6986700     
   1563538660.6316009       -7382881.4543663263        1091452791.3010371     
   1540297019.0440936        17547071.662198484        1117168002.7324493     
   1518767802.5584412        48185108.451601744        1145938968.9929221     
   2344785190.4991903        42519500.723355412        658426503.46987092     
   2177221617.2373681        39364241.772366047        637870081.71199381     
   2009096289.4065199        34336467.591288209        621639066.17866421     
   1840409207.0066209        27436178.180039525        609733456.86988580     
   1671160370.0376837        18663373.538668931        602153253.78564990     
   2126002656.5747573        40252446.573651671        781497671.91568565     
   1970002851.9946001        38610802.880696177        763141576.06952417     
   1813515430.1418645        35343768.279170394        749005984.84823990     
   1656540391.0165501        30451342.769033432        739090898.25183678     
   1499077734.6186564        23933526.350305259        733396316.28030431     
   1915405580.6098192        40441029.811782956        903773472.31813443     
   1770669825.8551221        40223085.720009804        887704195.89622533     
   1625520591.1243091        38626875.041182697        875750522.49952328     
   1479957876.4173789        35652397.775297046        867912452.12802494     
   1333981681.7343309        31299653.922355294        864189984.78173614     
   1712993962.6043782        43085250.437760115        1025253904.6772141     
   1579222538.8189433        44201090.290298223        1011557941.1920929     
   1445111772.3538544        44185787.877335072        1001872679.1325096     
   1310661663.2091000        43039343.198821843        996198118.49845731     
   1175872211.3847017        40761756.254812717        994534259.28994489     
   1518767802.5584412        48185108.451601744        1145938968.9929221     
   1395660990.8860683        50544816.591607928        1134702811.9571257     
   1272288973.8304935        52020506.787600696        1127372454.7471960     
   1148651751.3917315        52612179.039634287        1123947897.3631325     
   1024749323.5697696        52319833.347672522        1124429139.8049302     
   1671160370.0376837        18663373.538668931        602153253.78564990     
   1536521546.5758877        21277567.149902463        589712098.52683997     
   1403106451.8812218        27970856.651576340        576019077.78763509     
   1270915085.9537017        38743242.043733358        561074191.56802690     
   1139947448.7933166        53594723.326328695        544877439.86802232     
   1499077734.6186564        23933526.350305259        733396316.28030431     
   1362560053.0633674        23508717.539467990        725205368.57434344     
   1226404394.3774216        24290651.626445413        717522319.14349401     
   1090610758.5608144        26279328.611206353        710347167.98775113     
   955179145.61356068        29474748.493820727        703679915.10713518     
   1333981681.7343309        31299653.922355294        864189984.78173614     
   1200613038.5298591        29344211.622730374        859243921.08119929     
   1066744712.2969437        25723159.228284478        856565519.41128314     
   932376703.03557682        20436496.739007592        856154779.77199101     
   797509010.74576235        13484224.154913455        858011702.16332471     
   1175872211.3847017        40761756.254812717        994534259.28994489     
   1050680502.9753672        38784049.399697781        991827756.04740775     
   924127405.63979745        32268379.457119703        993148678.59100246     
   796212919.37799120        21214746.427091062        998497026.92073655     
   666937044.18994236        5623150.3095797002        1007872801.0365998     
   1024749323.5697696        52319833.347672522        1124429139.8049302     
   912762446.39989543        51828230.870377809        1122956873.4729724     
   798552474.40599072        43926312.312983423        1127271796.6826572     
   682119407.58805025        28614077.675462961        1137373909.4339831     
   563463245.94608164        5891526.9578603506        1153263211.7269609     
   1139947448.7933166        53594723.326328695        544877439.86802232     
   954243671.67926264        42305617.933381259        563398815.18123996     
   760907542.92589653        5575340.4093767405        592689528.09739459     
   559939062.53323364       -56596109.245605767        632749578.61647630     
   351338230.50125527       -144208731.03164560        683578966.73848844     
   955179145.61356068        29474748.493820727        703679915.10713518     
   794737585.83279634        12482378.795230597        721748461.63265502     
   625570395.14018404       -33595427.276189238        749796283.34367335     
   447677573.53571385       -108758669.72047120        787823380.24021637     
   261059121.01938623       -213007348.53760314        835829752.32226932     
   797509010.74576235        13484224.154913455        858011702.16332471     
   660072347.10566688       -9888606.2070924044        874351927.41649997     
   512816773.28116214       -65991137.183780521        899881365.43776751     
   355742289.27226728       -154823368.77510783        934600016.22713006     
   188848895.07896316       -276385300.98113692        978507879.78458583     
   666937044.18994236        5623150.3095797002        1007872801.0365998     
   550247955.49787652       -24807337.073620349        1021209212.5328044     
   422646677.34885883       -91611789.313326627        1042944774.3796654     
   284133209.74289167       -194790206.40952659        1073079486.5772117     
   134707552.67997286       -334342588.36224246        1111613349.1254227     
   563463245.94608164        5891526.9578603506        1153263211.7269609     
   465264411.00940979       -32273813.804361135        1162320316.9815371     
   355060107.34324837       -110457383.66488656        1178986510.1693738     
   232850334.94759193       -228659182.62371463        1203261791.2904477     
   98635093.822433859       -386879210.68089271        1235146160.3447886     
   351338230.50125527       -144208731.03164560        683578966.73848844     
   277242858.00035024       -285882911.70330286        786480226.42193294     
   148529377.74653015       -609617451.55133295        905363002.39686859     
  -34802210.260248482       -1115412350.5758936        1040227294.6632756     
  -272751906.01996267       -1803267608.7769127        1191073103.2211621     
   261059121.01938623       -213007348.53760314        835829752.32226932     
   222736227.51754621       -352918775.66557729        885030776.89418685     
   140291877.44502518       -639901724.69580519        945360787.43302619     
   13726070.801830590       -1073956195.6282740        1016819783.9388291     
  -156961192.41204512       -1655082188.4630272        1099407766.4115806     
   188848895.07896316       -276385300.98113692        978507879.78458583     
   172434108.22035685       -418693286.27220058        986254762.29091954     
   122394515.97334656       -673083956.19128871        1000278100.4396701     
   38730118.337900937       -1039557310.7384565        1020577894.2308279     
  -78559084.685939491       -1518113349.9136722        1047154143.6644125     
   134707552.67997286       -334342588.36224246        1111613349.1254227     
   126336500.10880288       -483206443.52311659        1090152182.6121645     
   94837293.331472576       -709164146.03786457        1070114941.4167931     
   40209932.347995818       -1012215695.9064251        1051501625.5392931     
  -37545582.841645360       -1392361093.1288671        1034312234.9796706     
   98635093.822433859       -386879210.68089271        1235146160.3447886     
   84443403.182878673       -546458247.41834378        1196723037.8579147     
   57620209.519424558       -748142294.23545766        1154871310.3643696     
   18165512.832073033       -991931351.13221025        1109590977.8641737     
  -33920686.879162908       -1277825418.1086059        1060882040.3573334     
   3033470540.5248022        11016610.483992219        1120061700.2087648     
   2955760293.7295928        17023470.782362580        1115853524.3550832     
   2877552569.3634224        21372072.510857224        1119560539.7571754     
   2798847367.4262877        24062415.669471622        1131182746.4150479     
   2719644687.9181919        25094500.258217216        1150720144.3287108     
   2629111410.9071946        4112612.2042652369        1203520065.6933475     
   2569996219.9940271        10833664.487813711        1202224084.5591111     
   2510652316.4844484        16792341.450001717        1207151987.7740812     
   2451079700.3784609        21988643.090823650        1218303775.3382556     
   2391278371.6760693        26422569.410291791        1235679447.2516406     
   2236699307.3001738        792721.72771763802        1284950757.4635036     
   2191346866.8216839        6778274.3622368574        1286880530.1856980     
   2146034478.7213438        12897334.923908472        1293342880.3505208     
   2100762142.9991477        19149903.412727833        1304337807.9579773     
   2055529859.6550968        25535979.828701854        1319865313.0080652     
   1856234229.7037261        1056939.0543386936        1364353775.5192335     
   1819812234.2125659        4857300.4056272507        1369822861.2348363     
   1783699056.0741034        9687052.9325720072        1378133217.4864936     
   1747894695.2883425        15546196.635186911        1389284844.2742090     
   1712399151.8552780        22434731.513459325        1403277741.5979831     
   1487716178.1178637        4905264.1841387153        1441729119.8605430     
   1455392322.1666720        5070742.6179817319        1451051077.7065341     
   1423646048.5427334        7161495.4760019183        1461522999.1820014     
   1392477357.2460451        11177522.758192182        1473144884.2869518     
   1361886248.2766128        17118824.464566350        1485916733.0213871     
   2719644687.9181919        25094500.258217216        1150720144.3287108     
   2641153480.0502968        28212681.455023050        1148471359.6499629     
   2564394467.4122543        37104846.751335502        1150406120.2461948     
   2489367650.0040722        51770996.147180319        1156524426.1174145     
   2416073027.8257432        72211129.642539144        1166826277.2636127     
   2391278371.6760693        26422569.410291791        1235679447.2516406     
   2323906781.4570951        30318284.948596716        1232660759.7586954     
   2257906453.9491324        38784876.190279007        1233832648.0265119     
   2193277389.1521878        51822343.135358095        1239195112.0550931     
   2130019587.0662587        69430685.783809662        1248748151.8444357     
   2055529859.6550968        25535979.828701854        1319865313.0080652     
   1999297974.1872756        30215255.839192629        1315655634.7622685     
   1944076418.9116268        38262299.156921268        1315643562.7630203     
   1889865193.8281467        49677109.781885505        1319829097.0103111     
   1836664298.9368410        64459687.714095235        1328212237.5041473     
   1712399151.8552780        22434731.513459325        1403277741.5979831     
   1667327058.2408366        27903594.126795471        1397455984.6606889     
   1622904362.2997284        35537115.651240647        1395838864.4557221     
   1579131064.0319438        45335296.086769402        1398426380.9830773     
   1536007163.4374948        57298135.433408022        1405218534.2427540     
   1361886248.2766128        17118824.464566350        1485916733.0213871     
   1327994033.6177840        23383299.811422646        1478061809.4539506     
   1294390284.1134410        30609325.673237383        1474418553.1046157     
   1261074999.7635832        38796902.049998701        1474986963.9733834     
   1228048180.5682168        47946028.941734552        1479767042.0602572     
   2416073027.8257432        72211129.642539144        1166826277.2636127     
   2219076061.2118163        54900331.612878561        1129039416.7442694     
   2019924770.8882425        30408454.551067591        1096837689.1814454     
   1818619156.8550262       -1264501.5428867340        1070221094.5751503     
   1615159219.1121633       -40118536.668998718        1049189632.9253684     
   2130019587.0662587        69430685.783809662        1248748151.8444357     
   1948973930.8456895        51114852.629148841        1206788920.2365839     
   1766169438.5760622        26936232.644291162        1171746725.6190252     
   1581606110.2573743       -3105174.1707724929        1143621567.9917591     
   1395283945.8896103       -39009367.816079617        1122413447.3547881     
   1836664298.9368410        64459687.714095235        1328212237.5041473     
   1675375393.2061224        46280451.463403523        1282542037.0784688     
   1512723139.0869203        23556720.584435821        1245120777.6768556     
   1348707536.5792329       -3711504.9228152037        1215948459.2993019     
   1183328585.6830609       -35524225.058352768        1195025081.9458058     
   1536007163.4374948        57298135.433408022        1405218534.2427540     
   1398280448.2931085        40397128.115629077        1356298767.2699301     
   1259585872.4208112        20269918.371478915        1316959845.3549306     
   1119923435.8206179       -3083493.7989916205        1287201768.4977596     
   979293138.49251294       -29663108.395832181        1267024536.6984234     
   1228048180.5682168        47946028.941734552        1479767042.0602572     
   1117689096.1066403        33464882.585791886        1428059110.8109572     
   1006757638.5777429        17075826.005449235        1387263928.6532519     
   895253807.98151660       -1221140.7993235588        1357381495.5871499     
   783177604.31796670       -21426017.828511089        1338411811.6126447     
   1615159219.1121633       -40118536.668998718        1049189632.9253684     
   1588492727.3209600       -26604750.898088098        1068793334.6986700     
   1563538660.6316009       -7382881.4543663263        1091452791.3010371     
   1540297019.0440936        17547071.662198484        1117168002.7324493     
   1518767802.5584412        48185108.451601744        1145938968.9929221     
   1395283945.8896103       -39009367.816079617        1122413447.3547881     
   1375704829.3484917       -25339141.629284680        1146293631.0424397     
   1357588838.1865952       -6791830.8450723290        1172533785.3820422     
   1340935972.4039252        16632564.536556959        1201133910.3736022     
   1325746232.0004892        44934044.515630484        1232094006.0171263     
   1183328585.6830609       -35524225.058352768        1195025081.9458058     
   1168848889.6003034       -22293944.893207192        1222890897.8714101     
   1155583019.1741538       -5017579.2060350180        1252420900.2718742     
   1143530974.4046135        16304872.003172517        1283615089.1471927     
   1132692755.2916837        41673408.734406412        1316473464.4973652     
   979293138.49251294       -29663108.395832181        1267024536.6984234     
   967924908.07641113       -17469160.689826071        1298585135.1855910     
   957521203.59429085       -2060126.5372111797        1331114135.9705231     
   948082025.04616320        16563994.062046528        1364611539.0532045     
   939607372.43202281        38403201.107924074        1399077344.4336474     
   783177604.31796670       -21426017.828511089        1338411811.6126447     
   772932884.77679932       -10864789.019170702        1373376342.9849918     
   763403391.44699717        2080527.1613784432        1408613492.4779925     
   754589124.32856739        17409930.713170618        1444123260.0916536     
   746490083.42150414        35123421.636184424        1479905645.8259680     
   1518767802.5584412        48185108.451601744        1145938968.9929221     
   1395660990.8860683        50544816.591607928        1134702811.9571257     
   1272288973.8304935        52020506.787600696        1127372454.7471960     
   1148651751.3917315        52612179.039634287        1123947897.3631325     
   1024749323.5697696        52319833.347672522        1124429139.8049302     
   1325746232.0004892        44934044.515630484        1232094006.0171263     
   1213330398.5586507        45828020.810464561        1220890774.4469047     
   1100612093.0742564        45713756.963436902        1214343818.2693362     
   987591315.54729998        44591252.974539816        1212453137.4844325     
   874268065.97778630        42460508.843785673        1215218732.0921881     
   1132692755.2916837        41673408.734406412        1316473464.4973652     
   1033112115.9855080        41744917.955611944        1305259680.6234581     
   933191737.97740769        40683964.837070435        1299452647.7090032     
   832931621.26739085        38490549.378802419        1299052365.7540057     
   732331765.85544622        35164671.580781728        1304058834.7584596     
   939607372.43202281        38403201.107924074        1399077344.4336474     
   855006143.16662908        38295508.027034432        1387809530.4868011     
   770027908.53995538        36931130.408539206        1382698943.0662003     
   684672668.55199480        34310068.252418756        1383745582.1718481     
   598940423.20274615        30432321.558674783        1390949447.8037467     
   746490083.42150414        35123421.636184424        1479905645.8259680     
   679012480.10201848        35479791.024730623        1468540324.0369260     
   611120604.76189435        34455253.677815288        1464082704.3409231     
   542814457.40111768        32049809.595391661        1466532786.7379608     
   474094038.01968664        28263458.777453378        1475890571.2280438     
   1024749323.5697696        52319833.347672522        1124429139.8049302     
   912762446.39989543        51828230.870377809        1122956873.4729724     
   798552474.40599072        43926312.312983423        1127271796.6826572     
   682119407.58805025        28614077.675462961        1137373909.4339831     
   563463245.94608164        5891526.9578603506        1153263211.7269609     
   874268065.97778630        42460508.843785673        1215218732.0921881     
   777018457.41259789        41328962.764925361        1214101323.9805949     
   677550731.27497971        32803691.444630384        1218680766.0851638     
   575864887.56492841        16884694.882896006        1228957058.4059005     
   471960926.28244597       -6428026.9202760458        1244930200.9427941     
   732331765.85544622        35164671.580781728        1304058834.7584596     
   649561313.53643334        33315748.192806214        1303302091.6607597     
   564577720.89659071        24089690.402063966        1308151859.4537518     
   477380987.93591517        7486498.2085482776        1318608138.1374302     
   387971114.65440720       -16493828.387746647        1334670927.7118001     
   598940423.20274615        30432321.558674783        1390949447.8037467     
   530391014.77139318        27788587.154017717        1390559176.5134790     
   459633443.27081937        17784309.185279533        1395685076.7884209     
   386667708.70101267        419487.65243373811        1406327148.6285737     
   311493811.06196702       -24305877.444534361        1422485392.0339379     
   474094038.01968664        28263458.777453378        1475890571.2280438     
   419507561.11749643        24747479.648592189        1475872578.5387464     
   362717898.39767396        13887547.794292837        1481280418.0891771     
   303725049.86022234       -4316336.7854396105        1492114089.8793344     
   242529015.50513139       -29864174.090634048        1508373593.9092264     
   563463245.94608164        5891526.9578603506        1153263211.7269609     
   465264411.00940979       -32273813.804361135        1162320316.9815371     
   355060107.34324837       -110457383.66488656        1178986510.1693738     
   232850334.94759193       -228659182.62371463        1203261791.2904477     
   98635093.822433859       -386879210.68089271        1235146160.3447886     
   471960926.28244597       -6428026.9202760458        1244930200.9427941     
   393070000.00479257       -41003447.821716636        1243092278.3251321     
   304023602.55252028       -109430439.30522594        1247669062.1594324     
   204821733.92562523       -211709001.37080258        1258660552.4457021     
   95464394.124102995       -347839134.01847541        1276066749.1839359     
   387971114.65440720       -16493828.387746647        1334670927.7118001     
   324975578.51782763       -48503084.983778089        1324096307.7025583     
   253674568.76149756       -108197253.64565285        1318742012.6640110     
   174068085.38541579       -195576334.37336314        1318608042.5961502     
   86156128.389579907       -310640327.16691917        1323694397.4989712     
   311493811.06196702       -24305877.444534361        1422485392.0339379     
   260981146.54851800       -54772725.290542156        1405332405.1138172     
   204013005.97018093       -106757826.68617171        1392205361.6831036     
   140589389.32696435       -180261181.63139647        1383104261.7417915     
   70710296.618868247       -275282790.12623107        1378029105.2898898     
   242529015.50513139       -29864174.090634048        1508373593.9092264     
   201086704.09685776       -59812368.742014691        1486800570.5589087     
   155038914.17856514       -105112158.42679194        1468059109.2167101     
   104385645.75027367       -165763543.14489612        1452149209.8826406     
   49126898.811974615       -241766522.89636436        1439070872.5566862     
   98635093.822433859       -386879210.68089271        1235146160.3447886     
   84443403.182878673       -546458247.41834378        1196723037.8579147     
   57620209.519424558       -748142294.23545766        1154871310.3643696     
   18165512.832073033       -991931351.13221025        1109590977.8641737     
  -33920686.879162908       -1277825418.1086059        1060882040.3573334     
   95464394.124102995       -347839134.01847541        1276066749.1839359     
   79012772.262064487       -488807141.19888747        1221882489.3696754     
   51149858.993589103       -667812786.40074456        1165093572.9546909     
   11875654.318710685       -884856069.62396312        1105699999.9389782     
  -38809841.762604773       -1139936990.8686135        1043701770.3225325     
   86156128.389579907       -310640327.16691917        1323694397.4989712     
   69798713.607721418       -432291063.29948980        1255172580.5777056     
   43250219.036898285       -587912065.39526200        1184870055.4616389     
   6510644.6771369576       -777503333.45417619        1112786822.1507905     
  -40420009.471589446       -1001064867.4762975        1038922880.6451434     
   70710296.618868247       -275282790.12623107        1378029105.2898898     
   56801227.219852254       -376910013.72014993        1296593311.4819980     
   33921289.649343133       -508440131.21904516        1214200757.8852425     
   2070483.9073660970       -669873142.62284338        1130851444.4996457     
  -38751190.006115407       -861209047.93163729        1046545371.3251601     
   49126898.811974615       -241766522.89636436        1439070872.5566862     
   40020313.098458588       -322663992.46085417        1346144682.0825574     
   23163070.830921441       -429396983.87208664        1253085680.2255001     
  -1444827.9906161129       -561965497.12998009        1159893866.9854984     
  -33803383.366180688       -720369532.23463881        1066569242.3625746     
   1487716178.1178637        4905264.1841387153        1441729119.8605430     
   1455392322.1666720        5070742.6179817319        1451051077.7065341     
   1423646048.5427334        7161495.4760019183        1461522999.1820014     
   1392477357.2460451        11177522.758192182        1473144884.2869518     
   1361886248.2766128        17118824.464566350        1485916733.0213871     
   1121823779.2579494        5489887.9517515302        1454910608.3871534     
   1093374742.5443168        4352180.2136479020        1463904334.6441827     
   1065358889.8440665        4658419.1868253946        1475029462.7249126     
   1037776221.1572006        6408604.8712823391        1488285992.6293488     
   1010626736.4837205        9602737.2670255899        1503673924.3574872     
   751906910.72724497        4867170.8181238770        1467228009.2853668     
   730136802.37751603        3267509.6459780633        1475725039.2539191     
   708655479.72730422        2630467.4722194970        1487334909.2403972     
   687462942.77660823        2956044.2968480289        1502057619.2448020     
   666559191.52542663        4244240.1198593974        1519893169.2671311     
   377965572.52574873        3037112.7832604498        1478681322.5551746     
   365678501.66627502        1816730.9149806499        1486513191.5357399     
   353535818.19244522        1077640.3321816772        1498439338.7284520     
   341537522.10426742        819841.03488932550        1514459764.1333106     
   329683613.40173382        1043333.0230776519        1534574467.7503183     
  -235.34653667281742       -286.15283974770892        1489270548.1965775     
  -159.58941119159081       -155.97935694886934        1496268791.4896436     
  -94.760506355626134       -62.233275607013461        1508342751.1890769     
  -40.859821684538410       -4.9145951616921533        1525492427.2948792     
   2.1126390014681240        15.976672000025188        1547717819.8070514     
   1361886248.2766128        17118824.464566350        1485916733.0213871     
   1327994033.6177840        23383299.811422646        1478061809.4539506     
   1294390284.1134410        30609325.673237383        1474418553.1046157     
   1261074999.7635832        38796902.049998701        1474986963.9733834     
   1228048180.5682168        47946028.941734552        1479767042.0602572     
   1010626736.4837205        9602737.2670255899        1503673924.3574872     
   986862062.89270997        14797438.171997368        1498437640.5469596     
   963313738.37699723        20713302.661294878        1497026976.7493939     
   939981762.93657851        27350330.734905779        1499441932.9647884     
   916866136.57145274        34708522.392827004        1505682509.1931434     
   666559191.52542663        4244240.1198593974        1519893169.2671311     
   651819066.98754382        8038268.9785484970        1517191389.7877898     
   637223175.44576538        12313074.490915537        1517929183.1162667     
   622771516.90008736        17068656.656953633        1522106549.2525613     
   608464091.35051012        22305015.476659179        1529723488.1966751     
   329683613.40173382        1043333.0230776519        1534574467.7503183     
   322865045.90228570        3105792.2310749739        1534323057.1764407     
   316118595.31974638        5408641.1621019244        1537125172.2052372     
   309444261.65411574        7951879.8161572963        1542980812.8367078     
   302842044.90539354        10735508.193240836        1551889979.0708578     
   2.1126390014681240        15.976672000025188        1547717819.8070514     
 -0.36307024236887031        7.9295638050264010        1549832642.7129109     
  -2.0010625025122719        2.6748455556729218        1554614944.0162997     
  -2.8013360633015019       0.21252297083335026        1562064723.7172222     
  -2.7638988167752303       0.54256974371211697        1572181981.8156786     
   1228048180.5682168        47946028.941734552        1479767042.0602572     
   1117689096.1066403        33464882.585791886        1428059110.8109572     
   1006757638.5777429        17075826.005449235        1387263928.6532519     
   895253807.98151660       -1221140.7993235588        1357381495.5871499     
   783177604.31796670       -21426017.828511089        1338411811.6126447     
   916866136.57145274        34708522.392827004        1505682509.1931434     
   835637589.10150802        24309892.705337942        1454183523.9599986     
   753979761.77782881        12480330.172068834        1413237775.7822490     
   671892654.60042107       -780165.20696228743        1382845264.6598988     
   589376267.56927991       -15471593.431772441        1363005990.5929439     
   608464091.35051012        22305015.476659179        1529723488.1966751     
   555338903.62590849        15680749.283733964        1478600391.0622077     
   501927529.26116753        8102527.6236768067        1437671018.9469368     
   448229968.25628316       -429649.50352403522        1406935371.8508644     
   394246220.61126155       -9915782.0978498906        1386393449.7739861     
   302842044.90539354        10735508.193240836        1551889979.0708578     
   276793039.67984545        7577452.3209875375        1501309712.1175895     
   250600941.02775106        3942418.3602486551        1460563658.1473186     
   224265748.94910607       -169593.68899239600        1429651817.1600454     
   197787463.44391322       -4758583.8267280012        1408574189.1557665     
  -2.7638988167752303       0.54256974371211697        1572181981.8156786     
  -2.7366772767348255        1.8171182049895589        1522311487.1261404     
  -2.9224150114511644        2.3818031109672466        1481915693.3833954     
  -3.3211095732484841        2.2366312327856046        1450994600.5874486     
  -3.9327591549643079        1.3816099820983421        1429548208.7382944     
   783177604.31796670       -21426017.828511089        1338411811.6126447     
   772932884.77679932       -10864789.019170702        1373376342.9849918     
   763403391.44699717        2080527.1613784432        1408613492.4779925     
   754589124.32856739        17409930.713170618        1444123260.0916536     
   746490083.42150414        35123421.636184424        1479905645.8259680     
   589376267.56927991       -15471593.431772441        1363005990.5929439     
   579513223.77432120       -8204523.2870215178        1398489875.6340749     
   570186599.65642524        850612.44794139266        1434754929.7434645     
   561396395.21559918        11693813.773133844        1471801152.9211018     
   553142610.45183301        24325080.688529909        1509628545.1669962     
   394246220.61126155       -9915782.0978498906        1386393449.7739861     
   386217855.26993728       -5506969.8054357320        1422188080.8605475     
   378547103.07136989        93886.296168446541        1459272431.9629591     
   371233964.01556265        6886786.2069730163        1497646503.0812218     
   364278438.10251015        14871729.926959902        1537310294.2153332     
   197787463.44391322       -4758583.8267280012        1408574189.1557665     
   193046779.26364347       -2772128.5744270980        1444470958.6644037     
   188484901.69182411       -189651.29395955056        1482165999.1364872     
   184101830.72845936        2988848.0146906078        1521659310.5720205     
   179897566.37354264        6763369.3514998406        1562950892.9709961     
  -3.9327591549643079        1.3816099820983421        1429548208.7382944     
  -4.2445597860661088       0.40600204059521339        1465338509.0456455     
  -4.4822057695440529      -0.32242443605111526        1503435631.2640393     
  -4.6457073078597260      -0.80370206826715029        1543839575.3934832     
  -4.7350687473532647       -1.0378467316321314        1586550341.4339719     
   746490083.42150414        35123421.636184424        1479905645.8259680     
   679012480.10201848        35479791.024730623        1468540324.0369260     
   611120604.76189435        34455253.677815288        1464082704.3409231     
   542814457.40111768        32049809.595391661        1466532786.7379608     
   474094038.01968664        28263458.777453378        1475890571.2280438     
   553142610.45183301        24325080.688529909        1509628545.1669962     
   503411246.16754192        24855409.173449308        1499307178.1650195     
   453369177.87145692        24350057.619055778        1495688917.7671485     
   403016405.56361032        22809026.025456965        1498773763.9733720     
   352352929.24397600        20232314.392565772        1508561716.7836957     
   364278438.10251015        14871729.926959902        1537310294.2153332     
   331708754.31357324        15400649.946283743        1528153711.3441119     
   298931934.52172118        15239116.622560054        1525495639.5880442     
   265947978.72695458        14387129.955787778        1529336078.9471307     
   232756886.92927560        12844689.945971243        1539675029.4213789     
   179897566.37354264        6763369.3514998406        1562950892.9709961     
   163905004.54012933        7115513.3432972506        1555079923.5741951     
   147808874.71266481        7122430.6882548258        1553502869.8036110     
   131609176.89115258        6784121.3863863274        1558219731.6592369     
   115305911.07558879        6100585.4376824759        1569230509.1410792     
  -4.7350687473532647       -1.0378467316321314        1586550341.4339719     
  -3.1527970710344886      -0.63554399838088615        1580085814.8552747     
  -1.5557146230589896      -0.18387063849511809        1579710608.4138479     
   5.6189897057590137E-002  0.31720754685941371        1585424722.1096938     
   1.6829173585832777       0.86769831246853368        1597228155.9428144     
   474094038.01968664        28263458.777453378        1475890571.2280438     
   419507561.11749643        24747479.648592189        1475872578.5387464     
   362717898.39767396        13887547.794292837        1481280418.0891771     
   303725049.86022234       -4316336.7854396105        1492114089.8793344     
   242529015.50513139       -29864174.090634048        1508373593.9092264     
   352352929.24397600        20232314.392565772        1508561716.7836957     
   312009975.14467496        17774401.130118564        1506975773.0679803     
   270014631.67540407        9808523.3011012524        1510676384.0686634     
   226366898.83615252       -3665319.0945169181        1519663549.7857499     
   181066776.62694311       -22647126.056660004        1533937270.2192276     
   232756886.92927560        12844689.945971243        1539675029.4213789     
   206259519.85191786        11325461.815670937        1537163730.5348523     
   178660559.85223946        6134257.2776329443        1539799708.8413916     
   149960006.93025312       -2728923.6680968776        1547582964.3409917     
   120157861.08595084       -15264081.021547146        1560513497.0336561     
   115305911.07558879        6100585.4376824759        1569230509.1410792     
   102256195.23921464        5400661.7052194700        1566436450.9393466     
   88655682.928184062        2864749.7239015438        1568650392.4073467     
   74504374.142503470       -1507150.5062483586        1575872333.5450704     
   59802268.882162184       -7715038.9852698743        1588102274.3525255     
   1.6829173585832777       0.86769831246853368        1597228155.9428144     
   1.3065832298881359       0.79881952700940317        1594793934.2814739     
  0.90323517895832051       0.63989710965892332        1597228434.7665272     
  0.47290632948077543       0.39103800325995380        1604531657.3979785     
   1.5578930087359607E-002   5.2182342695967582E-002   1616703602.1758301     
   242529015.50513139       -29864174.090634048        1508373593.9092264     
   201086704.09685776       -59812368.742014691        1486800570.5589087     
   155038914.17856514       -105112158.42679194        1468059109.2167101     
   104385645.75027367       -165763543.14489612        1452149209.8826406     
   49126898.811974615       -241766522.89636436        1439070872.5566862     
   181066776.62694311       -22647126.056660004        1533937270.2192276     
   149364931.49358922       -45294305.573087126        1507928830.4115145     
   114208977.48164174       -79455181.351492971        1484896645.3144679     
   75598914.591084212       -125129753.39193156        1464840714.9280918     
   33534742.821930788       -182318021.69435787        1447761039.2523916     
   120157861.08595084       -15264081.021547146        1560513497.0336561     
   98609889.949091405       -30486223.086513363        1531412905.3385262     
   74759179.565035790       -53384162.642132863        1505433261.0566020     
   48605729.933786139       -83957899.688399777        1482574564.1879029     
   20149541.055340715       -122207434.22531861        1462836814.7324247     
   59802268.882162184       -7715038.9852698743        1588102274.3525255     
   48821579.463356629       -15388121.282318182        1557252795.3399436     
   36689520.428766310       -26899102.298654746        1529668956.4431274     
   23406091.778377786       -42247982.034314319        1505350757.6620796     
   8971293.5122125819       -61434760.489232443        1484298198.9967964     
   1.5578930087359607E-002   5.2182342695967582E-002   1616703602.1758301     
   3.6389298168144554E-002 -0.16048943309840991        1585448500.4157777     
   7.2819497684531456E-002 -0.32109649188622830        1557603731.4740400     
  0.12487382922570914      -0.42962172281262995        1533169295.3506086     
  0.19253975703170176      -0.48610968730176263        1512145192.0454998     
   49126898.811974615       -241766522.89636436        1439070872.5566862     
   40020313.098458588       -322663992.46085417        1346144682.0825574     
   23163070.830921441       -429396983.87208664        1253085680.2255001     
  -1444827.9906161129       -561965497.12998009        1159893866.9854984     
  -33803383.366180688       -720369532.23463881        1066569242.3625746     
   33534742.821930788       -182318021.69435787        1447761039.2523916     
   29544381.160704732       -242139250.60008800        1347363870.1309178     
   19741027.079861045       -321337120.90454364        1246171321.5113533     
   4124680.5793868303       -419911632.60776138        1144183393.3936930     
  -17304658.340718597       -537862785.70975947        1041400085.7779173     
   20149541.055340715       -122207434.22531861        1462836814.7324247     
   19382351.688788988       -161520337.99952376        1357229275.1204035     
   14739834.036991522       -213751002.72455081        1250163787.8951156     
   6221988.0999548584       -278899428.40037340        1141640353.0565548     
  -6171186.1223175377       -356965615.02698529        1031658970.6047250     
   8971293.5122125819       -61434760.489232443        1484298198.9967964     
   9534224.6826948971       -80807254.659236357        1375740897.0510120     
   8159491.7023293450       -106638629.33206540        1265063079.3767886     
   4847094.5710972771       -138928884.50777966        1152264745.9741335     
  -402966.71098374575       -177678020.18633121        1037345896.8430057     
  0.19253975703170176      -0.48610968730176263        1512145192.0454998     
  0.14242316117671808      -0.57920888781175106        1402898735.9227366     
   7.5840570087762488E-002 -0.72719126965469361        1290869195.9563601     
  -7.2086796239227424E-003 -0.93006286051809717        1176056572.1463830     
 -0.10671976123323756       -1.1878113877099412        1058460864.4927871     
  -235.34653667281742       -286.15283974770892        1489270548.1965775     
  -159.58941119159081       -155.97935694886934        1496268791.4896436     
  -94.760506355626134       -62.233275607013461        1508342751.1890769     
  -40.859821684538410       -4.9145951616921533        1525492427.2948792     
   2.1126390014681240        15.976672000025188        1547717819.8070514     
  -377965988.23473018       -3037488.3709806353        1478681400.5000489     
  -365678793.40895820       -1816942.5080883950        1486513246.6160233     
  -353535998.88806552       -1077730.9947938770        1498439371.9885638     
  -341537604.67205721       -819853.83111280203        1514459776.6176805     
  -329683610.76093102       -1043311.0170386136        1534574460.5033677     
  -751907280.31212473       -4867352.3458868861        1467228126.0817630     
  -730137072.55997849       -3267622.6362576783        1475725120.7478671     
  -708655654.48937678       -2630525.1984419525        1487334957.5207481     
  -687463026.10031796       -2956060.0324382186        1502057636.4004059     
  -666559187.39280438       -4244227.1382502019        1519893157.3868363     
  -1121824111.5787196       -5489878.0775514841        1454910724.9417167     
  -1093374997.0424747       -4352196.3638693690        1463904413.8851826     
  -1065359061.5644377       -4658444.8442144394        1475029507.7856274     
  -1037776305.1446040       -6408623.5185710788        1488286006.6430516     
  -1010626727.7829752       -9602732.3869426847        1503673910.4574571     
  -1487716482.0345128       -4905065.5659739375        1441729197.0799098     
  -1455392566.8564456       -5070663.6909266114        1451051126.0279670     
  -1423646220.1132464       -7161489.9321081042        1461523022.7832043     
  -1392477441.8049140       -11177544.289507747        1473144887.3456256     
  -1361886231.9314492       -17118826.763136148        1485916719.7152321     
   2.1126390014681240        15.976672000025188        1547717819.8070514     
 -0.36307024236887031        7.9295638050264010        1549832642.7129109     
  -2.0010625025122719        2.6748455556729218        1554614944.0162997     
  -2.8013360633015019       0.21252297083335026        1562064723.7172222     
  -2.7638988167752303       0.54256974371211697        1572181981.8156786     
  -329683610.76093102       -1043311.0170386136        1534574460.5033677     
  -322865046.73949260       -3105780.1168404222        1534323052.4138250     
  -316118598.64194232       -5408635.6296008080        1537125169.6290238     
  -309444266.46827579       -7951877.5553063154        1542980812.1489637     
  -302842050.21849269       -10735505.893959820        1551889979.9736421     
  -666559187.39280438       -4244227.1382502019        1519893157.3868363     
  -651819065.71076453       -8038259.9417020679        1517191382.0800238     
  -637223176.71421492       -12313068.363452077        1517929178.9851604     
  -622771520.40315413       -17068652.403500676        1522106548.1022463     
  -608464096.77758324       -22305012.061846703        1529723489.4312782     
  -1010626727.7829752       -9602732.3869426847        1503673910.4574571     
  -986862057.27688396       -14797431.545014977        1498437631.7115040     
  -963313736.21788692       -20713295.526729643        1497026972.0847089     
  -939981764.60598075       -27350324.332082748        1499441931.5770700     
  -916866142.44116569       -34708517.961077034        1505682510.1885898     
  -1361886231.9314492       -17118826.763136148        1485916719.7152321     
  -1327994021.4378541       -23383294.926788092        1478061801.3082671     
  -1294390277.1529546       -30609317.119424224        1474418548.9276690     
  -1261074999.0767529       -38796893.341056406        1474986962.5734363     
  -1228048187.2092428       -47946023.591655672        1479767042.2455666     
  -2.7638988167752303       0.54256974371211697        1572181981.8156786     
  -2.7366772767348255        1.8171182049895589        1522311487.1261404     
  -2.9224150114511644        2.3818031109672466        1481915693.3833954     
  -3.3211095732484841        2.2366312327856046        1450994600.5874486     
  -3.9327591549643079        1.3816099820983421        1429548208.7382944     
  -302842050.21849269       -10735505.893959820        1551889979.9736421     
  -276793045.26145798       -7577448.7761962712        1501309712.5415101     
  -250600947.12058756       -3942414.3789818287        1460563658.1447744     
  -224265755.79588306        169597.29767988622        1429651816.7834308     
  -197787471.28734535        4758586.2537863553        1408574188.4574864     
  -608464096.77758324       -22305012.061846703        1529723489.4312782     
  -555338909.49472725       -15680745.882049829        1478600391.5528066     
  -501927535.63124734       -8102524.4335067272        1437671018.7983327     
  -448229975.18714255        429652.28378599882        1406935371.1678517     
  -394246228.16241515        9915784.2698209733        1386393448.6613748     
  -916866142.44116569       -34708517.961077034        1505682510.1885898     
  -835637595.43649113       -24309889.500458896        1454183524.1600337     
  -753979768.45439863       -12480327.781785488        1413237775.3440747     
  -671892661.49489081        780167.19494047761        1382845263.7407188     
  -589376274.55797160        15471595.429704636        1363005989.3499546     
  -1228048187.2092428       -47946023.591655672        1479767042.2455666     
  -1117689103.0867436       -33464879.631409466        1428059110.3631873     
  -1006757645.5900385       -17075824.423810005        1387263927.7820046     
  -895253814.71912551        1221142.0311526060        1357381494.5020180     
  -783177610.47400951        21426019.733453840        1338411810.5232353     
  -3.9327591549643079        1.3816099820983421        1429548208.7382944     
  -4.2445597860661088       0.40600204059521339        1465338509.0456455     
  -4.4822057695440529      -0.32242443605111526        1503435631.2640393     
  -4.6457073078597260      -0.80370206826715029        1543839575.3934832     
  -4.7350687473532647       -1.0378467316321314        1586550341.4339719     
  -197787471.28734535        4758586.2537863553        1408574188.4574864     
  -193046787.55844977        2772129.7325674221        1444470958.1797991     
  -188484910.36070630        189651.44084249437        1482165998.8405848     
  -184101839.69411060       -2988848.6213754565        1521659310.4398510     
  -179897575.55866989       -6763370.4541102201        1562950892.9775941     
  -394246228.16241515        9915784.2698209733        1386393448.6613748     
  -386217863.17159295        5506971.3693535030        1422188080.0924621     
  -378547111.31722015       -93885.319278761744        1459272431.4894617     
  -371233972.59929681       -6886785.7960772663        1497646502.8523703     
  -364278447.01782358       -14871730.061042801        1537310294.1811857     
  -589376274.55797160        15471595.429704636        1363005989.3499546     
  -579513231.08398747        8204525.3163625300        1398489874.7836416     
  -570186607.35175645       -850610.60282132030        1434754929.2106721     
  -561396403.36126757       -11693812.327814281        1471801152.6310413     
  -553142619.11253202       -24325079.858650118        1509628545.0447481     
  -783177610.47400951        21426019.733453840        1338411810.5232353     
  -772932891.29563320        10864791.573599517        1373376342.2533386     
  -763403398.46430659       -2080524.4097555280        1408613492.0042133     
  -754589131.98002589       -17409928.216594547        1444123259.7758584     
  -746490091.84278715       -35123419.846908182        1479905645.5682793     
  -4.7350687473532647       -1.0378467316321314        1586550341.4339719     
  -3.1527970710344886      -0.63554399838088615        1580085814.8552747     
  -1.5557146230589896      -0.18387063849511809        1579710608.4138479     
   5.6189897057590137E-002  0.31720754685941371        1585424722.1096938     
   1.6829173585832777       0.86769831246853368        1597228155.9428144     
  -179897575.55866989       -6763370.4541102201        1562950892.9775941     
  -163905010.59733114       -7115513.7938626260        1555079923.6064668     
  -147808877.62448841       -7122430.4286016971        1553502869.8685961     
  -131609176.64014043       -6784120.3583248109        1558219731.7639768     
  -115305907.64428158       -6100583.5830088034        1569230509.2926111     
  -364278447.01782358       -14871730.061042801        1537310294.1811857     
  -331708760.11747110       -15400649.574868008        1528153711.3470974     
  -298931937.20892310       -15239115.728044376        1525495639.6422493     
  -265947978.29218075       -14387128.520570159        1529336079.0666320     
  -232756883.36724332       -12844687.952448085        1539675029.6202526     
  -553142619.11253202       -24325079.858650118        1509628545.0447481     
  -503411251.71321422       -24855407.978551835        1499307178.0771704     
  -453369180.30901313       -24350056.082176968        1495688917.7348108     
  -403016404.89993083       -22809024.169531778        1498773764.0176666     
  -352352925.48596638       -20232312.240610763        1508561716.9257398     
  -746490091.84278715       -35123419.846908182        1479905645.5682793     
  -679012485.38456070       -35479789.004916668        1468540323.7966812     
  -611120606.92476153       -34455251.491012096        1464082704.1462774     
  -542814456.46339035       -32049807.305204153        1466532786.6170759     
  -474094034.00045574       -28263456.447516665        1475890571.2090716     
   1.6829173585832777       0.86769831246853368        1597228155.9428144     
   1.3065832298881359       0.79881952700940317        1594793934.2814739     
  0.90323517895832051       0.63989710965892332        1597228434.7665272     
  0.47290632948077543       0.39103800325995380        1604531657.3979785     
   1.5578930087359607E-002   5.2182342695967582E-002   1616703602.1758301     
  -115305907.64428158       -6100583.5830088034        1569230509.2926111     
  -102256192.64019099       -5400660.2306781895        1566436451.0682347     
  -88655681.180874169       -2864748.6942587271        1568650392.5082774     
  -74504373.266328990        1507151.0262543745        1575872333.6127400     
  -59802268.896557800        7715038.9308545962        1588102274.3816228     
  -232756883.36724332       -12844687.952448085        1539675029.6202526     
  -206259517.21693960       -11325460.449153230        1537163730.7287638     
  -178660558.12918702       -6134256.4876964316        1539799709.0197263     
  -149960006.10398495        2728923.9319243580        1547582964.4931300     
  -120157861.14132822        15264080.809730075        1560513497.1489758     
  -352352925.48596638       -20232312.240610763        1508561716.9257398     
  -312009972.42366803       -17774399.856623068        1506975773.2630706     
  -270014629.94169188       -9808522.7403813452        1510676384.3008711     
  -226366898.04004210        3665319.1081107259        1519663550.0391347     
  -181066776.71872562        22647125.688820802        1533937270.4778721     
  -474094034.00045574       -28263456.447516665        1475890571.2090716     
  -419507558.26037341       -24747478.453082636        1475872578.6711481     
  -362717896.61839330       -13887547.452321857        1481280418.3517158     
  -303725049.07453138        4316336.5547116995        1492114090.2507758     
  -242529015.62875399        29864173.568128899        1508373594.3683286     
   1.5578930087359607E-002   5.2182342695967582E-002   1616703602.1758301     
   3.6389298168144554E-002 -0.16048943309840991        1585448500.4157777     
   7.2819497684531456E-002 -0.32109649188622830        1557603731.4740400     
  0.12487382922570914      -0.42962172281262995        1533169295.3506086     
  0.19253975703170176      -0.48610968730176263        1512145192.0454998     
  -59802268.896557800        7715038.9308545962        1588102274.3816228     
  -48821579.397746846        15388120.938504379        1557252795.3969073     
  -36689520.267774612        26899101.716691833        1529668956.5261114     
  -23406091.506655455        42247981.265369333        1505350757.7692339     
  -8971293.1143681854        61434759.584606528        1484298199.1262832     
  -120157861.14132822        15264080.809730075        1560513497.1489758     
  -98609889.891342849        30486222.719678558        1531412905.4910512     
  -74759179.394670501        53384162.118584625        1505433261.2426560     
  -48605729.651303291        83957899.006471872        1482574564.4037883     
  -20149540.661247097        122207433.38332480        1462836814.9744511     
  -181066776.71872562        22647125.688820802        1533937270.4778721     
  -149364931.44440731        45294305.182999715        1507928830.6982036     
  -114208977.30786620        79455180.884586647        1484896645.6236668     
  -75598914.309092626        125129752.79361510        1464840715.2542686     
  -33534742.448095888        182318020.91005543        1447761039.5900071     
  -242529015.62875399        29864173.568128899        1508373594.3683286     
  -201086704.05693385        59812368.328495562        1486800571.0183668     
  -155038914.00736228        105112158.01470020        1468059109.6691458     
  -104385645.48001625        165763542.62682009        1452149210.3206735     
  -49126898.474913374        241766522.16479546        1439070872.9729457     
  0.19253975703170176      -0.48610968730176263        1512145192.0454998     
  0.14242316117671808      -0.57920888781175106        1402898735.9227366     
   7.5840570087762488E-002 -0.72719126965469361        1290869195.9563601     
  -7.2086796239227424E-003 -0.93006286051809717        1176056572.1463830     
 -0.10671976123323756       -1.1878113877099412        1058460864.4927871     
  -8971293.1143681854        61434759.584606528        1484298199.1262832     
  -9534224.3938579932        80807253.534193337        1375740897.1416709     
  -8159491.5472160131        106638627.90422253        1265063079.4297593     
  -4847094.5744213462        138928882.69475532        1152264745.9905455     
   402966.52451221645        177678017.90575594        1037345896.8240592     
  -20149540.661247097        122207433.38332480        1462836814.9744511     
  -19382351.409207702        161520336.90385169        1357229275.2943587     
  -14739833.888419405        213751001.32020396        1250163788.0032921     
  -6221988.0988817513        278899426.63239211        1141640353.1012444     
   6171185.9594094008        356965612.84042287        1031658970.5882382     
  -33534742.448095888        182318020.91005543        1447761039.5900071     
  -29544380.903613314        242139249.52980494        1347363870.3808067     
  -19741026.947773173        321337119.52074772        1246171321.6769578     
  -4124680.5805752873        419911630.88288248        1144183393.4784510     
   17304658.197973639        537862783.61618984        1041400085.7852755     
  -49126898.474913374        241766522.16479546        1439070872.9729457     
  -40020312.877081722        322663991.41203266        1346144682.4010208     
  -23163070.725286126        429396982.50581712        1253085680.4507699     
   1444827.9804698825        561965495.44614124        1159893867.1221681     
   33803383.240206748        720369530.23305750        1066569242.4152197     
  -1487716482.0345128       -4905065.5659739375        1441729197.0799098     
  -1455392566.8564456       -5070663.6909266114        1451051126.0279670     
  -1423646220.1132464       -7161489.9321081042        1461523022.7832043     
  -1392477441.8049140       -11177544.289507747        1473144887.3456256     
  -1361886231.9314492       -17118826.763136148        1485916719.7152321     
  -1856234570.3202701       -1056803.0914771557        1364353784.9784238     
  -1819812499.6417623       -4857252.3455849886        1369822865.6630058     
  -1783699235.2866476       -9687056.0110102892        1378133217.6474693     
  -1747894777.2549295       -15546214.087754130        1389284840.9318211     
  -1712399125.5466032       -22434726.575803161        1403277735.5160580     
  -2236699653.0846148       -792638.96055483818        1284950711.2173121     
  -2191347131.2122355       -6778250.6357920170        1286880499.4351375     
  -2146034653.5517726       -12897343.017432928        1293342862.4455492     
  -2100762220.1032338       -19149916.105481982        1304337800.2485461     
  -2055529830.8666186       -25535969.899937034        1319865312.8441288     
  -2629111730.3275414       -4112573.1732089520        1203519975.7965748     
  -2569996461.5678544       -10833658.561537623        1202224027.3443642     
  -2510652474.9086185       -16792350.951370120        1207151957.1774409     
  -2451079770.3498302       -21988650.342699766        1218303765.2958035     
  -2391278347.8914890       -26422556.735521317        1235679451.6994522     
  -3033470802.0490561       -11016605.729437470        1120061578.7162180     
  -2955760490.7086339       -17023476.122839689        1115853449.3906870     
  -2877552699.3571835       -21372079.812822223        1119560501.8431451     
  -2798847427.9947147       -24062416.799406528        1131182736.0735891     
  -2719644676.6212206       -25094487.082570910        1150720152.0820217     
  -1361886231.9314492       -17118826.763136148        1485916719.7152321     
  -1327994021.4378541       -23383294.926788092        1478061801.3082671     
  -1294390277.1529546       -30609317.119424224        1474418548.9276690     
  -1261074999.0767529       -38796893.341056406        1474986962.5734363     
  -1228048187.2092428       -47946023.591655672        1479767042.2455666     
  -1712399125.5466032       -22434726.575803161        1403277735.5160580     
  -1667327039.3645329       -27903585.869419396        1397455980.4682350     
  -1622904351.5718296       -35537106.460923672        1395838861.7228680     
  -1579131062.1684890       -45335288.350307763        1398426379.2799551     
  -1536007171.1545198       -57298131.537591279        1405218533.1394956     
  -2055529830.8666186       -25535969.899937034        1319865312.8441288     
  -1999297953.9215310       -30215245.801150441        1315655633.6113346     
  -1944076407.5464826       -38262290.269159794        1315643560.9570813     
  -1889865191.7414694       -49677103.303952456        1319829094.8813713     
  -1836664306.5064921       -64459684.905535400        1328212235.3842051     
  -2391278347.8914890       -26422556.735521317        1235679451.6994522     
  -2323906765.1088471       -30318274.721975088        1232660760.7375662     
  -2257906445.0769134       -38784868.544121027        1233832646.6303136     
  -2193277387.7956882       -51822338.201961875        1239195109.3776932     
  -2130019593.2651682       -69430683.695487261        1248748148.9797029     
  -2719644676.6212206       -25094487.082570910        1150720152.0820217     
  -2641153472.9264832       -28212672.631895542        1148471361.8469298     
  -2564394464.1631274       -37104841.285831094        1150406118.7425630     
  -2489367650.3311434       -51770993.044341087        1156524422.7689118     
  -2416073031.4305434       -72211127.907455444        1166826273.9259839     
  -1228048187.2092428       -47946023.591655672        1479767042.2455666     
  -1117689103.0867436       -33464879.631409466        1428059110.3631873     
  -1006757645.5900385       -17075824.423810005        1387263927.7820046     
  -895253814.71912551        1221142.0311526060        1357381494.5020180     
  -783177610.47400951        21426019.733453840        1338411810.5232353     
  -1536007171.1545198       -57298131.537591279        1405218533.1394956     
  -1398280455.7504170       -40397125.843806863        1356298766.2072766     
  -1259585879.3872716       -20269916.953212261        1316959844.4058194     
  -1119923442.0650723        3083495.1342227459        1287201767.7351143     
  -979293143.78383160        29663110.418472111        1267024536.1951711     
  -1836664306.5064921       -64459684.905535400        1328212235.3842051     
  -1675375400.3077705       -46280449.624320805        1282542035.5844693     
  -1512723145.5651546       -23556719.196806610        1245120776.7450469     
  -1348707542.2786560        3711506.3769917488        1215948458.8659410     
  -1183328590.4482658        35524227.097091913        1195025081.9471519     
  -2130019593.2651682       -69430683.695487261        1248748148.9797029     
  -1948973936.7587910       -51114850.972920179        1206788918.4947598     
  -1766169444.1236892       -26936231.154596090        1171746724.7996929     
  -1581606115.3598576        3105175.7594869733        1143621567.8944969     
  -1395283950.4672980        39009369.769336462        1122413447.7791753     
  -2416073031.4305434       -72211127.907455444        1166826273.9259839     
  -2219076065.1034961       -54900329.889638186        1129039414.9381502     
  -2019924775.0628760       -30408452.826584816        1096837688.5697494     
  -1818619161.3086944        1264503.2816817760        1070221094.8207791     
  -1615159223.8409326        40118538.435206890        1049189633.6912431     
  -783177610.47400951        21426019.733453840        1338411810.5232353     
  -772932891.29563320        10864791.573599517        1373376342.2533386     
  -763403398.46430659       -2080524.4097555280        1408613492.0042133     
  -754589131.98002589       -17409928.216594547        1444123259.7758584     
  -746490091.84278715       -35123419.846908182        1479905645.5682793     
  -979293143.78383160        29663110.418472111        1267024536.1951711     
  -967924913.97440791        17469163.105419338        1298585134.8100114     
  -957521210.21573210        2060128.9565316439        1331114135.6940873     
  -948082032.50780356       -16563992.028176904        1364611538.8473971     
  -939607380.85062575       -38403199.848720819        1399077344.2699394     
  -1183328590.4482658        35524227.097091913        1195025081.9471519     
  -1168848895.0121784        22293947.129542172        1222890897.7924113     
  -1155583025.3305497        5017581.3138015270        1252420900.1553645     
  -1143530981.4033706       -16304870.350106001        1283615089.0360174     
  -1132692763.2306488       -41673407.862205505        1316473464.4343655     
  -1395283950.4672980        39009369.769336462        1122413447.7791753     
  -1375704834.4089489        25339143.645957470        1146293631.2005274     
  -1357588843.8087544        6791832.6620617509        1172533785.3880405     
  -1340935978.6667211       -16632563.182371795        1201133910.3417141     
  -1325746238.9828477       -44934043.887334526        1232094006.0615451     
  -1615159223.8409326        40118538.435206890        1049189633.6912431     
  -1588492732.1647120        26604752.654691756        1068793335.0343720     
  -1563538665.6503539        7382883.0012987256        1091452791.3921232     
  -1540297024.2978559       -17547070.524960995        1117168002.7644923     
  -1518767808.1072252       -48185107.924110532        1145938969.1514874     
  -746490091.84278715       -35123419.846908182        1479905645.5682793     
  -679012485.38456070       -35479789.004916668        1468540323.7966812     
  -611120606.92476153       -34455251.491012096        1464082704.1462774     
  -542814456.46339035       -32049807.305204153        1466532786.6170759     
  -474094034.00045574       -28263456.447516665        1475890571.2090716     
  -939607380.85062575       -38403199.848720819        1399077344.2699394     
  -855006148.45753753       -38295506.503502846        1387809530.4564643     
  -770027910.70929575       -36931128.641111106        1382698943.1247857     
  -684672667.60589921       -34310066.261531949        1383745582.2749047     
  -598940419.14735329       -30432319.364793688        1390949447.9068201     
  -1132692763.2306488       -41673407.862205505        1316473464.4343655     
  -1033112121.0152667       -41744916.847514629        1305259680.8248565     
  -933191740.09115303       -40683963.470387876        1299452648.0577447     
  -832931620.45831192       -38490547.730831176        1299052366.1330266     
  -732331762.11673796       -35164669.628840119        1304058835.0507112     
  -1325746238.9828477       -44934043.887334526        1232094006.0615451     
  -1213330403.0577505       -45828020.036952972        1220890774.9018471     
  -1100612095.0703390       -45713755.978869498        1214343818.9451447     
  -987591315.02061939       -44591251.713085294        1212453138.1914396     
  -874268062.90859354       -42460507.239616215        1215218732.6407254     
  -1518767808.1072252       -48185107.924110532        1145938969.1514874     
  -1395660994.5849829       -50544816.071812332        1134702812.6874454     
  -1272288975.6468575       -52020506.166562617        1127372455.7869949     
  -1148651751.2928343       -52612178.208326280        1123947898.4501450     
  -1024749321.5229263       -52319832.197135389        1124429140.6768816     
  -474094034.00045574       -28263456.447516665        1475890571.2090716     
  -419507558.26037341       -24747478.453082636        1475872578.6711481     
  -362717896.61839330       -13887547.452321857        1481280418.3517158     
  -303725049.07453138        4316336.5547116995        1492114090.2507758     
  -242529015.62875399        29864173.568128899        1508373594.3683286     
  -598940419.14735329       -30432319.364793688        1390949447.9068201     
  -530391011.85259461       -27788585.940658271        1390559176.7451823     
  -459633441.42294514       -17784308.733556807        1395685077.1541114     
  -386667707.85842431       -419487.74355338514        1406327149.1335897     
  -311493811.15901113        24305877.029426560        1422485392.6836290     
  -732331762.11673796       -35164669.628840119        1304058835.0507112     
  -649561310.83281374       -33315747.044628292        1303302092.0371752     
  -564577719.18102098       -24089689.900857270        1308151859.9462681     
  -477380987.16136426       -7486498.1975396574        1318608138.7779837     
  -387971114.77383661        16493828.065350384        1334670928.5323310     
  -874268062.90859354       -42460507.239616215        1215218732.6407254     
  -777018455.20103097       -41328961.764993578        1214101324.5471144     
  -677550729.89262140       -32803690.954217643        1218680766.7281988     
  -575864886.98335338       -16884694.807243794        1228957059.1839697     
  -471960926.47322989        6428026.6759122014        1244930201.9144440     
  -1024749321.5229263       -52319832.197135389        1124429140.6768816     
  -912762444.95725024       -51828230.101772845        1122956874.2750103     
  -798552473.55774188       -43926311.893627286        1127271797.4998946     
  -682119407.32438052       -28614077.572644353        1137373910.3515415     
  -563463246.25719476       -5891527.1389107704        1153263212.8299503     
  -242529015.62875399        29864173.568128899        1508373594.3683286     
  -201086704.05693385        59812368.328495562        1486800571.0183668     
  -155038914.00736228        105112158.01470020        1468059109.6691458     
  -104385645.48001625        165763542.62682009        1452149210.3206735     
  -49126898.474913374        241766522.16479546        1439070872.9729457     
  -311493811.15901113        24305877.029426560        1422485392.6836290     
  -260981146.51051891        54772724.935379267        1405332405.7153571     
  -204013005.82223988        106757826.30729051        1392205362.2332621     
  -140589389.09415650        180261181.14521390        1383104262.2373414     
  -70710296.326287284        275282789.44909221        1378029105.7275937     
  -387971114.77383661        16493828.065350384        1334670928.5323310     
  -324975578.51886487        48503084.675844654        1324096308.4347880     
  -253674568.66207469        108197253.29240614        1318742013.3088479     
  -174068085.20345396        195576333.91506696        1318608043.1545160     
  -86156128.143016651        310640326.54378241        1323694397.9717937     
  -471960926.47322989        6428026.6759122014        1244930201.9144440     
  -393070000.08198357        41003447.549866587        1243092279.1766577     
  -304023602.52687705        109430438.97001861        1247669062.8959138     
  -204821733.80791458        211709000.93635452        1258660553.0722051     
  -95464393.925101921        347839133.44886577        1276066749.7055318     
  -563463246.25719476       -5891527.1389107704        1153263212.8299503     
  -465264411.19985980        32273813.557481229        1162320317.9409647     
  -355060107.41663742        110457383.34015363        1178986510.9944508     
  -232850334.90752879        228659182.20912188        1203261791.9904053     
  -98635093.672538370        386879210.16435719        1235146160.9288316     
  -49126898.474913374        241766522.16479546        1439070872.9729457     
  -40020312.877081722        322663991.41203266        1346144682.4010208     
  -23163070.725286126        429396982.50581712        1253085680.4507699     
   1444827.9804698825        561965495.44614124        1159893867.1221681     
   33803383.240206748        720369530.23305750        1066569242.4152197     
  -70710296.326287284        275282789.44909221        1378029105.7275937     
  -56801227.020375639        376910012.76775599        1296593311.8204427     
  -33921289.543245226        508440129.99047822        1214200758.1275072     
  -2070483.8949043155        669873141.11724472        1130851444.6488192     
   38751189.924669534        861209046.14811063        1046545371.3843365     
  -86156128.143016651        310640326.54378241        1323694397.9717937     
  -69798713.435982943        432291062.44177532        1255172580.9495313     
  -43250218.940471202        587912064.30135918        1184870055.7340667     
  -6510644.6564947963        777503332.12250018        1112786822.3253934     
   40420009.415963054        1001064865.9052263        1038922880.7235140     
  -95464393.925101921        347839133.44886577        1276066749.7055318     
  -79012772.123895407        488807140.43410814        1221882489.7883084     
  -51149858.916961819        667812785.43844092        1165093573.2704351     
  -11875654.304299355        884856068.46186960        1105700000.1519103     
   38809841.714087367        1139936989.5043845        1043701770.4327585     
  -98635093.672538370        386879210.16435719        1235146160.9288316     
  -84443403.084119529        546458246.74475396        1196723038.3367546     
  -57620209.472709000        748142293.40177882        1154871310.7365990     
  -18165512.838331819        991931350.13537574        1109590978.1283784     
   33920686.819037378        1277825416.9455905        1060882040.5120815     
  -3033470802.0490561       -11016605.729437470        1120061578.7162180     
  -2955760490.7086339       -17023476.122839689        1115853449.3906870     
  -2877552699.3571835       -21372079.812822223        1119560501.8431451     
  -2798847427.9947147       -24062416.799406528        1131182736.0735891     
  -2719644676.6212206       -25094487.082570910        1150720152.0820217     
  -3421589908.0880260       -21142675.759623289        999145277.59641802     
  -3327010805.3391924       -17196165.907402515        1009471621.8882467     
  -3233455726.8641019       -16663070.301001787        1022561843.8903358     
  -3140924672.6627574       -19543388.940412760        1038415943.6026871     
  -3049417642.7351575       -25837121.825637341        1057033921.0253022     
  -3759945367.0665984       -16339651.671693325        880998344.80546498     
  -3663215484.5314274       -6855165.0604753494        904084074.38241851     
  -3569031130.5547638       -5855773.6443030834        924782377.60191047     
  -3477392305.1366172       -13341477.423167944        943093254.46394098     
  -3388299008.2769756       -29312276.397069931        959016704.96850920     
  -4048537178.9847693        3392466.5343599319        765620780.34334695     
  -3964374528.2853270        13999526.417949200        799690806.87320638     
  -3884278910.4291697        11049810.157272100        826222102.97787309     
  -3808250325.4162850       -5456682.2476649284        845214668.65735424     
  -3736288773.2466898       -35519950.796875477        856668503.91164756     
  -4287365343.8425360        38053678.858532667        653012584.21007848     
  -4230487936.6008997        45367908.527878284        696291819.36060476     
  -4179199066.4873142        34053681.103726387        726881020.01822078     
  -4133498733.5017743        4110996.5860891342        744780186.18292117     
  -4093386937.6442809       -44460145.025037289        749989317.85470927     
  -2719644676.6212206       -25094487.082570910        1150720152.0820217     
  -2641153472.9264832       -28212672.631895542        1148471361.8469298     
  -2564394464.1631274       -37104841.285831094        1150406118.7425630     
  -2489367650.3311434       -51770993.044341087        1156524422.7689118     
  -2416073031.4305434       -72211127.907455444        1166826273.9259839     
  -3049417642.7351575       -25837121.825637341        1057033921.0253022     
  -2962860612.2456312       -35683242.412093163        1050083936.4002594     
  -2876642670.3635507       -46659658.356703281        1046707487.1875176     
  -2790763817.0889144       -58766369.659468651        1046904573.3870783     
  -2705224052.4217324       -72003376.320396543        1050675194.9989355     
  -3388299008.2769756       -29312276.397069931        959016704.96850920     
  -3295419041.6167150       -46409199.207861185        948990816.66476917     
  -3201485057.2399721       -59992729.630377412        941928452.05490839     
  -3106497055.1467481       -70062867.664618134        937829611.13892758     
  -3010455035.3370347       -76619613.310574770        936694293.91682947     
  -3736288773.2466898       -35519950.796875477        856668503.91164756     
  -3638828761.0397539       -60390543.019224644        845192002.64045644     
  -3538921624.7923980       -77104055.106851578        836069013.34472942     
  -3436567364.5046329       -85660487.059778333        829299536.02446449     
  -3331765980.1764584       -86059838.877989292        824883570.67965221     
  -4093386937.6442809       -44460145.025037289        749989317.85470927     
  -3993089770.5147262       -77627273.846160889        738687494.32732630     
  -3888952373.0208249       -97993634.786127806        729129171.05698407     
  -3780974745.1625838       -105559227.84496832        721314348.04368198     
  -3669156886.9399948       -100324053.02263808        715243025.28742051     
  -2416073031.4305434       -72211127.907455444        1166826273.9259839     
  -2219076065.1034961       -54900329.889638186        1129039414.9381502     
  -2019924775.0628760       -30408452.826584816        1096837688.5697494     
  -1818619161.3086944        1264503.2816817760        1070221094.8207791     
  -1615159223.8409326        40118538.435206890        1049189633.6912431     
  -2705224052.4217324       -72003376.320396543        1050675194.9989355     
  -2487888532.5168381       -44614306.518563151        1010207561.8288586     
  -2269496990.0101337       -13705161.377365351        977474082.22599542     
  -2050049424.9016218        20724059.103184938        952474756.19034946     
  -1829545837.1913011        58673354.923107624        935209583.72191656     
  -3010455035.3370347       -76619613.310574770        936694293.91682947     
  -2766640902.0034838       -37310253.769480467        892264535.26744866     
  -2522869047.1798906        1858177.4051009417        857717951.13306701     
  -2279139470.8662472        40885680.213178873        833054541.51368678     
  -2035452173.0625594        79772254.654734612        818274306.40930009     
  -3331765980.1764584       -86059838.877989292        824883570.67965221     
  -3055333173.5634451       -32988171.642393589        775210335.25392103     
  -2780040946.5721393        16281563.520828128        737569295.29096842     
  -2505889299.2025547        61749366.611651421        711960450.79079795     
  -2232878231.4546871        103415237.63010097        698383801.75340688     
  -3669156886.9399948       -100324053.02263808        715243025.28742051     
  -3353965347.1967030       -31648060.137288928        659044961.78827345     
  -3041012688.1868925        29564996.969787836        617028114.69969118     
  -2730298909.9105501        83315118.298645139        589192484.02167666     
  -2421824012.3676934        129602303.84921014        575538069.75422478     
  -1615159223.8409326        40118538.435206890        1049189633.6912431     
  -1588492732.1647120        26604752.654691756        1068793335.0343720     
  -1563538665.6503539        7382883.0012987256        1091452791.3921232     
  -1540297024.2978559       -17547070.524960995        1117168002.7644923     
  -1518767808.1072252       -48185107.924110532        1145938969.1514874     
  -1829545837.1913011        58673354.923107624        935209583.72191656     
  -1798533472.3984463        39481694.297319889        955324409.30587673     
  -1768770705.7483644        16124706.528932691        977036738.00616205     
  -1740257537.2410614       -11397608.382037997        1000346569.8227609     
  -1712993966.8765364       -43085250.435604572        1025253904.7556766     
  -2035452173.0625594        79772254.654734612        818274306.40930009     
  -2004260369.1482141        53652788.985132933        839440221.08970082     
  -1973855336.3575668        24910752.903208375        860745386.98811042     
  -1944237074.6906083       -6453853.5910110474        882189804.10453463     
  -1915405584.1473453       -40441030.497544646        903773472.43897104     
  -2232878231.4546871        103415237.63010097        698383801.75340688     
  -2205673422.4140139        69118036.718132257        721140770.38583481     
  -2178792557.4779453        33741022.124145031        742578738.33797646     
  -2152235636.6464925       -2715806.1518816948        762697705.60982263     
  -2126002659.9196415       -40252448.109925628        781497672.20138109     
  -2421824012.3676934        129602303.84921014        575538069.75422478     
  -2402772632.1958447        85877437.496339083        600426057.19428563     
  -2383582369.1095190        42615514.191707969        622536792.05575264     
  -2364253223.1087174       -183466.06466186047        641870274.33862317     
  -2344785194.1934381       -42519503.272770286        658426504.04289711     
  -1518767808.1072252       -48185107.924110532        1145938969.1514874     
  -1395660994.5849829       -50544816.071812332        1134702812.6874454     
  -1272288975.6468575       -52020506.166562617        1127372455.7869949     
  -1148651751.2928343       -52612178.208326280        1123947898.4501450     
  -1024749321.5229263       -52319832.197135389        1124429140.6768816     
  -1712993966.8765364       -43085250.435604572        1025253904.7556766     
  -1579222541.8008976       -44201090.167390168        1011557941.7144556     
  -1445111774.0274565       -44185787.573175669        1001872679.9008950     
  -1310661663.5562196       -43039342.652977228        996198119.31499112     
  -1175872210.3871973       -40761755.406815290        994534259.95673549     
  -1915405584.1473453       -40441030.497544646        903773472.43897104     
  -1770669828.4781203       -40223086.101342082        887704196.31613564     
  -1625520592.8291967       -38626875.106131971        875750523.08501875     
  -1479957877.2005758       -35652397.511926293        867912452.74561667     
  -1333981681.5922489       -31299653.318722904        864189985.29793274     
  -2126002659.9196415       -40252448.109925628        781497672.20138109     
  -1970002854.6166735       -38610803.873715520        763141576.49247849     
  -1813515432.0520890       -35343768.765450120        749005985.33935833     
  -1656540392.2258983       -30451342.785168409        739090898.74201512     
  -1499077735.1381075       -23933525.932879150        733396316.70044804     
  -2344785194.1934381       -42519503.272770286        658426504.04289711     
  -2177221620.2165360       -39364243.484455228        637870082.24349046     
  -2009096291.6961122       -34336468.551072598        621639066.66392469     
  -1840409208.6321909       -27436178.472704530        609733457.30419362     
  -1671160371.0247540       -18663373.249271631        602153254.16430342     
  -1024749321.5229263       -52319832.197135389        1124429140.6768816     
  -912762444.95725024       -51828230.101772845        1122956874.2750103     
  -798552473.55774188       -43926311.893627286        1127271797.4998946     
  -682119407.32438052       -28614077.572644353        1137373910.3515415     
  -563463246.25719476       -5891527.1389107704        1153263212.8299503     
  -1175872210.3871973       -40761755.406815290        994534259.95673549     
  -1050680502.3224838       -38784048.740526676        991827756.70581365     
  -924127405.33924711       -32268379.012491465        993148679.31102526     
  -796212919.43749845       -21214746.222743481        998497027.77236140     
  -666937044.61721969       -5623150.3712427616        1007872802.0898376     
  -1333981681.5922489       -31299653.318722904        864189985.29793274     
  -1200613038.5160139       -29344211.027756095        859243921.63008332     
  -1066744712.4365710       -25723158.726114452        856565520.04774070     
  -932376703.35392797       -20436496.413802743        856154780.55089521     
  -797509011.26808584       -13484224.090827078        858011703.13955593     
  -1499077735.1381075       -23933525.932879150        733396316.70044804     
  -1362560053.5378435       -23508716.963462114        725205369.04780710     
  -1226404394.8497081       -24290651.034468174        717522319.71003938     
  -1090610759.0736864       -26279328.145850778        710347168.68714058     
  -955179146.20978975       -29474748.297672808        703679915.97912252     
  -1671160371.0247540       -18663373.249271631        602153254.16430342     
  -1536521547.3879910       -21277566.547700167        589712098.95899177     
  -1403106452.5786605       -27970855.937578201        576019078.29791927     
  -1270915086.5967715       -38743241.418922961        561074192.18109417     
  -1139947449.4423287       -53594722.991755664        544877440.60851717     
  -563463246.25719476       -5891527.1389107704        1153263212.8299503     
  -465264411.19985980        32273813.557481229        1162320317.9409647     
  -355060107.41663742        110457383.34015363        1178986510.9944508     
  -232850334.90752879        228659182.20912188        1203261791.9904053     
  -98635093.672538370        386879210.16435719        1235146160.9288316     
  -666937044.61721969       -5623150.3712427616        1007872802.0898376     
  -550247955.80090523        24807336.889875978        1021209213.4494883     
  -422646677.52236903        91611789.025065422        1042944775.1663413     
  -284133209.78160083        194790206.03436452        1073079487.2403767     
  -134707552.57860512        334342587.91775101        1111613349.6716106     
  -797509011.26808584       -13484224.090827078        858011703.13955593     
  -660072347.50787210        9888606.0904775858        874351928.27358353     
  -512816773.54908890        65991136.933682382        899881366.17952263     
  -355742289.39173335        154823368.43878940        934600016.85738373     
  -188848895.03580624        276385300.60581124        978507880.30715823     
  -955179146.20978975       -29474748.297672808        703679915.97912252     
  -794737586.32074785       -12482378.840695113        721748462.41325212     
  -625570395.49678779        33595427.066004872        749796284.03401649     
  -447677573.73792285        108758669.42239031        787823380.84142578     
  -261059121.04413122        213007348.22853094        835829752.83547735     
  -1139947449.4423287       -53594722.991755664        544877440.60851717     
  -954243672.23953462       -42305617.903627753        563398815.86848009     
  -760907543.36547410       -5575340.5779722631        592689528.72980785     
  -559939062.82016802        56596108.985186994        632749579.19250584     
  -351338230.60359168        144208730.78590336        683578967.25656641     
  -98635093.672538370        386879210.16435719        1235146160.9288316     
  -84443403.084119529        546458246.74475396        1196723038.3367546     
  -57620209.472709000        748142293.40177882        1154871310.7365990     
  -18165512.838331819        991931350.13537574        1109590978.1283784     
   33920686.819037378        1277825416.9455905        1060882040.5120815     
  -134707552.57860512        334342587.91775101        1111613349.6716106     
  -126336500.04793239        483206442.96179140        1090152183.0495791     
  -94837293.312018484        709164145.35664833        1070114941.7457354     
  -40209932.370856643        1012215695.1023357        1051501625.7600982     
   37545582.775561512        1392361092.1988568        1034312235.0926424     
  -188848895.03580624        276385300.60581124        978507880.30715823     
  -172434108.20210588        418693285.82172400        986254762.70114267     
  -122394515.98089409        673083955.66267467        1000278100.7395984     
  -38730118.372177899        1039557310.1286635        1020577894.4225168     
   78559084.624060571        1518113349.2197020        1047154143.7499108     
  -261059121.04413122        213007348.22853094        835829752.83547735     
  -222736227.54662830        352918775.32453686        885030777.29145002     
  -140291877.47934970        639901724.31980693        945360787.71816289     
  -13726070.842292190        1073956195.2143569        1016819784.1156170     
   156961192.36455029        1655082188.0081446        1099407766.4838080     
  -351338230.60359168        144208730.78590336        683578967.25656641     
  -277242858.08150220        285882911.47027755        786480226.82050395     
  -148529377.80737820        609617451.32808900        905363002.68146145     
   34802210.218783617        1115412350.3593960        1040227294.8394270     
   272751905.99700677        1803267608.5641906        1191073103.2944164     
  -4287365343.8425360        38053678.858532667        653012584.21007848     
  -4230487936.6008997        45367908.527878284        696291819.36060476     
  -4179199066.4873142        34053681.103726387        726881020.01822078     
  -4133498733.5017743        4110996.5860891342        744780186.18292117     
  -4093386937.6442809       -44460145.025037289        749989317.85470927     
  -4583280961.0815058        102625575.89463425        542147191.53986394     
  -4548879729.8885765        54763484.975099087        525099585.24087971     
  -4513185146.0711536        11212569.470534086        516185644.30247140     
  -4476197209.6292439       -28027170.619070768        515405368.72463775     
  -4437915920.5628462       -62955735.293706179        522758758.50737619     
  -5074148484.2705145        108711901.14572620        408639106.34440792     
  -5002727143.8306093        23522375.226016283        339293529.97387731     
  -4923130561.0136795       -34416342.770267487        298905318.81740868     
  -4835358735.8197193       -65104252.843131542        287474472.87499690     
  -4739411668.2487354       -68541354.992563963        305000992.14664948     
  -5759967913.4095488        56312654.611801147        252488328.62372091     
  -5592030178.4269905       -48355420.719367743        138873653.55959830     
  -5409035311.3148746       -102833055.61866522        75040043.563026369     
  -5210983312.0731936       -107120250.08608699        60987498.634000115     
  -4997874180.7019463       -61217004.121620178        96716018.772521764     
  -6640739248.4986162       -54572163.707120419        73694858.377797261     
  -6316788833.6777391       -160869902.86107230       -76160044.001949415     
  -5970899396.9747543       -194037569.07466650       -155410181.46067113     
  -5603070938.3896685       -154075162.34794688       -164055553.99834573     
  -5213303457.9224854       -40982682.680878401       -102096161.61500111     
  -4093386937.6442809       -44460145.025037289        749989317.85470927     
  -3993089770.5147262       -77627273.846160889        738687494.32732630     
  -3888952373.0208249       -97993634.786127806        729129171.05698407     
  -3780974745.1625838       -105559227.84496832        721314348.04368198     
  -3669156886.9399948       -100324053.02263808        715243025.28742051     
  -4437915920.5628462       -62955735.293706179        522758758.50737619     
  -4327135695.6321869       -74148188.285267353        528521163.41905922     
  -4216339088.6509833       -85286034.441702366        535532879.65234858     
  -4105526099.6192551       -96369273.763036966        543793907.20723999     
  -3994696728.5369830       -107397906.24923778        553304246.08373690     
  -4739411668.2487354       -68541354.992563963        305000992.14664948     
  -4619560353.9039259       -58182722.670656919        323366469.13128585     
  -4503516505.8223896       -60515644.559651375        342487068.50209534     
  -4391280124.0041256       -75540120.659560919        362362790.25907522     
  -4282851208.4491410       -103256150.97039032        382993634.40222245     
  -4997874180.7019463       -61217004.121620178        96716018.772521764     
  -4870363745.3299532       -29730877.002336264        123223411.46400765     
  -4750484624.5350323       -23682465.139971495        149991737.60622633     
  -4638236818.3171968       -43071768.534557819        177020997.19917971     
  -4533620326.6764460       -87898787.186080933        204311190.24287021     
  -5213303457.9224854       -40982682.680878401       -102096161.61500111     
  -5079545869.9102640        11207348.719699144       -71908009.582773045     
  -4957243444.7889194        25213503.817328691       -41953113.035259485     
  -4846396182.5584679        1035782.6119873524       -12231471.972448243     
  -4747004083.2189112       -61325814.896323442        17256913.605675410     
  -3669156886.9399948       -100324053.02263808        715243025.28742051     
  -3353965347.1967030       -31648060.137288928        659044961.78827345     
  -3041012688.1868925        29564996.969787836        617028114.69969118     
  -2730298909.9105501        83315118.298645139        589192484.02167666     
  -2421824012.3676934        129602303.84921014        575538069.75422478     
  -3994696728.5369830       -107397906.24923778        553304246.08373690     
  -3652288303.8836331       -49634958.023639441        506159143.17117792     
  -3310346020.8585176        6574184.7744944096        468287284.08496189     
  -2968869879.4616451        61229522.145145178        439688668.82509834     
  -2627859879.6930122        114331054.08834851        420363297.39158666     
  -4282851208.4491410       -103256150.97039032        382993634.40222245     
  -3927248677.6977625       -60613081.048141479        346969687.69902021     
  -3570339549.4693966       -13614686.202595949        315311012.23794866     
  -3212123823.7640319        37739033.566284299        288017608.01901227     
  -2852601500.5816679        93448078.258485675        265089475.04220703     
  -4533620326.6764460       -87898787.186080933        204311190.24287021     
  -4178846468.6390991       -64582429.210819721        181476595.37179977     
  -3820993274.0195189       -31001615.961431980        158099299.15865034     
  -3460060742.8177056        12843652.562053919        134179301.60341820     
  -3096048875.0336699        66953376.359618902        109716602.70610119     
  -4747004083.2189112       -61325814.896323442        17256913.605675410     
  -4407081676.7076330       -61543002.511627197        9679866.1895201541     
  -4062307194.5088964       -45586604.502068043       -3347855.1529379035     
  -3712680636.6226940       -13456620.867614508       -21826250.421691719     
  -3358202003.0490122        34846948.391750097       -45755319.616741933     
  -2421824012.3676934        129602303.84921014        575538069.75422478     
  -2402772632.1958447        85877437.496339083        600426057.19428563     
  -2383582369.1095190        42615514.191707969        622536792.05575264     
  -2364253223.1087174       -183466.06466186047        641870274.33862317     
  -2344785194.1934381       -42519503.272770286        658426504.04289711     
  -2627859879.6930122        114331054.08834851        420363297.39158666     
  -2612747632.8572445        70163627.576969743        440562917.00662029     
  -2596839331.8051152        28649715.120115519        460611815.90137517     
  -2580134976.5366483       -10210683.282266617        480509994.07585955     
  -2562634567.0518227       -46417567.630130887        500257451.53007025     
  -2852601500.5816679        93448078.258485675        265089475.04220703     
  -2833924010.3439217        51089404.610038877        281367426.68439549     
  -2813793294.5879431        13574816.022341013        300121189.46463370     
  -2792209353.3137450       -19095687.504614234        321350763.38291782     
  -2769172186.5213242       -46922105.970833063        345056148.43924785     
  -3096048875.0336699        66953376.359618902        109716602.70610119     
  -3066301764.6558824        28654768.595515370        122839586.22763534     
  -3034444257.4579930       -2609183.1016006470        141064912.74553281     
  -3000476353.4400120       -26838478.731733203        164392582.25979599     
  -2964398052.6019373       -44033118.294892192        192822594.77042845     
  -3358202003.0490122        34846948.391750097       -45755319.616741933     
  -3309880895.7931314        2859719.5333986282       -35020604.363684446     
  -3258792220.4152660       -19902282.251692295       -16557014.255938686     
  -3204935976.9154396       -33439056.963576317        9635450.7064963076     
  -3148312165.2936521       -37750604.602241755        43556790.523615092     
  -2344785194.1934381       -42519503.272770286        658426504.04289711     
  -2177221620.2165360       -39364243.484455228        637870082.24349046     
  -2009096291.6961122       -34336468.551072598        621639066.66392469     
  -1840409208.6321909       -27436178.472704530        609733457.30419362     
  -1671160371.0247540       -18663373.249271631        602153254.16430342     
  -2562634567.0518227       -46417567.630130887        500257451.53007025     
  -2382059064.9558558       -33558587.222519994        483138119.65909463     
  -2202185109.1825151       -23038094.557003260        469463236.90156531     
  -2023012699.7318077       -14856089.633595228        459232803.25748938     
  -1844541836.6037169       -9012572.4522508383        452446818.72686231     
  -2769172186.5213242       -46922105.970833063        345056148.43924785     
  -2578101776.6102643       -25114511.035131454        329900055.48620695     
  -2388996213.8879676       -9856406.7286431789        317307454.54022950     
  -2201855498.3544350       -1147793.0513792038        307278345.60130692     
  -2016679630.0096714        1011329.9966757298        299812728.66945422     
  -2964398052.6019373       -44033118.294892192        192822594.77042845     
  -2765349755.1797576       -14032014.922291517        178155889.72483066     
  -2569529605.8124614        5208594.9340251684        165171719.57990614     
  -2376937604.5000920        13688711.273922920        153870084.33564505     
  -2187573751.2426238        11408334.097481251        144250983.99206597     
  -3148312165.2936521       -37750604.602241755        43556790.523615092     
  -2943803000.6643052       -311098.88390159607        27905622.374965958     
  -2743785284.9560204        22156910.430923820        13056032.020598317     
  -2548259018.1687531        29653423.342332959       -991980.53948590381     
  -2357224200.3025403        22178439.850250959       -14238415.305300158     
  -1671160371.0247540       -18663373.249271631        602153254.16430342     
  -1536521547.3879910       -21277566.547700167        589712098.95899177     
  -1403106452.5786605       -27970855.937578201        576019078.29791927     
  -1270915086.5967715       -38743241.418922961        561074192.18109417     
  -1139947449.4423287       -53594722.991755664        544877440.60851717     
  -1844541836.6037169       -9012572.4522508383        452446818.72686231     
  -1714305324.3770139       -18101653.884353280        440264308.42556292     
  -1583672074.6253073       -25868276.899767756        427441475.14159077     
  -1452642087.3485596       -32312441.498397648        413978318.87494373     
  -1321215362.5468028       -37434147.680312335        399874839.62561822     
  -2016679630.0096714        1011329.9966757298        299812728.66945422     
  -1889098164.9842379       -14028460.306501746        289779407.35004646     
  -1759499496.0813251       -22344237.684756160        279717305.52103949     
  -1627883623.3009253       -23936002.138039231        269626423.18243903     
  -1494250546.6430502       -18803753.666404366        259506760.33425212     
  -2187573751.2426238        11408334.097481251        144250983.99206597     
  -2060900069.2096488       -9057985.8141155243        138257395.73242137     
  -1930588716.9467511       -17398738.292603135        132846569.43625745     
  -1796639694.4538834       -13613923.337875128        128018505.10359810     
  -1659053001.7310734        2296459.0499958992        123773202.73441136     
  -2357224200.3025403        22178439.850250959       -14238415.305300158     
  -2229711037.0532479       -3190230.4071722031       -14301726.427298980     
  -2096939737.2215378       -11031778.723201990       -13170733.112734150     
  -1958910300.8074284       -1346205.0978944302       -10845435.361607267     
  -1815622727.8108962        25866490.468809605       -7325833.1739032799     
  -1139947449.4423287       -53594722.991755664        544877440.60851717     
  -954243672.23953462       -42305617.903627753        563398815.86848009     
  -760907543.36547410       -5575340.5779722631        592689528.72980785     
  -559939062.82016802        56596108.985186994        632749579.19250584     
  -351338230.60359168        144208730.78590336        683578967.25656641     
  -1321215362.5468028       -37434147.680312335        399874839.62561822     
  -1120320407.4410975       -15871509.555583179        421634104.74318528     
  -915969085.32274926        17212351.944614708        441938738.40702128     
  -708161396.19175410        61817436.820311725        460788740.61712682     
  -496897340.04813200        117943745.07142109        478184111.37350386     
  -1494250546.6430502       -18803753.666404366        259506760.33425212     
  -1313090039.5061486        2554729.7334115505        279631933.20769966     
  -1132649150.0152164        21514487.646639168        286078505.57231808     
  -952927878.17026365        38075520.073286593        278846477.42811191     
  -773926223.97128367        52237827.013345331        257935848.77507666     
  -1659053001.7310734        2296459.0499958992        123773202.73441136     
  -1532552568.4346690        12973099.963387191        137392301.26201701     
  -1410947737.4428596        7331066.5281499028        125108830.22570069     
  -1294238508.7556486       -14629641.255751491        86922789.625462085     
  -1182424882.3730333       -52909023.388318002        22834179.461298648     
  -1815622727.8108962        25866490.468809605       -7325833.1739032799     
  -1778707994.2267070        15383601.134274364       -5084791.0938584413     
  -1750864847.6057127       -25337911.410955667       -40970287.632823333     
  -1732093287.9479284       -96298047.166862965       -114982322.79081732     
  -1722393315.2533724       -197496806.13353169       -227120896.56783226     
  -351338230.60359168        144208730.78590336        683578967.25656641     
  -277242858.08150220        285882911.47027755        786480226.82050395     
  -148529377.80737820        609617451.32808900        905363002.68146145     
   34802210.218783617        1115412350.3593960        1040227294.8394270     
   272751905.99700677        1803267608.5641906        1191073103.2944164     
  -496897340.04813200        117943745.07142109        478184111.37350386     
  -388043161.31388587        223189262.86578926        597214389.20111382     
  -230002158.75751203        492390860.06724173        735407308.48491657     
  -22774332.379024625        925548536.67574906        892762869.22490442     
   233640317.82159474        1522662292.6913519        1069281071.4210799     
  -773926223.97128367        52237827.013345331        257935848.77507666     
  -621224309.99865401        123781360.62560892        386758646.94812530     
  -424766856.13382471        341176693.87851310        537925211.73653519     
  -184553862.37679791        704423826.77211249        711435543.14030385     
   99414671.272436023        1213522759.3063760        907289641.15944183     
  -1182424882.3730333       -52909023.388318002        22834179.461298648     
  -976786304.13581216       -12340795.250320017        155113000.06153730     
  -732823469.93632853        155974952.76191437        312916712.43631506     
  -450536379.77453673        452038220.64847982        496245316.58562762     
  -129925033.65048689        875849008.40927076        705098812.50947905     
  -1722393315.2533724       -197496806.13353169       -227120896.56783226     
  -1454729143.7253554       -185177204.76193792       -97722551.458635673     
  -1154172000.1649904       -63214363.282505155        60381810.584255859     
  -820721884.57224500        168391718.30485618        247192189.56087455     
  -454378796.94714773        509641040.00005758        462708585.47119433     
 </DataArray>
 <DataArray  type="Float64" Name="VM" NumberOfComponents="1" format="ascii">
   6614853266.6651144     
   6239304194.5290241     
   5882445627.7326365     
   5534942734.3822689     
   5195943466.8281412     
   5804826440.6101198     
   5573202998.9245634     
   5359934956.2190504     
   5159338952.6619663     
   4970372332.8618269     
   5177970612.2859812     
   5048848285.4152451     
   4933254146.0825081     
   4828877227.5569115     
   4735076782.1341476     
   4729601508.2469788     
   4666005585.3611116     
   4606399226.3193140     
   4550670311.3502359     
   4498833083.9384527     
   4452569799.5320835     
   4421027355.4415455     
   4381124318.7736874     
   4332079675.4355688     
   4273552701.5172257     
   5195943466.8281412     
   5086683846.2581081     
   4970429363.4279041     
   4846960460.7657633     
   4716734900.8939342     
   4970372332.8618269     
   4860255025.2109137     
   4745803881.2243881     
   4627021528.6772118     
   4504238994.2421064     
   4735076782.1341476     
   4624785638.7868462     
   4512724463.8113251     
   4399005569.8448553     
   4283841493.8227553     
   4498833083.9384527     
   4387112481.1047573     
   4276164239.5849791     
   4166067747.6173534     
   4056913970.7453427     
   4273552701.5172257     
   4156656936.5769157     
   4043185475.0531826     
   3933024176.5837355     
   3826145613.0343714     
   4716734900.8939342     
   4376666825.9922428     
   4039710969.0644555     
   3706163462.0793886     
   3376690500.4684081     
   4504238994.2421064     
   4158827948.6970901     
   3815426568.9398260     
   3474282282.8410048     
   3135826130.2250996     
   4283841493.8227553     
   3943358641.2632418     
   3605157959.5723515     
   3269441630.7145886     
   2936572030.2959447     
   4056913970.7453427     
   3732155348.3617883     
   3411462409.1151090     
   3095108767.0602603     
   2783753048.8161850     
   3826145613.0343714     
   3528024864.2726703     
   3237392604.1600542     
   2954723687.6179552     
   2681349376.6458240     
   3376690500.4684081     
   3311867203.2996688     
   3249013362.3278050     
   3188391642.7182136     
   3130516808.3024979     
   3135826130.2250996     
   3088067432.1878958     
   3042965537.5309167     
   3000687452.2691784     
   2961520671.7030172     
   2936572030.2959447     
   2901038055.9466963     
   2868105975.7652297     
   2837829715.1038036     
   2810297513.7644920     
   2783753048.8161850     
   2756261966.9654045     
   2730436550.8486814     
   2706201279.9774227     
   2683481282.0281019     
   2681349376.6458240     
   2658678159.5069685     
   2635813867.3286357     
   2612518308.3867750     
   2588571571.9943352     
   3130516808.3024979     
   2944044251.6768842     
   2755023375.3067651     
   2563214953.9148149     
   2368519698.3358002     
   2961520671.7030172     
   2775566841.4644747     
   2587998888.5092978     
   2398663163.3504801     
   2207485146.7109566     
   2810297513.7644920     
   2628496504.2372155     
   2446610960.8040700     
   2264707843.4758430     
   2082954702.4359546     
   2683481282.0281019     
   2509115451.1450372     
   2336793324.8440232     
   2166894396.1160035     
   1999979027.9182568     
   2588571571.9943352     
   2424205758.4687109     
   2264501492.4444528     
   2110139726.0512750     
   1962065604.6119442     
   2368519698.3358002     
   2228255328.2317872     
   2091570076.8849022     
   1958327641.0593877     
   1828737201.4993770     
   2207485146.7109566     
   2070282313.1200101     
   1935673094.9648941     
   1803553831.8124595     
   1673986707.5267091     
   2082954702.4359546     
   1947897288.2220194     
   1814317605.8874509     
   1682173658.5416489     
   1551474147.5999620     
   1999979027.9182568     
   1868056913.4888110     
   1736616877.5239751     
   1605742462.7704747     
   1475551570.4996927     
   1962065604.6119442     
   1836283974.5034058     
   1710449627.6201811     
   1584897337.0687997     
   1460113586.5697489     
   1828737201.4993770     
   1786471180.8636842     
   1739782215.3360541     
   1697729681.9449847     
   1679353520.4091494     
   1673986707.5267091     
   1557368795.2931404     
   1431128111.0765188     
   1295762251.2398155     
   1157553981.5430777     
   1551474147.5999620     
   1400767154.2206931     
   1246293732.8803253     
   1085850166.2303429     
   917448374.80937123     
   1475551570.4996927     
   1330757113.9124629     
   1200412910.6436198     
   1089068165.8038177     
   1002698239.0469162     
   1460113586.5697489     
   1350650049.7546027     
   1276170711.4956322     
   1244805741.2320747     
   1263622317.7843840     
   1679353520.4091494     
   1381952927.2257106     
   1128754491.7341309     
   1011659471.7754298     
   1157610413.2246284     
   1157553981.5430777     
   1007169095.7150371     
   984586784.70974982     
   1161791499.6053548     
   1545729510.0268066     
   917448374.80937123     
   962748259.53524077     
   1144482227.8951509     
   1476041594.8682144     
   1957396811.3458343     
   1002698239.0469162     
   1164900462.7550578     
   1425156987.9048491     
   1808124480.1105652     
   2333970647.4106383     
   1263622317.7843840     
   1446894977.7604218     
   1715601064.4550426     
   2110155341.2467175     
   2662759547.0478048     
   4452569799.5320835     
   4421027355.4415455     
   4381124318.7736874     
   4332079675.4355688     
   4273552701.5172257     
   4261798430.0044823     
   4206004933.3478227     
   4144706800.0230255     
   4077399106.1870813     
   4003753913.3151841     
   4050246228.1433892     
   3980726929.0090466     
   3909320321.8589029     
   3835924434.3567891     
   3760485297.7595067     
   3824951833.7139230     
   3750891007.9296198     
   3679474447.4388490     
   3611001005.8419075     
   3545812941.2809839     
   3596145291.7537150     
   3524468566.6058841     
   3461143409.2379556     
   3406684865.7613993     
   3361743504.4680748     
   4273552701.5172257     
   4156656936.5769157     
   4043185475.0531826     
   3933024176.5837355     
   3826145613.0343714     
   4003753913.3151841     
   3894614160.4081645     
   3788677904.6337976     
   3685941955.3259158     
   3586452053.1229277     
   3760485297.7595067     
   3662069549.4772964     
   3566893253.4320998     
   3475076374.2180295     
   3386774099.2154675     
   3545812941.2809839     
   3461519987.1039472     
   3380801191.6531391     
   3303912933.8133254     
   3231159466.8528304     
   3361743504.4680748     
   3295289521.5108032     
   3233055368.3664966     
   3175437093.4613452     
   3122916368.4498057     
   3826145613.0343714     
   3528024864.2726703     
   3237392604.1600542     
   2954723687.6179552     
   2681349376.6458240     
   3586452053.1229277     
   3322380526.4178815     
   3066949878.9285822     
   2821115786.6146111     
   2586614259.7908831     
   3386774099.2154675     
   3152915772.1550789     
   2928583251.9514341     
   2715008678.7746797     
   2514064492.0858083     
   3231159466.8528304     
   3023597578.4392939     
   2825963079.8726020     
   2639553360.1203837     
   2466146183.3089375     
   3122916368.4498057     
   2937630782.4344678     
   2762020404.1227956     
   2597267113.1777925     
   2444901487.1646476     
   2681349376.6458240     
   2658678159.5069685     
   2635813867.3286357     
   2612518308.3867750     
   2588571571.9943352     
   2586614259.7908831     
   2565610333.4709034     
   2544810343.9466624     
   2524164002.8924360     
   2503626685.5299697     
   2514064492.0858083     
   2498289823.6047764     
   2483655270.6763325     
   2470289086.2898459     
   2458327176.9100046     
   2466146183.3089375     
   2458703878.8965135     
   2453799720.3982849     
   2451707810.9437470     
   2452720242.5092788     
   2444901487.1646476     
   2448108655.2121496     
   2455617775.1689019     
   2467790133.5837760     
   2485019881.9034209     
   2588571571.9943352     
   2424205758.4687109     
   2264501492.4444528     
   2110139726.0512750     
   1962065604.6119442     
   2503626685.5299697     
   2356585206.2997446     
   2215631021.6731973     
   2081676137.0886271     
   1955898545.8992684     
   2458327176.9100046     
   2330176805.0658159     
   2209488035.6926365     
   2097283585.0721028     
   1994794881.6739376     
   2452720242.5092788     
   2344321353.9607038     
   2244480699.8034601     
   2154183937.6497622     
   2074536464.0122988     
   2485019881.9034209     
   2396358146.3435693     
   2316926024.7203202     
   2247556994.5434527     
   2189122312.3921800     
   1962065604.6119442     
   1836283974.5034058     
   1710449627.6201811     
   1584897337.0687997     
   1460113586.5697489     
   1955898545.8992684     
   1844683983.3460679     
   1737637029.9389048     
   1635616461.3057575     
   1539668329.4482219     
   1994794881.6739376     
   1903155814.8793321     
   1819966863.7579069     
   1746336873.0261128     
   1683449108.0525432     
   2074536464.0122988     
   2003958824.4991019     
   1945318870.9660394     
   1899605896.3828423     
   1867755097.0868206     
   2189122312.3921800     
   2138132597.6916938     
   2101609673.7245772     
   2080251346.2368560     
   2074669609.1877110     
   1460113586.5697489     
   1350650049.7546027     
   1276170711.4956322     
   1244805741.2320747     
   1263622317.7843840     
   1539668329.4482219     
   1478041254.5439553     
   1449160679.9364047     
   1457027628.7040632     
   1504980275.9437246     
   1683449108.0525432     
   1654023688.5806284     
   1652433554.1157095     
   1681080498.5281649     
   1742607474.6995981     
   1867755097.0868206     
   1856244372.4612324     
   1867871451.5169492     
   1904867456.1511939     
   1970284821.2474949     
   2074669609.1877110     
   2070143469.9035494     
   2085069566.5655084     
   2122089650.0111904     
   2185022284.7553091     
   1263622317.7843840     
   1446894977.7604218     
   1715601064.4550426     
   2110155341.2467175     
   2662759547.0478048     
   1504980275.9437246     
   1613260460.7216046     
   1788868384.6866920     
   2066416931.0561438     
   2475932653.2012501     
   1742607474.6995981     
   1787548589.9711697     
   1884694418.0178146     
   2060868583.0537724     
   2341190611.5339537     
   1970284821.2474949     
   1968702957.0224483     
   2003646942.4278343     
   2093768273.6845696     
   2257699597.8137360     
   2185022284.7553091     
   2155998651.8181357     
   2146468804.1574924     
   2166991727.5743513     
   2228689257.5967398     
   3596145291.7537150     
   3524468566.6058841     
   3461143409.2379556     
   3406684865.7613993     
   3361743504.4680748     
   3353626820.9874296     
   3303510815.9001741     
   3260850360.0748386     
   3226014809.0676670     
   3199443353.6703563     
   3155050980.0736408     
   3123360046.8661094     
   3097766876.0154867     
   3078511045.9333100     
   3065860149.2259398     
   3004667765.4132309     
   2988669402.9180169     
   2976936490.7369494     
   2969602931.5392375     
   2966810108.0841045     
   2905473182.2075424     
   2903008834.6952000     
   2902545840.3316531     
   2904138638.2901049     
   2907844378.2619967     
   3361743504.4680748     
   3295289521.5108032     
   3233055368.3664966     
   3175437093.4613452     
   3122916368.4498057     
   3199443353.6703563     
   3144735713.1016521     
   3095012473.1814790     
   3050623553.4372826     
   3011981271.6808267     
   3065860149.2259398     
   3021679218.4695992     
   2983163797.9333344     
   2950596848.3203149     
   2924302179.1106987     
   2966810108.0841045     
   2931362038.2664070     
   2902155495.8894720     
   2879393835.7235036     
   2863303707.7676864     
   2907844378.2619967     
   2878725792.2729454     
   2856307569.9035053     
   2840712794.8928814     
   2832075673.1034060     
   3122916368.4498057     
   2937630782.4344678     
   2762020404.1227956     
   2597267113.1777925     
   2444901487.1646476     
   3011981271.6808267     
   2840864144.9459543     
   2681692984.3848925     
   2535746352.6306782     
   2404621385.0617623     
   2924302179.1106987     
   2768795711.0267515     
   2627589897.8555326     
   2501923958.9110026     
   2393286481.5343766     
   2863303707.7676864     
   2723779114.3779054     
   2600881665.8219752     
   2495667539.0514746     
   2409356212.6435728     
   2832075673.1034060     
   2707582676.7550564     
   2601954060.2458291     
   2515954625.2919898     
   2450437745.3530521     
   2444901487.1646476     
   2448108655.2121496     
   2455617775.1689019     
   2467790133.5837760     
   2485019881.9034209     
   2404621385.0617623     
   2422814952.6547847     
   2444753674.6813989     
   2470678192.7514691     
   2500843441.4822693     
   2393286481.5343766     
   2424695742.5050735     
   2459038400.2585301     
   2496454867.0792232     
   2537091549.5703197     
   2409356212.6435728     
   2452154704.5363483     
   2496881703.8933048     
   2543604494.5378575     
   2592393707.8346090     
   2450437745.3530521     
   2502884092.2306776     
   2556125329.2333288     
   2610181311.4962254     
   2665074853.5621958     
   2485019881.9034209     
   2396358146.3435693     
   2316926024.7203202     
   2247556994.5434527     
   2189122312.3921800     
   2500843441.4822693     
   2427012398.4420581     
   2363687022.4651241     
   2311582765.9823885     
   2271408237.0934029     
   2537091549.5703197     
   2477305916.4007511     
   2429046647.5314670     
   2392866013.6569042     
   2369283118.7742496     
   2592393707.8346090     
   2545153243.8929696     
   2510266517.4607115     
   2488115388.4812760     
   2479042094.8876572     
   2665074853.5621958     
   2628318396.3849754     
   2604652325.7541356     
   2594307782.2775130     
   2597484047.5751138     
   2189122312.3921800     
   2138132597.6916938     
   2101609673.7245772     
   2080251346.2368560     
   2074669609.1877110     
   2271408237.0934029     
   2235056704.8966146     
   2212119648.5214338     
   2202995350.1876035     
   2208025323.3750134     
   2369283118.7742496     
   2344608334.9560089     
   2332276071.9496908     
   2332500162.7596726     
   2345470574.7467418     
   2479042094.8876572     
   2463394505.0162177     
   2459108663.9814973     
   2466296421.2563562     
   2485072307.2084842     
   2597484047.5751138     
   2588593610.6311369     
   2590230666.6965518     
   2602458815.7991118     
   2625362416.3922563     
   2074669609.1877110     
   2070143469.9035494     
   2085069566.5655084     
   2122089650.0111904     
   2185022284.7553091     
   2208025323.3750134     
   2192746626.9879923     
   2192648871.6507759     
   2209709122.8365130     
   2246853535.7251272     
   2345470574.7467418     
   2320219190.1204262     
   2306674188.5424376     
   2306246931.4853268     
   2321030898.7909489     
   2485072307.2084842     
   2451587927.3492112     
   2426830408.7006941     
   2411749256.4494157     
   2407724762.8019423     
   2625362416.3922563     
   2586072053.1254568     
   2552836608.5848002     
   2526240137.6464624     
   2507093271.5018640     
   2185022284.7553091     
   2155998651.8181357     
   2146468804.1574924     
   2166991727.5743513     
   2228689257.5967398     
   2246853535.7251272     
   2182381245.4014282     
   2134262836.8677759     
   2112187730.6517291     
   2127125273.4280703     
   2321030898.7909489     
   2224476433.9175649     
   2141188840.0315943     
   2079543075.9239497     
   2049727750.3170907     
   2407724762.8019423     
   2282577301.0626650     
   2167892849.5738063     
   2070409680.2936363     
   1998895056.3351681     
   2507093271.5018640     
   2356892722.8010631     
   2214844377.4494381     
   2085918673.3964901     
   1976975935.7405286     
   2905473182.2075424     
   2903008834.6952000     
   2902545840.3316531     
   2904138638.2901049     
   2907844378.2619967     
   2757291185.0076709     
   2760394248.6818690     
   2767161745.2663355     
   2777652866.2235107     
   2791927585.4526043     
   2649528661.1153736     
   2657822016.6526656     
   2671484757.5559268     
   2690560004.8264594     
   2715090398.1401696     
   2588670437.6991262     
   2600427682.8019085     
   2619268811.5472255     
   2645209571.3203969     
   2678265258.5025835     
   2579492255.6924400     
   2591613568.6397500     
   2612526280.2877045     
   2642230390.6363025     
   2680725899.6855454     
   2907844378.2619967     
   2878725792.2729454     
   2856307569.9035053     
   2840712794.8928814     
   2832075673.1034060     
   2791927585.4526043     
   2774068988.4747248     
   2762556478.6585827     
   2757459568.9045224     
   2758852040.3523312     
   2715090398.1401696     
   2706529577.2648611     
   2703827994.8195767     
   2707015121.8523016     
   2716121520.5188556     
   2678265258.5025835     
   2676880733.8784065     
   2680767023.2118897     
   2689930795.8071117     
   2704378840.5964780     
   2680725899.6855454     
   2684388880.4075046     
   2692672069.2420769     
   2705575466.1892700     
   2723099071.2490840     
   2832075673.1034060     
   2707582676.7550564     
   2601954060.2458291     
   2515954625.2919898     
   2450437745.3530521     
   2758852040.3523312     
   2650003029.2702084     
   2559483220.5223742     
   2487719359.8178635     
   2435175216.7234573     
   2716121520.5188556     
   2618915119.4743223     
   2539414084.0109086     
   2477802311.0249209     
   2434275674.1063652     
   2704378840.5964780     
   2614644712.6968756     
   2541961250.5027590     
   2486372084.7645593     
   2447923089.5001097     
   2723099071.2490840     
   2636720840.6482100     
   2566753273.4737029     
   2513196369.7255707     
   2476050129.4038048     
   2450437745.3530521     
   2502884092.2306776     
   2556125329.2333288     
   2610181311.4962254     
   2665074853.5621958     
   2435175216.7234573     
   2491581689.8557224     
   2549547724.4835987     
   2609086754.8172336     
   2670213147.2160668     
   2434275674.1063652     
   2493828033.4735317     
   2555717212.3954163     
   2619950499.4358697     
   2686535188.7457294     
   2447923089.5001097     
   2509441958.9718509     
   2574103822.2122416     
   2641910925.3058290     
   2712865393.8929205     
   2476050129.4038048     
   2538040747.9542847     
   2604026899.2587037     
   2674008583.3170753     
   2747985800.1293893     
   2665074853.5621958     
   2628318396.3849754     
   2604652325.7541356     
   2594307782.2775130     
   2597484047.5751138     
   2670213147.2160668     
   2642970719.6861997     
   2627994099.5634694     
   2625398722.0731220     
   2635281460.8855348     
   2686535188.7457294     
   2666630953.8033342     
   2658279126.1916718     
   2661525054.5268302     
   2676405920.8383532     
   2712865393.8929205     
   2698253123.5796199     
   2694616657.9796929     
   2701966014.4994259     
   2720309248.8110943     
   2747985800.1293893     
   2736788911.6482062     
   2736139035.0283275     
   2746036170.2697582     
   2766480317.3725004     
   2597484047.5751138     
   2588593610.6311369     
   2590230666.6965518     
   2602458815.7991118     
   2625362416.3922563     
   2635281460.8855348     
   2627745860.1074810     
   2629978151.2001276     
   2642010035.5622630     
   2663886138.5078917     
   2676405920.8383532     
   2670009789.2543678     
   2672790808.3057432     
   2684761399.9516683     
   2705940155.7221856     
   2720309248.8110943     
   2714977478.7257943     
   2718383015.9420915     
   2730528574.7401686     
   2751418490.7855849     
   2766480317.3725004     
   2762264121.7781739     
   2766480800.3093371     
   2779130352.9659977     
   2800212779.7481594     
   2625362416.3922563     
   2586072053.1254568     
   2552836608.5848002     
   2526240137.6464624     
   2507093271.5018640     
   2663886138.5078917     
   2617761431.1631074     
   2577437769.0251331     
   2543247389.6465292     
   2515653892.7904005     
   2705940155.7221856     
   2655058572.4630508     
   2609869282.2510629     
   2570520238.4014401     
   2537218501.4908328     
   2751418490.7855849     
   2697865900.8679581     
   2650041121.6987724     
   2607980887.2084637     
   2571736629.9462419     
   2800212779.7481594     
   2746077355.5040131     
   2697848800.9719076     
   2655527116.1518283     
   2619112301.0438027     
   2507093271.5018640     
   2356892722.8010631     
   2214844377.4494381     
   2085918673.3964901     
   1976975935.7405286     
   2515653892.7904005     
   2347940871.7119627     
   2183762731.1360979     
   2026213637.9708316     
   1879848587.4361312     
   2537218501.4908328     
   2357076378.6674447     
   2176645560.9196873     
   1997395053.6646094     
   1821598289.2744913     
   2571736629.9462419     
   2384403530.4083800     
   2193960408.9382958     
   2000784912.2688642     
   1805479873.0540185     
   2619112301.0438027     
   2429891888.4923329     
   2235851033.3220010     
   2036989735.5328283     
   1833307995.1247840     
   2579492255.6924400     
   2591613568.6397500     
   2612526280.2877045     
   2642230390.6363025     
   2680725899.6855454     
   2588670604.7425828     
   2600427803.4546137     
   2619268886.9007983     
   2645209602.5892534     
   2678265247.0669527     
   2649528934.2705288     
   2657822211.0737958     
   2671484876.8683252     
   2690560052.8100109     
   2715090378.7504668     
   2757291506.3763137     
   2760394472.1836238     
   2767161878.3969207     
   2777652916.5911617     
   2791927560.7257237     
   2905473503.0344777     
   2903009049.2603617     
   2902545961.2699709     
   2904138678.2472448     
   2907844349.7316837     
   2680725899.6855454     
   2684388880.4075046     
   2692672069.2420769     
   2705575466.1892700     
   2723099071.2490840     
   2678265247.0669527     
   2676880726.5059595     
   2680767019.4838061     
   2689930795.2936678     
   2704378842.8546867     
   2715090378.7504668     
   2706529565.0584497     
   2703827988.8521585     
   2707015121.1692138     
   2716121524.1527824     
   2791927560.7257237     
   2774068973.3176622     
   2762556471.5208521     
   2757459568.2293062     
   2758852044.5766234     
   2907844349.7316837     
   2878725775.2436132     
   2856307562.1646323     
   2840712794.2261128     
   2832075677.2867341     
   2723099071.2490840     
   2636720840.6482100     
   2566753273.4737029     
   2513196369.7255707     
   2476050129.4038048     
   2704378842.8546867     
   2614644714.1872654     
   2541961251.2843881     
   2486372084.8956981     
   2447923089.0388317     
   2716121524.1527824     
   2618915121.8724804     
   2539414085.3125272     
   2477802311.3677802     
   2434275673.6284342     
   2758852044.5766234     
   2650003032.0440011     
   2559483222.0874887     
   2487719360.4172831     
   2435175216.6044121     
   2832075677.2867341     
   2707582679.4580722     
   2601954061.8381009     
   2515954626.1545153     
   2450437745.8834710     
   2476050129.4038048     
   2538040747.9542847     
   2604026899.2587037     
   2674008583.3170753     
   2747985800.1293893     
   2447923089.0388317     
   2509441958.8235269     
   2574103822.3415747     
   2641910925.6767011     
   2712865394.4681563     
   2434275673.6284342     
   2493828033.5164580     
   2555717212.8778553     
   2619950500.2764354     
   2686535189.8629489     
   2435175216.6044121     
   2491581690.3785758     
   2549547725.5095396     
   2609086756.2098227     
   2670213148.8417616     
   2450437745.8834710     
   2502884093.4590540     
   2556125330.9516315     
   2610181313.5027680     
   2665074855.6632400     
   2747985800.1293893     
   2736788911.6482062     
   2736139035.0283275     
   2746036170.2697582     
   2766480317.3725004     
   2712865394.4681563     
   2698253123.9828773     
   2694616658.2543988     
   2701966014.6911812     
   2720309248.9668832     
   2686535189.8629489     
   2666630954.5346236     
   2658279126.6246409     
   2661525054.7545085     
   2676405920.9574637     
   2670213148.8417616     
   2642970720.6694708     
   2627994100.0358062     
   2625398722.1763105     
   2635281460.7687740     
   2665074855.6632400     
   2628318397.5449753     
   2604652326.1466765     
   2594307782.0933957     
   2597484047.0183268     
   2766480317.3725004     
   2762264121.7781739     
   2766480800.3093371     
   2779130352.9659977     
   2800212779.7481594     
   2720309248.9668832     
   2714977478.8784161     
   2718383016.0764585     
   2730528574.8405643     
   2751418490.8355579     
   2676405920.9574637     
   2670009789.4383016     
   2672790808.5253496     
   2684761400.1758246     
   2705940155.9184175     
   2635281460.7687740     
   2627745860.1962361     
   2629978151.4522014     
   2642010035.9313369     
   2663886138.9456959     
   2597484047.0183268     
   2588593610.4936762     
   2590230666.9246893     
   2602458816.3318133     
   2625362417.1656179     
   2800212779.7481594     
   2746077355.5040131     
   2697848800.9719076     
   2655527116.1518283     
   2619112301.0438027     
   2751418490.8355579     
   2697865900.9601526     
   2650041121.8294916     
   2607980887.3734689     
   2571736630.1411171     
   2705940155.9184175     
   2655058572.7134752     
   2609869282.5481935     
   2570520238.7363076     
   2537218501.8529353     
   2663886138.9456959     
   2617761431.6374283     
   2577437769.5244174     
   2543247390.1564860     
   2515653893.2926960     
   2625362417.1656179     
   2586072053.8887129     
   2552836609.3219428     
   2526240138.3371086     
   2507093272.1180906     
   2619112301.0438027     
   2429891888.4923329     
   2235851033.3220010     
   2036989735.5328283     
   1833307995.1247840     
   2571736630.1411171     
   2384403530.5188775     
   2193960408.9535232     
   2000784912.1692557     
   1805479872.8063173     
   2537218501.8529353     
   2357076378.8764758     
   2176645560.9551163     
   1997395053.4915404     
   1821598288.8371084     
   2515653893.2926960     
   2347940872.0085564     
   2183762731.1988158     
   2026213637.7553246     
   1879848586.8780906     
   2507093272.1180906     
   2356892723.1753330     
   2214844377.5484180     
   2085918673.1727808     
   1976975935.1343081     
   2905473503.0344777     
   2903009049.2603617     
   2902545961.2699709     
   2904138678.2472448     
   2907844349.7316837     
   3004668030.6162419     
   2988669584.9658532     
   2976936597.1359572     
   2969602969.8338995     
   2966810085.7561216     
   3155051197.9793434     
   3123360202.3378096     
   3097766971.5723248     
   3078511084.2579441     
   3065860133.0783563     
   3353626989.6720228     
   3303510943.2590714     
   3260850444.0546842     
   3226014847.9093490     
   3199443345.7772436     
   3596145400.4276309     
   3524468657.9094901     
   3461143477.1299067     
   3406684904.5512404     
   3361743508.5640368     
   2907844349.7316837     
   2878725775.2436132     
   2856307562.1646323     
   2840712794.2261128     
   2832075677.2867341     
   2966810085.7561216     
   2931362023.8934093     
   2902155488.4699178     
   2879393834.2343836     
   2863303711.1728930     
   3065860133.0783563     
   3021679206.8791642     
   2983163790.9923749     
   2950596846.1099777     
   2924302181.7129917     
   3199443345.7772436     
   3144735705.9305162     
   3095012467.7879586     
   3050623550.9004235     
   3011981273.1203117     
   3361743508.5640368     
   3295289521.5889626     
   3233055366.3077421     
   3175437091.2220554     
   3122916368.0869274     
   2832075677.2867341     
   2707582679.4580722     
   2601954061.8381009     
   2515954626.1545153     
   2450437745.8834710     
   2863303711.1728930     
   2723779117.1128931     
   2600881668.0592523     
   2495667540.9786940     
   2409356214.4688354     
   2924302181.7129917     
   2768795713.7140946     
   2627589900.6184034     
   2501923961.7498679     
   2393286484.4621258     
   3011981273.1203117     
   2840864147.2680049     
   2681692987.4123020     
   2535746356.1821537     
   2404621388.9477563     
   3122916368.0869274     
   2937630783.8740501     
   2762020407.0356646     
   2597267117.2105985     
   2444901491.9257498     
   2450437745.8834710     
   2502884093.4590540     
   2556125330.9516315     
   2610181313.5027680     
   2665074855.6632400     
   2409356214.4688354     
   2452154706.7827091     
   2496881706.4590440     
   2543604497.3293123     
   2592393710.7680488     
   2393286484.4621258     
   2424695745.5788593     
   2459038403.4794397     
   2496454870.4585481     
   2537091553.1317968     
   2404621388.9477563     
   2422814956.3726616     
   2444753678.3294044     
   2470678196.4413199     
   2500843445.3419251     
   2444901491.9257498     
   2448108659.4100828     
   2455617778.9905691     
   2467790137.2346292     
   2485019885.6111979     
   2665074855.6632400     
   2628318397.5449753     
   2604652326.1466765     
   2594307782.0933957     
   2597484047.0183268     
   2592393710.7680488     
   2545153245.8139210     
   2510266518.4520898     
   2488115388.6458673     
   2479042094.3443489     
   2537091553.1317968     
   2477305918.9866610     
   2429046649.1251526     
   2392866014.2593870     
   2369283118.4016452     
   2500843445.3419251     
   2427012401.5141153     
   2363687024.6270366     
   2311582767.1200886     
   2271408237.0999026     
   2485019885.6111979     
   2396358149.6366887     
   2316926027.3717561     
   2247556996.3177991     
   2189122313.0439005     
   2597484047.0183268     
   2588593610.4936762     
   2590230666.9246893     
   2602458816.3318133     
   2625362417.1656179     
   2479042094.3443489     
   2463394504.9135551     
   2459108664.3043919     
   2466296421.9811068     
   2485072308.3067198     
   2369283118.4016452     
   2344608334.9966440     
   2332276072.4274907     
   2332500163.6898360     
   2345470576.1387348     
   2271408237.0999026     
   2235056705.2267475     
   2212119649.2388773     
   2202995351.3492703     
   2208025325.0327516     
   2189122313.0439005     
   2138132598.5024462     
   2101609674.7970994     
   2080251347.6726749     
   2074669611.0870762     
   2625362417.1656179     
   2586072053.8887129     
   2552836609.3219428     
   2526240138.3371086     
   2507093272.1180906     
   2485072308.3067198     
   2451587928.3523712     
   2426830409.5992427     
   2411749257.2292075     
   2407724763.4408031     
   2345470576.1387348     
   2320219191.3461809     
   2306674189.5991521     
   2306246932.3654628     
   2321030899.4792910     
   2208025325.0327516     
   2192746628.4213200     
   2192648872.8638377     
   2209709123.8287816     
   2246853536.4896832     
   2074669611.0870762     
   2070143471.5323105     
   2085069567.9346981     
   2122089651.1278813     
   2185022285.6225972     
   2507093272.1180906     
   2356892723.1753330     
   2214844377.5484180     
   2085918673.1727808     
   1976975935.1343081     
   2407724763.4408031     
   2282577301.4488678     
   2167892849.6690197     
   2070409680.0481589     
   1998895055.6929505     
   2321030899.4792910     
   2224476434.3447633     
   2141188840.1572649     
   2079543075.7003484     
   2049727749.6969423     
   2246853536.4896832     
   2182381245.8989725     
   2134262837.0584080     
   2112187730.4929290     
   2127125272.8837848     
   2185022285.6225972     
   2155998652.4151969     
   2146468804.4471474     
   2166991727.5212131     
   2228689257.1760793     
   3596145400.4276309     
   3524468657.9094901     
   3461143477.1299067     
   3406684904.5512404     
   3361743508.5640368     
   3824951869.3819752     
   3750891046.5880485     
   3679474482.7422585     
   3611001031.1085925     
   3545812949.4025002     
   4050246190.1210122     
   3980726915.1822028     
   3909320324.5951996     
   3835924445.0013447     
   3760485306.8743339     
   4261798313.2974072     
   4206004863.6430950     
   4144706767.3377099     
   4077399099.0347891     
   4003753919.4345956     
   4452569595.5718260     
   4421027223.5885897     
   4381124245.5096493     
   4332079645.6814747     
   4273552699.9874158     
   3361743508.5640368     
   3295289521.5889626     
   3233055366.3077421     
   3175437091.2220554     
   3122916368.0869274     
   3545812949.4025002     
   3461519991.0419679     
   3380801192.5672364     
   3303912932.9031458     
   3231159465.3751216     
   3760485306.8743339     
   3662069554.9357839     
   3566893255.7978668     
   3475076374.0632396     
   3386774097.1317549     
   4003753919.4345956     
   3894614164.3306928     
   3788677906.4716034     
   3685941955.1744990     
   3586452051.0704432     
   4273552699.9874158     
   4156656935.4173117     
   4043185474.0784760     
   3933024175.5703521     
   3826145611.7334633     
   3122916368.0869274     
   2937630783.8740501     
   2762020407.0356646     
   2597267117.2105985     
   2444901491.9257498     
   3231159465.3751216     
   3023597578.8669062     
   2825963082.0112562     
   2639553363.7626820     
   2466146188.2198982     
   3386774097.1317549     
   3152915771.8246021     
   2928583253.2794514     
   2715008681.6590071     
   2514064496.4108891     
   3586452051.0704432     
   3322380525.6840858     
   3066949879.4826374     
   2821115788.4124842     
   2586614262.7840538     
   3826145611.7334633     
   3528024863.5569177     
   3237392604.0349803     
   2954723688.0542002     
   2681349377.6032290     
   2444901491.9257498     
   2448108659.4100828     
   2455617778.9905691     
   2467790137.2346292     
   2485019885.6111979     
   2466146188.2198982     
   2458703883.2095661     
   2453799724.1956282     
   2451707814.3156219     
   2452720245.5545640     
   2514064496.4108891     
   2498289827.4841070     
   2483655274.1256318     
   2470289089.3171573     
   2458327179.5145683     
   2586614262.7840538     
   2565610336.3683200     
   2544810346.7401881     
   2524164005.5470538     
   2503626687.9834113     
   2681349377.6032290     
   2658678160.9125285     
   2635813869.1961284     
   2612518310.6810303     
   2588571574.6348071     
   2485019885.6111979     
   2396358149.6366887     
   2316926027.3717561     
   2247556996.3177991     
   2189122313.0439005     
   2452720245.5545640     
   2344321356.6566157     
   2244480701.9854226     
   2154183939.1454520     
   2074536464.6393466     
   2458327179.5145683     
   2330176807.3779631     
   2209488037.6054630     
   2097283586.4732881     
   1994794882.4432840     
   2503626687.9834113     
   2356585208.4823136     
   2215631023.5283184     
   2081676138.5580716     
   1955898546.9216955     
   2588571574.6348071     
   2424205760.7986889     
   2264501494.4468713     
   2110139727.7111499     
   1962065605.9170880     
   2189122313.0439005     
   2138132598.5024462     
   2101609674.7970994     
   2080251347.6726749     
   2074669611.0870762     
   2074536464.6393466     
   2003958825.3007591     
   1945318872.0267756     
   1899605897.7909243     
   1867755098.9329615     
   1994794882.4432840     
   1903155815.7926383     
   1819966864.8774767     
   1746336874.4228184     
   1683449109.8052423     
   1955898546.9216955     
   1844683984.4573042     
   1737637031.1713986     
   1635616462.7025180     
   1539668331.0650737     
   1962065605.9170880     
   1836283975.8395524     
   1710449628.9833102     
   1584897338.4629543     
   1460113588.0118635     
   2074669611.0870762     
   2070143471.5323105     
   2085069567.9346981     
   2122089651.1278813     
   2185022285.6225972     
   1867755098.9329615     
   1856244374.0363305     
   1867871452.8314590     
   1904867457.2133565     
   1970284822.0658023     
   1683449109.8052423     
   1654023690.0775905     
   1652433555.3672459     
   1681080499.5435600     
   1742607475.4919364     
   1539668331.0650737     
   1478041255.9359553     
   1449160681.1157889     
   1457027629.6809287     
   1504980276.7342873     
   1460113588.0118635     
   1350650051.0112514     
   1276170712.5883729     
   1244805742.1756635     
   1263622318.5972598     
   2185022285.6225972     
   2155998652.4151969     
   2146468804.4471474     
   2166991727.5212131     
   2228689257.1760793     
   1970284822.0658023     
   1968702957.5819306     
   2003646942.6932895     
   2093768273.6267514     
   2257699597.4224606     
   1742607475.4919364     
   1787548590.5190346     
   1884694418.2912529     
   2060868583.0345185     
   2341190611.2283106     
   1504980276.7342873     
   1613260461.2844644     
   1788868384.9983370     
   2066416931.1114073     
   2475932653.0206728     
   1263622318.5972598     
   1446894978.3655679     
   1715601064.8326895     
   2110155341.4048467     
   2662759547.0183640     
   4452569595.5718260     
   4421027223.5885897     
   4381124245.5096493     
   4332079645.6814747     
   4273552699.9874158     
   4729601352.8670158     
   4666005472.1656199     
   4606399151.6766119     
   4550670271.6410017     
   4498833075.5240726     
   5177970568.0892105     
   5048848235.1158867     
   4933254101.0369539     
   4828877195.3474398     
   4735076767.7513390     
   5804826580.5735722     
   5573203070.6010418     
   5359934983.9136229     
   5159338951.4616117     
   4970372312.8416672     
   6614853677.4935741     
   6239304460.0950346     
   5882445780.1438713     
   5534942791.5917149     
   5195943440.9913130     
   4273552699.9874158     
   4156656935.4173117     
   4043185474.0784760     
   3933024175.5703521     
   3826145611.7334633     
   4498833075.5240726     
   4387112475.2495356     
   4276164235.9702024     
   4166067745.9076633     
   4056913970.5825810     
   4735076767.7513390     
   4624785628.9477987     
   4512724457.9732304     
   4399005567.4184790     
   4283841494.2014384     
   4970372312.8416672     
   4860255011.7047539     
   4745803873.3844376     
   4627021525.5322809     
   4504238994.8071117     
   5195943440.9913130     
   5086683829.0398989     
   4970429353.6148481     
   4846960456.9028044     
   4716734901.5130930     
   3826145611.7334633     
   3528024863.5569177     
   3237392604.0349803     
   2954723688.0542002     
   2681349377.6032290     
   4056913970.5825810     
   3732155348.0176897     
   3411462408.6211057     
   3095108766.4356546     
   2783753048.0724564     
   4283841494.2014384     
   3943358641.0852032     
   3605157958.9386296     
   3269441629.7340517     
   2936572029.0931187     
   4504238994.8071117     
   4158827948.6388578     
   3815426568.4724722     
   3474282282.1929774     
   3135826129.6649113     
   4716734901.5130930     
   4376666826.1429367     
   4039710969.1200881     
   3706163462.4084125     
   3376690501.4827204     
   2681349377.6032290     
   2658678160.9125285     
   2635813869.1961284     
   2612518310.6810303     
   2588571574.6348071     
   2783753048.0724564     
   2756261967.0532851     
   2730436551.7805600     
   2706201281.7509151     
   2683481284.6264129     
   2936572029.0931187     
   2901038055.6729593     
   2868105976.3708243     
   2837829716.5503163     
   2810297516.0241981     
   3135826129.6649113     
   3088067432.3982959     
   3042965538.3524561     
   3000687453.5683599     
   2961520673.3729825     
   3376690501.4827204     
   3311867204.7008567     
   3249013363.8184338     
   3188391644.0255260     
   3130516809.1817622     
   2588571574.6348071     
   2424205760.7986889     
   2264501494.4468713     
   2110139727.7111499     
   1962065605.9170880     
   2683481284.6264129     
   2509115453.4651051     
   2336793326.8765850     
   2166894397.8517866     
   1999979029.3471067     
   2810297516.0241981     
   2628496506.2819796     
   2446610962.6354117     
   2264707845.0978665     
   2082954703.8532767     
   2961520673.3729825     
   2775566843.0099869     
   2587998889.9422932     
   2398663164.6914253     
   2207485147.9857569     
   3130516809.1817622     
   2944044252.5470219     
   2755023376.1871896     
   2563214954.8413115     
   2368519699.3559766     
   1962065605.9170880     
   1836283975.8395524     
   1710449628.9833102     
   1584897338.4629543     
   1460113588.0118635     
   1999979029.3471067     
   1868056914.8843052     
   1736616878.8672442     
   1605742464.0464551     
   1475551571.6978509     
   2082954703.8532767     
   1947897289.5908172     
   1814317607.1860602     
   1682173659.7498958     
   1551474148.6978028     
   2207485147.9857569     
   2070282314.3736382     
   1935673096.1844811     
   1803553832.9855292     
   1673986708.6397977     
   2368519699.3559766     
   2228255329.2910376     
   2091570077.9882545     
   1958327642.2113075     
   1828737202.7034402     
   1460113588.0118635     
   1350650051.0112514     
   1276170712.5883729     
   1244805742.1756635     
   1263622318.5972598     
   1475551571.6978509     
   1330757114.9313107     
   1200412911.5049496     
   1089068166.5338991     
   1002698239.6812553     
   1551474148.6978028     
   1400767155.1222453     
   1246293733.5982800     
   1085850166.7812176     
   917448375.21268022     
   1673986708.6397977     
   1557368796.1899161     
   1431128111.7579343     
   1295762251.7019317     
   1157553981.7690558     
   1828737202.7034402     
   1786471181.8355167     
   1739782216.0664258     
   1697729682.4186456     
   1679353520.6047268     
   1263622318.5972598     
   1446894978.3655679     
   1715601064.8326895     
   2110155341.4048467     
   2662759547.0183640     
   1002698239.6812553     
   1164900463.2333975     
   1425156988.1938956     
   1808124480.2184267     
   2333970647.3721409     
   917448375.21268022     
   962748259.87087774     
   1144482228.0953002     
   1476041594.9266186     
   1957396811.2997401     
   1157553981.7690558     
   1007169095.9100780     
   984586784.82427227     
   1161791499.6149645     
   1545729509.9718242     
   1679353520.6047268     
   1381952927.3594375     
   1128754491.7870498     
   1011659471.7308278     
   1157610413.1372771     
 </DataArray>
 <DataArray  type="Float64" Name="strain" NumberOfComponents="3" format="ascii">
  0.11040612132979399       -3.2294151987327657E-002   3.1934347428574927E-003
  0.10447546047036294       -2.8902774990669844E-002  -3.3002734559151037E-003
   9.8544799610931766E-002  -2.6620536173971143E-002  -6.7344431864330145E-003
   9.2614138751500652E-002  -2.5447435537231597E-002  -7.1090744486955737E-003
   8.6683477892069538E-002  -2.5383473080450525E-002  -4.4241672427035583E-003
   9.6281027612438175E-002  -2.9738379186073916E-002   1.0941151722032250E-002
   9.2958725275209542E-002  -2.7154224953019113E-002   6.0178528271593867E-003
   8.9636422937980909E-002  -2.5331291654913490E-002   3.2517325084369109E-003
   8.6314120600752220E-002  -2.4269579291757201E-002   2.6427907658641836E-003
   8.2991818263523531E-002  -2.3969087863550564E-002   4.1910275994413992E-003
   8.5112702702488718E-002  -2.7182606384820285E-002   1.7707687315099252E-002
   8.3496398995357712E-002  -2.5405674915368326E-002   1.4702714969135888E-002
   8.1880095288226623E-002  -2.4042047135855921E-002   1.2952561307217864E-002
   8.0263791581095645E-002  -2.3091723046283479E-002   1.2457226329345109E-002
   7.8647487873964583E-002  -2.2554702646650493E-002   1.3216710035517415E-002
   7.6901146599945985E-002  -2.4626833583566599E-002   2.3493041522058292E-002
   7.6088481630807614E-002  -2.3657124877717456E-002   2.2754312970014415E-002
   7.5275816661669270E-002  -2.2752802616798420E-002   2.2368043209910808E-002
   7.4463151692530913E-002  -2.1913866800809419E-002   2.2334232241747378E-002
   7.3650486723392514E-002  -2.1140317429750477E-002   2.2652880065524302E-002
   7.1646359304809615E-002  -2.2071060782312912E-002   2.8297214342909882E-002
   7.0734973181559024E-002  -2.1908574840066697E-002   3.0172646829794758E-002
   6.9823587058308573E-002  -2.1463558097740809E-002   3.1498178216515127E-002
   6.8912200935058052E-002  -2.0736010555335416E-002   3.2273808503070905E-002
   6.8000814811807558E-002  -1.9725932212850461E-002   3.2499537689461733E-002
   8.6683477892069538E-002  -2.5383473080450525E-002  -4.4241672427035583E-003
   8.4715134829988770E-002  -2.5584518704089732E-002  -3.1160139365176143E-003
   8.2746791767908001E-002  -2.5206442308610549E-002  -1.8179683553650738E-003
   8.0778448705827233E-002  -2.4249243894012361E-002  -5.3003049924441048E-004
   7.8810105643746464E-002  -2.2712923460295520E-002   7.4779963184334886E-004
   8.2991818263523531E-002  -2.3969087863550564E-002   4.1910275994413992E-003
   8.1024074907180887E-002  -2.3856304265166300E-002   5.3396812225961765E-003
   7.9056331550838160E-002  -2.3357715391478462E-002   6.4996419822595519E-003
   7.7088588194495489E-002  -2.2473321242486133E-002   7.6709098784319557E-003
   7.5120844838152734E-002  -2.1203121818190285E-002   8.8534849111128744E-003
   7.8647487873964583E-002  -2.2554702646650493E-002   1.3216710035517415E-002
   7.6701759084901358E-002  -2.2128089826242814E-002   1.4012547231826378E-002
   7.4756030295838133E-002  -2.1508988474346166E-002   1.4841106426185399E-002
   7.2810301506774908E-002  -2.0697398590960241E-002   1.5702387618594577E-002
   7.0864572717711627E-002  -1.9693320176085327E-002   1.6596390809054146E-002
   7.3650486723392514E-002  -2.1140317429750477E-002   2.2652880065524302E-002
   7.1748187363150237E-002  -2.0399875387319355E-002   2.2902584091172462E-002
   6.9845888002907863E-002  -1.9660261557214030E-002   2.3206424976412319E-002
   6.7943588642665517E-002  -1.8921475939434405E-002   2.3564402721243570E-002
   6.6041289282423171E-002  -1.8183518533980231E-002   2.3976517325666656E-002
   6.8000814811807558E-002  -1.9725932212850461E-002   3.2499537689461733E-002
   6.6163359741927469E-002  -1.8671660948396007E-002   3.2009791800634568E-002
   6.4325904672047393E-002  -1.7811534640081936E-002   3.1595597632940592E-002
   6.2488449602167324E-002  -1.7145553287908271E-002   3.1256955186379415E-002
   6.0650994532287283E-002  -1.6673716891875190E-002   3.0993864460951148E-002
   7.8810105643746464E-002  -2.2712923460295520E-002   7.4779963184334886E-004
   7.3143646259254624E-002  -2.1009691692668919E-002   4.1946088570554707E-004
   6.7477186874762674E-002  -1.9551759276340924E-002  -1.4507372046573819E-004
   6.1810727490270723E-002  -1.8339126211312708E-002  -9.4580418667022936E-004
   5.6144268105778883E-002  -1.7371792497582472E-002  -1.9827305129076489E-003
   7.5120844838152734E-002  -2.1203121818190285E-002   8.8534849111128744E-003
   6.9324528996806023E-002  -1.9817858532288679E-002   7.8639858016101294E-003
   6.3528213155459257E-002  -1.8588272798480132E-002   6.8509696384309038E-003
   5.7731897314112490E-002  -1.7514364616763936E-002   5.8144364215755445E-003
   5.1935581472765779E-002  -1.6596133987140771E-002   4.7543861510431773E-003
   7.0864572717711627E-002  -1.9693320176085327E-002   1.6596390809054146E-002
   6.5151079225866854E-002  -1.8626025371909022E-002   1.5035353135392615E-002
   5.9437585734022025E-002  -1.7624786320619215E-002   1.3663477214411621E-002
   5.3724092242177252E-002  -1.6689603022215938E-002   1.2480763046110795E-002
   4.8010598750332423E-002  -1.5820475476699292E-002   1.1487210630490685E-002
   6.6041289282423171E-002  -1.8183518533980231E-002   2.3976517325666656E-002
   6.0623296946437123E-002  -1.7434192211529018E-002   2.1933562887053018E-002
   5.5205304610451075E-002  -1.6661299842758083E-002   2.0292449007476215E-002
   4.9787312274465041E-002  -1.5864841427667774E-002   1.9053175686936784E-002
   4.4369319938478965E-002  -1.5044816966257479E-002   1.8215742925434555E-002
   6.0650994532287283E-002  -1.6673716891875190E-002   3.0993864460951148E-002
   5.5741182158516811E-002  -1.6242359051149152E-002   2.8558615056591186E-002
   5.0831369784746311E-002  -1.5697813364897409E-002   2.6737885017625390E-002
   4.5921557410975866E-002  -1.5040079833119505E-002   2.5531674344053484E-002
   4.1011745037205394E-002  -1.4269158455815889E-002   2.4939983035875302E-002
   5.6144268105778883E-002  -1.7371792497582472E-002  -1.9827305129076489E-003
   5.5178980177283954E-002  -1.6597066440070862E-002  -1.5175594666398950E-003
   5.4213692248788914E-002  -1.5962256343696024E-002  -7.1747052563753133E-004
   5.3248404320293985E-002  -1.5467362208459998E-002   4.1753631010033043E-004
   5.2283116391798945E-002  -1.5112384034360549E-002   1.8874610405728021E-003
   5.1935581472765779E-002  -1.6596133987140771E-002   4.7543861510431773E-003
   5.1248303252011795E-002  -1.5809088280733519E-002   5.3230487931582027E-003
   5.0561025031257784E-002  -1.5128734868665450E-002   6.1128129560205080E-003
   4.9873746810503786E-002  -1.4555073750936606E-002   7.1236786396297880E-003
   4.9186468589749788E-002  -1.4088104927546974E-002   8.3556458439857373E-003
   4.8010598750332423E-002  -1.5820475476699292E-002   1.1487210630490685E-002
   4.7487513863331499E-002  -1.5021110121396231E-002   1.2192588535251653E-002
   4.6964428976330547E-002  -1.4295213393634015E-002   1.3005251586771488E-002
   4.6441344089329567E-002  -1.3642785293413222E-002   1.3925199785050371E-002
   4.5918259202328615E-002  -1.3063825820733621E-002   1.4952433130088483E-002
   4.4369319938478965E-002  -1.5044816966257479E-002   1.8215742925434555E-002
   4.3896612011242994E-002  -1.4233131962058915E-002   1.9091059759639206E-002
   4.3423904084007092E-002  -1.3461691918603011E-002   1.9959845366615332E-002
   4.2951196156771142E-002  -1.2730496835890056E-002   2.0822099746362007E-002
   4.2478488229535233E-002  -1.2039546713920046E-002   2.1677822898880053E-002
   4.1011745037205394E-002  -1.4269158455815889E-002   2.4939983035875302E-002
   4.0475597695746462E-002  -1.3445153802721488E-002   2.6018462466322445E-002
   3.9939450354287559E-002  -1.2628170443571674E-002   2.6976594295552103E-002
   3.9403303012828628E-002  -1.1818208378366751E-002   2.7814378523565303E-002
   3.8867155671369724E-002  -1.1015267607106694E-002   2.8531815150361073E-002
   5.2283116391798945E-002  -1.5112384034360549E-002   1.8874610405728021E-003
   4.9061827840803596E-002  -1.4713829990741445E-002   1.2092437206285833E-003
   4.5840539289808135E-002  -1.4088208246944622E-002   5.6576144331443867E-004
   4.2619250738812731E-002  -1.3235518802970345E-002  -4.2985791369631876E-005
   3.9397962187817326E-002  -1.2155761658819708E-002  -6.1699798342473855E-004
   4.9186468589749788E-002  -1.4088104927546974E-002   8.3556458439857373E-003
   4.6019002484771643E-002  -1.3592881840551074E-002   7.7200886029220595E-003
   4.2851536379793470E-002  -1.2934457932003041E-002   7.1574412112633823E-003
   3.9684070274815228E-002  -1.2112833201903220E-002   6.6677036690090674E-003
   3.6516604169837097E-002  -1.1128007650250460E-002   6.2508759761600308E-003
   4.5918259202328615E-002  -1.3063825820733621E-002   1.4952433130088483E-002
   4.2842790350142851E-002  -1.2471933690361148E-002   1.4295669089279678E-002
   3.9767321497957003E-002  -1.1780707617061265E-002   1.3749989704650856E-002
   3.6691852645771225E-002  -1.0990147600834770E-002   1.3315394976201947E-002
   3.3616383793585392E-002  -1.0100253641681767E-002   1.2991884903933382E-002
   4.2478488229535233E-002  -1.2039546713920046E-002   2.1677822898880053E-002
   3.9533191436917053E-002  -1.1350985540170777E-002   2.0935985179701050E-002
   3.6587894644298825E-002  -1.0626957302119586E-002   2.0343406923477046E-002
   3.3642597851680597E-002  -9.8674619997672040E-003   1.9900088130208386E-002
   3.0697301059062473E-002  -9.0724996331125740E-003   1.9606028799894717E-002
   3.8867155671369724E-002  -1.1015267607106694E-002   2.8531815150361073E-002
   3.6090205745094306E-002  -1.0230037389980740E-002   2.7641036874186398E-002
   3.3313255818818888E-002  -9.4732069871777957E-003   2.6937692867742113E-002
   3.0536305892543483E-002  -8.7447763986991112E-003   2.6421783131028387E-002
   2.7759355966268051E-002  -8.0447456245439364E-003   2.6093307664044829E-002
   3.9397962187817326E-002  -1.2155761658819708E-002  -6.1699798342473855E-004
   3.7145899448069009E-002  -1.1095384672505149E-002  -6.1974147254595380E-004
   3.4893836708320802E-002  -1.0300835702042821E-002  -5.7073176718536178E-004
   3.2641773968572541E-002  -9.7721147474303799E-003  -4.6996886734418375E-004
   3.0389711228824279E-002  -9.5092218086703095E-003  -3.1745277302031027E-004
   3.6516604169837097E-002  -1.1128007650250460E-002   6.2508759761600308E-003
   3.4303044537241534E-002  -1.0153533907807821E-002   5.9911538135275499E-003
   3.2089484904645832E-002  -9.3629646053353666E-003   5.7566846707183816E-003
   2.9875925272050255E-002  -8.7562997428329570E-003   5.5474685477328312E-003
   2.7662365639454678E-002  -8.3335393203010089E-003   5.3635054445710928E-003
   3.3616383793585392E-002  -1.0100253641681767E-002   1.2991884903933382E-002
   3.1414827093484393E-002  -9.2116831431097723E-003   1.2557107643670351E-002
   2.9213270393383367E-002  -8.4250935086279399E-003   1.2121083228572527E-002
   2.7011713693282355E-002  -7.7404847382350969E-003   1.1683811658640617E-002
   2.4810156993181343E-002  -7.1578568319324853E-003   1.1245292933874107E-002
   3.0697301059062473E-002  -9.0724996331125740E-003   1.9606028799894717E-002
   2.8481247116797920E-002  -8.2698323784120842E-003   1.9078120017882047E-002
   2.6265193174533359E-002  -7.4872224119202774E-003   1.8522463906376595E-002
   2.4049139232268851E-002  -6.7246697336372334E-003   1.7939060465378926E-002
   2.1833085290004245E-002  -5.9821743435633512E-003   1.7327909694888483E-002
   2.7759355966268051E-002  -8.0447456245439364E-003   2.6093307664044829E-002
   2.5502304607181947E-002  -7.3279816137143960E-003   2.5554190936163068E-002
   2.3245253248095815E-002  -6.5493513152131699E-003   2.4960826704130856E-002
   2.0988201889009697E-002  -5.7088547290396197E-003   2.4313214967947833E-002
   1.8731150529923635E-002  -4.8064918551944391E-003   2.3611355727614303E-002
   3.0389711228824279E-002  -9.5092218086703095E-003  -3.1745277302031027E-004
   2.9722051226542479E-002  -9.1499333186648713E-003  -2.2034094899803236E-004
   2.9054391224260623E-002  -8.3320257103186579E-003  -1.7753791324297552E-003
   2.8386731221978767E-002  -7.0554989836313642E-003  -4.9825673233162560E-003
   2.7719071219696967E-002  -5.3203531386027958E-003  -9.8419055216572016E-003
   2.7662365639454678E-002  -8.3335393203010089E-003   5.3635054445710928E-003
   2.5607408292666223E-002  -7.8789811705423096E-003   5.9536663810211277E-003
   2.3552450945877768E-002  -7.1769231263573152E-003   5.4213826359114092E-003
   2.1497493599089285E-002  -6.2273651877464420E-003   3.7666542092430200E-003
   1.9442536252300857E-002  -5.0303073547099952E-003   9.8948110101626519E-004
   2.4810156993181343E-002  -7.1578568319324853E-003   1.1245292933874107E-002
   2.1897607627781618E-002  -6.6080290224190819E-003   1.2117383758835587E-002
   1.8985058262381949E-002  -6.0218205423956950E-003   1.2396735228133615E-002
   1.6072508896982196E-002  -5.3992313918621720E-003   1.2083347341767692E-002
   1.3159959531582471E-002  -4.7402615708181939E-003   1.1177220099738483E-002
   2.1833085290004245E-002  -5.9821743435633512E-003   1.7327909694888483E-002
   1.8592649231888740E-002  -5.3370768742964092E-003   1.8270811184446289E-002
   1.5352213173773124E-002  -4.8667179584344356E-003   1.9150678644236516E-002
   1.2111777115657529E-002  -4.5710975959775760E-003   1.9967512074258204E-002
   8.8713410575420037E-003  -4.4502157869261150E-003   2.0721311474511742E-002
   1.8731150529923635E-002  -4.8064918551944391E-003   2.3611355727614303E-002
   1.5692533104987472E-002  -4.0661247261732925E-003   2.4413948657853735E-002
   1.2653915680051392E-002  -3.7116153744732039E-003   2.5683212884220430E-002
   9.6152982551152566E-003  -3.7429638000929313E-003   2.7419148406713972E-002
   6.5766808301791491E-003  -4.1601700030337030E-003   2.9621755225334501E-002
   2.7719071219696967E-002  -5.3203531386027958E-003  -9.8419055216572016E-003
   2.3319599702595895E-002  -4.1873589715575310E-003  -4.2346438980496171E-003
   1.8920128185494767E-002  -4.7172872788232012E-003   2.6165451256485728E-003
   1.4520656668393639E-002  -6.9101380603988488E-003   1.0711661549437979E-002
   1.0121185151292567E-002  -1.0765911316283017E-002   2.0050705373319211E-002
   1.9442536252300857E-002  -5.0303073547099952E-003   9.8948110101626519E-004
   1.6218067756858523E-002  -4.6782515999324037E-003   6.7215633302418754E-003
   1.2993599261416078E-002  -6.2636998960980406E-003   1.3559724202694357E-002
   9.7691307659736604E-003  -9.7866522432060593E-003   2.1503963718372154E-002
   6.5446622705314095E-003  -1.5247108641257778E-002   3.0554281877277045E-002
   1.3159959531582471E-002  -4.7402615708181939E-003   1.1177220099738483E-002
   1.0972645300933781E-002  -5.1691442283076094E-003   1.6759541357950436E-002
   8.7853310702850212E-003  -7.8101125133724636E-003   2.3310092502523222E-002
   6.5980168396361505E-003  -1.2663166426014498E-002   3.0828873533456716E-002
   4.4107026089875156E-003  -1.9728305966232540E-002   3.9315884450751515E-002
   8.8713410575420037E-003  -4.4502157869261150E-003   2.0721311474511742E-002
   7.5833323348217241E-003  -5.6600368566822046E-003   2.5879290185075440E-002
   6.2953236121014444E-003  -9.3565251306473168E-003   3.1867650025135509E-002
   5.0073148893812272E-003  -1.5539680608822323E-002   3.8686390994691094E-002
   3.7193061666610100E-003  -2.4209503291207302E-002   4.6335513093743064E-002
   6.5766808301791491E-003  -4.1601700030337030E-003   2.9621755225334501E-002
   6.0501288585223523E-003  -6.1509294850567997E-003   3.4080809811617097E-002
   5.5235768868655000E-003  -1.0902937747921532E-002   3.9232396770530975E-002
   4.9970249152086615E-003  -1.8416194791630321E-002   4.5076516102075276E-002
   4.4704729435518509E-003  -2.8690700616182063E-002   5.1613167806250360E-002
   7.1646359304809615E-002  -2.2071060782312912E-002   2.8297214342909882E-002
   7.0734973181559024E-002  -2.1908574840066697E-002   3.0172646829794758E-002
   6.9823587058308573E-002  -2.1463558097740809E-002   3.1498178216515127E-002
   6.8912200935058052E-002  -2.0736010555335416E-002   3.2273808503070905E-002
   6.8000814811807558E-002  -1.9725932212850461E-002   3.2499537689461733E-002
   6.7492582135287915E-002  -2.0299231218707359E-002   3.3176904950357522E-002
   6.6142906502028836E-002  -2.0055200368952142E-002   3.4653271139419045E-002
   6.4793230868769786E-002  -1.9605558982881355E-002   3.5802959408627849E-002
   6.3443555235510721E-002  -1.8950307060494984E-002   3.6625969757984253E-002
   6.2093879602251656E-002  -1.8089444601793014E-002   3.7122302187488215E-002
   6.2584056409589181E-002  -1.8527401655101861E-002   3.8176600597196381E-002
   6.1019314446633624E-002  -1.8201825897837642E-002   3.9176980224670227E-002
   5.9454572483678157E-002  -1.7747559868021845E-002   4.0073905112603697E-002
   5.7889830520722621E-002  -1.7164603565654496E-002   4.0867375260996958E-002
   5.6325088557767140E-002  -1.6452956990735568E-002   4.1557390669849620E-002
   5.6920782127713176E-002  -1.6755572091496362E-002   4.3296301283425778E-002
   5.5364197015373373E-002  -1.6348451426723143E-002   4.3743774085548415E-002
   5.3807611903033514E-002  -1.5889560753162391E-002   4.4311015328442463E-002
   5.2251026790693746E-002  -1.5378900070814064E-002   4.4998025012108353E-002
   5.0694441678353963E-002  -1.4816469379678149E-002   4.5804803136546127E-002
   5.0502759289660082E-002  -1.4983742527890809E-002   4.8536007009046478E-002
   4.9177554208248070E-002  -1.4495076955608588E-002   4.8353652722053608E-002
   4.7852349126836086E-002  -1.4031561638302825E-002   4.8514290056144271E-002
   4.6527144045424101E-002  -1.3593196575973576E-002   4.9017919011318745E-002
   4.5201938964012117E-002  -1.3179981768620674E-002   4.9864539587577472E-002
   6.8000814811807558E-002  -1.9725932212850461E-002   3.2499537689461733E-002
   6.6163359741927469E-002  -1.8671660948396007E-002   3.2009791800634568E-002
   6.4325904672047393E-002  -1.7811534640081936E-002   3.1595597632940592E-002
   6.2488449602167324E-002  -1.7145553287908271E-002   3.1256955186379415E-002
   6.0650994532287283E-002  -1.6673716891875190E-002   3.0993864460951148E-002
   6.2093879602251656E-002  -1.8089444601793014E-002   3.7122302187488215E-002
   6.0345193158602428E-002  -1.7187634721963843E-002   3.6624987043729393E-002
   5.8596506714953200E-002  -1.6409540536196199E-002   3.6229657431299439E-002
   5.6847820271304000E-002  -1.5755162044489512E-002   3.5936313350197924E-002
   5.5099133827654828E-002  -1.5224499246844603E-002   3.5744954800425194E-002
   5.6325088557767140E-002  -1.6452956990735568E-002   4.1557390669849620E-002
   5.4691604550544469E-002  -1.5703608495531873E-002   4.1122935533238203E-002
   5.3058120543321832E-002  -1.5007546432310469E-002   4.0816899738151287E-002
   5.1424636536099202E-002  -1.4364770801071144E-002   4.0639283284588892E-002
   4.9791152528876587E-002  -1.3775281601814099E-002   4.0590086172550929E-002
   5.0694441678353963E-002  -1.4816469379678149E-002   4.5804803136546127E-002
   4.9202593917753633E-002  -1.4219582269099973E-002   4.5503637269161207E-002
   4.7710746157153323E-002  -1.3605552328424680E-002   4.5357324553496607E-002
   4.6218898396553014E-002  -1.2974379557652720E-002   4.5365864989552245E-002
   4.4727050635952691E-002  -1.2326063956783637E-002   4.5529258577327925E-002
   4.5201938964012117E-002  -1.3179981768620674E-002   4.9864539587577472E-002
   4.3878161260229837E-002  -1.2735556042667767E-002   4.9767092251498390E-002
   4.2554383556447570E-002  -1.2203558224539016E-002   4.9850931877335108E-002
   4.1230605852665296E-002  -1.1583988314234021E-002   5.0116058465087959E-002
   3.9906828148883022E-002  -1.0876846311753063E-002   5.0562472014756554E-002
   6.0650994532287283E-002  -1.6673716891875190E-002   3.0993864460951148E-002
   5.5741182158516811E-002  -1.6242359051149152E-002   2.8558615056591186E-002
   5.0831369784746311E-002  -1.5697813364897409E-002   2.6737885017625390E-002
   4.5921557410975866E-002  -1.5040079833119505E-002   2.5531674344053484E-002
   4.1011745037205394E-002  -1.4269158455815889E-002   2.4939983035875302E-002
   5.5099133827654828E-002  -1.5224499246844603E-002   3.5744954800425194E-002
   5.0757278702118519E-002  -1.4726862983156258E-002   3.3592447920596624E-002
   4.6415423576582321E-002  -1.4171564093320668E-002   3.1961336171842533E-002
   4.2073568451046067E-002  -1.3558602577337157E-002   3.0851619554162872E-002
   3.7731713325509841E-002  -1.2887978435206282E-002   3.0263298067557454E-002
   4.9791152528876587E-002  -1.3775281601814099E-002   4.0590086172550929E-002
   4.5924130417255085E-002  -1.3211366915163461E-002   3.8664796597875098E-002
   4.2057108305633584E-002  -1.2645314821743754E-002   3.7167777919954507E-002
   3.8190086194012110E-002  -1.2077125321554751E-002   3.6099030138788804E-002
   3.4323064082390650E-002  -1.1506798414596675E-002   3.5458553254378133E-002
   4.4727050635952691E-002  -1.2326063956783637E-002   4.5529258577327925E-002
   4.1241737303926426E-002  -1.1695870847170588E-002   4.3775661088426648E-002
   3.7756423971900169E-002  -1.1119065550166982E-002   4.2357210261961153E-002
   3.4271110639873911E-002  -1.0595648065772317E-002   4.1273906097931135E-002
   3.0785797307847647E-002  -1.0125618393986902E-002   4.0525748596336342E-002
   3.9906828148883022E-002  -1.0876846311753063E-002   5.0562472014756554E-002
   3.6710099362132542E-002  -1.0180374779177770E-002   4.8925041392251678E-002
   3.3513370575382034E-002  -9.5928162785900856E-003   4.7529633197862631E-002
   3.0316641788631540E-002  -9.1141708099899098E-003   4.6376247431589843E-002
   2.7119913001881046E-002  -8.7444383733774611E-003   4.5464884093432634E-002
   4.1011745037205394E-002  -1.4269158455815889E-002   2.4939983035875302E-002
   4.0475597695746462E-002  -1.3445153802721488E-002   2.6018462466322445E-002
   3.9939450354287559E-002  -1.2628170443571674E-002   2.6976594295552103E-002
   3.9403303012828628E-002  -1.1818208378366751E-002   2.7814378523565303E-002
   3.8867155671369724E-002  -1.1015267607106694E-002   2.8531815150361073E-002
   3.7731713325509841E-002  -1.2887978435206282E-002   3.0263298067557454E-002
   3.7106813838310132E-002  -1.2180334389934377E-002   3.1249433365151763E-002
   3.6481914351110437E-002  -1.1456313164528026E-002   3.2178411972481336E-002
   3.5857014863910776E-002  -1.0715914758987762E-002   3.3050233889546241E-002
   3.5232115376711032E-002  -9.9591391733129253E-003   3.3864899116346381E-002
   3.4323064082390650E-002  -1.1506798414596675E-002   3.5458553254378133E-002
   3.3672603360402488E-002  -1.0915514977147212E-002   3.6375742893198476E-002
   3.3022142638414367E-002  -1.0284455885484489E-002   3.7298966752706483E-002
   3.2371681916426226E-002  -9.6136211396086607E-003   3.8228224832902433E-002
   3.1721221194438071E-002  -8.9030107395193792E-003   3.9163517133785825E-002
   3.0785797307847647E-002  -1.0125618393986902E-002   4.0525748596336342E-002
   3.0172966262023440E-002  -9.6506955643602399E-003   4.1397391050462050E-002
   2.9560135216199244E-002  -9.1125986064409803E-003   4.2338258636227512E-002
   2.8947304170375068E-002  -8.5113275202294489E-003   4.3348351353633491E-002
   2.8334473124550837E-002  -7.8468823057258885E-003   4.4427669202679279E-002
   2.7119913001881046E-002  -8.7444383733774611E-003   4.5464884093432634E-002
   2.6607902543173106E-002  -8.3858761515729352E-003   4.6314377836942366E-002
   2.6095892084465180E-002  -7.9407413273974436E-003   4.7296287623044941E-002
   2.5583881625757234E-002  -7.4090339008504938E-003   4.8410613451739470E-002
   2.5071871167049342E-002  -6.7907538719321758E-003   4.9657355323026620E-002
   3.8867155671369724E-002  -1.1015267607106694E-002   2.8531815150361073E-002
   3.6090205745094306E-002  -1.0230037389980740E-002   2.7641036874186398E-002
   3.3313255818818888E-002  -9.4732069871777957E-003   2.6937692867742113E-002
   3.0536305892543483E-002  -8.7447763986991112E-003   2.6421783131028387E-002
   2.7759355966268051E-002  -8.0447456245439364E-003   2.6093307664044829E-002
   3.5232115376711032E-002  -9.9591391733129253E-003   3.3864899116346381E-002
   3.2640326852173190E-002  -9.2065008786280655E-003   3.3069468296346050E-002
   3.0048538327635224E-002  -8.4785143460564816E-003   3.2456926010090398E-002
   2.7456749803097334E-002  -7.7751795755988604E-003   3.2027272257579592E-002
   2.4864961278559417E-002  -7.0964965672548619E-003   3.1780507038813188E-002
   3.1721221194438071E-002  -8.9030107395193792E-003   3.9163517133785825E-002
   2.9310048335651984E-002  -8.1829643672754471E-003   3.8467181822169766E-002
   2.6898875476865904E-002  -7.4838217049351674E-003   3.7949189308312675E-002
   2.4487702618079827E-002  -6.8055827524986096E-003   3.7609539592214414E-002
   2.2076529759293737E-002  -6.1482475099657319E-003   3.7448232673875231E-002
   2.8334473124550837E-002  -7.8468823057258885E-003   4.4427669202679279E-002
   2.6099370195530894E-002  -7.1594278559230784E-003   4.3834177451657359E-002
   2.3864267266510898E-002  -6.4891290638136867E-003   4.3414482762408751E-002
   2.1629164337490892E-002  -5.8359859293984698E-003   4.3168585134933150E-002
   1.9394061408470966E-002  -5.1999984526766296E-003   4.3096484569230945E-002
   2.5071871167049342E-002  -6.7907538719321758E-003   4.9657355323026620E-002
   2.3008292431809768E-002  -6.1358913445702101E-003   4.9170455184808781E-002
   2.0944713696570222E-002  -5.4944364226924558E-003   4.8852806372378488E-002
   1.8881134961330689E-002  -4.8663891062980871E-003   4.8704408885735739E-002
   1.6817556226091129E-002  -4.2517493953876384E-003   4.8725262724880314E-002
   2.7759355966268051E-002  -8.0447456245439364E-003   2.6093307664044829E-002
   2.5502304607181947E-002  -7.3279816137143960E-003   2.5554190936163068E-002
   2.3245253248095815E-002  -6.5493513152131699E-003   2.4960826704130856E-002
   2.0988201889009697E-002  -5.7088547290396197E-003   2.4313214967947833E-002
   1.8731150529923635E-002  -4.8064918551944391E-003   2.3611355727614303E-002
   2.4864961278559417E-002  -7.0964965672548619E-003   3.1780507038813188E-002
   2.2591790630025449E-002  -6.4209883063257034E-003   3.1425565971554881E-002
   2.0318619981491468E-002  -5.7271777781130184E-003   3.1092633829551408E-002
   1.8045449332957542E-002  -5.0150649826172997E-003   3.0781710612802549E-002
   1.5772278684423574E-002  -4.2846499198374577E-003   3.0492796321309190E-002
   2.2076529759293737E-002  -6.1482475099657319E-003   3.7448232673875231E-002
   1.9863496250717330E-002  -5.5139949989371217E-003   3.7233903246851968E-002
   1.7650462742140972E-002  -4.9050042410133110E-003   3.7117839174488937E-002
   1.5437429233564576E-002  -4.3212752361944246E-003   3.7100040456786276E-002
   1.3224395724988139E-002  -3.7628079844802542E-003   3.7180507093744070E-002
   1.9394061408470966E-002  -5.1999984526766296E-003   4.3096484569230945E-002
   1.7317421469257632E-002  -4.6070016915485401E-003   4.2979202762054337E-002
   1.5240781530044359E-002  -4.0828307039136591E-003   4.3036442738943442E-002
   1.3164141590831065E-002  -3.6274854897717715E-003   4.3268204499898585E-002
   1.1087501651617808E-002  -3.2409660491233838E-003   4.3674488044919323E-002
   1.6817556226091129E-002  -4.2517493953876384E-003   4.8725262724880314E-002
   1.4953566285646369E-002  -3.7000083841598475E-003   4.8661464517162134E-002
   1.3089576345201595E-002  -3.2606571668135631E-003   4.8848444522915146E-002
   1.1225586404756856E-002  -2.9336957433492017E-003   4.9286202742139268E-002
   9.3615964643120608E-003  -2.7191241137660693E-003   4.9974739174834970E-002
   1.8731150529923635E-002  -4.8064918551944391E-003   2.3611355727614303E-002
   1.5692533104987472E-002  -4.0661247261732925E-003   2.4413948657853735E-002
   1.2653915680051392E-002  -3.7116153744732039E-003   2.5683212884220430E-002
   9.6152982551152566E-003  -3.7429638000929313E-003   2.7419148406713972E-002
   6.5766808301791491E-003  -4.1601700030337030E-003   2.9621755225334501E-002
   1.5772278684423574E-002  -4.2846499198374577E-003   3.0492796321309190E-002
   1.3183214536570453E-002  -3.7656482825768056E-003   3.1275766670748384E-002
   1.0594150388717347E-002  -3.6877757636374076E-003   3.2491172278225844E-002
   8.0050862408642537E-003  -4.0510323630197562E-003   3.4139013143742708E-002
   5.4160220930111191E-003  -4.8554180807236502E-003   3.6219289267298338E-002
   1.3224395724988139E-002  -3.7628079844802542E-003   3.7180507093744070E-002
   1.1050648816129910E-002  -3.4651718389798747E-003   3.7888583521381664E-002
   8.8769019072716046E-003  -3.6639361528021525E-003   3.8994859168969928E-002
   6.7031549984133271E-003  -4.3591009259464665E-003   4.0499334036508967E-002
   4.5294080895550703E-003  -5.5506661584137640E-003   4.2402008123998719E-002
   1.1087501651617808E-002  -3.2409660491233838E-003   4.3674488044919323E-002
   9.2948359436660424E-003  -3.1646953953830548E-003   4.4252399209754857E-002
   7.5021702357142804E-003  -3.6400965419664047E-003   4.5194273556452169E-002
   5.7095045277624941E-003  -4.6671694888732341E-003   4.6500111085012508E-002
   3.9168388198107598E-003  -6.2459142361039055E-003   4.8169911795434985E-002
   9.3615964643120608E-003  -2.7191241137660693E-003   4.9974739174834970E-002
   7.9157759191786359E-003  -2.8642189517864014E-003   5.0367213735866612E-002
   6.4699553740452387E-003  -3.6162569311310178E-003   5.1089415440672858E-002
   5.0241348289117721E-003  -4.9752380517998698E-003   5.2141344289252739E-002
   3.5783142837783610E-003  -6.9411623137937140E-003   5.3523000281607502E-002
   6.5766808301791491E-003  -4.1601700030337030E-003   2.9621755225334501E-002
   6.0501288585223523E-003  -6.1509294850567997E-003   3.4080809811617097E-002
   5.5235768868655000E-003  -1.0902937747921532E-002   3.9232396770530975E-002
   4.9970249152086615E-003  -1.8416194791630321E-002   4.5076516102075276E-002
   4.4704729435518509E-003  -2.8690700616182063E-002   5.1613167806250360E-002
   5.4160220930111191E-003  -4.8554180807236502E-003   3.6219289267298338E-002
   5.4768643369536574E-003  -6.9956607320140196E-003   3.8351333665414766E-002
   5.5377065808961123E-003  -1.1366488132155211E-002   4.0965634122097805E-002
   5.5985488248385465E-003  -1.7967900281147052E-002   4.4062190637349258E-002
   5.6593910687810500E-003  -2.6799897178990228E-002   4.7641003211168487E-002
   4.5294080895550703E-003  -5.5506661584137640E-003   4.2402008123998719E-002
   4.9673682350336174E-003  -7.8403919789717946E-003   4.2737706365939848E-002
   5.4053283805122199E-003  -1.1830038516388211E-002   4.3345384352385705E-002
   5.8432885259906316E-003  -1.7519605770663780E-002   4.4225042083335879E-002
   6.2812486714693694E-003  -2.4909093741798172E-002   4.5376679558791211E-002
   3.9168388198107598E-003  -6.2459142361039055E-003   4.8169911795434985E-002
   4.5216405527622981E-003  -8.6851232259292921E-003   4.7239927913193792E-002
   5.1264422857138659E-003  -1.2293588900621773E-002   4.6371647461394369E-002
   5.7312440186653895E-003  -1.7071311260180397E-002   4.5565070440036035E-002
   6.3360457516169130E-003  -2.3018290304606226E-002   4.4820196849119059E-002
   3.5783142837783610E-003  -6.9411623137937140E-003   5.3523000281607502E-002
   4.1396812901396962E-003  -9.5298544728867896E-003   5.1857998307176301E-002
   4.7010482965010314E-003  -1.2757139284854752E-002   5.0044423449122688E-002
   5.2624153028622694E-003  -1.6623016749697204E-002   4.8082275707447525E-002
   5.8237823092236463E-003  -2.1127486867414280E-002   4.5971555082151117E-002
   5.0502759289660082E-002  -1.4983742527890809E-002   4.8536007009046478E-002
   4.9177554208248070E-002  -1.4495076955608588E-002   4.8353652722053608E-002
   4.7852349126836086E-002  -1.4031561638302825E-002   4.8514290056144271E-002
   4.6527144045424101E-002  -1.3593196575973576E-002   4.9017919011318745E-002
   4.5201938964012117E-002  -1.3179981768620674E-002   4.9864539587577472E-002
   4.3797960454098589E-002  -1.3077013517798219E-002   5.2152536180045062E-002
   4.2779102010794712E-002  -1.2669420025173239E-002   5.2096376997561478E-002
   4.1760243567490807E-002  -1.2273389224922215E-002   5.2309919470210187E-002
   4.0741385124186902E-002  -1.1888921117045245E-002   5.2793163597991077E-002
   3.9722526680883025E-002  -1.1516015701542148E-002   5.3546109380904428E-002
   3.7274358179697639E-002  -1.1170284507705575E-002   5.5681199490085154E-002
   3.6488556408550220E-002  -1.0843763094737807E-002   5.5764822974713579E-002
   3.5702754637402856E-002  -1.0515216811541578E-002   5.6044858148522572E-002
   3.4916952866255492E-002  -1.0184645658116942E-002   5.6521305011512354E-002
   3.4131151095108107E-002  -9.8520496344637887E-003   5.7194163563682829E-002
   3.0931952466457073E-002  -9.2635554976129852E-003   5.9121996939166782E-002
   3.0305917401514629E-002  -9.0181061643023752E-003   5.9358990653509580E-002
   2.9679882336572195E-002  -8.7570443981609819E-003   5.9719106091081386E-002
   2.9053847271629775E-002  -8.4803701991885971E-003   6.0202343251882395E-002
   2.8427812206687338E-002  -8.1880835673854013E-003   6.0808702135912607E-002
   2.4770743314377036E-002  -7.3568264875203404E-003   6.2474928527290197E-002
   2.4231184989687959E-002  -7.1924492338669987E-003   6.2878880033949813E-002
   2.3691626664998883E-002  -6.9988719847803027E-003   6.3332663297886727E-002
   2.3152068340309792E-002  -6.7760947402603564E-003   6.3836278319101242E-002
   2.2612510015620715E-002  -6.5241175003069585E-003   6.4389725097593442E-002
   4.5201938964012117E-002  -1.3179981768620674E-002   4.9864539587577472E-002
   4.3878161260229837E-002  -1.2735556042667767E-002   4.9767092251498390E-002
   4.2554383556447570E-002  -1.2203558224539016E-002   4.9850931877335108E-002
   4.1230605852665296E-002  -1.1583988314234021E-002   5.0116058465087959E-002
   3.9906828148883022E-002  -1.0876846311753063E-002   5.0562472014756554E-002
   3.9722526680883025E-002  -1.1516015701542148E-002   5.3546109380904428E-002
   3.8580188266208598E-002  -1.1114229158142197E-002   5.3415299589543469E-002
   3.7437849851534144E-002  -1.0643117666574345E-002   5.3466081414482183E-002
   3.6295511436859676E-002  -1.0102681226838304E-002   5.3698454855720702E-002
   3.5153173022185263E-002  -9.4929198389344660E-003   5.4112419913258880E-002
   3.4131151095108107E-002  -9.8520496344637887E-003   5.7194163563682829E-002
   3.3170556623925297E-002  -9.4929022736165020E-003   5.7011744173031634E-002
   3.2209962152742508E-002  -9.0826771086094452E-003   5.7011221053064214E-002
   3.1249367681559684E-002  -8.6213741394426408E-003   5.7192594203780145E-002
   3.0288773210376874E-002  -8.1089933661159519E-003   5.7555863625179712E-002
   2.8427812206687338E-002  -8.1880835673854013E-003   6.0808702135912607E-002
   2.7649266333379968E-002  -7.8715753890909249E-003   6.0556426001963190E-002
   2.6870720460072606E-002  -7.5222365506446322E-003   6.0486350793081289E-002
   2.6092174586765216E-002  -7.1400670520468954E-003   6.0598476509266683E-002
   2.5313628713457874E-002  -6.7250668932973406E-003   6.0892803150519342E-002
   2.2612510015620715E-002  -6.5241175003069585E-003   6.4389725097593442E-002
   2.2016317394572618E-002  -6.2502485045652090E-003   6.4049345076337860E-002
   2.1420124773524500E-002  -5.9617959926799163E-003   6.3891470634533348E-002
   2.0823932152476392E-002  -5.6587599646512714E-003   6.3916101772179948E-002
   2.0227739531428271E-002  -5.3411404204788404E-003   6.4123238489277812E-002
   3.9906828148883022E-002  -1.0876846311753063E-002   5.0562472014756554E-002
   3.6710099362132542E-002  -1.0180374779177770E-002   4.8925041392251678E-002
   3.3513370575382034E-002  -9.5928162785900856E-003   4.7529633197862631E-002
   3.0316641788631540E-002  -9.1141708099899098E-003   4.6376247431589843E-002
   2.7119913001881046E-002  -8.7444383733774611E-003   4.5464884093432634E-002
   3.5153173022185263E-002  -9.4929198389344660E-003   5.4112419913258880E-002
   3.2227324584282416E-002  -8.8929554437426339E-003   5.2294186543585308E-002
   2.9301476146379582E-002  -8.3819099821421245E-003   5.0775691443491089E-002
   2.6375627708476769E-002  -7.9597834541330799E-003   4.9556934612976222E-002
   2.3449779270573901E-002  -7.6265758597160449E-003   4.8637916052040819E-002
   3.0288773210376874E-002  -8.1089933661159519E-003   5.7555863625179712E-002
   2.7691520962785023E-002  -7.6055361083072204E-003   5.5576821606733648E-002
   2.5094268715193158E-002  -7.1710036856940038E-003   5.3955233699330411E-002
   2.2497016467601293E-002  -6.8053960982764183E-003   5.2691099902969746E-002
   1.9899764220009449E-002  -6.5087133460545177E-003   5.1784420217651589E-002
   2.5313628713457874E-002  -6.7250668932973406E-003   6.0892803150519342E-002
   2.3102688497640328E-002  -6.3181167728717236E-003   5.8772946581696975E-002
   2.0891748281822792E-002  -5.9600973892460739E-003   5.7068259965380327E-002
   1.8680808066005257E-002  -5.6510087424196170E-003   5.5778743301569580E-002
   1.6469867850187711E-002  -5.3908508323931015E-003   5.4904396590265019E-002
   2.0227739531428271E-002  -5.3411404204788404E-003   6.4123238489277812E-002
   1.8460827188848380E-002  -5.0306974374366709E-003   6.1882561468474817E-002
   1.6693914846268469E-002  -4.7491910927978942E-003   6.0114770241640914E-002
   1.4927002503688561E-002  -4.4966213865629753E-003   5.8819864808776490E-002
   1.3160090161108667E-002  -4.2729883187316853E-003   5.7997845169881268E-002
   2.7119913001881046E-002  -8.7444383733774611E-003   4.5464884093432634E-002
   2.6607902543173106E-002  -8.3858761515729352E-003   4.6314377836942366E-002
   2.6095892084465180E-002  -7.9407413273974436E-003   4.7296287623044941E-002
   2.5583881625757234E-002  -7.4090339008504938E-003   4.8410613451739470E-002
   2.5071871167049342E-002  -6.7907538719321758E-003   4.9657355323026620E-002
   2.3449779270573901E-002  -7.6265758597160449E-003   4.8637916052040819E-002
   2.3055109530621287E-002  -7.3008431738972035E-003   4.9672724011839059E-002
   2.2660439790668618E-002  -6.9011413716841830E-003   5.0809797366555165E-002
   2.2265770050715970E-002  -6.4274704530770110E-003   5.2049136116189429E-002
   2.1871100310763336E-002  -5.8798304180752714E-003   5.3390740260742142E-002
   1.9899764220009449E-002  -6.5087133460545177E-003   5.1784420217651589E-002
   1.9592284551137762E-002  -6.2158101962216383E-003   5.2991938907761105E-002
   1.9284804882266072E-002  -5.8615414159713525E-003   5.4271572345114552E-002
   1.8977325213394361E-002  -5.4459070053035248E-003   5.5623320529711688E-002
   1.8669845544522695E-002  -4.9689069642183115E-003   5.7047183461552492E-002
   1.6469867850187711E-002  -5.3908508323931015E-003   5.4904396590265019E-002
   1.6219427604722648E-002  -5.1307772185458234E-003   5.6272022524708948E-002
   1.5968987359257569E-002  -4.8219414602583069E-003   5.7681612558722672E-002
   1.5718547113792489E-002  -4.4643435575300403E-003   5.9133166692305526E-002
   1.5468106868327426E-002  -4.0579835103613793E-003   6.0626684925458051E-002
   1.3160090161108667E-002  -4.2729883187316853E-003   5.7997845169881268E-002
   1.2936538691375843E-002  -4.0457442408701749E-003   5.9512974862682977E-002
   1.2712987221643060E-002  -3.7823415045453446E-003   6.1039918007379679E-002
   1.2489435751910270E-002  -3.4827801097566599E-003   6.2578674603971651E-002
   1.2265884282177481E-002  -3.1470600565044471E-003   6.4129244652458617E-002
   2.5071871167049342E-002  -6.7907538719321758E-003   4.9657355323026620E-002
   2.3008292431809768E-002  -6.1358913445702101E-003   4.9170455184808781E-002
   2.0944713696570222E-002  -5.4944364226924558E-003   4.8852806372378488E-002
   1.8881134961330689E-002  -4.8663891062980871E-003   4.8704408885735739E-002
   1.6817556226091129E-002  -4.2517493953876384E-003   4.8725262724880314E-002
   2.1871100310763336E-002  -5.8798304180752714E-003   5.3390740260742142E-002
   1.9993033205258526E-002  -5.3028516459521780E-003   5.2905266892699199E-002
   1.8114966099753757E-002  -4.7411645159806670E-003   5.2621565458337904E-002
   1.6236898994248967E-002  -4.1947690281608357E-003   5.2539635957658745E-002
   1.4358831888744178E-002  -3.6636651824925037E-003   5.2659478390661485E-002
   1.8669845544522695E-002  -4.9689069642183115E-003   5.7047183461552492E-002
   1.7009810676647072E-002  -4.4698119473340070E-003   5.6561252827016517E-002
   1.5349775808771442E-002  -3.9878926092691974E-003   5.6309614734056809E-002
   1.3689740940895836E-002  -3.5231489500235809E-003   5.6292269182673584E-002
   1.2029706073020195E-002  -3.0755809695975356E-003   5.6509216172866583E-002
   1.5468106868327426E-002  -4.0579835103613793E-003   6.0626684925458051E-002
   1.4058624845975313E-002  -3.6367722487159054E-003   6.0138412987761389E-002
   1.2649142823623227E-002  -3.2346207025574572E-003   5.9916954199535341E-002
   1.1239660801271152E-002  -2.8515288718863278E-003   5.9962308560780088E-002
   9.8301787789190614E-003  -2.4874967567024842E-003   6.0274476071495692E-002
   1.2265884282177481E-002  -3.1470600565044471E-003   6.4129244652458617E-002
   1.1139475713243321E-002  -2.8037325500979149E-003   6.3636747374933467E-002
   1.0013067144309162E-002  -2.4813487958458835E-003   6.3443583854773333E-002
   8.8866585753750033E-003  -2.1799087937490608E-003   6.3549754091978300E-002
   7.7602500064408442E-003  -1.8994125438075438E-003   6.3955258086548561E-002
   1.6817556226091129E-002  -4.2517493953876384E-003   4.8725262724880314E-002
   1.4953566285646369E-002  -3.7000083841598475E-003   4.8661464517162134E-002
   1.3089576345201595E-002  -3.2606571668135631E-003   4.8848444522915146E-002
   1.1225586404756856E-002  -2.9336957433492017E-003   4.9286202742139268E-002
   9.3615964643120608E-003  -2.7191241137660693E-003   4.9974739174834970E-002
   1.4358831888744178E-002  -3.6636651824925037E-003   5.2659478390661485E-002
   1.2743662809718670E-002  -3.1962762409808998E-003   5.2611057372492442E-002
   1.1128493730693176E-002  -2.8410254656310585E-003   5.2809499863690434E-002
   9.5133246516676609E-003  -2.5979128564430423E-003   5.3254805864255683E-002
   7.8981555726421460E-003  -2.4669384134168304E-003   5.3946975374187744E-002
   1.2029706073020195E-002  -3.0755809695975356E-003   5.6509216172866583E-002
   1.0659443151309858E-002  -2.6925440978020632E-003   5.6476423971966255E-002
   9.2891802295995245E-003  -2.4213937644485539E-003   5.6686580576329249E-002
   7.9189173078891787E-003  -2.2621299695371050E-003   5.7139685985955313E-002
   6.5486543861788538E-003  -2.2147527130678135E-003   5.7835740200844671E-002
   9.8301787789190614E-003  -2.4874967567024842E-003   6.0274476071495692E-002
   8.7009073104197983E-003  -2.1888119546233376E-003   6.0257564315584093E-002
   7.5716358419205916E-003  -2.0017620632661048E-003   6.0479686660831575E-002
   6.4423643734213762E-003  -1.9263470826311677E-003   6.0940843107238192E-002
   5.3130929049221218E-003  -1.9625670127187411E-003   6.1641033654803980E-002
   7.7602500064408442E-003  -1.8994125438075438E-003   6.3955258086548561E-002
   6.8680552870486467E-003  -1.6850798114442789E-003   6.3954478403345671E-002
   5.9758605676564353E-003  -1.5821303620834892E-003   6.4188818117197677E-002
   5.0836658482642377E-003  -1.5905641957251054E-003   6.4658277228104494E-002
   4.1914711288720263E-003  -1.7103813123695577E-003   6.5362855736066483E-002
   9.3615964643120608E-003  -2.7191241137660693E-003   4.9974739174834970E-002
   7.9157759191786359E-003  -2.8642189517864014E-003   5.0367213735866612E-002
   6.4699553740452387E-003  -3.6162569311310178E-003   5.1089415440672858E-002
   5.0241348289117721E-003  -4.9752380517998698E-003   5.2141344289252739E-002
   3.5783142837783610E-003  -6.9411623137937140E-003   5.3523000281607502E-002
   7.8981555726421460E-003  -2.4669384134168304E-003   5.3946975374187744E-002
   6.7561839058551260E-003  -2.6487407970525734E-003   5.3867332060755724E-002
   5.6142122390681337E-003  -3.3439586678497002E-003   5.4065659360242074E-002
   4.4722405722810998E-003  -4.5525920258081692E-003   5.4541957272647087E-002
   3.3302689054940937E-003  -6.2746408709284385E-003   5.5296225797970555E-002
   6.5486543861788538E-003  -2.2147527130678135E-003   5.7835740200844671E-002
   5.6587750668826847E-003  -2.4332626423187731E-003   5.7377506667110861E-002
   4.7688957475865573E-003  -3.0716604045683688E-003   5.7145487215440480E-002
   3.8790164282904126E-003  -4.1299459998164652E-003   5.7139681845833172E-002
   2.9891371089942609E-003  -5.6081194280632185E-003   5.7360090558288751E-002
   5.3130929049221218E-003  -1.9625670127187411E-003   6.1641033654803980E-002
   4.6235494022613434E-003  -2.2177844875849589E-003   6.0897737554932080E-002
   3.9340058996005407E-003  -2.7993621412870998E-003   6.0328899006267825E-002
   3.2444623969397216E-003  -3.7072999738247629E-003   5.9934518008810965E-002
   2.5549188942789597E-003  -4.9415979851981928E-003   5.9714594562561889E-002
   4.1914711288720263E-003  -1.7103813123695577E-003   6.5362855736066483E-002
   3.6505069119910361E-003  -2.0023063328512003E-003   6.4428024724219379E-002
   3.1095426951100458E-003  -2.5270638780060251E-003   6.3615894732724110E-002
   2.5685784782290416E-003  -3.2846539478329703E-003   6.2926465761581091E-002
   2.0276142613480652E-003  -4.2750765423326120E-003   6.2359737810789739E-002
   3.5783142837783610E-003  -6.9411623137937140E-003   5.3523000281607502E-002
   4.1396812901396962E-003  -9.5298544728867896E-003   5.1857998307176301E-002
   4.7010482965010314E-003  -1.2757139284854752E-002   5.0044423449122688E-002
   5.2624153028622694E-003  -1.6623016749697204E-002   4.8082275707447525E-002
   5.8237823092236463E-003  -2.1127486867414280E-002   4.5971555082151117E-002
   3.3302689054940937E-003  -6.2746408709284385E-003   5.5296225797970555E-002
   3.7609152436955118E-003  -8.5418495479584466E-003   5.2948241206019264E-002
   4.1915615818968743E-003  -1.1385962401647021E-002   5.0487388161369939E-002
   4.6222079200983271E-003  -1.4806979431992939E-002   4.7913666664022386E-002
   5.0528542582996550E-003  -1.8804900638997202E-002   4.5227076713976411E-002
   2.9891371089942609E-003  -5.6081194280632185E-003   5.7360090558288751E-002
   3.3247672099594727E-003  -7.5538446230301037E-003   5.4390811825033913E-002
   3.6603973109246152E-003  -1.0014785518438860E-002   5.1344369070004350E-002
   3.9960274118898305E-003  -1.2990942114288622E-002   4.8220762293200915E-002
   4.3316575128549972E-003  -1.6482314410580345E-002   4.5019991494622880E-002
   2.5549188942789597E-003  -4.9415979851981928E-003   5.9714594562561889E-002
   2.8312371889316207E-003  -6.5658396981017608E-003   5.6185710164219915E-002
   3.1075554835842782E-003  -8.6436086352308025E-003   5.2615366175027170E-002
   3.3838737782369852E-003  -1.1174904796584220E-002   4.9003562594984652E-002
   3.6601920728895967E-003  -1.4159728182163378E-002   4.5350299424090273E-002
   2.0276142613480652E-003  -4.2750765423326120E-003   6.2359737810789739E-002
   2.2803251806119140E-003  -5.5778347731731959E-003   5.8332936223577492E-002
   2.5330360998757906E-003  -7.2724317520227177E-003   5.4300379476438343E-002
   2.7857470191396325E-003  -9.3588674788799217E-003   5.0262067569371599E-002
   3.0384579384035160E-003  -1.1837141953746411E-002   4.6218000502378231E-002
   2.4770743314377036E-002  -7.3568264875203404E-003   6.2474928527290197E-002
   2.4231184989687959E-002  -7.1924492338669987E-003   6.2878880033949813E-002
   2.3691626664998883E-002  -6.9988719847803027E-003   6.3332663297886727E-002
   2.3152068340309792E-002  -6.7760947402603564E-003   6.3836278319101242E-002
   2.2612510015620715E-002  -6.5241175003069585E-003   6.4389725097593442E-002
   1.8669613547873734E-002  -5.5176207637605557E-003   6.3046126363443311E-002
   1.8201151474670371E-002  -5.3943373758274515E-003   6.3435854501247918E-002
   1.7732689401466981E-002  -5.2491541294399091E-003   6.3917943384746212E-002
   1.7264227328263597E-002  -5.0820710245979631E-003   6.4492393013938443E-002
   1.6795765255060213E-002  -4.8930880613015093E-003   6.5159203388824444E-002
   1.2507445991363463E-002  -3.6784150400008264E-003   6.3579880402365896E-002
   1.2152609158062044E-002  -3.5962255177879460E-003   6.3948085034336494E-002
   1.1797772324760640E-002  -3.4994362740995294E-003   6.4451179400417211E-002
   1.1442935491459229E-002  -3.3880473089355732E-003   6.5089163500608088E-002
   1.1088098658157814E-002  -3.2620586222961434E-003   6.5862037334909015E-002
   6.2842406448461764E-003  -1.8392093162410694E-003   6.4076190644057562E-002
   6.0855580398630135E-003  -1.7981136597483641E-003   6.4415571633215402E-002
   5.8868754348798454E-003  -1.7497184187591983E-003   6.4932371344899584E-002
   5.6881928298966765E-003  -1.6940235932731817E-003   6.5626589779110123E-002
   5.4895102249135084E-003  -1.6310291832907081E-003   6.6498226935847130E-002
  -2.4916780791417459E-009  -3.5924813124310617E-009   6.4535057088518366E-002
  -1.8799267351155002E-009  -1.8017088931898684E-009   6.4838314297884558E-002
  -1.2681753945587015E-009  -5.6341872833876039E-010   6.5361519218193331E-002
  -6.5642405226717937E-010   1.2238918906115615E-010   6.6104671849444768E-002
  -4.4672709975657199E-011   2.5571467165974582E-010   6.7067772191638897E-002
   2.2612510015620715E-002  -6.5241175003069585E-003   6.4389725097593442E-002
   2.2016317394572618E-002  -6.2502485045652090E-003   6.4049345076337860E-002
   2.1420124773524500E-002  -5.9617959926799163E-003   6.3891470634533348E-002
   2.0823932152476392E-002  -5.6587599646512714E-003   6.3916101772179948E-002
   2.0227739531428271E-002  -5.3411404204788404E-003   6.4123238489277812E-002
   1.6795765255060213E-002  -4.8930880613015093E-003   6.5159203388824444E-002
   1.6373713857351847E-002  -4.6876863449302614E-003   6.4932297757034921E-002
   1.5951662459643481E-002  -4.4713469808634054E-003   6.4871168992473735E-002
   1.5529611061935112E-002  -4.2440699691011288E-003   6.4975817095140831E-002
   1.5107559664226743E-002  -4.0058553096434801E-003   6.5246242065036208E-002
   1.1088098658157814E-002  -3.2620586222961434E-003   6.5862037334909015E-002
   1.0823459771566322E-002  -3.1251241852952444E-003   6.5744960224137561E-002
   1.0558820884974845E-002  -2.9808979690469015E-003   6.5776931268371558E-002
   1.0294181998383355E-002  -2.8293799735512101E-003   6.5957950467610993E-002
   1.0029543111791873E-002  -2.6705701988082309E-003   6.6288017821855921E-002
   5.4895102249135084E-003  -1.6310291832907081E-003   6.6498226935847130E-002
   5.3655551372160529E-003  -1.5625620256601788E-003   6.6487332477645766E-002
   5.2416000495185966E-003  -1.4904489572303663E-003   6.6608757462226942E-002
   5.1176449618211429E-003  -1.4146899780012904E-003   6.6862501889590670E-002
   4.9936898741236883E-003  -1.3352850879729539E-003   6.7248565759737172E-002
  -4.4672709975657199E-011   2.5571467165974582E-010   6.7067772191638897E-002
  -4.5698989731279838E-011   1.3397474796228437E-010   6.7159414517559468E-002
  -4.6725269486902477E-011   5.4586071773776723E-011   6.7366647574039651E-002
  -4.7751549242525115E-011   1.7548729830396681E-011   6.7689471361079626E-002
  -4.8777828998147754E-011   2.2862323145744767E-011   6.8127885878679406E-002
   2.0227739531428271E-002  -5.3411404204788404E-003   6.4123238489277812E-002
   1.8460827188848380E-002  -5.0306974374366709E-003   6.1882561468474817E-002
   1.6693914846268469E-002  -4.7491910927978942E-003   6.0114770241640914E-002
   1.4927002503688561E-002  -4.4966213865629753E-003   5.8819864808776490E-002
   1.3160090161108667E-002  -4.2729883187316853E-003   5.7997845169881268E-002
   1.5107559664226743E-002  -4.0058553096434801E-003   6.5246242065036208E-002
   1.3805743688165110E-002  -3.7730230670852405E-003   6.3014619371599939E-002
   1.2503927712103468E-002  -3.5618933060213298E-003   6.1240303617230790E-002
   1.1202111736041831E-002  -3.3724660264514775E-003   5.9923294801928942E-002
   9.9002957599801933E-003  -3.2047412283759402E-003   5.9063592925694242E-002
   1.0029543111791873E-002  -2.6705701988082309E-003   6.6288017821855921E-002
   9.1772446473464726E-003  -2.5153486967339767E-003   6.4072683612695663E-002
   8.3249461829010742E-003  -2.3745955192445573E-003   6.2299077487700597E-002
   7.4726477184556732E-003  -2.2483106663401496E-003   6.0967199446870797E-002
   6.6203492540102757E-003  -2.1364941380204727E-003   6.0077049490206064E-002
   4.9936898741236883E-003  -1.3352850879729539E-003   6.7248565759737172E-002
   4.5753300663924868E-003  -1.2576743263827683E-003   6.5056754191762212E-002
   4.1569702586612741E-003  -1.1872977324679443E-003   6.3291091853050471E-002
   3.7386104509300631E-003  -1.1241553062287368E-003   6.1951578743601965E-002
   3.3202506431988608E-003  -1.0682470476650330E-003   6.1038214863416547E-002
  -4.8777828998147754E-011   2.2862323145744767E-011   6.8127885878679406E-002
  -5.4696878970528218E-011   4.3968689800166771E-011   6.5966831108799417E-002
  -6.0615932412355633E-011   5.4308793573376590E-011   6.4216346713280470E-002
  -6.6534982384736097E-011   5.3882735079335831E-011   6.2876432692122772E-002
  -7.2454035826563512E-011   4.2690628809793907E-011   6.1947089045326087E-002
   1.3160090161108667E-002  -4.2729883187316853E-003   5.7997845169881268E-002
   1.2936538691375843E-002  -4.0457442408701749E-003   5.9512974862682977E-002
   1.2712987221643060E-002  -3.7823415045453446E-003   6.1039918007379679E-002
   1.2489435751910270E-002  -3.4827801097566599E-003   6.2578674603971651E-002
   1.2265884282177481E-002  -3.1470600565044471E-003   6.4129244652458617E-002
   9.9002957599801933E-003  -3.2047412283759402E-003   5.9063592925694242E-002
   9.6995763460071271E-003  -3.0343081736552979E-003   6.0601227944143243E-002
   9.4988569320340471E-003  -2.8367561241497696E-003   6.2172713622216796E-002
   9.2981375180609845E-003  -2.6120850798590986E-003   6.3778049959914415E-002
   9.0974181040879010E-003  -2.3602950407836665E-003   6.5417236957236502E-002
   6.6203492540102757E-003  -2.1364941380204727E-003   6.0077049490206064E-002
   6.4644991035261341E-003  -2.0228721064402821E-003   6.1628150170623730E-002
   6.3086489530419891E-003  -1.8911707437540420E-003   6.3235138718394895E-002
   6.1527988025578458E-003  -1.7413900499615963E-003   6.4898015133519615E-002
   5.9969486520737025E-003  -1.5735300250632189E-003   6.6616779415997779E-002
   3.3202506431988608E-003  -1.0682470476650330E-003   6.1038214863416547E-002
   3.2313069639328604E-003  -1.0114360392253358E-003   6.2593741542124159E-002
   3.1423632846668660E-003  -9.4558536335844628E-004   6.4227193295914448E-002
   3.0534196054008696E-003  -8.7069502006411996E-004   6.5938570124787557E-002
   2.9644759261348783E-003  -7.8676500934271587E-004   6.7727872028743169E-002
  -7.2454035826563512E-011   4.2690628809793907E-011   6.1947089045326087E-002
  -7.2772673304077884E-011   2.7989499606917434E-011   6.3498002058644643E-002
  -7.3091307312145304E-011   1.7037288246868343E-011   6.5148877354775037E-002
  -7.3409944789659676E-011   9.8335020681794560E-012   6.6899714933717602E-002
  -7.3728578797727096E-011   6.3778982095641368E-012   6.8750514795472117E-002
   1.2265884282177481E-002  -3.1470600565044471E-003   6.4129244652458617E-002
   1.1139475713243321E-002  -2.8037325500979149E-003   6.3636747374933467E-002
   1.0013067144309162E-002  -2.4813487958458835E-003   6.3443583854773333E-002
   8.8866585753750033E-003  -2.1799087937490608E-003   6.3549754091978300E-002
   7.7602500064408442E-003  -1.8994125438075438E-003   6.3955258086548561E-002
   9.0974181040879010E-003  -2.3602950407836665E-003   6.5417236957236502E-002
   8.2659103902584519E-003  -2.1027994112802206E-003   6.4969977720484184E-002
   7.4344026764290028E-003  -1.8610115957063550E-003   6.4813186436576437E-002
   6.6028949625995537E-003  -1.6349315940604355E-003   6.4946863105512787E-002
   5.7713872487701046E-003  -1.4245594063437839E-003   6.5371007727293484E-002
   5.9969486520737025E-003  -1.5735300250632189E-003   6.6616779415997779E-002
   5.4514759888281347E-003  -1.4018662724631370E-003   6.6219994158244852E-002
   4.9060033255825530E-003  -1.2406743955659383E-003   6.6104811048815243E-002
   4.3605306623369713E-003  -1.0899543943716436E-003   6.6271230087708993E-002
   3.8150579990914035E-003  -9.4970626888019050E-004   6.6719251274926422E-002
   2.9644759261348783E-003  -7.8676500934271587E-004   6.7727872028743169E-002
   2.6961725089523362E-003  -7.0093313364569254E-004   6.7386796688215123E-002
   2.4278690917698062E-003  -6.2033719542574361E-004   6.7318457691489808E-002
   2.1595656745872780E-003  -5.4497719468265746E-004   6.7522855038566934E-002
   1.8912622574047341E-003  -4.7485313141656937E-004   6.7999988729446764E-002
  -7.3728578797727096E-011   6.3778982095641368E-012   6.8750514795472117E-002
  -4.9368897858670380E-011   5.1715853821576729E-012   6.8470385310395232E-002
  -2.5009223858507568E-011   4.7140624737096459E-012   6.8454126364600076E-002
  -6.4953945000389979E-013   5.0058429623689449E-012   6.8701737958086734E-002
   2.3710131080711960E-011   6.0470517482258401E-012   6.9213220090855287E-002
   7.7602500064408442E-003  -1.8994125438075438E-003   6.3955258086548561E-002
   6.8680552870486467E-003  -1.6850798114442789E-003   6.3954478403345671E-002
   5.9758605676564353E-003  -1.5821303620834892E-003   6.4188818117197677E-002
   5.0836658482642377E-003  -1.5905641957251054E-003   6.4658277228104494E-002
   4.1914711288720263E-003  -1.7103813123695577E-003   6.5362855736066483E-002
   5.7713872487701046E-003  -1.4245594063437839E-003   6.5371007727293484E-002
   5.1112942467606559E-003  -1.2638098568880651E-003   6.5302283499612479E-002
   4.4512012447512281E-003  -1.1865977700253327E-003   6.5462643309642077E-002
   3.7911082427417933E-003  -1.1929231457560446E-003   6.5852087157382500E-002
   3.1310152407323516E-003  -1.2827859840790490E-003   6.6470615042833192E-002
   3.8150579990914035E-003  -9.4970626888019050E-004   6.6719251274926422E-002
   3.3810313551202766E-003  -8.4253990233174036E-004   6.6610428323176929E-002
   2.9470047111491600E-003  -7.9106517796731501E-004   6.6724654049793636E-002
   2.5129780671780365E-003  -7.9528209578621362E-004   6.7061928454776307E-002
   2.0789514232069164E-003  -8.5519065578887332E-004   6.7622251538125094E-002
   1.8912622574047341E-003  -4.7485313141656937E-004   6.7999988729446764E-002
   1.6772666121274800E-003  -4.2126994777574867E-004   6.7878912874038355E-002
   1.4632709668502266E-003  -3.9553258590922791E-004   6.7974850337651688E-002
   1.2492753215729664E-003  -3.9764104581665669E-004   6.8287801120286387E-002
   1.0352796762957191E-003  -4.2759532749864215E-004   6.8817765221942773E-002
   2.3710131080711960E-011   6.0470517482258401E-012   6.9213220090855287E-002
   1.7782289529755246E-011   6.7807426340493748E-012   6.9107737152197202E-002
   1.1854434101010725E-011   6.1487759328571201E-012   6.9213232173216177E-002
   5.9265821417131548E-012   4.1527684069286863E-012   6.9529705153912408E-002
  -1.2628786905111156E-015   7.9181106116266164E-013   7.0057156094285977E-002
   4.1914711288720263E-003  -1.7103813123695577E-003   6.5362855736066483E-002
   3.6505069119910361E-003  -2.0023063328512003E-003   6.4428024724219379E-002
   3.1095426951100458E-003  -2.5270638780060251E-003   6.3615894732724110E-002
   2.5685784782290416E-003  -3.2846539478329703E-003   6.2926465761581091E-002
   2.0276142613480652E-003  -4.2750765423326120E-003   6.2359737810789739E-002
   3.1310152407323516E-003  -1.2827859840790490E-003   6.6470615042833192E-002
   2.7158870527585893E-003  -1.5017297503527316E-003   6.5343582651165633E-002
   2.3007588647848271E-003  -1.8952979099330913E-003   6.4345521296960279E-002
   1.8856306768110613E-003  -2.4634904628209470E-003   6.3476430980217310E-002
   1.4705024888373025E-003  -3.2063074090156185E-003   6.2736311700936964E-002
   2.0789514232069164E-003  -8.5519065578887332E-004   6.7622251538125094E-002
   1.7959292812507570E-003  -1.0011531678540131E-003   6.6361225898002807E-002
   1.5129071392945941E-003  -1.2635319418607266E-003   6.5235441312452749E-002
   1.2298849973384346E-003  -1.6423269778089271E-003   6.4244897781475796E-002
   9.4686285538227166E-004  -2.1375382756986805E-003   6.3389595305071739E-002
   1.0352796762957191E-003  -4.2759532749864215E-004   6.8817765221942773E-002
   8.9063359746753470E-004  -5.0057658535541949E-004   6.7480954464730888E-002
   7.4598751863937888E-004  -6.3176597378807736E-004   6.6285654779202188E-002
   6.0134143981120138E-004  -8.2116349279712751E-004   6.5231866165356783E-002
   4.5669536098303862E-004  -1.0687691423816037E-003   6.4319588623194507E-002
  -1.2628786905111156E-015   7.9181106116266164E-013   7.0057156094285977E-002
   1.4089354682944588E-012  -2.8567703758142216E-012   6.8702768351350363E-002
   2.8191407541733327E-012  -5.7157056865264622E-012   6.7496161697208401E-002
   4.2293391011583026E-012  -7.7847311930057117E-012   6.6437336131859703E-002
   5.6395443870371764E-012  -9.0645269068545531E-012   6.5526291655304991E-002
   2.0276142613480652E-003  -4.2750765423326120E-003   6.2359737810789739E-002
   2.2803251806119140E-003  -5.5778347731731959E-003   5.8332936223577492E-002
   2.5330360998757906E-003  -7.2724317520227177E-003   5.4300379476438343E-002
   2.7857470191396325E-003  -9.3588674788799217E-003   5.0262067569371599E-002
   3.0384579384035160E-003  -1.1837141953746411E-002   4.6218000502378231E-002
   1.4705024888373025E-003  -3.2063074090156185E-003   6.2736311700936964E-002
   1.7031026056788523E-003  -4.1833760824716570E-003   5.8385767705673108E-002
   1.9357027225204021E-003  -5.4543238171416986E-003   5.4000757265491972E-002
   2.1683028393619207E-003  -7.0191506130262912E-003   4.9581280380393361E-002
   2.4009029562034878E-003  -8.8778564701257334E-003   4.5127337050376415E-002
   9.4686285538227166E-004  -2.1375382756986805E-003   6.3389595305071739E-002
   1.1306408848107685E-003  -2.7889173917693411E-003   5.8813268588550821E-002
   1.3144189142392793E-003  -3.6362158822608043E-003   5.4173764142121675E-002
   1.4981969436677813E-003  -4.6794337471726642E-003   4.9471081965784043E-002
   1.6819749730963007E-003  -5.9185709865048342E-003   4.4705222059538086E-002
   4.5669536098303862E-004  -1.0687691423816037E-003   6.4319588623194507E-002
   5.6294001800776330E-004  -1.3944587010674137E-003   5.9615438872210526E-002
   6.6918467503248279E-004  -1.8181079473794035E-003   5.4819400106327507E-002
   7.7542933205718622E-004  -2.3397168813184804E-003   4.9931472325545789E-002
   8.8167398908192696E-004  -2.9592855028839349E-003   4.4951655529863577E-002
   5.6395443870371764E-012  -9.0645269068545531E-012   6.5526291655304991E-002
   5.2697637920040563E-012  -1.0365597269412774E-011   6.0792278556651924E-002
   4.8999658497361764E-012  -1.2499057344683706E-011   5.5937665158108940E-002
   4.5301696421917725E-012  -1.5465004277182004E-011   5.0962451459676594E-002
   4.1603942513290804E-012  -1.9263257655666166E-011   4.5866637461354109E-002
  -2.4916780791417459E-009  -3.5924813124310617E-009   6.4535057088518366E-002
  -1.8799267351155002E-009  -1.8017088931898684E-009   6.4838314297884558E-002
  -1.2681753945587015E-009  -5.6341872833876039E-010   6.5361519218193331E-002
  -6.5642405226717937E-010   1.2238918906115615E-010   6.6104671849444768E-002
  -4.4672709975657199E-011   2.5571467165974582E-010   6.7067772191638897E-002
  -6.2842456953906001E-003   1.8392051349906402E-003   6.4076194021668781E-002
  -6.0855618442755277E-003   1.7981115919099844E-003   6.4415574020027677E-002
  -5.8868779931604553E-003   1.7497178111937628E-003   6.4932372786171103E-002
  -5.6881941420453899E-003   1.6940237928417395E-003   6.5626590320099487E-002
  -5.4895102909303245E-003   1.6310295368540118E-003   6.6498226621812595E-002
  -1.2507451243472646E-002   3.6784138624625096E-003   6.3579885463543068E-002
  -1.2152613096151687E-002   3.5962249855289313E-003   6.3948088565740913E-002
  -1.1797774948830737E-002   3.4994361858061845E-003   6.4451181492565748E-002
  -1.1442936801509776E-002   3.3880474632942865E-003   6.5089164244017589E-002
  -1.1088098654188822E-002   3.2620588179931853E-003   6.5862036820096240E-002
  -1.8669619135924236E-002   5.5176225899344067E-003   6.3046131414141060E-002
  -1.8201155635555234E-002   5.3943383791478852E-003   6.3435857935024584E-002
  -1.7732692135186221E-002   5.2491545604186132E-003   6.3917945337377186E-002
  -1.7264228634817212E-002   5.0820711337468353E-003   6.4492393621198907E-002
  -1.6795765134448207E-002   4.8930880991324976E-003   6.5159202786489803E-002
  -2.4770749372745343E-002   7.3568313174063316E-003   6.2474931873462758E-002
  -2.4231189462486126E-002   7.1924517727667836E-003   6.2878882127878566E-002
  -2.3691629552226902E-002   6.9988729350310974E-003   6.3332664320605525E-002
  -2.3152069641967692E-002   6.7760948041994395E-003   6.3836278451643774E-002
  -2.2612509731708474E-002   6.5241173802716435E-003   6.4389724520993397E-002
  -4.4672709975657199E-011   2.5571467165974582E-010   6.7067772191638897E-002
  -4.5698989731279838E-011   1.3397474796228437E-010   6.7159414517559468E-002
  -4.6725269486902477E-011   5.4586071773776723E-011   6.7366647574039651E-002
  -4.7751549242525115E-011   1.7548729830396681E-011   6.7689471361079626E-002
  -4.8777828998147754E-011   2.2862323145744767E-011   6.8127885878679406E-002
  -5.4895102909303245E-003   1.6310295368540118E-003   6.6498226621812595E-002
  -5.3655552117406746E-003   1.5625622317501225E-003   6.6487332271265756E-002
  -5.2416001325510352E-003   1.4904490660496983E-003   6.6608757350591033E-002
  -5.1176450533613974E-003   1.4146900397529402E-003   6.6862501859788426E-002
  -4.9936899741717458E-003   1.3352851528597998E-003   6.7248565798857823E-002
  -1.1088098654188822E-002   3.2620588179931853E-003   6.5862036820096240E-002
  -1.0823459795470900E-002   3.1251243295254555E-003   6.5744959890134361E-002
  -1.0558820936752988E-002   2.9808980775135399E-003   6.5776931089356949E-002
  -1.0294182078035067E-002   2.8293800619574264E-003   6.5957950417764005E-002
  -1.0029543219317153E-002   2.6705702828571376E-003   6.6288017875355390E-002
  -1.6795765134448207E-002   4.8930880991324976E-003   6.5159202786489803E-002
  -1.6373713796889660E-002   4.6876864273008370E-003   6.4932297374165171E-002
  -1.5951662459331134E-002   4.4713470889772740E-003   6.4871168790337386E-002
  -1.5529611121772598E-002   4.2440700841618580E-003   6.4975817035006364E-002
  -1.5107559784214044E-002   4.0058554128545448E-003   6.5246242108172231E-002
  -2.2612509731708474E-002   6.5241173802716435E-003   6.4389724520993397E-002
  -2.2016317215996960E-002   6.2502485250761353E-003   6.4049344723358242E-002
  -2.1420124700285453E-002   5.9617961004410358E-003   6.3891470453532329E-002
  -2.0823932184573932E-002   5.6587601063661577E-003   6.3916101711515572E-002
  -2.0227739668862432E-002   5.3411405428519521E-003   6.4123238497307888E-002
  -4.8777828998147754E-011   2.2862323145744767E-011   6.8127885878679406E-002
  -5.4696878970528218E-011   4.3968689800166771E-011   6.5966831108799417E-002
  -6.0615932412355633E-011   5.4308793573376590E-011   6.4216346713280470E-002
  -6.6534982384736097E-011   5.3882735079335831E-011   6.2876432692122772E-002
  -7.2454035826563512E-011   4.2690628809793907E-011   6.1947089045326087E-002
  -4.9936899741717458E-003   1.3352851528597998E-003   6.7248565798857823E-002
  -4.5753301771433181E-003   1.2576744133706852E-003   6.5056754210132101E-002
  -4.1569703801148834E-003   1.1872978292865738E-003   6.3291091852940226E-002
  -3.7386105830864505E-003   1.1241554006074135E-003   6.1951578727281999E-002
  -3.3202507860580210E-003   1.0682471273331662E-003   6.1038214833157745E-002
  -1.0029543219317153E-002   2.6705702828571376E-003   6.6288017875355390E-002
  -9.1772447621685377E-003   2.5153487827728055E-003   6.4072683633954949E-002
  -8.3249463050199222E-003   2.3745956042644581E-003   6.2299077481261088E-002
  -7.4726478478713059E-003   2.2483107473321457E-003   6.0967199417273577E-002
  -6.6203493907226914E-003   2.1364942119757591E-003   6.0077049441992908E-002
  -1.5107559784214044E-002   4.0058554128545448E-003   6.5246242108172231E-002
  -1.3805743809772559E-002   3.7730231521748078E-003   6.3014619380268130E-002
  -1.2503927835331049E-002   3.5618933792422348E-003   6.1240303598243243E-002
  -1.1202111860889550E-002   3.3724660940567955E-003   5.9923294762097817E-002
  -9.9002958864480503E-003   3.2047412966182687E-003   5.9063592871831362E-002
  -2.0227739668862432E-002   5.3411405428519521E-003   6.4123238497307888E-002
  -1.8460827319955346E-002   5.0306975215768934E-003   6.1882561449071449E-002
  -1.6693914971048260E-002   4.7491911542200255E-003   6.0114770203886864E-002
  -1.4927002622141188E-002   4.4966214407815043E-003   5.8819864761754118E-002
  -1.3160090273234094E-002   4.2729883812609448E-003   5.7997845122673530E-002
  -7.2454035826563512E-011   4.2690628809793907E-011   6.1947089045326087E-002
  -7.2772673304077884E-011   2.7989499606917434E-011   6.3498002058644643E-002
  -7.3091307312145304E-011   1.7037288246868343E-011   6.5148877354775037E-002
  -7.3409944789659676E-011   9.8335020681794560E-012   6.6899714933717602E-002
  -7.3728578797727096E-011   6.3778982095641368E-012   6.8750514795472117E-002
  -3.3202507860580210E-003   1.0682471273331662E-003   6.1038214833157745E-002
  -3.2313071079703333E-003   1.0114361000017058E-003   6.2593741521124624E-002
  -3.1423634298826508E-003   9.4558540915090639E-004   6.4227193283092010E-002
  -3.0534197517949665E-003   8.7069505478096221E-004   6.5938570119060208E-002
  -2.9644760737072805E-003   7.8676503689151245E-004   6.7727872029029079E-002
  -6.6203493907226914E-003   2.1364942119757591E-003   6.0077049441992908E-002
  -6.4644992430399834E-003   2.0228721720138565E-003   6.1628150137340021E-002
  -6.3086490953572754E-003   1.8911708012647882E-003   6.3235138697876669E-002
  -6.1527989476745613E-003   1.7413900997285299E-003   6.4898015123602715E-002
  -5.9969487999918455E-003   1.5735300674050712E-003   6.6616779414518046E-002
  -9.9002958864480503E-003   3.2047412966182687E-003   5.9063592871831362E-002
  -9.6995764779816036E-003   3.0343082440259794E-003   6.0601227907291139E-002
  -9.4988570695151674E-003   2.8367561933784272E-003   6.2172713599129126E-002
  -9.2981376610487207E-003   2.6120851446760993E-003   6.3778049947345122E-002
  -9.0974182525822827E-003   2.3602950979184911E-003   6.5417236951939087E-002
  -1.3160090273234094E-002   4.2729883812609448E-003   5.7997845122673530E-002
  -1.2936538812795217E-002   4.0457443160381579E-003   5.9512974830978005E-002
  -1.2712987352356334E-002   3.7823415854922743E-003   6.1039917986849240E-002
  -1.2489435891917460E-002   3.4827801896235543E-003   6.2578674590287195E-002
  -1.2265884431478580E-002   3.1470601284321331E-003   6.4129244641292105E-002
  -7.3728578797727096E-011   6.3778982095641368E-012   6.8750514795472117E-002
  -4.9368897858670380E-011   5.1715853821576729E-012   6.8470385310395232E-002
  -2.5009223858507568E-011   4.7140624737096459E-012   6.8454126364600076E-002
  -6.4953945000389979E-013   5.0058429623689449E-012   6.8701737958086734E-002
   2.3710131080711960E-011   6.0470517482258401E-012   6.9213220090855287E-002
  -2.9644760737072805E-003   7.8676503689151245E-004   6.7727872029029079E-002
  -2.6961726076528726E-003   7.0093315642227871E-004   6.7386796689613560E-002
  -2.4278691415984648E-003   6.2033721431241362E-004   6.7318457694305833E-002
  -2.1595656755440500E-003   5.4497721056195533E-004   6.7522855043105665E-002
  -1.8912622094896490E-003   4.7485314517126120E-004   6.7999988736013151E-002
  -5.9969487999918455E-003   1.5735300674050712E-003   6.6616779414518046E-002
  -5.4514760874168457E-003   1.4018663076728888E-003   6.6219994158374221E-002
  -4.9060033748418302E-003   1.2406744239105427E-003   6.6104811051164142E-002
  -4.3605306622668287E-003   1.0899544161180677E-003   6.6271230092887393E-002
  -3.8150579496918149E-003   9.4970628429541515E-004   6.6719251283544279E-002
  -9.0974182525822827E-003   2.3602950979184911E-003   6.5417236951939087E-002
  -8.2659104886608110E-003   2.1027994589235405E-003   6.4969977716677382E-002
  -7.4344027247393342E-003   1.8610116335087828E-003   6.4813186435175141E-002
  -6.6028949608178556E-003   1.6349316216741246E-003   6.4946863107432223E-002
  -5.7713871968963857E-003   1.4245594234196524E-003   6.5371007733448727E-002
  -1.2265884431478580E-002   3.1470601284321331E-003   6.4129244641292105E-002
  -1.1139475811384761E-002   2.8037326101741922E-003   6.3636747364522850E-002
  -1.0013067191290966E-002   2.4813488431069397E-003   6.3443583846338691E-002
  -8.8866585711971525E-003   2.1799088272302161E-003   6.3549754086739962E-002
  -7.7602499511033457E-003   1.8994125625436675E-003   6.3955258085726441E-002
   2.3710131080711960E-011   6.0470517482258401E-012   6.9213220090855287E-002
   1.7782289529755246E-011   6.7807426340493748E-012   6.9107737152197202E-002
   1.1854434101010725E-011   6.1487759328571201E-012   6.9213232173216177E-002
   5.9265821417131548E-012   4.1527684069286863E-012   6.9529705153912408E-002
  -1.2628786905111156E-015   7.9181106116266164E-013   7.0057156094285977E-002
  -1.8912622094896490E-003   4.7485314517126120E-004   6.7999988736013151E-002
  -1.6772665761831257E-003   4.2126995935631850E-004   6.7878912879623499E-002
  -1.4632709428766093E-003   3.9553259433339205E-004   6.7974850342025356E-002
  -1.2492753095700885E-003   3.9764105010255124E-004   6.8287801123218736E-002
  -1.0352796762635695E-003   4.2759532666369893E-004   6.8817765223203653E-002
  -3.8150579496918149E-003   9.4970628429541515E-004   6.6719251283544279E-002
  -3.3810313180365602E-003   8.4253991193214417E-004   6.6610428331579763E-002
  -2.9470046863813012E-003   7.9106518251766123E-004   6.6724654057521468E-002
  -2.5129780547260379E-003   7.9528209605199754E-004   6.7061928461368964E-002
  -2.0789514230707875E-003   8.5519065253547577E-004   6.7622251543122291E-002
  -5.7713871968963857E-003   1.4245594234196524E-003   6.5371007733448727E-002
  -5.1112942077780193E-003   1.2638098645079560E-003   6.5302283508066397E-002
  -4.4512012186596252E-003   1.1865977707021039E-003   6.5462643319704417E-002
  -3.7911082295412554E-003   1.1929231420020562E-003   6.5852087168362508E-002
  -3.1310152404228644E-003   1.2827859784073081E-003   6.6470615054041129E-002
  -7.7602499511033457E-003   1.8994125625436675E-003   6.3955258085726441E-002
  -6.8680552454074770E-003   1.6850798170838233E-003   6.3954478409083082E-002
  -5.9758605397116117E-003   1.5821303588866020E-003   6.4188818128574354E-002
  -5.0836658340157482E-003   1.5905641879511850E-003   6.4658277244200285E-002
  -4.1914711283198777E-003   1.7103813042792515E-003   6.5362855755960902E-002
  -1.2628786905111156E-015   7.9181106116266164E-013   7.0057156094285977E-002
   1.4089354682944588E-012  -2.8567703758142216E-012   6.8702768351350363E-002
   2.8191407541733327E-012  -5.7157056865264622E-012   6.7496161697208401E-002
   4.2293391011583026E-012  -7.7847311930057117E-012   6.6437336131859703E-002
   5.6395443870371764E-012  -9.0645269068545531E-012   6.5526291655304991E-002
  -1.0352796762635695E-003   4.2759532666369893E-004   6.8817765223203653E-002
  -8.9063359465496941E-004   5.0057657929714061E-004   6.7480954467199317E-002
  -7.4598751304636932E-004   6.3176596328373691E-004   6.6285654782798159E-002
  -6.0134143143777095E-004   8.2116347862276617E-004   6.5231866170000138E-002
  -4.5669534982916912E-004   1.0687691253152831E-003   6.4319588628805602E-002
  -2.0789514230707875E-003   8.5519065253547577E-004   6.7622251543122291E-002
  -1.7959292784541069E-003   1.0011531614513569E-003   6.6361225904612214E-002
  -1.5129071338374316E-003   1.2635319322830962E-003   6.5235441320515092E-002
  -1.2298849892207475E-003   1.6423269650310476E-003   6.4244897790830827E-002
  -9.4686284460407562E-004   2.1375382596949821E-003   6.3389595315559544E-002
  -3.1310152404228644E-003   1.2827859784073081E-003   6.6470615054041129E-002
  -2.7158870499884536E-003   1.5017297436053650E-003   6.5343582663588820E-002
  -2.3007588595540364E-003   1.8952979012824417E-003   6.4345521310358894E-002
  -1.8856306691196192E-003   2.4634904514390481E-003   6.3476430994351643E-002
  -1.4705024786852085E-003   3.2063073940747366E-003   6.2736311715566970E-002
  -4.1914711283198777E-003   1.7103813042792515E-003   6.5362855755960902E-002
  -3.6505069092580417E-003   2.0023063257595952E-003   6.4428024744129231E-002
  -3.1095426901962056E-003   2.5270638702818149E-003   6.3615894752329649E-002
  -2.5685784711343713E-003   3.2846539378470832E-003   6.2926465780562518E-002
  -2.0276142520725335E-003   4.2750765284544912E-003   6.2359737828827644E-002
   5.6395443870371764E-012  -9.0645269068545531E-012   6.5526291655304991E-002
   5.2697637920040563E-012  -1.0365597269412774E-011   6.0792278556651924E-002
   4.8999658497361764E-012  -1.2499057344683706E-011   5.5937665158108940E-002
   4.5301696421917725E-012  -1.5465004277182004E-011   5.0962451459676594E-002
   4.1603942513290804E-012  -1.9263257655666166E-011   4.5866637461354109E-002
  -4.5669534982916912E-004   1.0687691253152831E-003   6.4319588628805602E-002
  -5.6294000756859988E-004   1.3944586808725123E-003   5.9615438876139071E-002
  -6.6918466530804625E-004   1.8181079228064556E-003   5.4819400108622907E-002
  -7.7542932304746574E-004   2.3397168511180289E-003   4.9931472326256970E-002
  -8.8167398078690951E-004   2.9592854658067047E-003   4.4951655529042567E-002
  -9.4686284460407562E-004   2.1375382596949821E-003   6.3389595315559544E-002
  -1.1306408746727201E-003   2.7889173721102334E-003   5.8813268596088875E-002
  -1.3144189047413430E-003   3.6362158581121629E-003   5.4173764146809328E-002
  -1.4981969348099896E-003   4.6794337177009440E-003   4.9471081967720598E-002
  -1.6819749648786242E-003   5.9185709508766671E-003   4.4705222058823657E-002
  -1.4705024786852085E-003   3.2063073940747366E-003   6.2736311715566970E-002
  -1.7031025960425798E-003   4.1833760633481487E-003   5.8385767716501627E-002
  -1.9357027133999583E-003   5.4543237934179950E-003   5.4000757272668169E-002
  -2.1683028307573340E-003   7.0191505842842512E-003   4.9581280384066215E-002
  -2.4009029481147220E-003   8.8778564359466294E-003   4.5127337050695271E-002
  -2.0276142520725335E-003   4.2750765284544912E-003   6.2359737828827644E-002
  -2.2803251716781922E-003   5.5778347545859530E-003   5.8332936237377564E-002
  -2.5330360912838544E-003   7.2724317287233831E-003   5.4300379486200034E-002
  -2.7857470108895409E-003   9.3588674508666703E-003   5.0262067575293945E-002
  -3.0384579304951753E-003   1.1837141921016592E-002   4.6218000504659518E-002
  -2.4770749372745343E-002   7.3568313174063316E-003   6.2474931873462758E-002
  -2.4231189462486126E-002   7.1924517727667836E-003   6.2878882127878566E-002
  -2.3691629552226902E-002   6.9988729350310974E-003   6.3332664320605525E-002
  -2.3152069641967692E-002   6.7760948041994395E-003   6.3836278451643774E-002
  -2.2612509731708474E-002   6.5241173802716435E-003   6.4389724520993397E-002
  -3.0931958823213784E-002   9.2635594667433985E-003   5.9121997349065036E-002
  -3.0305922065634778E-002   9.0181082924490619E-003   5.9358990845396920E-002
  -2.9679885308055744E-002   8.7570452429164003E-003   5.9719106098057001E-002
  -2.9053848550476723E-002   8.4803703181454138E-003   6.0202343107045586E-002
  -2.8427811792897703E-002   8.1880835181362965E-003   6.0808701872362508E-002
  -3.7274364356607470E-002   1.1170287616080493E-002   5.5681197486083522E-002
  -3.6488560933691634E-002   1.0843764812131312E-002   5.5764821642189294E-002
  -3.5702757510775715E-002   1.0515217550801648E-002   5.6044857372640464E-002
  -3.4916954087859824E-002   1.0184645832091471E-002   5.6521304677437004E-002
  -3.4131150664943960E-002   9.8520496560008108E-003   5.7194163556578914E-002
  -4.3797965972926317E-002   1.3077015765417560E-002   5.2152532284518244E-002
  -4.2779106066656553E-002   1.2669421331813646E-002   5.2096374518255786E-002
  -4.1760246160386788E-002   1.2273389858686923E-002   5.2309918144355774E-002
  -4.0741386254117003E-002   1.1888921346037487E-002   5.2793163162818152E-002
  -3.9722526347847210E-002   1.1516015793865422E-002   5.3546109573642926E-002
  -5.0502763672170409E-002   1.4983743914754655E-002   4.8536001744369450E-002
  -4.9177557464529703E-002   1.4495077851495841E-002   4.8353649473596438E-002
  -4.7852351256888942E-002   1.4031562166572212E-002   4.8514288413202961E-002
  -4.6527145049248209E-002   1.3593196859983465E-002   4.9017918563188864E-002
  -4.5201938841607489E-002   1.3179981931729923E-002   4.9864539923554274E-002
  -2.2612509731708474E-002   6.5241173802716435E-003   6.4389724520993397E-002
  -2.2016317215996960E-002   6.2502485250761353E-003   6.4049344723358242E-002
  -2.1420124700285453E-002   5.9617961004410358E-003   6.3891470453532329E-002
  -2.0823932184573932E-002   5.6587601063661577E-003   6.3916101711515572E-002
  -2.0227739668862432E-002   5.3411405428519521E-003   6.4123238497307888E-002
  -2.8427811792897703E-002   8.1880835181362965E-003   6.0808701872362508E-002
  -2.7649266060061788E-002   7.8715754323323422E-003   6.0556425820290180E-002
  -2.6870720327225876E-002   7.5222366501770874E-003   6.0486350674657616E-002
  -2.6092174594389943E-002   7.1400671716706481E-003   6.0598476435464725E-002
  -2.5313628861554041E-002   6.7250669968127452E-003   6.0892803102711474E-002
  -3.4131150664943960E-002   9.8520496560008108E-003   5.7194163556578914E-002
  -3.3170556336353095E-002   9.4929023395884798E-003   5.7011744123157827E-002
  -3.2209962007762244E-002   9.0826771999130834E-003   5.7011220974806862E-002
  -3.1249367679171393E-002   8.6213742369748055E-003   5.7192594111526086E-002
  -3.0288773350580528E-002   8.1089934507735384E-003   5.7555863533315557E-002
  -3.9722526347847210E-002   1.1516015793865422E-002   5.3546109573642926E-002
  -3.8580188044870914E-002   1.1114229246844652E-002   5.3415299631961205E-002
  -3.7437849741894624E-002   1.0643117749649218E-002   5.3466081353980260E-002
  -3.6295511438918321E-002   1.0102681302279074E-002   5.3698454739700037E-002
  -3.5153173135942031E-002   9.4929199047343871E-003   5.4112419789120458E-002
  -4.5201938841607489E-002   1.3179981931729923E-002   4.9864539923554274E-002
  -4.3878161185615244E-002   1.2735556154100824E-002   4.9767092346700292E-002
  -4.2554383529622965E-002   1.2203558299385117E-002   4.9850931812177729E-002
  -4.1230605873630685E-002   1.1583988367583366E-002   5.0116058319986181E-002
  -3.9906828217638440E-002   1.0876846358695125E-002   5.0562471870125969E-002
  -2.0227739668862432E-002   5.3411405428519521E-003   6.4123238497307888E-002
  -1.8460827319955346E-002   5.0306975215768934E-003   6.1882561449071449E-002
  -1.6693914971048260E-002   4.7491911542200255E-003   6.0114770203886864E-002
  -1.4927002622141188E-002   4.4966214407815043E-003   5.8819864761754118E-002
  -1.3160090273234094E-002   4.2729883812609448E-003   5.7997845122673530E-002
  -2.5313628861554041E-002   6.7250669968127452E-003   6.0892803102711474E-002
  -2.3102688633287918E-002   6.3181168480219707E-003   5.8772946535648657E-002
  -2.0891748405021799E-002   5.9600974477161534E-003   5.7068259924252171E-002
  -1.8680808176755652E-002   5.6510087958957407E-003   5.5778743268521620E-002
  -1.6469867948489557E-002   5.3908508925603615E-003   5.4904396568457414E-002
  -3.0288773350580528E-002   8.1089934507735384E-003   5.7555863533315557E-002
  -2.7691521090341238E-002   7.6055361744668398E-003   5.5576821541993671E-002
  -2.5094268830101876E-002   7.1710037412123298E-003   5.3955233658952030E-002
  -2.2497016569862558E-002   6.8053961510098088E-003   5.2691099884190781E-002
  -1.9899764309623223E-002   6.5087134038595285E-003   5.1784420217709917E-002
  -3.5153173135942031E-002   9.4929199047343871E-003   5.4112419789120458E-002
  -3.2227324691115250E-002   8.8929555009119518E-003   5.2294186468106255E-002
  -2.9301476246288507E-002   8.3819100347085097E-003   5.0775691407986691E-002
  -2.6375627801461729E-002   7.9597835061240713E-003   4.9556934608761531E-002
  -2.3449779356634982E-002   7.6265759151587648E-003   4.8637916070430928E-002
  -3.9906828217638440E-002   1.0876846358695125E-002   5.0562471870125969E-002
  -3.6710099435610072E-002   1.0180374827356842E-002   4.8925041313986506E-002
  -3.3513370653581676E-002   9.5928163282046341E-003   4.7529633171355806E-002
  -3.0316641871553314E-002   9.1141708612381689E-003   4.6376247442233759E-002
  -2.7119913089524911E-002   8.7444384264581121E-003   4.5464884126620531E-002
  -1.3160090273234094E-002   4.2729883812609448E-003   5.7997845122673530E-002
  -1.2936538812795217E-002   4.0457443160381579E-003   5.9512974830978005E-002
  -1.2712987352356334E-002   3.7823415854922743E-003   6.1039917986849240E-002
  -1.2489435891917460E-002   3.4827801896235543E-003   6.2578674590287195E-002
  -1.2265884431478580E-002   3.1470601284321331E-003   6.4129244641292105E-002
  -1.6469867948489557E-002   5.3908508925603615E-003   5.4904396568457414E-002
  -1.6219427715100564E-002   5.1307772882956959E-003   5.6272022508433828E-002
  -1.5968987481711525E-002   4.8219415336875210E-003   5.7681612546743782E-002
  -1.5718547248322508E-002   4.4643436287360692E-003   5.9133166683387209E-002
  -1.5468107014933490E-002   4.0579835734411152E-003   6.0626684918364038E-002
  -1.9899764309623223E-002   6.5087134038595285E-003   5.1784420217709917E-002
  -1.9592284652517351E-002   6.2158102605532617E-003   5.2991938904337829E-002
  -1.9284804995411506E-002   5.8615414818827746E-003   5.4271572340065792E-002
  -1.8977325338305647E-002   5.4459070678484194E-003   5.5623320524894090E-002
  -1.8669845681199788E-002   4.9689070184498196E-003   5.7047183458822509E-002
  -2.3449779356634982E-002   7.6265759151587648E-003   4.8637916070430928E-002
  -2.3055109625045603E-002   7.3008432328107026E-003   4.9672724018689524E-002
  -2.2660439893456220E-002   6.9011414300781358E-003   5.0809797366815096E-002
  -2.2265770161866823E-002   6.4274705069607410E-003   5.2049136114807618E-002
  -2.1871100430277457E-002   5.8798304634586629E-003   5.3390740262666957E-002
  -2.7119913089524911E-002   8.7444384264581121E-003   4.5464884126620531E-002
  -2.6607902632685324E-002   8.3858762050684210E-003   4.6314377851489452E-002
  -2.6095892175845722E-002   7.9407413782734138E-003   4.7296287626992006E-002
  -2.5583881719006128E-002   7.4090339460732638E-003   4.8410613453127999E-002
  -2.5071871262166534E-002   6.7907539084676172E-003   4.9657355329897790E-002
  -1.2265884431478580E-002   3.1470601284321331E-003   6.4129244641292105E-002
  -1.1139475811384761E-002   2.8037326101741922E-003   6.3636747364522850E-002
  -1.0013067191290966E-002   2.4813488431069397E-003   6.3443583846338691E-002
  -8.8866585711971525E-003   2.1799088272302161E-003   6.3549754086739962E-002
  -7.7602499511033457E-003   1.8994125625436675E-003   6.3955258085726441E-002
  -1.5468107014933490E-002   4.0579835734411152E-003   6.0626684918364038E-002
  -1.4058624941774778E-002   3.6367723005626407E-003   6.0138412986446788E-002
  -1.2649142868616041E-002   3.2346207428612939E-003   5.9916954202074046E-002
  -1.1239660795457327E-002   2.8515289003372968E-003   5.9962308565245870E-002
  -9.8301787222985874E-003   2.4874967729902053E-003   6.0274476075962202E-002
  -1.8669845681199788E-002   4.9689070184498196E-003   5.7047183458822509E-002
  -1.7009810766016872E-002   4.4698119909510892E-003   5.6561252835743786E-002
  -1.5349775850833944E-002   3.9878926426159672E-003   5.6309614749168943E-002
  -1.3689740935651043E-002   3.5231489734443740E-003   5.6292269199097821E-002
  -1.2029706020468099E-002   3.0755809834363546E-003   5.6509216185530814E-002
  -2.1871100430277457E-002   5.8798304634586629E-003   5.3390740262666957E-002
  -1.9993033284111079E-002   5.3028516813395377E-003   5.2905266912413373E-002
  -1.8114966137944635E-002   4.7411645423705365E-003   5.2621565487622937E-002
  -1.6236898991778229E-002   4.1947690465516749E-003   5.2539635988295717E-002
  -1.4358831845611812E-002   3.6636651938826981E-003   5.2659478414431429E-002
  -2.5071871262166534E-002   6.7907539084676172E-003   4.9657355329897790E-002
  -2.3008292496057320E-002   6.1358913717280417E-003   4.9170455216455966E-002
  -2.0944713729948147E-002   5.4944364421249114E-003   4.8852806417436445E-002
  -1.8881134963838940E-002   4.8663891196587331E-003   4.8704408932839616E-002
  -1.6817556197729761E-002   4.2517494043290416E-003   4.8725262762664867E-002
  -7.7602499511033457E-003   1.8994125625436675E-003   6.3955258085726441E-002
  -6.8680552454074770E-003   1.6850798170838233E-003   6.3954478409083082E-002
  -5.9758605397116117E-003   1.5821303588866020E-003   6.4188818128574354E-002
  -5.0836658340157482E-003   1.5905641879511850E-003   6.4658277244200285E-002
  -4.1914711283198777E-003   1.7103813042792515E-003   6.5362855755960902E-002
  -9.8301787222985874E-003   2.4874967729902053E-003   6.0274476075962202E-002
  -8.7009072678399524E-003   2.1888119602520018E-003   6.0257564325624569E-002
  -7.5716358133813017E-003   2.0017620615554454E-003   6.0479686676678163E-002
  -6.4423643589226380E-003   1.9263470768995650E-003   6.0940843129122221E-002
  -5.3130929044639848E-003   1.9625670062854983E-003   6.1641033682957258E-002
  -1.2029706020468099E-002   3.0755809834363546E-003   5.6509216185530814E-002
  -1.0659443111990420E-002   2.6925441034202635E-003   5.6476423988277596E-002
  -9.2891802035127286E-003   2.4213937642241501E-003   5.6686580597671621E-002
  -7.9189172950350391E-003   2.2621299658478269E-003   5.7139686013712623E-002
  -6.5486543865573617E-003   2.2147527082916896E-003   5.7835740236401006E-002
  -1.4358831845611812E-002   3.6636651938826981E-003   5.2659478414431429E-002
  -1.2743662777858881E-002   3.1962762465885947E-003   5.2611057397041625E-002
  -1.1128493710105936E-002   2.8410254668928131E-003   5.2809499891555277E-002
  -9.5133246423530042E-003   2.5979128547960369E-003   5.3254805897972018E-002
  -7.8981555746000590E-003   2.4669384102980196E-003   5.3946975416292571E-002
  -1.6817556197729761E-002   4.2517494043290416E-003   4.8725262762664867E-002
  -1.4953566265445306E-002   3.7000083897567038E-003   4.8661464551917111E-002
  -1.3089576333160893E-002   3.2606571695615871E-003   4.8848444558328763E-002
  -1.1225586400876453E-002   2.9336957437444966E-003   4.9286202781900129E-002
  -9.3615964685920261E-003   2.7191241123041276E-003   4.9974739222631182E-002
  -4.1914711283198777E-003   1.7103813042792515E-003   6.5362855755960902E-002
  -3.6505069092580417E-003   2.0023063257595952E-003   6.4428024744129231E-002
  -3.1095426901962056E-003   2.5270638702818149E-003   6.3615894752329649E-002
  -2.5685784711343713E-003   3.2846539378470832E-003   6.2926465780562518E-002
  -2.0276142520725335E-003   4.2750765284544912E-003   6.2359737828827644E-002
  -5.3130929044639848E-003   1.9625670062854983E-003   6.1641033682957258E-002
  -4.6235493998522115E-003   2.2177844814755820E-003   6.0897737580998812E-002
  -3.9340058952404503E-003   2.7993621342327080E-003   6.0328899030108019E-002
  -3.2444623906286779E-003   3.7072999645576810E-003   5.9934518030284795E-002
  -2.5549188860169159E-003   4.9415979724496406E-003   5.9714594581529057E-002
  -6.5486543865573617E-003   2.2147527082916896E-003   5.7835740236401006E-002
  -5.6587750653603053E-003   2.4332626371917354E-003   5.7377506698840813E-002
  -4.7688957441632757E-003   3.0716603981838092E-003   5.7145487243383405E-002
  -3.8790164229662344E-003   4.1299459912683863E-003   5.7139681870029026E-002
  -2.9891371017691896E-003   5.6081194164447901E-003   5.7360090578777723E-002
  -7.8981555746000590E-003   2.4669384102980196E-003   5.3946975416292571E-002
  -6.7561839057823925E-003   2.6487407929076945E-003   5.3867332097655166E-002
  -5.6142122369647104E-003   3.3439586621346953E-003   5.4065659392156268E-002
  -4.4722405681470161E-003   4.5525920179788158E-003   5.4541957299795558E-002
  -3.3302688993293609E-003   6.2746408604399395E-003   5.5296225820573044E-002
  -9.3615964685920261E-003   2.7191241123041276E-003   4.9974739222631182E-002
  -7.9157759211184037E-003   2.8642189486239866E-003   5.0367213777441799E-002
  -6.4699553736447257E-003   3.6162569260857480E-003   5.1089415476426203E-002
  -5.0241348261710894E-003   4.9752380446896755E-003   5.2141344319584226E-002
  -3.5783142786974254E-003   6.9411623044353110E-003   5.3523000306916035E-002
  -2.0276142520725335E-003   4.2750765284544912E-003   6.2359737828827644E-002
  -2.2803251716781922E-003   5.5778347545859530E-003   5.8332936237377564E-002
  -2.5330360912838544E-003   7.2724317287233831E-003   5.4300379486200034E-002
  -2.7857470108895409E-003   9.3588674508666703E-003   5.0262067575293945E-002
  -3.0384579304951753E-003   1.1837141921016592E-002   4.6218000504659518E-002
  -2.5549188860169159E-003   4.9415979724496406E-003   5.9714594581529057E-002
  -2.8312371808450407E-003   6.5658396812311448E-003   5.6185710178885850E-002
  -3.1075554756731447E-003   8.6436086142241964E-003   5.2615366185525314E-002
  -3.3838737705012955E-003   1.1174904771428601E-002   4.9003562601448836E-002
  -3.6601920653293943E-003   1.4159728152845164E-002   4.5350299426654583E-002
  -2.9891371017691896E-003   5.6081194164447901E-003   5.7360090578777723E-002
  -3.3247672028085921E-003   7.5538446078761701E-003   5.4390811841146358E-002
  -3.6603973038479825E-003   1.0014785499725010E-002   5.1344369081809560E-002
  -3.9960274048874136E-003   1.2990942091990809E-002   4.8220762300767051E-002
  -4.3316575059267476E-003   1.6482314384673957E-002   4.5019991498018941E-002
  -3.3302688993293609E-003   6.2746408604399395E-003   5.5296225820573044E-002
  -3.7609152375687972E-003   8.5418495345212786E-003   5.2948241224160031E-002
  -4.1915615758082343E-003   1.1385962385225490E-002   5.0487388175052189E-002
  -4.6222079140476706E-003   1.4806979412552657E-002   4.7913666673249450E-002
  -5.0528542522871337E-003   1.8804900616502640E-002   4.5227076718752868E-002
  -3.5783142786974254E-003   6.9411623044353110E-003   5.3523000306916035E-002
  -4.1396812851257625E-003   9.5298544611664981E-003   5.1857998327926036E-002
  -4.7010482915540441E-003   1.2757139270726525E-002   5.0044423465252619E-002
  -5.2624152979824090E-003   1.6623016733114587E-002   4.8082275718896395E-002
  -5.8237823044106629E-003   2.1127486848331323E-002   4.5971555088856864E-002
  -5.0502763672170409E-002   1.4983743914754655E-002   4.8536001744369450E-002
  -4.9177557464529703E-002   1.4495077851495841E-002   4.8353649473596438E-002
  -4.7852351256888942E-002   1.4031562166572212E-002   4.8514288413202961E-002
  -4.6527145049248209E-002   1.3593196859983465E-002   4.9017918563188864E-002
  -4.5201938841607489E-002   1.3179981931729923E-002   4.9864539923554274E-002
  -5.6920785089335652E-002   1.6755571611113074E-002   4.3296295362511450E-002
  -5.5364199259449520E-002   1.6348451261572583E-002   4.3743770281824024E-002
  -5.3807613429563361E-002   1.5889560795970481E-002   4.4311013235247887E-002
  -5.2251027599677223E-002   1.5378900214306906E-002   4.4998024222783109E-002
  -5.0694441769791106E-002   1.4816469516581832E-002   4.5804803244429759E-002
  -6.2584057859418174E-002   1.8527399307471437E-002   3.8176594941570149E-002
  -6.1019315583554744E-002   1.8201824671649214E-002   3.9176976556571472E-002
  -5.9454573307691216E-002   1.7747559425368771E-002   4.0073903029416123E-002
  -5.7889831031827786E-002   1.7164603568630289E-002   4.0867374360104111E-002
  -5.6325088755964245E-002   1.6452957101433713E-002   4.1557390548635401E-002
  -6.7492581982417948E-002   2.0299227003829842E-002   3.3176900481545035E-002
  -6.6142906436845200E-002   2.0055198081725789E-002   3.4653268297838942E-002
  -6.4793230891272521E-002   1.9605558054767051E-002   3.5802957795707836E-002
  -6.3443555345699759E-002   1.8950306922953675E-002   3.6625968975152016E-002
  -6.2093879800127122E-002   1.8089444686285525E-002   3.7122301836171392E-002
  -7.1646357458334919E-002   2.2071054700188220E-002   2.8297211982436732E-002
  -7.0734971819321063E-002   2.1908571491802475E-002   3.0172645505626206E-002
  -6.9823586180307207E-002   2.1463556684165344E-002   3.1498177534122901E-002
  -6.8912200541293350E-002   2.0736010277277023E-002   3.2273808067926582E-002
  -6.8000814902279494E-002   1.9725932271137447E-002   3.2499537107037402E-002
  -4.5201938841607489E-002   1.3179981931729923E-002   4.9864539923554274E-002
  -4.3878161185615244E-002   1.2735556154100824E-002   4.9767092346700292E-002
  -4.2554383529622965E-002   1.2203558299385117E-002   4.9850931812177729E-002
  -4.1230605873630685E-002   1.1583988367583366E-002   5.0116058319986181E-002
  -3.9906828217638440E-002   1.0876846358695125E-002   5.0562471870125969E-002
  -5.0694441769791106E-002   1.4816469516581832E-002   4.5804803244429759E-002
  -4.9202593992033389E-002   1.4219582354359939E-002   4.5503637244011241E-002
  -4.7710746214275665E-002   1.3605552379206035E-002   4.5357324444792430E-002
  -4.6218898436517900E-002   1.2974379591120095E-002   4.5365864846773393E-002
  -4.4727050658760224E-002   1.2326063990102054E-002   4.5529258449953869E-002
  -5.6325088755964245E-002   1.6452957101433713E-002   4.1557390548635401E-002
  -5.4691604697572609E-002   1.5703608554619219E-002   4.1122935388806667E-002
  -5.3058120639180979E-002   1.5007546459026903E-002   4.0816899589046031E-002
  -5.1424636580789371E-002   1.4364770814656770E-002   4.0639283149353528E-002
  -4.9791152522397707E-002   1.3775281621508928E-002   4.0590086069729275E-002
  -6.2093879800127122E-002   1.8089444686285525E-002   3.7122301836171392E-002
  -6.0345193302233112E-002   1.7187634754878361E-002   3.6624986781086444E-002
  -5.8596506804339039E-002   1.6409540538847796E-002   3.6229657244938276E-002
  -5.6847820306444995E-002   1.5755162038193528E-002   3.5936313227726793E-002
  -5.5099133808551019E-002   1.5224499252915802E-002   3.5744954729451599E-002
  -6.8000814902279494E-002   1.9725932271137447E-002   3.2499537107037402E-002
  -6.6163359806014635E-002   1.8671660955137614E-002   3.2009791420850808E-002
  -6.4325904709749776E-002   1.7811534618668662E-002   3.1595597412469312E-002
  -6.2488449613484889E-002   1.7145553261730111E-002   3.1256955081892884E-002
  -6.0650994517220058E-002   1.6673716884322676E-002   3.0993864429121554E-002
  -3.9906828217638440E-002   1.0876846358695125E-002   5.0562471870125969E-002
  -3.6710099435610072E-002   1.0180374827356842E-002   4.8925041313986506E-002
  -3.3513370653581676E-002   9.5928163282046341E-003   4.7529633171355806E-002
  -3.0316641871553314E-002   9.1141708612381689E-003   4.6376247442233759E-002
  -2.7119913089524911E-002   8.7444384264581121E-003   4.5464884126620531E-002
  -4.4727050658760224E-002   1.2326063990102054E-002   4.5529258449953869E-002
  -4.1241737342687823E-002   1.1695870887274806E-002   4.3775661012583872E-002
  -3.7756424026615401E-002   1.1119065593761246E-002   4.2357210229793135E-002
  -3.4271110710542958E-002   1.0595648109561193E-002   4.1273906101581812E-002
  -3.0785797394470557E-002   1.0125618434674966E-002   4.0525748627949720E-002
  -4.9791152522397707E-002   1.3775281621508928E-002   4.0590086069729275E-002
  -4.5924130431210658E-002   1.3211366947192743E-002   3.8664796528256107E-002
  -4.2057108340023686E-002   1.2645314859317802E-002   3.7167777882432904E-002
  -3.8190086248836679E-002   1.2077125357884216E-002   3.6099030132259763E-002
  -3.4323064157649665E-002   1.1506798442891708E-002   3.5458553277736338E-002
  -5.5099133808551019E-002   1.5224499252915802E-002   3.5744954729451599E-002
  -5.0757278701178785E-002   1.4726863007110666E-002   3.3592447861003245E-002
  -4.6415423593806460E-002   1.4171564124874497E-002   3.1961336129275299E-002
  -4.2073568486434162E-002   1.3558602606206963E-002   3.0851619534267911E-002
  -3.7731713379061955E-002   1.2887978451108451E-002   3.0263298075980966E-002
  -6.0650994517220058E-002   1.6673716884322676E-002   3.0993864429121554E-002
  -5.5741182152591939E-002   1.6242359067028700E-002   2.8558615010825184E-002
  -5.0831369787963820E-002   1.5697813390430929E-002   2.6737884970319953E-002
  -4.5921557423335729E-002   1.5040079854530170E-002   2.5531674307605987E-002
  -4.1011745058707610E-002   1.4269158459325304E-002   2.4939983022683077E-002
  -2.7119913089524911E-002   8.7444384264581121E-003   4.5464884126620531E-002
  -2.6607902632685324E-002   8.3858762050684210E-003   4.6314377851489452E-002
  -2.6095892175845722E-002   7.9407413782734138E-003   4.7296287626992006E-002
  -2.5583881719006128E-002   7.4090339460732638E-003   4.8410613453127999E-002
  -2.5071871262166534E-002   6.7907539084676172E-003   4.9657355329897790E-002
  -3.0785797394470557E-002   1.0125618434674966E-002   4.0525748627949720E-002
  -3.0172966344794036E-002   9.6506956002808952E-003   4.1397391069921324E-002
  -2.9560135295117404E-002   9.1125986375573675E-003   4.2338258646933691E-002
  -2.8947304245440834E-002   8.5113275465046739E-003   4.3348351358986306E-002
  -2.8334473195764251E-002   7.8468823271226062E-003   4.4427669206079323E-002
  -3.4323064157649665E-002   1.1506798442891708E-002   3.5458553277736338E-002
  -3.3672603430729232E-002   1.0915514995493286E-002   3.6375742913887038E-002
  -3.3022142703808821E-002   1.0284455896841307E-002   3.7298966769484784E-002
  -3.2371681976888417E-002   9.6136211469361917E-003   3.8228224844529833E-002
  -3.1721221249968033E-002   8.9030107457776508E-003   3.9163517139022080E-002
  -3.7731713379061955E-002   1.2887978451108451E-002   3.0263298075980966E-002
  -3.7106813890490892E-002   1.2180334390705608E-002   3.1249433383386177E-002
  -3.6481914401919814E-002   1.1456313156125476E-002   3.2178411994645648E-002
  -3.5857014913348799E-002   1.0715914747367767E-002   3.3050233909758982E-002
  -3.5232115424777728E-002   9.9591391644327787E-003   3.3864899128726512E-002
  -4.1011745058707610E-002   1.4269158459325304E-002   2.4939983022683077E-002
  -4.0475597724079104E-002   1.3445153785918207E-002   2.6018462478419047E-002
  -3.9939450389450529E-002   1.2628170415409395E-002   2.6976594322415948E-002
  -3.9403303054821988E-002   1.1818208347799224E-002   2.7814378554673669E-002
  -3.8867155720193447E-002   1.1015267583087684E-002   2.8531815175192210E-002
  -2.5071871262166534E-002   6.7907539084676172E-003   4.9657355329897790E-002
  -2.3008292496057320E-002   6.1358913717280417E-003   4.9170455216455966E-002
  -2.0944713729948147E-002   5.4944364421249114E-003   4.8852806417436445E-002
  -1.8881134963838940E-002   4.8663891196587331E-003   4.8704408932839616E-002
  -1.6817556197729761E-002   4.2517494043290416E-003   4.8725262762664867E-002
  -2.8334473195764251E-002   7.8468823271226062E-003   4.4427669206079323E-002
  -2.6099370245844675E-002   7.1594278728813188E-003   4.3834177474293079E-002
  -2.3864267295925064E-002   6.4891290772510213E-003   4.3414482795705450E-002
  -2.1629164346005442E-002   5.8359859402314779E-003   4.3168585170316284E-002
  -1.9394061396085877E-002   5.1999984618223971E-003   4.3096484598125206E-002
  -3.1721221249968033E-002   8.9030107457776508E-003   3.9163517139022080E-002
  -2.9310048377461963E-002   8.1829643740349012E-003   3.8467181840365877E-002
  -2.6898875504955951E-002   7.4838217123771172E-003   3.7949189333684144E-002
  -2.4487702632449967E-002   6.8055827608041082E-003   3.7609539618976721E-002
  -2.2076529759943869E-002   6.1482475193158637E-003   3.7448232696243755E-002
  -3.5232115424777728E-002   9.9591391644327787E-003   3.3864899128726512E-002
  -3.2640326890909316E-002   9.2065008751881089E-003   3.3069468314674069E-002
  -3.0048538357040900E-002   8.4785143475029426E-003   3.2456926031372194E-002
  -2.7456749823172463E-002   7.7751795813766848E-003   3.2027272278820657E-002
  -2.4864961289304065E-002   7.0964965768092192E-003   3.1780507057019416E-002
  -3.8867155720193447E-002   1.1015267583087684E-002   2.8531815175192210E-002
  -3.6090205786186658E-002   1.0230037376341761E-002   2.7641036897217919E-002
  -3.3313255852179841E-002   9.4732069826293508E-003   2.6937692888770071E-002
  -3.0536305918172996E-002   8.7447764019492127E-003   2.6421783149848388E-002
  -2.7759355984166206E-002   8.0447456343025747E-003   2.6093307680453148E-002
  -1.6817556197729761E-002   4.2517494043290416E-003   4.8725262762664867E-002
  -1.4953566265445306E-002   3.7000083897567038E-003   4.8661464551917111E-002
  -1.3089576333160893E-002   3.2606571695615871E-003   4.8848444558328763E-002
  -1.1225586400876453E-002   2.9336957437444966E-003   4.9286202781900129E-002
  -9.3615964685920261E-003   2.7191241123041276E-003   4.9974739222631182E-002
  -1.9394061396085877E-002   5.1999984618223971E-003   4.3096484598125206E-002
  -1.7317421461672096E-002   4.6070016992703078E-003   4.2979202790585258E-002
  -1.5240781527258329E-002   4.0828307098213779E-003   4.3036442770144429E-002
  -1.3164141592844590E-002   3.6274854934751008E-003   4.3268204536802329E-002
  -1.1087501658430782E-002   3.2409660502320525E-003   4.3674488090559627E-002
  -2.2076529759943869E-002   6.1482475193158637E-003   3.7448232696243755E-002
  -1.9863496253461448E-002   5.5139950087841338E-003   3.7233903270636942E-002
  -1.7650462746978943E-002   4.9050042500809465E-003   3.7117839202068764E-002
  -1.5437429240496452E-002   4.3212752432062601E-003   3.7100040490538791E-002
  -1.3224395734013961E-002   3.7628079881599774E-003   3.7180507136047425E-002
  -2.4864961289304065E-002   7.0964965768092192E-003   3.1780507057019416E-002
  -2.2591790640813413E-002   6.4209883182981820E-003   3.1425565992071643E-002
  -2.0318619992322793E-002   5.7271777903407373E-003   3.1092633854101707E-002
  -1.8045449343832187E-002   5.0150649929375860E-003   3.0781710643109424E-002
  -1.5772278695341466E-002   4.2846499260877358E-003   3.0492796359095312E-002
  -2.7759355984166206E-002   8.0447456343025747E-003   2.6093307680453148E-002
  -2.5502304623728017E-002   7.3279816278116194E-003   2.5554190954889644E-002
  -2.3245253263289786E-002   6.5493513306003337E-003   2.4960826726243168E-002
  -2.0988201902851576E-002   5.7088547426684746E-003   2.4313214994514082E-002
  -1.8731150542413366E-002   4.8064918640157162E-003   2.3611355759702413E-002
  -9.3615964685920261E-003   2.7191241123041276E-003   4.9974739222631182E-002
  -7.9157759211184037E-003   2.8642189486239866E-003   5.0367213777441799E-002
  -6.4699553736447257E-003   3.6162569260857480E-003   5.1089415476426203E-002
  -5.0241348261710894E-003   4.9752380446896755E-003   5.2141344319584226E-002
  -3.5783142786974254E-003   6.9411623044353110E-003   5.3523000306916035E-002
  -1.1087501658430782E-002   3.2409660502320525E-003   4.3674488090559627E-002
  -9.2948359477977999E-003   3.1646953938357925E-003   4.4252399249477825E-002
  -7.5021702371648111E-003   3.6400965380296024E-003   4.5194273590541456E-002
  -5.7095045265318362E-003   4.6671694828140792E-003   4.6500111113749659E-002
  -3.9168388158988404E-003   6.2459142281888758E-003   4.8169911819103128E-002
  -1.3224395734013961E-002   3.7628079881599774E-003   3.7180507136047425E-002
  -1.1050648822250257E-002   3.4651718390473207E-003   3.7888583558521954E-002
  -8.8769019104865607E-003   3.6639361499734846E-003   3.8994859201112647E-002
  -6.7031549987228364E-003   4.3591009209384898E-003   4.0499334063819961E-002
  -4.5294080869591608E-003   5.5506661519425515E-003   4.2402008146643522E-002
  -1.5772278695341466E-002   4.2846499260877358E-003   3.0492796359095312E-002
  -1.3183214544475656E-002   3.7656482842588213E-003   3.1275766704574257E-002
  -1.0594150393609820E-002   3.6877757619173529E-003   3.2491172308140713E-002
  -8.0050862427439983E-003   4.0510323590627860E-003   3.4139013169795118E-002
  -5.4160220918781747E-003   4.8554180756961718E-003   3.6219289289537354E-002
  -1.8731150542413366E-002   4.8064918640157162E-003   2.3611355759702413E-002
  -1.5692533114474105E-002   4.0661247294705438E-003   2.4413948687634135E-002
  -1.2653915686534706E-002   3.7116153738611657E-003   2.5683212911625009E-002
  -9.6152982585954033E-003   3.7429637971872903E-003   2.7419148431675255E-002
  -6.5766808306560454E-003   4.1601699994496810E-003   2.9621755247784542E-002
  -3.5783142786974254E-003   6.9411623044353110E-003   5.3523000306916035E-002
  -4.1396812851257625E-003   9.5298544611664981E-003   5.1857998327926036E-002
  -4.7010482915540441E-003   1.2757139270726525E-002   5.0044423465252619E-002
  -5.2624152979824090E-003   1.6623016733114587E-002   4.8082275718896395E-002
  -5.8237823044106629E-003   2.1127486848331323E-002   4.5971555088856864E-002
  -3.9168388158988404E-003   6.2459142281888758E-003   4.8169911819103128E-002
  -4.5216405489411637E-003   8.6851232162695191E-003   4.7239927932148429E-002
  -5.1264422819835495E-003   1.2293588889170898E-002   4.6371647475648536E-002
  -5.7312440150259561E-003   1.7071311246893213E-002   4.5565070449604256E-002
  -6.3360457480682586E-003   2.3018290289436472E-002   4.4820196854014505E-002
  -4.5294080869591608E-003   5.5506661519425515E-003   4.2402008146643522E-002
  -4.9673682324770513E-003   7.8403919713725956E-003   4.2737706383716184E-002
  -5.4053283779949418E-003   1.1830038507615714E-002   4.3345384365382600E-002
  -5.8432885235129503E-003   1.7519605760671950E-002   4.4225042091642394E-002
  -6.2812486690308339E-003   2.4909093730541398E-002   4.5376679562496136E-002
  -5.4160220918781747E-003   4.8554180756961718E-003   3.6219289289537354E-002
  -5.4768643357331562E-003   6.9956607264754223E-003   3.8351333682629503E-002
  -5.5377065795881968E-003   1.1366488126060198E-002   4.0965634134453727E-002
  -5.5985488234433205E-003   1.7967900274450742E-002   4.4062190645010074E-002
  -5.6593910672982188E-003   2.6799897171646325E-002   4.7641003214298344E-002
  -6.5766808306560454E-003   4.1601699994496810E-003   2.9621755247784542E-002
  -6.0501288587097579E-003   6.1509294815788040E-003   3.4080809828888503E-002
  -5.5235768867634150E-003   1.0902937744505042E-002   3.9232396782863332E-002
  -4.9970249148172524E-003   1.8416194788229347E-002   4.5076516109708503E-002
  -4.4704729428708401E-003   2.8690700612751474E-002   5.1613167809424709E-002
  -7.1646357458334919E-002   2.2071054700188220E-002   2.8297211982436732E-002
  -7.0734971819321063E-002   2.1908571491802475E-002   3.0172645505626206E-002
  -6.9823586180307207E-002   2.1463556684165344E-002   3.1498177534122901E-002
  -6.8912200541293350E-002   2.0736010277277023E-002   3.2273808067926582E-002
  -6.8000814902279494E-002   1.9725932271137447E-002   3.2499537107037402E-002
  -7.6901143897498275E-002   2.4626831070318100E-002   2.3493044966727439E-002
  -7.6088479589685107E-002   2.3657123399027868E-002   2.2754315360438121E-002
  -7.5275815281871897E-002   2.2752801888198004E-002   2.2368044586440428E-002
  -7.4463150974058701E-002   2.1913866537828369E-002   2.2334232644734303E-002
  -7.3650486666245574E-002   2.1140317347919130E-002   2.2652879535319637E-002
  -8.5112700910237205E-002   2.7182607440448009E-002   1.7707694608257676E-002
  -8.3496397606640238E-002   2.5405675306253317E-002   1.4702719632201350E-002
  -8.1880094303043313E-002   2.4042047092230602E-002   1.2952563815421043E-002
  -8.0263790999446333E-002   2.3091722798379739E-002   1.2457227157916532E-002
  -7.8647487695849450E-002   2.2554702424700951E-002   1.3216709659688144E-002
  -9.6281028496551485E-002   2.9738383810577765E-002   1.0941160907027906E-002
  -9.2958725870186332E-002   2.7154227213478821E-002   6.0178583209159267E-003
  -8.9636423243821248E-002   2.5331292296263287E-002   3.2517352210644761E-003
  -8.6314120617456122E-002   2.4269579058931182E-002   2.6427916074733384E-003
  -8.2991817991091010E-002   2.3969087501482730E-002   4.1910274801426096E-003
 -0.11040612665644134        3.2294160180707743E-002   3.1934438630378814E-003
 -0.10447546438032362        2.8902779120704158E-002  -3.3002685734178083E-003
  -9.8544802104205909E-002   2.6620537500295999E-002  -6.7344411966290818E-003
  -9.2614139828088082E-002   2.5447435319482563E-002  -7.1090740065949815E-003
  -8.6683477551970367E-002   2.5383472578264454E-002  -4.4241670033167146E-003
  -6.8000814902279494E-002   1.9725932271137447E-002   3.2499537107037402E-002
  -6.6163359806014635E-002   1.8671660955137614E-002   3.2009791420850808E-002
  -6.4325904709749776E-002   1.7811534618668662E-002   3.1595597412469312E-002
  -6.2488449613484889E-002   1.7145553261730111E-002   3.1256955081892884E-002
  -6.0650994517220058E-002   1.6673716884322676E-002   3.0993864429121554E-002
  -7.3650486666245574E-002   2.1140317347919130E-002   2.2652879535319637E-002
  -7.1748187319110118E-002   2.0399875340073148E-002   2.2902583748159233E-002
  -6.9845887971974552E-002   1.9660261535893210E-002   2.3206424784935106E-002
  -6.7943588624839069E-002   1.8921475935378997E-002   2.3564402645647069E-002
  -6.6041289277703530E-002   1.8183518538530952E-002   2.3976517330295266E-002
  -7.8647487695849450E-002   2.2554702424700951E-002   1.3216709659688144E-002
  -7.6701758951712148E-002   2.2128089725008682E-002   1.4012546995689053E-002
  -7.4756030207574903E-002   2.1508988453117758E-002   1.4841106301757466E-002
  -7.2810301463437616E-002   2.0697398609027941E-002   1.5702387577893259E-002
  -7.0864572719300398E-002   1.9693320192739200E-002   1.6596390824096308E-002
  -8.2991817991091010E-002   2.3969087501482730E-002   4.1910274801426096E-003
  -8.1024074703820864E-002   2.3856304109944160E-002   5.3396811634403313E-003
  -7.9056331416550690E-002   2.3357715370342307E-002   6.4996419629364741E-003
  -7.7088588129280503E-002   2.2473321282676692E-002   7.6709098786311210E-003
  -7.5120844842010356E-002   2.1203121846947545E-002   8.8534849105243764E-003
  -8.6683477551970367E-002   2.5383472578264454E-002  -4.4241670033167146E-003
  -8.4715134575436224E-002   2.5584518494879638E-002  -3.1160137485868322E-003
  -8.2746791598901970E-002   2.5206442287566744E-002  -1.8179682315279111E-003
  -8.0778448622367743E-002   2.4249243956325467E-002  -5.3003045213942390E-004
  -7.8810105645833572E-002   2.2712923501155835E-002   7.4779958957926773E-004
  -6.0650994517220058E-002   1.6673716884322676E-002   3.0993864429121554E-002
  -5.5741182152591939E-002   1.6242359067028700E-002   2.8558615010825184E-002
  -5.0831369787963820E-002   1.5697813390430929E-002   2.6737884970319953E-002
  -4.5921557423335729E-002   1.5040079854530170E-002   2.5531674307605987E-002
  -4.1011745058707610E-002   1.4269158459325304E-002   2.4939983022683077E-002
  -6.6041289277703530E-002   1.8183518538530952E-002   2.3976517330295266E-002
  -6.0623296941275689E-002   1.7434192219024175E-002   2.1933562870751044E-002
  -5.5205304604847766E-002   1.6661299850534161E-002   2.0292448977015015E-002
  -4.9787312268419814E-002   1.5864841433060647E-002   1.9053175649087595E-002
  -4.4369319931991946E-002   1.5044816966604202E-002   1.8215742886968755E-002
  -7.0864572719300398E-002   1.9693320192739200E-002   1.6596390824096308E-002
  -6.5151079223055339E-002   1.8626025371019789E-002   1.5035353133624210E-002
  -5.9437585726810301E-002   1.7624786310637054E-002   1.3663477196977775E-002
  -5.3724092230565290E-002   1.6689603011591565E-002   1.2480763014157199E-002
  -4.8010598734320224E-002   1.5820475473883100E-002   1.1487210585162305E-002
  -7.5120844842010356E-002   2.1203121846947545E-002   8.8534849105243764E-003
  -6.9324528997930887E-002   1.9817858523015167E-002   7.8639857994446567E-003
  -6.3528213153851487E-002   1.8588272770740395E-002   6.8509696302081809E-003
  -5.7731897309772032E-002   1.7514364590122764E-002   5.8144364028147886E-003
  -5.1935581465692597E-002   1.6596133981161998E-002   4.7543861172643850E-003
  -7.8810105645833572E-002   2.2712923501155835E-002   7.4779958957926773E-004
  -7.3143646265902418E-002   2.1009691675011044E-002   4.1946086821254003E-004
  -6.7477186885971263E-002   1.9551759230843346E-002  -1.4507372329397583E-004
  -6.1810727506040164E-002   1.8339126168653228E-002  -9.4580418493997453E-004
  -5.6144268126108954E-002   1.7371792488440896E-002  -1.9827305167254838E-003
  -4.1011745058707610E-002   1.4269158459325304E-002   2.4939983022683077E-002
  -4.0475597724079104E-002   1.3445153785918207E-002   2.6018462478419047E-002
  -3.9939450389450529E-002   1.2628170415409395E-002   2.6976594322415948E-002
  -3.9403303054821988E-002   1.1818208347799224E-002   2.7814378554673669E-002
  -3.8867155720193447E-002   1.1015267583087684E-002   2.8531815175192210E-002
  -4.4369319931991946E-002   1.5044816966604202E-002   1.8215742886968755E-002
  -4.3896612018838918E-002   1.4233131957235717E-002   1.9091059736953547E-002
  -4.3423904105685834E-002   1.3461691911027501E-002   1.9959845355726258E-002
  -4.2951196192532806E-002   1.2730496827978798E-002   2.0822099743287248E-002
  -4.2478488279379722E-002   1.2039546708090265E-002   2.1677822899636379E-002
  -4.8010598734320224E-002   1.5820475473883100E-002   1.1487210585162305E-002
  -4.7487513862115555E-002   1.5021110128553589E-002   1.2192588489657138E-002
  -4.6964428989910753E-002   1.4295213406645399E-002   1.3005251543467461E-002
  -4.6441344117706007E-002   1.3642785308158486E-002   1.3925199746593106E-002
  -4.5918259245501233E-002   1.3063825833092735E-002   1.4952433099034074E-002
  -5.1935581465692597E-002   1.6596133981161998E-002   4.7543861172643850E-003
  -5.1248303253908951E-002   1.5809088299871335E-002   5.3230487365308644E-003
  -5.0561025042125216E-002   1.5128734902263290E-002   6.1128128856397547E-003
  -4.9873746830341535E-002   1.4555073788337839E-002   7.1236785645911599E-003
  -4.9186468618557827E-002   1.4088104958094816E-002   8.3556457733852327E-003
  -5.6144268126108954E-002   1.7371792488440896E-002  -1.9827305167254838E-003
  -5.5178980194219185E-002   1.6597066471188970E-002  -1.5175595224263261E-003
  -5.4213692262329305E-002   1.5962256397881458E-002  -7.1747061775734311E-004
  -5.3248404330439453E-002   1.5467362268517595E-002   4.1753619728150670E-004
  -5.2283116398549656E-002   1.5112384083097563E-002   1.8874609226899874E-003
  -3.8867155720193447E-002   1.1015267583087684E-002   2.8531815175192210E-002
  -3.6090205786186658E-002   1.0230037376341761E-002   2.7641036897217919E-002
  -3.3313255852179841E-002   9.4732069826293508E-003   2.6937692888770071E-002
  -3.0536305918172996E-002   8.7447764019492127E-003   2.6421783149848388E-002
  -2.7759355984166206E-002   8.0447456343025747E-003   2.6093307680453148E-002
  -4.2478488279379722E-002   1.2039546708090265E-002   2.1677822899636379E-002
  -3.9533191479818333E-002   1.1350985537737279E-002   2.0935985185227435E-002
  -3.6587894680256902E-002   1.0626957303295853E-002   2.0343406932401165E-002
  -3.3642597880695485E-002   9.8674620047657854E-003   1.9900088141157873E-002
  -3.0697301081134026E-002   9.0724996421477355E-003   1.9606028811497367E-002
  -4.5918259245501233E-002   1.3063825833092735E-002   1.4952433099034074E-002
  -4.2842790388328750E-002   1.2471933699132465E-002   1.4295669071068967E-002
  -3.9767321531156245E-002   1.1780707623962453E-002   1.3749989696743278E-002
  -3.6691852673983685E-002   1.0990147607582521E-002   1.3315394976056633E-002
  -3.3616383816811236E-002   1.0100253649992952E-002   1.2991884909009682E-002
  -4.9186468618557827E-002   1.4088104958094816E-002   8.3556457733852327E-003
  -4.6019002511717831E-002   1.3592881860527262E-002   7.7200885547426615E-003
  -4.2851536404877814E-002   1.2934457944629392E-002   7.1574411817959330E-003
  -3.9684070298037818E-002   1.2112833210399175E-002   6.6677036545446187E-003
  -3.6516604191197802E-002   1.1128007657837807E-002   6.2508759729895252E-003
  -5.2283116398549656E-002   1.5112384083097563E-002   1.8874609226899874E-003
  -4.9061827849985584E-002   1.4713830021923169E-002   1.2092436362485248E-003
  -4.5840539301421623E-002   1.4088208265295499E-002   5.6576138755926042E-004
  -4.2619250752857551E-002   1.3235518813215982E-002  -4.2985823377722499E-005
  -3.9397962204293591E-002   1.2155761665683551E-002  -6.1699799656300680E-004
  -2.7759355984166206E-002   8.0447456343025747E-003   2.6093307680453148E-002
  -2.5502304623728017E-002   7.3279816278116194E-003   2.5554190954889644E-002
  -2.3245253263289786E-002   6.5493513306003337E-003   2.4960826726243168E-002
  -2.0988201902851576E-002   5.7088547426684746E-003   2.4313214994514082E-002
  -1.8731150542413366E-002   4.8064918640157162E-003   2.3611355759702413E-002
  -3.0697301081134026E-002   9.0724996421477355E-003   1.9606028811497367E-002
  -2.8481247136861801E-002   8.2698323904791815E-003   1.9078120031774393E-002
  -2.6265193192589617E-002   7.4872224247970742E-003   1.8522463922802268E-002
  -2.4049139248317336E-002   6.7246697451028362E-003   1.7939060484580896E-002
  -2.1833085304045152E-002   5.9821743513954750E-003   1.7327909717110124E-002
  -3.3616383816811236E-002   1.0100253649992952E-002   1.2991884909009682E-002
  -3.1414827114871459E-002   9.2116831531461607E-003   1.2557107651835347E-002
  -2.9213270412931636E-002   8.4250935189940229E-003   1.2121083239245045E-002
  -2.7011713710991890E-002   7.7404847475373052E-003   1.1683811671239025E-002
  -2.4810157009052147E-002   7.1578568387751784E-003   1.1245292947817592E-002
  -3.6516604191197802E-002   1.1128007657837807E-002   6.2508759729895252E-003
  -3.4303044557756908E-002   1.0153533915812987E-002   5.9911538150715926E-003
  -3.2089484924316167E-002   9.3629646131903679E-003   5.7566846755711561E-003
  -2.9875925290875346E-002   8.7562997499714985E-003   5.5474685544892512E-003
  -2.7662365657434535E-002   8.3335393261552981E-003   5.3635054518244921E-003
  -3.9397962204293591E-002   1.2155761665683551E-002  -6.1699799656300680E-004
  -3.7145899465518273E-002   1.1095384678480036E-002  -6.1974147851628913E-004
  -3.4893836726742955E-002   1.0300835707387657E-002  -5.7073176821847982E-004
  -3.2641773987967665E-002   9.7721147524055668E-003  -4.6996886566964824E-004
  -3.0389711249192319E-002   9.5092218135346407E-003  -3.1745277086914214E-004
  -1.8731150542413366E-002   4.8064918640157162E-003   2.3611355759702413E-002
  -1.5692533114474105E-002   4.0661247294705438E-003   2.4413948687634135E-002
  -1.2653915686534706E-002   3.7116153738611657E-003   2.5683212911625009E-002
  -9.6152982585954033E-003   3.7429637971872903E-003   2.7419148431675255E-002
  -6.5766808306560454E-003   4.1601699994496810E-003   2.9621755247784542E-002
  -2.1833085304045152E-002   5.9821743513954750E-003   1.7327909717110124E-002
  -1.8592649242907044E-002   5.3370768779457678E-003   1.8270811205538029E-002
  -1.5352213181768895E-002   4.8667179590239917E-003   1.9150678664304255E-002
  -1.2111777120630794E-002   4.5710975946306326E-003   1.9967512093408829E-002
  -8.8713410594926378E-003   4.4502157847643442E-003   2.0721311492851835E-002
  -2.4810157009052147E-002   7.1578568387751784E-003   1.1245292947817592E-002
  -2.1897607640436204E-002   6.6080290264209363E-003   1.2117383772333651E-002
  -1.8985058271820135E-002   6.0218205441867345E-003   1.2396735241467116E-002
  -1.6072508903204160E-002   5.3992313920727605E-003   1.2083347355218182E-002
  -1.3159959534588123E-002   4.7402615700788409E-003   1.1177220113586656E-002
  -2.7662365657434535E-002   8.3335393261552981E-003   5.3635054518244921E-003
  -2.5607408307061420E-002   7.8789811748964655E-003   5.9536663880207369E-003
  -2.3552450956688412E-002   7.1769231293501295E-003   5.4213826431136966E-003
  -2.1497493606315386E-002   6.2273651895157177E-003   3.7666542171033573E-003
  -1.9442536255942295E-002   5.0303073553931987E-003   9.8948110998960809E-004
  -3.0389711249192319E-002   9.5092218135346407E-003  -3.1745277086914214E-004
  -2.9722051242783154E-002   9.1499333233714397E-003  -2.2034094740053245E-004
  -2.9054391236373767E-002   8.3320257145126364E-003  -1.7753791307556777E-003
  -2.8386731229964490E-002   7.0554989869585916E-003  -4.9825673209354174E-003
  -2.7719071223555214E-002   5.3203531407080007E-003  -9.8419055179393977E-003
  -6.5766808306560454E-003   4.1601699994496810E-003   2.9621755247784542E-002
  -6.0501288587097579E-003   6.1509294815788040E-003   3.4080809828888503E-002
  -5.5235768867634150E-003   1.0902937744505042E-002   3.9232396782863332E-002
  -4.9970249148172524E-003   1.8416194788229347E-002   4.5076516109708503E-002
  -4.4704729428708401E-003   2.8690700612751474E-002   5.1613167809424709E-002
  -8.8713410594926378E-003   4.4502157847643442E-003   2.0721311492851835E-002
  -7.5833323362270444E-003   5.6600368543325841E-003   2.5879290198714933E-002
  -6.2953236129614093E-003   9.3565251282415884E-003   3.1867650034346384E-002
  -5.0073148896958228E-003   1.5539680606490941E-002   3.8686390999745857E-002
  -3.7193061664301807E-003   2.4209503289081225E-002   4.6335513094913461E-002
  -1.3159959534588123E-002   4.7402615700788409E-003   1.1177220113586656E-002
  -1.0972645303105613E-002   5.1691442270867527E-003   1.6759541367752095E-002
  -8.7853310716229788E-003   7.8101125119776765E-003   2.3310092508583194E-002
  -6.5980168401405283E-003   1.2663166424752532E-002   3.0828873536079833E-002
  -4.4107026086579459E-003   1.9728305965410753E-002   3.9315884450242478E-002
  -1.9442536255942295E-002   5.0303073553931987E-003   9.8948110998960809E-004
  -1.6218067759345270E-002   4.6782515998403940E-003   6.7215633359999499E-003
  -1.2993599262748382E-002   6.2636998957135495E-003   1.3559724205573654E-002
  -9.7691307661513446E-003   9.7866522430140133E-003   2.1503963718710530E-002
  -6.5446622695544687E-003   1.5247108641740281E-002   3.0554281875410760E-002
  -2.7719071223555214E-002   5.3203531407080007E-003  -9.8419055179393977E-003
  -2.3319599704946237E-002   4.1873589725944793E-003  -4.2346438965408795E-003
  -1.8920128186337315E-002   4.7172872794498666E-003   2.6165451253177541E-003
  -1.4520656667728365E-002   6.9101380612754948E-003   1.0711661547637898E-002
  -1.0121185149119416E-002   1.0765911318070032E-002   2.0050705370418420E-002
 </DataArray>
 </PointData>
 </Piece>
 </UnstructuredGrid>
 </VTKFile>
