 <VTKFile type="UnstructuredGrid"  version="0.1"   >
 <UnstructuredGrid>
 <Piece  NumberOfPoints="          1600 "  NumberOfCells="         1024 ">
 <Points>
 <DataArray  type="Float64" NumberOfComponents="3"  format="ascii" >
   0.0000000000000000        0.0000000000000000        0.0000000000000000     
   3.1250000000000000E-002   0.0000000000000000        0.0000000000000000     
   6.2500000000000000E-002   0.0000000000000000        0.0000000000000000     
   9.3750000000000000E-002   0.0000000000000000        0.0000000000000000     
  0.12500000000000000        0.0000000000000000        0.0000000000000000     
   0.0000000000000000        3.1250000000000000E-002   0.0000000000000000     
   3.1250000000000000E-002   3.1250000000000000E-002   0.0000000000000000     
   6.2500000000000000E-002   3.1250000000000000E-002   0.0000000000000000     
   9.3750000000000000E-002   3.1250000000000000E-002   0.0000000000000000     
  0.12500000000000000        3.1250000000000000E-002   0.0000000000000000     
   0.0000000000000000        6.2500000000000000E-002   0.0000000000000000     
   3.1250000000000000E-002   6.2500000000000000E-002   0.0000000000000000     
   6.2500000000000000E-002   6.2500000000000000E-002   0.0000000000000000     
   9.3750000000000000E-002   6.2500000000000000E-002   0.0000000000000000     
  0.12500000000000000        6.2500000000000000E-002   0.0000000000000000     
   0.0000000000000000        9.3750000000000000E-002   0.0000000000000000     
   3.1250000000000000E-002   9.3750000000000000E-002   0.0000000000000000     
   6.2500000000000000E-002   9.3750000000000000E-002   0.0000000000000000     
   9.3750000000000000E-002   9.3750000000000000E-002   0.0000000000000000     
  0.12500000000000000        9.3750000000000000E-002   0.0000000000000000     
   0.0000000000000000       0.12500000000000000        0.0000000000000000     
   3.1250000000000000E-002  0.12500000000000000        0.0000000000000000     
   6.2500000000000000E-002  0.12500000000000000        0.0000000000000000     
   9.3750000000000000E-002  0.12500000000000000        0.0000000000000000     
  0.12500000000000000       0.12500000000000000        0.0000000000000000     
  0.12500000000000000        0.0000000000000000        0.0000000000000000     
  0.15625000000000000        0.0000000000000000        0.0000000000000000     
  0.18750000000000000        0.0000000000000000        0.0000000000000000     
  0.21875000000000000        0.0000000000000000        0.0000000000000000     
  0.25000000000000000        0.0000000000000000        0.0000000000000000     
  0.12500000000000000        3.1250000000000000E-002   0.0000000000000000     
  0.15625000000000000        3.1250000000000000E-002   0.0000000000000000     
  0.18750000000000000        3.1250000000000000E-002   0.0000000000000000     
  0.21875000000000000        3.1250000000000000E-002   0.0000000000000000     
  0.25000000000000000        3.1250000000000000E-002   0.0000000000000000     
  0.12500000000000000        6.2500000000000000E-002   0.0000000000000000     
  0.15625000000000000        6.2500000000000000E-002   0.0000000000000000     
  0.18750000000000000        6.2500000000000000E-002   0.0000000000000000     
  0.21875000000000000        6.2500000000000000E-002   0.0000000000000000     
  0.25000000000000000        6.2500000000000000E-002   0.0000000000000000     
  0.12500000000000000        9.3750000000000000E-002   0.0000000000000000     
  0.15625000000000000        9.3750000000000000E-002   0.0000000000000000     
  0.18750000000000000        9.3750000000000000E-002   0.0000000000000000     
  0.21875000000000000        9.3750000000000000E-002   0.0000000000000000     
  0.25000000000000000        9.3750000000000000E-002   0.0000000000000000     
  0.12500000000000000       0.12500000000000000        0.0000000000000000     
  0.15625000000000000       0.12500000000000000        0.0000000000000000     
  0.18750000000000000       0.12500000000000000        0.0000000000000000     
  0.21875000000000000       0.12500000000000000        0.0000000000000000     
  0.25000000000000000       0.12500000000000000        0.0000000000000000     
  0.25000000000000000        0.0000000000000000        0.0000000000000000     
  0.28125000000000000        0.0000000000000000        0.0000000000000000     
  0.31250000000000000        0.0000000000000000        0.0000000000000000     
  0.34375000000000000        0.0000000000000000        0.0000000000000000     
  0.37500000000000000        0.0000000000000000        0.0000000000000000     
  0.25000000000000000        3.1250000000000000E-002   0.0000000000000000     
  0.28125000000000000        3.1250000000000000E-002   0.0000000000000000     
  0.31250000000000000        3.1250000000000000E-002   0.0000000000000000     
  0.34375000000000000        3.1250000000000000E-002   0.0000000000000000     
  0.37500000000000000        3.1250000000000000E-002   0.0000000000000000     
  0.25000000000000000        6.2500000000000000E-002   0.0000000000000000     
  0.28125000000000000        6.2500000000000000E-002   0.0000000000000000     
  0.31250000000000000        6.2500000000000000E-002   0.0000000000000000     
  0.34375000000000000        6.2500000000000000E-002   0.0000000000000000     
  0.37500000000000000        6.2500000000000000E-002   0.0000000000000000     
  0.25000000000000000        9.3750000000000000E-002   0.0000000000000000     
  0.28125000000000000        9.3750000000000000E-002   0.0000000000000000     
  0.31250000000000000        9.3750000000000000E-002   0.0000000000000000     
  0.34375000000000000        9.3750000000000000E-002   0.0000000000000000     
  0.37500000000000000        9.3750000000000000E-002   0.0000000000000000     
  0.25000000000000000       0.12500000000000000        0.0000000000000000     
  0.28125000000000000       0.12500000000000000        0.0000000000000000     
  0.31250000000000000       0.12500000000000000        0.0000000000000000     
  0.34375000000000000       0.12500000000000000        0.0000000000000000     
  0.37500000000000000       0.12500000000000000        0.0000000000000000     
  0.37500000000000000        0.0000000000000000        0.0000000000000000     
  0.40625000000000000        0.0000000000000000        0.0000000000000000     
  0.43750000000000000        0.0000000000000000        0.0000000000000000     
  0.46875000000000000        0.0000000000000000        0.0000000000000000     
  0.50000000000000000        0.0000000000000000        0.0000000000000000     
  0.37500000000000000        3.1250000000000000E-002   0.0000000000000000     
  0.40625000000000000        3.1250000000000000E-002   0.0000000000000000     
  0.43750000000000000        3.1250000000000000E-002   0.0000000000000000     
  0.46875000000000000        3.1250000000000000E-002   0.0000000000000000     
  0.50000000000000000        3.1250000000000000E-002   0.0000000000000000     
  0.37500000000000000        6.2500000000000000E-002   0.0000000000000000     
  0.40625000000000000        6.2500000000000000E-002   0.0000000000000000     
  0.43750000000000000        6.2500000000000000E-002   0.0000000000000000     
  0.46875000000000000        6.2500000000000000E-002   0.0000000000000000     
  0.50000000000000000        6.2500000000000000E-002   0.0000000000000000     
  0.37500000000000000        9.3750000000000000E-002   0.0000000000000000     
  0.40625000000000000        9.3750000000000000E-002   0.0000000000000000     
  0.43750000000000000        9.3750000000000000E-002   0.0000000000000000     
  0.46875000000000000        9.3750000000000000E-002   0.0000000000000000     
  0.50000000000000000        9.3750000000000000E-002   0.0000000000000000     
  0.37500000000000000       0.12500000000000000        0.0000000000000000     
  0.40625000000000000       0.12500000000000000        0.0000000000000000     
  0.43750000000000000       0.12500000000000000        0.0000000000000000     
  0.46875000000000000       0.12500000000000000        0.0000000000000000     
  0.50000000000000000       0.12500000000000000        0.0000000000000000     
  0.50000000000000000        0.0000000000000000        0.0000000000000000     
  0.53125000000000000        0.0000000000000000        0.0000000000000000     
  0.56250000000000000        0.0000000000000000        0.0000000000000000     
  0.59375000000000000        0.0000000000000000        0.0000000000000000     
  0.62500000000000000        0.0000000000000000        0.0000000000000000     
  0.50000000000000000        3.1250000000000000E-002   0.0000000000000000     
  0.53125000000000000        3.1250000000000000E-002   0.0000000000000000     
  0.56250000000000000        3.1250000000000000E-002   0.0000000000000000     
  0.59375000000000000        3.1250000000000000E-002   0.0000000000000000     
  0.62500000000000000        3.1250000000000000E-002   0.0000000000000000     
  0.50000000000000000        6.2500000000000000E-002   0.0000000000000000     
  0.53125000000000000        6.2500000000000000E-002   0.0000000000000000     
  0.56250000000000000        6.2500000000000000E-002   0.0000000000000000     
  0.59375000000000000        6.2500000000000000E-002   0.0000000000000000     
  0.62500000000000000        6.2500000000000000E-002   0.0000000000000000     
  0.50000000000000000        9.3750000000000000E-002   0.0000000000000000     
  0.53125000000000000        9.3750000000000000E-002   0.0000000000000000     
  0.56250000000000000        9.3750000000000000E-002   0.0000000000000000     
  0.59375000000000000        9.3750000000000000E-002   0.0000000000000000     
  0.62500000000000000        9.3750000000000000E-002   0.0000000000000000     
  0.50000000000000000       0.12500000000000000        0.0000000000000000     
  0.53125000000000000       0.12500000000000000        0.0000000000000000     
  0.56250000000000000       0.12500000000000000        0.0000000000000000     
  0.59375000000000000       0.12500000000000000        0.0000000000000000     
  0.62500000000000000       0.12500000000000000        0.0000000000000000     
  0.62500000000000000        0.0000000000000000        0.0000000000000000     
  0.65625000000000000        0.0000000000000000        0.0000000000000000     
  0.68750000000000000        0.0000000000000000        0.0000000000000000     
  0.71875000000000000        0.0000000000000000        0.0000000000000000     
  0.75000000000000000        0.0000000000000000        0.0000000000000000     
  0.62500000000000000        3.1250000000000000E-002   0.0000000000000000     
  0.65625000000000000        3.1250000000000000E-002   0.0000000000000000     
  0.68750000000000000        3.1250000000000000E-002   0.0000000000000000     
  0.71875000000000000        3.1250000000000000E-002   0.0000000000000000     
  0.75000000000000000        3.1250000000000000E-002   0.0000000000000000     
  0.62500000000000000        6.2500000000000000E-002   0.0000000000000000     
  0.65625000000000000        6.2500000000000000E-002   0.0000000000000000     
  0.68750000000000000        6.2500000000000000E-002   0.0000000000000000     
  0.71875000000000000        6.2500000000000000E-002   0.0000000000000000     
  0.75000000000000000        6.2500000000000000E-002   0.0000000000000000     
  0.62500000000000000        9.3750000000000000E-002   0.0000000000000000     
  0.65625000000000000        9.3750000000000000E-002   0.0000000000000000     
  0.68750000000000000        9.3750000000000000E-002   0.0000000000000000     
  0.71875000000000000        9.3750000000000000E-002   0.0000000000000000     
  0.75000000000000000        9.3750000000000000E-002   0.0000000000000000     
  0.62500000000000000       0.12500000000000000        0.0000000000000000     
  0.65625000000000000       0.12500000000000000        0.0000000000000000     
  0.68750000000000000       0.12500000000000000        0.0000000000000000     
  0.71875000000000000       0.12500000000000000        0.0000000000000000     
  0.75000000000000000       0.12500000000000000        0.0000000000000000     
  0.75000000000000000        0.0000000000000000        0.0000000000000000     
  0.78125000000000000        0.0000000000000000        0.0000000000000000     
  0.81250000000000000        0.0000000000000000        0.0000000000000000     
  0.84375000000000000        0.0000000000000000        0.0000000000000000     
  0.87500000000000000        0.0000000000000000        0.0000000000000000     
  0.75000000000000000        3.1250000000000000E-002   0.0000000000000000     
  0.78125000000000000        3.1250000000000000E-002   0.0000000000000000     
  0.81250000000000000        3.1250000000000000E-002   0.0000000000000000     
  0.84375000000000000        3.1250000000000000E-002   0.0000000000000000     
  0.87500000000000000        3.1250000000000000E-002   0.0000000000000000     
  0.75000000000000000        6.2500000000000000E-002   0.0000000000000000     
  0.78125000000000000        6.2500000000000000E-002   0.0000000000000000     
  0.81250000000000000        6.2500000000000000E-002   0.0000000000000000     
  0.84375000000000000        6.2500000000000000E-002   0.0000000000000000     
  0.87500000000000000        6.2500000000000000E-002   0.0000000000000000     
  0.75000000000000000        9.3750000000000000E-002   0.0000000000000000     
  0.78125000000000000        9.3750000000000000E-002   0.0000000000000000     
  0.81250000000000000        9.3750000000000000E-002   0.0000000000000000     
  0.84375000000000000        9.3750000000000000E-002   0.0000000000000000     
  0.87500000000000000        9.3750000000000000E-002   0.0000000000000000     
  0.75000000000000000       0.12500000000000000        0.0000000000000000     
  0.78125000000000000       0.12500000000000000        0.0000000000000000     
  0.81250000000000000       0.12500000000000000        0.0000000000000000     
  0.84375000000000000       0.12500000000000000        0.0000000000000000     
  0.87500000000000000       0.12500000000000000        0.0000000000000000     
  0.87500000000000000        0.0000000000000000        0.0000000000000000     
  0.90625000000000000        0.0000000000000000        0.0000000000000000     
  0.93750000000000000        0.0000000000000000        0.0000000000000000     
  0.96875000000000000        0.0000000000000000        0.0000000000000000     
   1.0000000000000000        0.0000000000000000        0.0000000000000000     
  0.87500000000000000        3.1250000000000000E-002   0.0000000000000000     
  0.90625000000000000        3.1250000000000000E-002   0.0000000000000000     
  0.93750000000000000        3.1250000000000000E-002   0.0000000000000000     
  0.96875000000000000        3.1250000000000000E-002   0.0000000000000000     
   1.0000000000000000        3.1250000000000000E-002   0.0000000000000000     
  0.87500000000000000        6.2500000000000000E-002   0.0000000000000000     
  0.90625000000000000        6.2500000000000000E-002   0.0000000000000000     
  0.93750000000000000        6.2500000000000000E-002   0.0000000000000000     
  0.96875000000000000        6.2500000000000000E-002   0.0000000000000000     
   1.0000000000000000        6.2500000000000000E-002   0.0000000000000000     
  0.87500000000000000        9.3750000000000000E-002   0.0000000000000000     
  0.90625000000000000        9.3750000000000000E-002   0.0000000000000000     
  0.93750000000000000        9.3750000000000000E-002   0.0000000000000000     
  0.96875000000000000        9.3750000000000000E-002   0.0000000000000000     
   1.0000000000000000        9.3750000000000000E-002   0.0000000000000000     
  0.87500000000000000       0.12500000000000000        0.0000000000000000     
  0.90625000000000000       0.12500000000000000        0.0000000000000000     
  0.93750000000000000       0.12500000000000000        0.0000000000000000     
  0.96875000000000000       0.12500000000000000        0.0000000000000000     
   1.0000000000000000       0.12500000000000000        0.0000000000000000     
   0.0000000000000000       0.12500000000000000        0.0000000000000000     
   3.1250000000000000E-002  0.12500000000000000        0.0000000000000000     
   6.2500000000000000E-002  0.12500000000000000        0.0000000000000000     
   9.3750000000000000E-002  0.12500000000000000        0.0000000000000000     
  0.12500000000000000       0.12500000000000000        0.0000000000000000     
   0.0000000000000000       0.15625000000000000        0.0000000000000000     
   3.1250000000000000E-002  0.15625000000000000        0.0000000000000000     
   6.2500000000000000E-002  0.15625000000000000        0.0000000000000000     
   9.3750000000000000E-002  0.15625000000000000        0.0000000000000000     
  0.12500000000000000       0.15625000000000000        0.0000000000000000     
   0.0000000000000000       0.18750000000000000        0.0000000000000000     
   3.1250000000000000E-002  0.18750000000000000        0.0000000000000000     
   6.2500000000000000E-002  0.18750000000000000        0.0000000000000000     
   9.3750000000000000E-002  0.18750000000000000        0.0000000000000000     
  0.12500000000000000       0.18750000000000000        0.0000000000000000     
   0.0000000000000000       0.21875000000000000        0.0000000000000000     
   3.1250000000000000E-002  0.21875000000000000        0.0000000000000000     
   6.2500000000000000E-002  0.21875000000000000        0.0000000000000000     
   9.3750000000000000E-002  0.21875000000000000        0.0000000000000000     
  0.12500000000000000       0.21875000000000000        0.0000000000000000     
   0.0000000000000000       0.25000000000000000        0.0000000000000000     
   3.1250000000000000E-002  0.25000000000000000        0.0000000000000000     
   6.2500000000000000E-002  0.25000000000000000        0.0000000000000000     
   9.3750000000000000E-002  0.25000000000000000        0.0000000000000000     
  0.12500000000000000       0.25000000000000000        0.0000000000000000     
  0.12500000000000000       0.12500000000000000        0.0000000000000000     
  0.15625000000000000       0.12500000000000000        0.0000000000000000     
  0.18750000000000000       0.12500000000000000        0.0000000000000000     
  0.21875000000000000       0.12500000000000000        0.0000000000000000     
  0.25000000000000000       0.12500000000000000        0.0000000000000000     
  0.12500000000000000       0.15625000000000000        0.0000000000000000     
  0.15625000000000000       0.15625000000000000        0.0000000000000000     
  0.18750000000000000       0.15625000000000000        0.0000000000000000     
  0.21875000000000000       0.15625000000000000        0.0000000000000000     
  0.25000000000000000       0.15625000000000000        0.0000000000000000     
  0.12500000000000000       0.18750000000000000        0.0000000000000000     
  0.15625000000000000       0.18750000000000000        0.0000000000000000     
  0.18750000000000000       0.18750000000000000        0.0000000000000000     
  0.21875000000000000       0.18750000000000000        0.0000000000000000     
  0.25000000000000000       0.18750000000000000        0.0000000000000000     
  0.12500000000000000       0.21875000000000000        0.0000000000000000     
  0.15625000000000000       0.21875000000000000        0.0000000000000000     
  0.18750000000000000       0.21875000000000000        0.0000000000000000     
  0.21875000000000000       0.21875000000000000        0.0000000000000000     
  0.25000000000000000       0.21875000000000000        0.0000000000000000     
  0.12500000000000000       0.25000000000000000        0.0000000000000000     
  0.15625000000000000       0.25000000000000000        0.0000000000000000     
  0.18750000000000000       0.25000000000000000        0.0000000000000000     
  0.21875000000000000       0.25000000000000000        0.0000000000000000     
  0.25000000000000000       0.25000000000000000        0.0000000000000000     
  0.25000000000000000       0.12500000000000000        0.0000000000000000     
  0.28125000000000000       0.12500000000000000        0.0000000000000000     
  0.31250000000000000       0.12500000000000000        0.0000000000000000     
  0.34375000000000000       0.12500000000000000        0.0000000000000000     
  0.37500000000000000       0.12500000000000000        0.0000000000000000     
  0.25000000000000000       0.15625000000000000        0.0000000000000000     
  0.28125000000000000       0.15625000000000000        0.0000000000000000     
  0.31250000000000000       0.15625000000000000        0.0000000000000000     
  0.34375000000000000       0.15625000000000000        0.0000000000000000     
  0.37500000000000000       0.15625000000000000        0.0000000000000000     
  0.25000000000000000       0.18750000000000000        0.0000000000000000     
  0.28125000000000000       0.18750000000000000        0.0000000000000000     
  0.31250000000000000       0.18750000000000000        0.0000000000000000     
  0.34375000000000000       0.18750000000000000        0.0000000000000000     
  0.37500000000000000       0.18750000000000000        0.0000000000000000     
  0.25000000000000000       0.21875000000000000        0.0000000000000000     
  0.28125000000000000       0.21875000000000000        0.0000000000000000     
  0.31250000000000000       0.21875000000000000        0.0000000000000000     
  0.34375000000000000       0.21875000000000000        0.0000000000000000     
  0.37500000000000000       0.21875000000000000        0.0000000000000000     
  0.25000000000000000       0.25000000000000000        0.0000000000000000     
  0.28125000000000000       0.25000000000000000        0.0000000000000000     
  0.31250000000000000       0.25000000000000000        0.0000000000000000     
  0.34375000000000000       0.25000000000000000        0.0000000000000000     
  0.37500000000000000       0.25000000000000000        0.0000000000000000     
  0.37500000000000000       0.12500000000000000        0.0000000000000000     
  0.40625000000000000       0.12500000000000000        0.0000000000000000     
  0.43750000000000000       0.12500000000000000        0.0000000000000000     
  0.46875000000000000       0.12500000000000000        0.0000000000000000     
  0.50000000000000000       0.12500000000000000        0.0000000000000000     
  0.37500000000000000       0.15625000000000000        0.0000000000000000     
  0.40625000000000000       0.15625000000000000        0.0000000000000000     
  0.43750000000000000       0.15625000000000000        0.0000000000000000     
  0.46875000000000000       0.15625000000000000        0.0000000000000000     
  0.50000000000000000       0.15625000000000000        0.0000000000000000     
  0.37500000000000000       0.18750000000000000        0.0000000000000000     
  0.40625000000000000       0.18750000000000000        0.0000000000000000     
  0.43750000000000000       0.18750000000000000        0.0000000000000000     
  0.46875000000000000       0.18750000000000000        0.0000000000000000     
  0.50000000000000000       0.18750000000000000        0.0000000000000000     
  0.37500000000000000       0.21875000000000000        0.0000000000000000     
  0.40625000000000000       0.21875000000000000        0.0000000000000000     
  0.43750000000000000       0.21875000000000000        0.0000000000000000     
  0.46875000000000000       0.21875000000000000        0.0000000000000000     
  0.50000000000000000       0.21875000000000000        0.0000000000000000     
  0.37500000000000000       0.25000000000000000        0.0000000000000000     
  0.40625000000000000       0.25000000000000000        0.0000000000000000     
  0.43750000000000000       0.25000000000000000        0.0000000000000000     
  0.46875000000000000       0.25000000000000000        0.0000000000000000     
  0.50000000000000000       0.25000000000000000        0.0000000000000000     
  0.50000000000000000       0.12500000000000000        0.0000000000000000     
  0.53125000000000000       0.12500000000000000        0.0000000000000000     
  0.56250000000000000       0.12500000000000000        0.0000000000000000     
  0.59375000000000000       0.12500000000000000        0.0000000000000000     
  0.62500000000000000       0.12500000000000000        0.0000000000000000     
  0.50000000000000000       0.15625000000000000        0.0000000000000000     
  0.53125000000000000       0.15625000000000000        0.0000000000000000     
  0.56250000000000000       0.15625000000000000        0.0000000000000000     
  0.59375000000000000       0.15625000000000000        0.0000000000000000     
  0.62500000000000000       0.15625000000000000        0.0000000000000000     
  0.50000000000000000       0.18750000000000000        0.0000000000000000     
  0.53125000000000000       0.18750000000000000        0.0000000000000000     
  0.56250000000000000       0.18750000000000000        0.0000000000000000     
  0.59375000000000000       0.18750000000000000        0.0000000000000000     
  0.62500000000000000       0.18750000000000000        0.0000000000000000     
  0.50000000000000000       0.21875000000000000        0.0000000000000000     
  0.53125000000000000       0.21875000000000000        0.0000000000000000     
  0.56250000000000000       0.21875000000000000        0.0000000000000000     
  0.59375000000000000       0.21875000000000000        0.0000000000000000     
  0.62500000000000000       0.21875000000000000        0.0000000000000000     
  0.50000000000000000       0.25000000000000000        0.0000000000000000     
  0.53125000000000000       0.25000000000000000        0.0000000000000000     
  0.56250000000000000       0.25000000000000000        0.0000000000000000     
  0.59375000000000000       0.25000000000000000        0.0000000000000000     
  0.62500000000000000       0.25000000000000000        0.0000000000000000     
  0.62500000000000000       0.12500000000000000        0.0000000000000000     
  0.65625000000000000       0.12500000000000000        0.0000000000000000     
  0.68750000000000000       0.12500000000000000        0.0000000000000000     
  0.71875000000000000       0.12500000000000000        0.0000000000000000     
  0.75000000000000000       0.12500000000000000        0.0000000000000000     
  0.62500000000000000       0.15625000000000000        0.0000000000000000     
  0.65625000000000000       0.15625000000000000        0.0000000000000000     
  0.68750000000000000       0.15625000000000000        0.0000000000000000     
  0.71875000000000000       0.15625000000000000        0.0000000000000000     
  0.75000000000000000       0.15625000000000000        0.0000000000000000     
  0.62500000000000000       0.18750000000000000        0.0000000000000000     
  0.65625000000000000       0.18750000000000000        0.0000000000000000     
  0.68750000000000000       0.18750000000000000        0.0000000000000000     
  0.71875000000000000       0.18750000000000000        0.0000000000000000     
  0.75000000000000000       0.18750000000000000        0.0000000000000000     
  0.62500000000000000       0.21875000000000000        0.0000000000000000     
  0.65625000000000000       0.21875000000000000        0.0000000000000000     
  0.68750000000000000       0.21875000000000000        0.0000000000000000     
  0.71875000000000000       0.21875000000000000        0.0000000000000000     
  0.75000000000000000       0.21875000000000000        0.0000000000000000     
  0.62500000000000000       0.25000000000000000        0.0000000000000000     
  0.65625000000000000       0.25000000000000000        0.0000000000000000     
  0.68750000000000000       0.25000000000000000        0.0000000000000000     
  0.71875000000000000       0.25000000000000000        0.0000000000000000     
  0.75000000000000000       0.25000000000000000        0.0000000000000000     
  0.75000000000000000       0.12500000000000000        0.0000000000000000     
  0.78125000000000000       0.12500000000000000        0.0000000000000000     
  0.81250000000000000       0.12500000000000000        0.0000000000000000     
  0.84375000000000000       0.12500000000000000        0.0000000000000000     
  0.87500000000000000       0.12500000000000000        0.0000000000000000     
  0.75000000000000000       0.15625000000000000        0.0000000000000000     
  0.78125000000000000       0.15625000000000000        0.0000000000000000     
  0.81250000000000000       0.15625000000000000        0.0000000000000000     
  0.84375000000000000       0.15625000000000000        0.0000000000000000     
  0.87500000000000000       0.15625000000000000        0.0000000000000000     
  0.75000000000000000       0.18750000000000000        0.0000000000000000     
  0.78125000000000000       0.18750000000000000        0.0000000000000000     
  0.81250000000000000       0.18750000000000000        0.0000000000000000     
  0.84375000000000000       0.18750000000000000        0.0000000000000000     
  0.87500000000000000       0.18750000000000000        0.0000000000000000     
  0.75000000000000000       0.21875000000000000        0.0000000000000000     
  0.78125000000000000       0.21875000000000000        0.0000000000000000     
  0.81250000000000000       0.21875000000000000        0.0000000000000000     
  0.84375000000000000       0.21875000000000000        0.0000000000000000     
  0.87500000000000000       0.21875000000000000        0.0000000000000000     
  0.75000000000000000       0.25000000000000000        0.0000000000000000     
  0.78125000000000000       0.25000000000000000        0.0000000000000000     
  0.81250000000000000       0.25000000000000000        0.0000000000000000     
  0.84375000000000000       0.25000000000000000        0.0000000000000000     
  0.87500000000000000       0.25000000000000000        0.0000000000000000     
  0.87500000000000000       0.12500000000000000        0.0000000000000000     
  0.90625000000000000       0.12500000000000000        0.0000000000000000     
  0.93750000000000000       0.12500000000000000        0.0000000000000000     
  0.96875000000000000       0.12500000000000000        0.0000000000000000     
   1.0000000000000000       0.12500000000000000        0.0000000000000000     
  0.87500000000000000       0.15625000000000000        0.0000000000000000     
  0.90625000000000000       0.15625000000000000        0.0000000000000000     
  0.93750000000000000       0.15625000000000000        0.0000000000000000     
  0.96875000000000000       0.15625000000000000        0.0000000000000000     
   1.0000000000000000       0.15625000000000000        0.0000000000000000     
  0.87500000000000000       0.18750000000000000        0.0000000000000000     
  0.90625000000000000       0.18750000000000000        0.0000000000000000     
  0.93750000000000000       0.18750000000000000        0.0000000000000000     
  0.96875000000000000       0.18750000000000000        0.0000000000000000     
   1.0000000000000000       0.18750000000000000        0.0000000000000000     
  0.87500000000000000       0.21875000000000000        0.0000000000000000     
  0.90625000000000000       0.21875000000000000        0.0000000000000000     
  0.93750000000000000       0.21875000000000000        0.0000000000000000     
  0.96875000000000000       0.21875000000000000        0.0000000000000000     
   1.0000000000000000       0.21875000000000000        0.0000000000000000     
  0.87500000000000000       0.25000000000000000        0.0000000000000000     
  0.90625000000000000       0.25000000000000000        0.0000000000000000     
  0.93750000000000000       0.25000000000000000        0.0000000000000000     
  0.96875000000000000       0.25000000000000000        0.0000000000000000     
   1.0000000000000000       0.25000000000000000        0.0000000000000000     
   0.0000000000000000       0.25000000000000000        0.0000000000000000     
   3.1250000000000000E-002  0.25000000000000000        0.0000000000000000     
   6.2500000000000000E-002  0.25000000000000000        0.0000000000000000     
   9.3750000000000000E-002  0.25000000000000000        0.0000000000000000     
  0.12500000000000000       0.25000000000000000        0.0000000000000000     
   0.0000000000000000       0.28125000000000000        0.0000000000000000     
   3.1250000000000000E-002  0.28125000000000000        0.0000000000000000     
   6.2500000000000000E-002  0.28125000000000000        0.0000000000000000     
   9.3750000000000000E-002  0.28125000000000000        0.0000000000000000     
  0.12500000000000000       0.28125000000000000        0.0000000000000000     
   0.0000000000000000       0.31250000000000000        0.0000000000000000     
   3.1250000000000000E-002  0.31250000000000000        0.0000000000000000     
   6.2500000000000000E-002  0.31250000000000000        0.0000000000000000     
   9.3750000000000000E-002  0.31250000000000000        0.0000000000000000     
  0.12500000000000000       0.31250000000000000        0.0000000000000000     
   0.0000000000000000       0.34375000000000000        0.0000000000000000     
   3.1250000000000000E-002  0.34375000000000000        0.0000000000000000     
   6.2500000000000000E-002  0.34375000000000000        0.0000000000000000     
   9.3750000000000000E-002  0.34375000000000000        0.0000000000000000     
  0.12500000000000000       0.34375000000000000        0.0000000000000000     
   0.0000000000000000       0.37500000000000000        0.0000000000000000     
   3.1250000000000000E-002  0.37500000000000000        0.0000000000000000     
   6.2500000000000000E-002  0.37500000000000000        0.0000000000000000     
   9.3750000000000000E-002  0.37500000000000000        0.0000000000000000     
  0.12500000000000000       0.37500000000000000        0.0000000000000000     
  0.12500000000000000       0.25000000000000000        0.0000000000000000     
  0.15625000000000000       0.25000000000000000        0.0000000000000000     
  0.18750000000000000       0.25000000000000000        0.0000000000000000     
  0.21875000000000000       0.25000000000000000        0.0000000000000000     
  0.25000000000000000       0.25000000000000000        0.0000000000000000     
  0.12500000000000000       0.28125000000000000        0.0000000000000000     
  0.15625000000000000       0.28125000000000000        0.0000000000000000     
  0.18750000000000000       0.28125000000000000        0.0000000000000000     
  0.21875000000000000       0.28125000000000000        0.0000000000000000     
  0.25000000000000000       0.28125000000000000        0.0000000000000000     
  0.12500000000000000       0.31250000000000000        0.0000000000000000     
  0.15625000000000000       0.31250000000000000        0.0000000000000000     
  0.18750000000000000       0.31250000000000000        0.0000000000000000     
  0.21875000000000000       0.31250000000000000        0.0000000000000000     
  0.25000000000000000       0.31250000000000000        0.0000000000000000     
  0.12500000000000000       0.34375000000000000        0.0000000000000000     
  0.15625000000000000       0.34375000000000000        0.0000000000000000     
  0.18750000000000000       0.34375000000000000        0.0000000000000000     
  0.21875000000000000       0.34375000000000000        0.0000000000000000     
  0.25000000000000000       0.34375000000000000        0.0000000000000000     
  0.12500000000000000       0.37500000000000000        0.0000000000000000     
  0.15625000000000000       0.37500000000000000        0.0000000000000000     
  0.18750000000000000       0.37500000000000000        0.0000000000000000     
  0.21875000000000000       0.37500000000000000        0.0000000000000000     
  0.25000000000000000       0.37500000000000000        0.0000000000000000     
  0.25000000000000000       0.25000000000000000        0.0000000000000000     
  0.28125000000000000       0.25000000000000000        0.0000000000000000     
  0.31250000000000000       0.25000000000000000        0.0000000000000000     
  0.34375000000000000       0.25000000000000000        0.0000000000000000     
  0.37500000000000000       0.25000000000000000        0.0000000000000000     
  0.25000000000000000       0.28125000000000000        0.0000000000000000     
  0.28125000000000000       0.28125000000000000        0.0000000000000000     
  0.31250000000000000       0.28125000000000000        0.0000000000000000     
  0.34375000000000000       0.28125000000000000        0.0000000000000000     
  0.37500000000000000       0.28125000000000000        0.0000000000000000     
  0.25000000000000000       0.31250000000000000        0.0000000000000000     
  0.28125000000000000       0.31250000000000000        0.0000000000000000     
  0.31250000000000000       0.31250000000000000        0.0000000000000000     
  0.34375000000000000       0.31250000000000000        0.0000000000000000     
  0.37500000000000000       0.31250000000000000        0.0000000000000000     
  0.25000000000000000       0.34375000000000000        0.0000000000000000     
  0.28125000000000000       0.34375000000000000        0.0000000000000000     
  0.31250000000000000       0.34375000000000000        0.0000000000000000     
  0.34375000000000000       0.34375000000000000        0.0000000000000000     
  0.37500000000000000       0.34375000000000000        0.0000000000000000     
  0.25000000000000000       0.37500000000000000        0.0000000000000000     
  0.28125000000000000       0.37500000000000000        0.0000000000000000     
  0.31250000000000000       0.37500000000000000        0.0000000000000000     
  0.34375000000000000       0.37500000000000000        0.0000000000000000     
  0.37500000000000000       0.37500000000000000        0.0000000000000000     
  0.37500000000000000       0.25000000000000000        0.0000000000000000     
  0.40625000000000000       0.25000000000000000        0.0000000000000000     
  0.43750000000000000       0.25000000000000000        0.0000000000000000     
  0.46875000000000000       0.25000000000000000        0.0000000000000000     
  0.50000000000000000       0.25000000000000000        0.0000000000000000     
  0.37500000000000000       0.28125000000000000        0.0000000000000000     
  0.40625000000000000       0.28125000000000000        0.0000000000000000     
  0.43750000000000000       0.28125000000000000        0.0000000000000000     
  0.46875000000000000       0.28125000000000000        0.0000000000000000     
  0.50000000000000000       0.28125000000000000        0.0000000000000000     
  0.37500000000000000       0.31250000000000000        0.0000000000000000     
  0.40625000000000000       0.31250000000000000        0.0000000000000000     
  0.43750000000000000       0.31250000000000000        0.0000000000000000     
  0.46875000000000000       0.31250000000000000        0.0000000000000000     
  0.50000000000000000       0.31250000000000000        0.0000000000000000     
  0.37500000000000000       0.34375000000000000        0.0000000000000000     
  0.40625000000000000       0.34375000000000000        0.0000000000000000     
  0.43750000000000000       0.34375000000000000        0.0000000000000000     
  0.46875000000000000       0.34375000000000000        0.0000000000000000     
  0.50000000000000000       0.34375000000000000        0.0000000000000000     
  0.37500000000000000       0.37500000000000000        0.0000000000000000     
  0.40625000000000000       0.37500000000000000        0.0000000000000000     
  0.43750000000000000       0.37500000000000000        0.0000000000000000     
  0.46875000000000000       0.37500000000000000        0.0000000000000000     
  0.50000000000000000       0.37500000000000000        0.0000000000000000     
  0.50000000000000000       0.25000000000000000        0.0000000000000000     
  0.53125000000000000       0.25000000000000000        0.0000000000000000     
  0.56250000000000000       0.25000000000000000        0.0000000000000000     
  0.59375000000000000       0.25000000000000000        0.0000000000000000     
  0.62500000000000000       0.25000000000000000        0.0000000000000000     
  0.50000000000000000       0.28125000000000000        0.0000000000000000     
  0.53125000000000000       0.28125000000000000        0.0000000000000000     
  0.56250000000000000       0.28125000000000000        0.0000000000000000     
  0.59375000000000000       0.28125000000000000        0.0000000000000000     
  0.62500000000000000       0.28125000000000000        0.0000000000000000     
  0.50000000000000000       0.31250000000000000        0.0000000000000000     
  0.53125000000000000       0.31250000000000000        0.0000000000000000     
  0.56250000000000000       0.31250000000000000        0.0000000000000000     
  0.59375000000000000       0.31250000000000000        0.0000000000000000     
  0.62500000000000000       0.31250000000000000        0.0000000000000000     
  0.50000000000000000       0.34375000000000000        0.0000000000000000     
  0.53125000000000000       0.34375000000000000        0.0000000000000000     
  0.56250000000000000       0.34375000000000000        0.0000000000000000     
  0.59375000000000000       0.34375000000000000        0.0000000000000000     
  0.62500000000000000       0.34375000000000000        0.0000000000000000     
  0.50000000000000000       0.37500000000000000        0.0000000000000000     
  0.53125000000000000       0.37500000000000000        0.0000000000000000     
  0.56250000000000000       0.37500000000000000        0.0000000000000000     
  0.59375000000000000       0.37500000000000000        0.0000000000000000     
  0.62500000000000000       0.37500000000000000        0.0000000000000000     
  0.62500000000000000       0.25000000000000000        0.0000000000000000     
  0.65625000000000000       0.25000000000000000        0.0000000000000000     
  0.68750000000000000       0.25000000000000000        0.0000000000000000     
  0.71875000000000000       0.25000000000000000        0.0000000000000000     
  0.75000000000000000       0.25000000000000000        0.0000000000000000     
  0.62500000000000000       0.28125000000000000        0.0000000000000000     
  0.65625000000000000       0.28125000000000000        0.0000000000000000     
  0.68750000000000000       0.28125000000000000        0.0000000000000000     
  0.71875000000000000       0.28125000000000000        0.0000000000000000     
  0.75000000000000000       0.28125000000000000        0.0000000000000000     
  0.62500000000000000       0.31250000000000000        0.0000000000000000     
  0.65625000000000000       0.31250000000000000        0.0000000000000000     
  0.68750000000000000       0.31250000000000000        0.0000000000000000     
  0.71875000000000000       0.31250000000000000        0.0000000000000000     
  0.75000000000000000       0.31250000000000000        0.0000000000000000     
  0.62500000000000000       0.34375000000000000        0.0000000000000000     
  0.65625000000000000       0.34375000000000000        0.0000000000000000     
  0.68750000000000000       0.34375000000000000        0.0000000000000000     
  0.71875000000000000       0.34375000000000000        0.0000000000000000     
  0.75000000000000000       0.34375000000000000        0.0000000000000000     
  0.62500000000000000       0.37500000000000000        0.0000000000000000     
  0.65625000000000000       0.37500000000000000        0.0000000000000000     
  0.68750000000000000       0.37500000000000000        0.0000000000000000     
  0.71875000000000000       0.37500000000000000        0.0000000000000000     
  0.75000000000000000       0.37500000000000000        0.0000000000000000     
  0.75000000000000000       0.25000000000000000        0.0000000000000000     
  0.78125000000000000       0.25000000000000000        0.0000000000000000     
  0.81250000000000000       0.25000000000000000        0.0000000000000000     
  0.84375000000000000       0.25000000000000000        0.0000000000000000     
  0.87500000000000000       0.25000000000000000        0.0000000000000000     
  0.75000000000000000       0.28125000000000000        0.0000000000000000     
  0.78125000000000000       0.28125000000000000        0.0000000000000000     
  0.81250000000000000       0.28125000000000000        0.0000000000000000     
  0.84375000000000000       0.28125000000000000        0.0000000000000000     
  0.87500000000000000       0.28125000000000000        0.0000000000000000     
  0.75000000000000000       0.31250000000000000        0.0000000000000000     
  0.78125000000000000       0.31250000000000000        0.0000000000000000     
  0.81250000000000000       0.31250000000000000        0.0000000000000000     
  0.84375000000000000       0.31250000000000000        0.0000000000000000     
  0.87500000000000000       0.31250000000000000        0.0000000000000000     
  0.75000000000000000       0.34375000000000000        0.0000000000000000     
  0.78125000000000000       0.34375000000000000        0.0000000000000000     
  0.81250000000000000       0.34375000000000000        0.0000000000000000     
  0.84375000000000000       0.34375000000000000        0.0000000000000000     
  0.87500000000000000       0.34375000000000000        0.0000000000000000     
  0.75000000000000000       0.37500000000000000        0.0000000000000000     
  0.78125000000000000       0.37500000000000000        0.0000000000000000     
  0.81250000000000000       0.37500000000000000        0.0000000000000000     
  0.84375000000000000       0.37500000000000000        0.0000000000000000     
  0.87500000000000000       0.37500000000000000        0.0000000000000000     
  0.87500000000000000       0.25000000000000000        0.0000000000000000     
  0.90625000000000000       0.25000000000000000        0.0000000000000000     
  0.93750000000000000       0.25000000000000000        0.0000000000000000     
  0.96875000000000000       0.25000000000000000        0.0000000000000000     
   1.0000000000000000       0.25000000000000000        0.0000000000000000     
  0.87500000000000000       0.28125000000000000        0.0000000000000000     
  0.90625000000000000       0.28125000000000000        0.0000000000000000     
  0.93750000000000000       0.28125000000000000        0.0000000000000000     
  0.96875000000000000       0.28125000000000000        0.0000000000000000     
   1.0000000000000000       0.28125000000000000        0.0000000000000000     
  0.87500000000000000       0.31250000000000000        0.0000000000000000     
  0.90625000000000000       0.31250000000000000        0.0000000000000000     
  0.93750000000000000       0.31250000000000000        0.0000000000000000     
  0.96875000000000000       0.31250000000000000        0.0000000000000000     
   1.0000000000000000       0.31250000000000000        0.0000000000000000     
  0.87500000000000000       0.34375000000000000        0.0000000000000000     
  0.90625000000000000       0.34375000000000000        0.0000000000000000     
  0.93750000000000000       0.34375000000000000        0.0000000000000000     
  0.96875000000000000       0.34375000000000000        0.0000000000000000     
   1.0000000000000000       0.34375000000000000        0.0000000000000000     
  0.87500000000000000       0.37500000000000000        0.0000000000000000     
  0.90625000000000000       0.37500000000000000        0.0000000000000000     
  0.93750000000000000       0.37500000000000000        0.0000000000000000     
  0.96875000000000000       0.37500000000000000        0.0000000000000000     
   1.0000000000000000       0.37500000000000000        0.0000000000000000     
   0.0000000000000000       0.37500000000000000        0.0000000000000000     
   3.1250000000000000E-002  0.37500000000000000        0.0000000000000000     
   6.2500000000000000E-002  0.37500000000000000        0.0000000000000000     
   9.3750000000000000E-002  0.37500000000000000        0.0000000000000000     
  0.12500000000000000       0.37500000000000000        0.0000000000000000     
   0.0000000000000000       0.40625000000000000        0.0000000000000000     
   3.1250000000000000E-002  0.40625000000000000        0.0000000000000000     
   6.2500000000000000E-002  0.40625000000000000        0.0000000000000000     
   9.3750000000000000E-002  0.40625000000000000        0.0000000000000000     
  0.12500000000000000       0.40625000000000000        0.0000000000000000     
   0.0000000000000000       0.43750000000000000        0.0000000000000000     
   3.1250000000000000E-002  0.43750000000000000        0.0000000000000000     
   6.2500000000000000E-002  0.43750000000000000        0.0000000000000000     
   9.3750000000000000E-002  0.43750000000000000        0.0000000000000000     
  0.12500000000000000       0.43750000000000000        0.0000000000000000     
   0.0000000000000000       0.46875000000000000        0.0000000000000000     
   3.1250000000000000E-002  0.46875000000000000        0.0000000000000000     
   6.2500000000000000E-002  0.46875000000000000        0.0000000000000000     
   9.3750000000000000E-002  0.46875000000000000        0.0000000000000000     
  0.12500000000000000       0.46875000000000000        0.0000000000000000     
   0.0000000000000000       0.50000000000000000        0.0000000000000000     
   3.1250000000000000E-002  0.50000000000000000        0.0000000000000000     
   6.2500000000000000E-002  0.50000000000000000        0.0000000000000000     
   9.3750000000000000E-002  0.50000000000000000        0.0000000000000000     
  0.12500000000000000       0.50000000000000000        0.0000000000000000     
  0.12500000000000000       0.37500000000000000        0.0000000000000000     
  0.15625000000000000       0.37500000000000000        0.0000000000000000     
  0.18750000000000000       0.37500000000000000        0.0000000000000000     
  0.21875000000000000       0.37500000000000000        0.0000000000000000     
  0.25000000000000000       0.37500000000000000        0.0000000000000000     
  0.12500000000000000       0.40625000000000000        0.0000000000000000     
  0.15625000000000000       0.40625000000000000        0.0000000000000000     
  0.18750000000000000       0.40625000000000000        0.0000000000000000     
  0.21875000000000000       0.40625000000000000        0.0000000000000000     
  0.25000000000000000       0.40625000000000000        0.0000000000000000     
  0.12500000000000000       0.43750000000000000        0.0000000000000000     
  0.15625000000000000       0.43750000000000000        0.0000000000000000     
  0.18750000000000000       0.43750000000000000        0.0000000000000000     
  0.21875000000000000       0.43750000000000000        0.0000000000000000     
  0.25000000000000000       0.43750000000000000        0.0000000000000000     
  0.12500000000000000       0.46875000000000000        0.0000000000000000     
  0.15625000000000000       0.46875000000000000        0.0000000000000000     
  0.18750000000000000       0.46875000000000000        0.0000000000000000     
  0.21875000000000000       0.46875000000000000        0.0000000000000000     
  0.25000000000000000       0.46875000000000000        0.0000000000000000     
  0.12500000000000000       0.50000000000000000        0.0000000000000000     
  0.15625000000000000       0.50000000000000000        0.0000000000000000     
  0.18750000000000000       0.50000000000000000        0.0000000000000000     
  0.21875000000000000       0.50000000000000000        0.0000000000000000     
  0.25000000000000000       0.50000000000000000        0.0000000000000000     
  0.25000000000000000       0.37500000000000000        0.0000000000000000     
  0.28125000000000000       0.37500000000000000        0.0000000000000000     
  0.31250000000000000       0.37500000000000000        0.0000000000000000     
  0.34375000000000000       0.37500000000000000        0.0000000000000000     
  0.37500000000000000       0.37500000000000000        0.0000000000000000     
  0.25000000000000000       0.40625000000000000        0.0000000000000000     
  0.28125000000000000       0.40625000000000000        0.0000000000000000     
  0.31250000000000000       0.40625000000000000        0.0000000000000000     
  0.34375000000000000       0.40625000000000000        0.0000000000000000     
  0.37500000000000000       0.40625000000000000        0.0000000000000000     
  0.25000000000000000       0.43750000000000000        0.0000000000000000     
  0.28125000000000000       0.43750000000000000        0.0000000000000000     
  0.31250000000000000       0.43750000000000000        0.0000000000000000     
  0.34375000000000000       0.43750000000000000        0.0000000000000000     
  0.37500000000000000       0.43750000000000000        0.0000000000000000     
  0.25000000000000000       0.46875000000000000        0.0000000000000000     
  0.28125000000000000       0.46875000000000000        0.0000000000000000     
  0.31250000000000000       0.46875000000000000        0.0000000000000000     
  0.34375000000000000       0.46875000000000000        0.0000000000000000     
  0.37500000000000000       0.46875000000000000        0.0000000000000000     
  0.25000000000000000       0.50000000000000000        0.0000000000000000     
  0.28125000000000000       0.50000000000000000        0.0000000000000000     
  0.31250000000000000       0.50000000000000000        0.0000000000000000     
  0.34375000000000000       0.50000000000000000        0.0000000000000000     
  0.37500000000000000       0.50000000000000000        0.0000000000000000     
  0.37500000000000000       0.37500000000000000        0.0000000000000000     
  0.40625000000000000       0.37500000000000000        0.0000000000000000     
  0.43750000000000000       0.37500000000000000        0.0000000000000000     
  0.46875000000000000       0.37500000000000000        0.0000000000000000     
  0.50000000000000000       0.37500000000000000        0.0000000000000000     
  0.37500000000000000       0.40625000000000000        0.0000000000000000     
  0.40625000000000000       0.40625000000000000        0.0000000000000000     
  0.43750000000000000       0.40625000000000000        0.0000000000000000     
  0.46875000000000000       0.40625000000000000        0.0000000000000000     
  0.50000000000000000       0.40625000000000000        0.0000000000000000     
  0.37500000000000000       0.43750000000000000        0.0000000000000000     
  0.40625000000000000       0.43750000000000000        0.0000000000000000     
  0.43750000000000000       0.43750000000000000        0.0000000000000000     
  0.46875000000000000       0.43750000000000000        0.0000000000000000     
  0.50000000000000000       0.43750000000000000        0.0000000000000000     
  0.37500000000000000       0.46875000000000000        0.0000000000000000     
  0.40625000000000000       0.46875000000000000        0.0000000000000000     
  0.43750000000000000       0.46875000000000000        0.0000000000000000     
  0.46875000000000000       0.46875000000000000        0.0000000000000000     
  0.50000000000000000       0.46875000000000000        0.0000000000000000     
  0.37500000000000000       0.50000000000000000        0.0000000000000000     
  0.40625000000000000       0.50000000000000000        0.0000000000000000     
  0.43750000000000000       0.50000000000000000        0.0000000000000000     
  0.46875000000000000       0.50000000000000000        0.0000000000000000     
  0.50000000000000000       0.50000000000000000        0.0000000000000000     
  0.50000000000000000       0.37500000000000000        0.0000000000000000     
  0.53125000000000000       0.37500000000000000        0.0000000000000000     
  0.56250000000000000       0.37500000000000000        0.0000000000000000     
  0.59375000000000000       0.37500000000000000        0.0000000000000000     
  0.62500000000000000       0.37500000000000000        0.0000000000000000     
  0.50000000000000000       0.40625000000000000        0.0000000000000000     
  0.53125000000000000       0.40625000000000000        0.0000000000000000     
  0.56250000000000000       0.40625000000000000        0.0000000000000000     
  0.59375000000000000       0.40625000000000000        0.0000000000000000     
  0.62500000000000000       0.40625000000000000        0.0000000000000000     
  0.50000000000000000       0.43750000000000000        0.0000000000000000     
  0.53125000000000000       0.43750000000000000        0.0000000000000000     
  0.56250000000000000       0.43750000000000000        0.0000000000000000     
  0.59375000000000000       0.43750000000000000        0.0000000000000000     
  0.62500000000000000       0.43750000000000000        0.0000000000000000     
  0.50000000000000000       0.46875000000000000        0.0000000000000000     
  0.53125000000000000       0.46875000000000000        0.0000000000000000     
  0.56250000000000000       0.46875000000000000        0.0000000000000000     
  0.59375000000000000       0.46875000000000000        0.0000000000000000     
  0.62500000000000000       0.46875000000000000        0.0000000000000000     
  0.50000000000000000       0.50000000000000000        0.0000000000000000     
  0.53125000000000000       0.50000000000000000        0.0000000000000000     
  0.56250000000000000       0.50000000000000000        0.0000000000000000     
  0.59375000000000000       0.50000000000000000        0.0000000000000000     
  0.62500000000000000       0.50000000000000000        0.0000000000000000     
  0.62500000000000000       0.37500000000000000        0.0000000000000000     
  0.65625000000000000       0.37500000000000000        0.0000000000000000     
  0.68750000000000000       0.37500000000000000        0.0000000000000000     
  0.71875000000000000       0.37500000000000000        0.0000000000000000     
  0.75000000000000000       0.37500000000000000        0.0000000000000000     
  0.62500000000000000       0.40625000000000000        0.0000000000000000     
  0.65625000000000000       0.40625000000000000        0.0000000000000000     
  0.68750000000000000       0.40625000000000000        0.0000000000000000     
  0.71875000000000000       0.40625000000000000        0.0000000000000000     
  0.75000000000000000       0.40625000000000000        0.0000000000000000     
  0.62500000000000000       0.43750000000000000        0.0000000000000000     
  0.65625000000000000       0.43750000000000000        0.0000000000000000     
  0.68750000000000000       0.43750000000000000        0.0000000000000000     
  0.71875000000000000       0.43750000000000000        0.0000000000000000     
  0.75000000000000000       0.43750000000000000        0.0000000000000000     
  0.62500000000000000       0.46875000000000000        0.0000000000000000     
  0.65625000000000000       0.46875000000000000        0.0000000000000000     
  0.68750000000000000       0.46875000000000000        0.0000000000000000     
  0.71875000000000000       0.46875000000000000        0.0000000000000000     
  0.75000000000000000       0.46875000000000000        0.0000000000000000     
  0.62500000000000000       0.50000000000000000        0.0000000000000000     
  0.65625000000000000       0.50000000000000000        0.0000000000000000     
  0.68750000000000000       0.50000000000000000        0.0000000000000000     
  0.71875000000000000       0.50000000000000000        0.0000000000000000     
  0.75000000000000000       0.50000000000000000        0.0000000000000000     
  0.75000000000000000       0.37500000000000000        0.0000000000000000     
  0.78125000000000000       0.37500000000000000        0.0000000000000000     
  0.81250000000000000       0.37500000000000000        0.0000000000000000     
  0.84375000000000000       0.37500000000000000        0.0000000000000000     
  0.87500000000000000       0.37500000000000000        0.0000000000000000     
  0.75000000000000000       0.40625000000000000        0.0000000000000000     
  0.78125000000000000       0.40625000000000000        0.0000000000000000     
  0.81250000000000000       0.40625000000000000        0.0000000000000000     
  0.84375000000000000       0.40625000000000000        0.0000000000000000     
  0.87500000000000000       0.40625000000000000        0.0000000000000000     
  0.75000000000000000       0.43750000000000000        0.0000000000000000     
  0.78125000000000000       0.43750000000000000        0.0000000000000000     
  0.81250000000000000       0.43750000000000000        0.0000000000000000     
  0.84375000000000000       0.43750000000000000        0.0000000000000000     
  0.87500000000000000       0.43750000000000000        0.0000000000000000     
  0.75000000000000000       0.46875000000000000        0.0000000000000000     
  0.78125000000000000       0.46875000000000000        0.0000000000000000     
  0.81250000000000000       0.46875000000000000        0.0000000000000000     
  0.84375000000000000       0.46875000000000000        0.0000000000000000     
  0.87500000000000000       0.46875000000000000        0.0000000000000000     
  0.75000000000000000       0.50000000000000000        0.0000000000000000     
  0.78125000000000000       0.50000000000000000        0.0000000000000000     
  0.81250000000000000       0.50000000000000000        0.0000000000000000     
  0.84375000000000000       0.50000000000000000        0.0000000000000000     
  0.87500000000000000       0.50000000000000000        0.0000000000000000     
  0.87500000000000000       0.37500000000000000        0.0000000000000000     
  0.90625000000000000       0.37500000000000000        0.0000000000000000     
  0.93750000000000000       0.37500000000000000        0.0000000000000000     
  0.96875000000000000       0.37500000000000000        0.0000000000000000     
   1.0000000000000000       0.37500000000000000        0.0000000000000000     
  0.87500000000000000       0.40625000000000000        0.0000000000000000     
  0.90625000000000000       0.40625000000000000        0.0000000000000000     
  0.93750000000000000       0.40625000000000000        0.0000000000000000     
  0.96875000000000000       0.40625000000000000        0.0000000000000000     
   1.0000000000000000       0.40625000000000000        0.0000000000000000     
  0.87500000000000000       0.43750000000000000        0.0000000000000000     
  0.90625000000000000       0.43750000000000000        0.0000000000000000     
  0.93750000000000000       0.43750000000000000        0.0000000000000000     
  0.96875000000000000       0.43750000000000000        0.0000000000000000     
   1.0000000000000000       0.43750000000000000        0.0000000000000000     
  0.87500000000000000       0.46875000000000000        0.0000000000000000     
  0.90625000000000000       0.46875000000000000        0.0000000000000000     
  0.93750000000000000       0.46875000000000000        0.0000000000000000     
  0.96875000000000000       0.46875000000000000        0.0000000000000000     
   1.0000000000000000       0.46875000000000000        0.0000000000000000     
  0.87500000000000000       0.50000000000000000        0.0000000000000000     
  0.90625000000000000       0.50000000000000000        0.0000000000000000     
  0.93750000000000000       0.50000000000000000        0.0000000000000000     
  0.96875000000000000       0.50000000000000000        0.0000000000000000     
   1.0000000000000000       0.50000000000000000        0.0000000000000000     
   0.0000000000000000       0.50000000000000000        0.0000000000000000     
   3.1250000000000000E-002  0.50000000000000000        0.0000000000000000     
   6.2500000000000000E-002  0.50000000000000000        0.0000000000000000     
   9.3750000000000000E-002  0.50000000000000000        0.0000000000000000     
  0.12500000000000000       0.50000000000000000        0.0000000000000000     
   0.0000000000000000       0.53125000000000000        0.0000000000000000     
   3.1250000000000000E-002  0.53125000000000000        0.0000000000000000     
   6.2500000000000000E-002  0.53125000000000000        0.0000000000000000     
   9.3750000000000000E-002  0.53125000000000000        0.0000000000000000     
  0.12500000000000000       0.53125000000000000        0.0000000000000000     
   0.0000000000000000       0.56250000000000000        0.0000000000000000     
   3.1250000000000000E-002  0.56250000000000000        0.0000000000000000     
   6.2500000000000000E-002  0.56250000000000000        0.0000000000000000     
   9.3750000000000000E-002  0.56250000000000000        0.0000000000000000     
  0.12500000000000000       0.56250000000000000        0.0000000000000000     
   0.0000000000000000       0.59375000000000000        0.0000000000000000     
   3.1250000000000000E-002  0.59375000000000000        0.0000000000000000     
   6.2500000000000000E-002  0.59375000000000000        0.0000000000000000     
   9.3750000000000000E-002  0.59375000000000000        0.0000000000000000     
  0.12500000000000000       0.59375000000000000        0.0000000000000000     
   0.0000000000000000       0.62500000000000000        0.0000000000000000     
   3.1250000000000000E-002  0.62500000000000000        0.0000000000000000     
   6.2500000000000000E-002  0.62500000000000000        0.0000000000000000     
   9.3750000000000000E-002  0.62500000000000000        0.0000000000000000     
  0.12500000000000000       0.62500000000000000        0.0000000000000000     
  0.12500000000000000       0.50000000000000000        0.0000000000000000     
  0.15625000000000000       0.50000000000000000        0.0000000000000000     
  0.18750000000000000       0.50000000000000000        0.0000000000000000     
  0.21875000000000000       0.50000000000000000        0.0000000000000000     
  0.25000000000000000       0.50000000000000000        0.0000000000000000     
  0.12500000000000000       0.53125000000000000        0.0000000000000000     
  0.15625000000000000       0.53125000000000000        0.0000000000000000     
  0.18750000000000000       0.53125000000000000        0.0000000000000000     
  0.21875000000000000       0.53125000000000000        0.0000000000000000     
  0.25000000000000000       0.53125000000000000        0.0000000000000000     
  0.12500000000000000       0.56250000000000000        0.0000000000000000     
  0.15625000000000000       0.56250000000000000        0.0000000000000000     
  0.18750000000000000       0.56250000000000000        0.0000000000000000     
  0.21875000000000000       0.56250000000000000        0.0000000000000000     
  0.25000000000000000       0.56250000000000000        0.0000000000000000     
  0.12500000000000000       0.59375000000000000        0.0000000000000000     
  0.15625000000000000       0.59375000000000000        0.0000000000000000     
  0.18750000000000000       0.59375000000000000        0.0000000000000000     
  0.21875000000000000       0.59375000000000000        0.0000000000000000     
  0.25000000000000000       0.59375000000000000        0.0000000000000000     
  0.12500000000000000       0.62500000000000000        0.0000000000000000     
  0.15625000000000000       0.62500000000000000        0.0000000000000000     
  0.18750000000000000       0.62500000000000000        0.0000000000000000     
  0.21875000000000000       0.62500000000000000        0.0000000000000000     
  0.25000000000000000       0.62500000000000000        0.0000000000000000     
  0.25000000000000000       0.50000000000000000        0.0000000000000000     
  0.28125000000000000       0.50000000000000000        0.0000000000000000     
  0.31250000000000000       0.50000000000000000        0.0000000000000000     
  0.34375000000000000       0.50000000000000000        0.0000000000000000     
  0.37500000000000000       0.50000000000000000        0.0000000000000000     
  0.25000000000000000       0.53125000000000000        0.0000000000000000     
  0.28125000000000000       0.53125000000000000        0.0000000000000000     
  0.31250000000000000       0.53125000000000000        0.0000000000000000     
  0.34375000000000000       0.53125000000000000        0.0000000000000000     
  0.37500000000000000       0.53125000000000000        0.0000000000000000     
  0.25000000000000000       0.56250000000000000        0.0000000000000000     
  0.28125000000000000       0.56250000000000000        0.0000000000000000     
  0.31250000000000000       0.56250000000000000        0.0000000000000000     
  0.34375000000000000       0.56250000000000000        0.0000000000000000     
  0.37500000000000000       0.56250000000000000        0.0000000000000000     
  0.25000000000000000       0.59375000000000000        0.0000000000000000     
  0.28125000000000000       0.59375000000000000        0.0000000000000000     
  0.31250000000000000       0.59375000000000000        0.0000000000000000     
  0.34375000000000000       0.59375000000000000        0.0000000000000000     
  0.37500000000000000       0.59375000000000000        0.0000000000000000     
  0.25000000000000000       0.62500000000000000        0.0000000000000000     
  0.28125000000000000       0.62500000000000000        0.0000000000000000     
  0.31250000000000000       0.62500000000000000        0.0000000000000000     
  0.34375000000000000       0.62500000000000000        0.0000000000000000     
  0.37500000000000000       0.62500000000000000        0.0000000000000000     
  0.37500000000000000       0.50000000000000000        0.0000000000000000     
  0.40625000000000000       0.50000000000000000        0.0000000000000000     
  0.43750000000000000       0.50000000000000000        0.0000000000000000     
  0.46875000000000000       0.50000000000000000        0.0000000000000000     
  0.50000000000000000       0.50000000000000000        0.0000000000000000     
  0.37500000000000000       0.53125000000000000        0.0000000000000000     
  0.40625000000000000       0.53125000000000000        0.0000000000000000     
  0.43750000000000000       0.53125000000000000        0.0000000000000000     
  0.46875000000000000       0.53125000000000000        0.0000000000000000     
  0.50000000000000000       0.53125000000000000        0.0000000000000000     
  0.37500000000000000       0.56250000000000000        0.0000000000000000     
  0.40625000000000000       0.56250000000000000        0.0000000000000000     
  0.43750000000000000       0.56250000000000000        0.0000000000000000     
  0.46875000000000000       0.56250000000000000        0.0000000000000000     
  0.50000000000000000       0.56250000000000000        0.0000000000000000     
  0.37500000000000000       0.59375000000000000        0.0000000000000000     
  0.40625000000000000       0.59375000000000000        0.0000000000000000     
  0.43750000000000000       0.59375000000000000        0.0000000000000000     
  0.46875000000000000       0.59375000000000000        0.0000000000000000     
  0.50000000000000000       0.59375000000000000        0.0000000000000000     
  0.37500000000000000       0.62500000000000000        0.0000000000000000     
  0.40625000000000000       0.62500000000000000        0.0000000000000000     
  0.43750000000000000       0.62500000000000000        0.0000000000000000     
  0.46875000000000000       0.62500000000000000        0.0000000000000000     
  0.50000000000000000       0.62500000000000000        0.0000000000000000     
  0.50000000000000000       0.50000000000000000        0.0000000000000000     
  0.53125000000000000       0.50000000000000000        0.0000000000000000     
  0.56250000000000000       0.50000000000000000        0.0000000000000000     
  0.59375000000000000       0.50000000000000000        0.0000000000000000     
  0.62500000000000000       0.50000000000000000        0.0000000000000000     
  0.50000000000000000       0.53125000000000000        0.0000000000000000     
  0.53125000000000000       0.53125000000000000        0.0000000000000000     
  0.56250000000000000       0.53125000000000000        0.0000000000000000     
  0.59375000000000000       0.53125000000000000        0.0000000000000000     
  0.62500000000000000       0.53125000000000000        0.0000000000000000     
  0.50000000000000000       0.56250000000000000        0.0000000000000000     
  0.53125000000000000       0.56250000000000000        0.0000000000000000     
  0.56250000000000000       0.56250000000000000        0.0000000000000000     
  0.59375000000000000       0.56250000000000000        0.0000000000000000     
  0.62500000000000000       0.56250000000000000        0.0000000000000000     
  0.50000000000000000       0.59375000000000000        0.0000000000000000     
  0.53125000000000000       0.59375000000000000        0.0000000000000000     
  0.56250000000000000       0.59375000000000000        0.0000000000000000     
  0.59375000000000000       0.59375000000000000        0.0000000000000000     
  0.62500000000000000       0.59375000000000000        0.0000000000000000     
  0.50000000000000000       0.62500000000000000        0.0000000000000000     
  0.53125000000000000       0.62500000000000000        0.0000000000000000     
  0.56250000000000000       0.62500000000000000        0.0000000000000000     
  0.59375000000000000       0.62500000000000000        0.0000000000000000     
  0.62500000000000000       0.62500000000000000        0.0000000000000000     
  0.62500000000000000       0.50000000000000000        0.0000000000000000     
  0.65625000000000000       0.50000000000000000        0.0000000000000000     
  0.68750000000000000       0.50000000000000000        0.0000000000000000     
  0.71875000000000000       0.50000000000000000        0.0000000000000000     
  0.75000000000000000       0.50000000000000000        0.0000000000000000     
  0.62500000000000000       0.53125000000000000        0.0000000000000000     
  0.65625000000000000       0.53125000000000000        0.0000000000000000     
  0.68750000000000000       0.53125000000000000        0.0000000000000000     
  0.71875000000000000       0.53125000000000000        0.0000000000000000     
  0.75000000000000000       0.53125000000000000        0.0000000000000000     
  0.62500000000000000       0.56250000000000000        0.0000000000000000     
  0.65625000000000000       0.56250000000000000        0.0000000000000000     
  0.68750000000000000       0.56250000000000000        0.0000000000000000     
  0.71875000000000000       0.56250000000000000        0.0000000000000000     
  0.75000000000000000       0.56250000000000000        0.0000000000000000     
  0.62500000000000000       0.59375000000000000        0.0000000000000000     
  0.65625000000000000       0.59375000000000000        0.0000000000000000     
  0.68750000000000000       0.59375000000000000        0.0000000000000000     
  0.71875000000000000       0.59375000000000000        0.0000000000000000     
  0.75000000000000000       0.59375000000000000        0.0000000000000000     
  0.62500000000000000       0.62500000000000000        0.0000000000000000     
  0.65625000000000000       0.62500000000000000        0.0000000000000000     
  0.68750000000000000       0.62500000000000000        0.0000000000000000     
  0.71875000000000000       0.62500000000000000        0.0000000000000000     
  0.75000000000000000       0.62500000000000000        0.0000000000000000     
  0.75000000000000000       0.50000000000000000        0.0000000000000000     
  0.78125000000000000       0.50000000000000000        0.0000000000000000     
  0.81250000000000000       0.50000000000000000        0.0000000000000000     
  0.84375000000000000       0.50000000000000000        0.0000000000000000     
  0.87500000000000000       0.50000000000000000        0.0000000000000000     
  0.75000000000000000       0.53125000000000000        0.0000000000000000     
  0.78125000000000000       0.53125000000000000        0.0000000000000000     
  0.81250000000000000       0.53125000000000000        0.0000000000000000     
  0.84375000000000000       0.53125000000000000        0.0000000000000000     
  0.87500000000000000       0.53125000000000000        0.0000000000000000     
  0.75000000000000000       0.56250000000000000        0.0000000000000000     
  0.78125000000000000       0.56250000000000000        0.0000000000000000     
  0.81250000000000000       0.56250000000000000        0.0000000000000000     
  0.84375000000000000       0.56250000000000000        0.0000000000000000     
  0.87500000000000000       0.56250000000000000        0.0000000000000000     
  0.75000000000000000       0.59375000000000000        0.0000000000000000     
  0.78125000000000000       0.59375000000000000        0.0000000000000000     
  0.81250000000000000       0.59375000000000000        0.0000000000000000     
  0.84375000000000000       0.59375000000000000        0.0000000000000000     
  0.87500000000000000       0.59375000000000000        0.0000000000000000     
  0.75000000000000000       0.62500000000000000        0.0000000000000000     
  0.78125000000000000       0.62500000000000000        0.0000000000000000     
  0.81250000000000000       0.62500000000000000        0.0000000000000000     
  0.84375000000000000       0.62500000000000000        0.0000000000000000     
  0.87500000000000000       0.62500000000000000        0.0000000000000000     
  0.87500000000000000       0.50000000000000000        0.0000000000000000     
  0.90625000000000000       0.50000000000000000        0.0000000000000000     
  0.93750000000000000       0.50000000000000000        0.0000000000000000     
  0.96875000000000000       0.50000000000000000        0.0000000000000000     
   1.0000000000000000       0.50000000000000000        0.0000000000000000     
  0.87500000000000000       0.53125000000000000        0.0000000000000000     
  0.90625000000000000       0.53125000000000000        0.0000000000000000     
  0.93750000000000000       0.53125000000000000        0.0000000000000000     
  0.96875000000000000       0.53125000000000000        0.0000000000000000     
   1.0000000000000000       0.53125000000000000        0.0000000000000000     
  0.87500000000000000       0.56250000000000000        0.0000000000000000     
  0.90625000000000000       0.56250000000000000        0.0000000000000000     
  0.93750000000000000       0.56250000000000000        0.0000000000000000     
  0.96875000000000000       0.56250000000000000        0.0000000000000000     
   1.0000000000000000       0.56250000000000000        0.0000000000000000     
  0.87500000000000000       0.59375000000000000        0.0000000000000000     
  0.90625000000000000       0.59375000000000000        0.0000000000000000     
  0.93750000000000000       0.59375000000000000        0.0000000000000000     
  0.96875000000000000       0.59375000000000000        0.0000000000000000     
   1.0000000000000000       0.59375000000000000        0.0000000000000000     
  0.87500000000000000       0.62500000000000000        0.0000000000000000     
  0.90625000000000000       0.62500000000000000        0.0000000000000000     
  0.93750000000000000       0.62500000000000000        0.0000000000000000     
  0.96875000000000000       0.62500000000000000        0.0000000000000000     
   1.0000000000000000       0.62500000000000000        0.0000000000000000     
   0.0000000000000000       0.62500000000000000        0.0000000000000000     
   3.1250000000000000E-002  0.62500000000000000        0.0000000000000000     
   6.2500000000000000E-002  0.62500000000000000        0.0000000000000000     
   9.3750000000000000E-002  0.62500000000000000        0.0000000000000000     
  0.12500000000000000       0.62500000000000000        0.0000000000000000     
   0.0000000000000000       0.65625000000000000        0.0000000000000000     
   3.1250000000000000E-002  0.65625000000000000        0.0000000000000000     
   6.2500000000000000E-002  0.65625000000000000        0.0000000000000000     
   9.3750000000000000E-002  0.65625000000000000        0.0000000000000000     
  0.12500000000000000       0.65625000000000000        0.0000000000000000     
   0.0000000000000000       0.68750000000000000        0.0000000000000000     
   3.1250000000000000E-002  0.68750000000000000        0.0000000000000000     
   6.2500000000000000E-002  0.68750000000000000        0.0000000000000000     
   9.3750000000000000E-002  0.68750000000000000        0.0000000000000000     
  0.12500000000000000       0.68750000000000000        0.0000000000000000     
   0.0000000000000000       0.71875000000000000        0.0000000000000000     
   3.1250000000000000E-002  0.71875000000000000        0.0000000000000000     
   6.2500000000000000E-002  0.71875000000000000        0.0000000000000000     
   9.3750000000000000E-002  0.71875000000000000        0.0000000000000000     
  0.12500000000000000       0.71875000000000000        0.0000000000000000     
   0.0000000000000000       0.75000000000000000        0.0000000000000000     
   3.1250000000000000E-002  0.75000000000000000        0.0000000000000000     
   6.2500000000000000E-002  0.75000000000000000        0.0000000000000000     
   9.3750000000000000E-002  0.75000000000000000        0.0000000000000000     
  0.12500000000000000       0.75000000000000000        0.0000000000000000     
  0.12500000000000000       0.62500000000000000        0.0000000000000000     
  0.15625000000000000       0.62500000000000000        0.0000000000000000     
  0.18750000000000000       0.62500000000000000        0.0000000000000000     
  0.21875000000000000       0.62500000000000000        0.0000000000000000     
  0.25000000000000000       0.62500000000000000        0.0000000000000000     
  0.12500000000000000       0.65625000000000000        0.0000000000000000     
  0.15625000000000000       0.65625000000000000        0.0000000000000000     
  0.18750000000000000       0.65625000000000000        0.0000000000000000     
  0.21875000000000000       0.65625000000000000        0.0000000000000000     
  0.25000000000000000       0.65625000000000000        0.0000000000000000     
  0.12500000000000000       0.68750000000000000        0.0000000000000000     
  0.15625000000000000       0.68750000000000000        0.0000000000000000     
  0.18750000000000000       0.68750000000000000        0.0000000000000000     
  0.21875000000000000       0.68750000000000000        0.0000000000000000     
  0.25000000000000000       0.68750000000000000        0.0000000000000000     
  0.12500000000000000       0.71875000000000000        0.0000000000000000     
  0.15625000000000000       0.71875000000000000        0.0000000000000000     
  0.18750000000000000       0.71875000000000000        0.0000000000000000     
  0.21875000000000000       0.71875000000000000        0.0000000000000000     
  0.25000000000000000       0.71875000000000000        0.0000000000000000     
  0.12500000000000000       0.75000000000000000        0.0000000000000000     
  0.15625000000000000       0.75000000000000000        0.0000000000000000     
  0.18750000000000000       0.75000000000000000        0.0000000000000000     
  0.21875000000000000       0.75000000000000000        0.0000000000000000     
  0.25000000000000000       0.75000000000000000        0.0000000000000000     
  0.25000000000000000       0.62500000000000000        0.0000000000000000     
  0.28125000000000000       0.62500000000000000        0.0000000000000000     
  0.31250000000000000       0.62500000000000000        0.0000000000000000     
  0.34375000000000000       0.62500000000000000        0.0000000000000000     
  0.37500000000000000       0.62500000000000000        0.0000000000000000     
  0.25000000000000000       0.65625000000000000        0.0000000000000000     
  0.28125000000000000       0.65625000000000000        0.0000000000000000     
  0.31250000000000000       0.65625000000000000        0.0000000000000000     
  0.34375000000000000       0.65625000000000000        0.0000000000000000     
  0.37500000000000000       0.65625000000000000        0.0000000000000000     
  0.25000000000000000       0.68750000000000000        0.0000000000000000     
  0.28125000000000000       0.68750000000000000        0.0000000000000000     
  0.31250000000000000       0.68750000000000000        0.0000000000000000     
  0.34375000000000000       0.68750000000000000        0.0000000000000000     
  0.37500000000000000       0.68750000000000000        0.0000000000000000     
  0.25000000000000000       0.71875000000000000        0.0000000000000000     
  0.28125000000000000       0.71875000000000000        0.0000000000000000     
  0.31250000000000000       0.71875000000000000        0.0000000000000000     
  0.34375000000000000       0.71875000000000000        0.0000000000000000     
  0.37500000000000000       0.71875000000000000        0.0000000000000000     
  0.25000000000000000       0.75000000000000000        0.0000000000000000     
  0.28125000000000000       0.75000000000000000        0.0000000000000000     
  0.31250000000000000       0.75000000000000000        0.0000000000000000     
  0.34375000000000000       0.75000000000000000        0.0000000000000000     
  0.37500000000000000       0.75000000000000000        0.0000000000000000     
  0.37500000000000000       0.62500000000000000        0.0000000000000000     
  0.40625000000000000       0.62500000000000000        0.0000000000000000     
  0.43750000000000000       0.62500000000000000        0.0000000000000000     
  0.46875000000000000       0.62500000000000000        0.0000000000000000     
  0.50000000000000000       0.62500000000000000        0.0000000000000000     
  0.37500000000000000       0.65625000000000000        0.0000000000000000     
  0.40625000000000000       0.65625000000000000        0.0000000000000000     
  0.43750000000000000       0.65625000000000000        0.0000000000000000     
  0.46875000000000000       0.65625000000000000        0.0000000000000000     
  0.50000000000000000       0.65625000000000000        0.0000000000000000     
  0.37500000000000000       0.68750000000000000        0.0000000000000000     
  0.40625000000000000       0.68750000000000000        0.0000000000000000     
  0.43750000000000000       0.68750000000000000        0.0000000000000000     
  0.46875000000000000       0.68750000000000000        0.0000000000000000     
  0.50000000000000000       0.68750000000000000        0.0000000000000000     
  0.37500000000000000       0.71875000000000000        0.0000000000000000     
  0.40625000000000000       0.71875000000000000        0.0000000000000000     
  0.43750000000000000       0.71875000000000000        0.0000000000000000     
  0.46875000000000000       0.71875000000000000        0.0000000000000000     
  0.50000000000000000       0.71875000000000000        0.0000000000000000     
  0.37500000000000000       0.75000000000000000        0.0000000000000000     
  0.40625000000000000       0.75000000000000000        0.0000000000000000     
  0.43750000000000000       0.75000000000000000        0.0000000000000000     
  0.46875000000000000       0.75000000000000000        0.0000000000000000     
  0.50000000000000000       0.75000000000000000        0.0000000000000000     
  0.50000000000000000       0.62500000000000000        0.0000000000000000     
  0.53125000000000000       0.62500000000000000        0.0000000000000000     
  0.56250000000000000       0.62500000000000000        0.0000000000000000     
  0.59375000000000000       0.62500000000000000        0.0000000000000000     
  0.62500000000000000       0.62500000000000000        0.0000000000000000     
  0.50000000000000000       0.65625000000000000        0.0000000000000000     
  0.53125000000000000       0.65625000000000000        0.0000000000000000     
  0.56250000000000000       0.65625000000000000        0.0000000000000000     
  0.59375000000000000       0.65625000000000000        0.0000000000000000     
  0.62500000000000000       0.65625000000000000        0.0000000000000000     
  0.50000000000000000       0.68750000000000000        0.0000000000000000     
  0.53125000000000000       0.68750000000000000        0.0000000000000000     
  0.56250000000000000       0.68750000000000000        0.0000000000000000     
  0.59375000000000000       0.68750000000000000        0.0000000000000000     
  0.62500000000000000       0.68750000000000000        0.0000000000000000     
  0.50000000000000000       0.71875000000000000        0.0000000000000000     
  0.53125000000000000       0.71875000000000000        0.0000000000000000     
  0.56250000000000000       0.71875000000000000        0.0000000000000000     
  0.59375000000000000       0.71875000000000000        0.0000000000000000     
  0.62500000000000000       0.71875000000000000        0.0000000000000000     
  0.50000000000000000       0.75000000000000000        0.0000000000000000     
  0.53125000000000000       0.75000000000000000        0.0000000000000000     
  0.56250000000000000       0.75000000000000000        0.0000000000000000     
  0.59375000000000000       0.75000000000000000        0.0000000000000000     
  0.62500000000000000       0.75000000000000000        0.0000000000000000     
  0.62500000000000000       0.62500000000000000        0.0000000000000000     
  0.65625000000000000       0.62500000000000000        0.0000000000000000     
  0.68750000000000000       0.62500000000000000        0.0000000000000000     
  0.71875000000000000       0.62500000000000000        0.0000000000000000     
  0.75000000000000000       0.62500000000000000        0.0000000000000000     
  0.62500000000000000       0.65625000000000000        0.0000000000000000     
  0.65625000000000000       0.65625000000000000        0.0000000000000000     
  0.68750000000000000       0.65625000000000000        0.0000000000000000     
  0.71875000000000000       0.65625000000000000        0.0000000000000000     
  0.75000000000000000       0.65625000000000000        0.0000000000000000     
  0.62500000000000000       0.68750000000000000        0.0000000000000000     
  0.65625000000000000       0.68750000000000000        0.0000000000000000     
  0.68750000000000000       0.68750000000000000        0.0000000000000000     
  0.71875000000000000       0.68750000000000000        0.0000000000000000     
  0.75000000000000000       0.68750000000000000        0.0000000000000000     
  0.62500000000000000       0.71875000000000000        0.0000000000000000     
  0.65625000000000000       0.71875000000000000        0.0000000000000000     
  0.68750000000000000       0.71875000000000000        0.0000000000000000     
  0.71875000000000000       0.71875000000000000        0.0000000000000000     
  0.75000000000000000       0.71875000000000000        0.0000000000000000     
  0.62500000000000000       0.75000000000000000        0.0000000000000000     
  0.65625000000000000       0.75000000000000000        0.0000000000000000     
  0.68750000000000000       0.75000000000000000        0.0000000000000000     
  0.71875000000000000       0.75000000000000000        0.0000000000000000     
  0.75000000000000000       0.75000000000000000        0.0000000000000000     
  0.75000000000000000       0.62500000000000000        0.0000000000000000     
  0.78125000000000000       0.62500000000000000        0.0000000000000000     
  0.81250000000000000       0.62500000000000000        0.0000000000000000     
  0.84375000000000000       0.62500000000000000        0.0000000000000000     
  0.87500000000000000       0.62500000000000000        0.0000000000000000     
  0.75000000000000000       0.65625000000000000        0.0000000000000000     
  0.78125000000000000       0.65625000000000000        0.0000000000000000     
  0.81250000000000000       0.65625000000000000        0.0000000000000000     
  0.84375000000000000       0.65625000000000000        0.0000000000000000     
  0.87500000000000000       0.65625000000000000        0.0000000000000000     
  0.75000000000000000       0.68750000000000000        0.0000000000000000     
  0.78125000000000000       0.68750000000000000        0.0000000000000000     
  0.81250000000000000       0.68750000000000000        0.0000000000000000     
  0.84375000000000000       0.68750000000000000        0.0000000000000000     
  0.87500000000000000       0.68750000000000000        0.0000000000000000     
  0.75000000000000000       0.71875000000000000        0.0000000000000000     
  0.78125000000000000       0.71875000000000000        0.0000000000000000     
  0.81250000000000000       0.71875000000000000        0.0000000000000000     
  0.84375000000000000       0.71875000000000000        0.0000000000000000     
  0.87500000000000000       0.71875000000000000        0.0000000000000000     
  0.75000000000000000       0.75000000000000000        0.0000000000000000     
  0.78125000000000000       0.75000000000000000        0.0000000000000000     
  0.81250000000000000       0.75000000000000000        0.0000000000000000     
  0.84375000000000000       0.75000000000000000        0.0000000000000000     
  0.87500000000000000       0.75000000000000000        0.0000000000000000     
  0.87500000000000000       0.62500000000000000        0.0000000000000000     
  0.90625000000000000       0.62500000000000000        0.0000000000000000     
  0.93750000000000000       0.62500000000000000        0.0000000000000000     
  0.96875000000000000       0.62500000000000000        0.0000000000000000     
   1.0000000000000000       0.62500000000000000        0.0000000000000000     
  0.87500000000000000       0.65625000000000000        0.0000000000000000     
  0.90625000000000000       0.65625000000000000        0.0000000000000000     
  0.93750000000000000       0.65625000000000000        0.0000000000000000     
  0.96875000000000000       0.65625000000000000        0.0000000000000000     
   1.0000000000000000       0.65625000000000000        0.0000000000000000     
  0.87500000000000000       0.68750000000000000        0.0000000000000000     
  0.90625000000000000       0.68750000000000000        0.0000000000000000     
  0.93750000000000000       0.68750000000000000        0.0000000000000000     
  0.96875000000000000       0.68750000000000000        0.0000000000000000     
   1.0000000000000000       0.68750000000000000        0.0000000000000000     
  0.87500000000000000       0.71875000000000000        0.0000000000000000     
  0.90625000000000000       0.71875000000000000        0.0000000000000000     
  0.93750000000000000       0.71875000000000000        0.0000000000000000     
  0.96875000000000000       0.71875000000000000        0.0000000000000000     
   1.0000000000000000       0.71875000000000000        0.0000000000000000     
  0.87500000000000000       0.75000000000000000        0.0000000000000000     
  0.90625000000000000       0.75000000000000000        0.0000000000000000     
  0.93750000000000000       0.75000000000000000        0.0000000000000000     
  0.96875000000000000       0.75000000000000000        0.0000000000000000     
   1.0000000000000000       0.75000000000000000        0.0000000000000000     
   0.0000000000000000       0.75000000000000000        0.0000000000000000     
   3.1250000000000000E-002  0.75000000000000000        0.0000000000000000     
   6.2500000000000000E-002  0.75000000000000000        0.0000000000000000     
   9.3750000000000000E-002  0.75000000000000000        0.0000000000000000     
  0.12500000000000000       0.75000000000000000        0.0000000000000000     
   0.0000000000000000       0.78125000000000000        0.0000000000000000     
   3.1250000000000000E-002  0.78125000000000000        0.0000000000000000     
   6.2500000000000000E-002  0.78125000000000000        0.0000000000000000     
   9.3750000000000000E-002  0.78125000000000000        0.0000000000000000     
  0.12500000000000000       0.78125000000000000        0.0000000000000000     
   0.0000000000000000       0.81250000000000000        0.0000000000000000     
   3.1250000000000000E-002  0.81250000000000000        0.0000000000000000     
   6.2500000000000000E-002  0.81250000000000000        0.0000000000000000     
   9.3750000000000000E-002  0.81250000000000000        0.0000000000000000     
  0.12500000000000000       0.81250000000000000        0.0000000000000000     
   0.0000000000000000       0.84375000000000000        0.0000000000000000     
   3.1250000000000000E-002  0.84375000000000000        0.0000000000000000     
   6.2500000000000000E-002  0.84375000000000000        0.0000000000000000     
   9.3750000000000000E-002  0.84375000000000000        0.0000000000000000     
  0.12500000000000000       0.84375000000000000        0.0000000000000000     
   0.0000000000000000       0.87500000000000000        0.0000000000000000     
   3.1250000000000000E-002  0.87500000000000000        0.0000000000000000     
   6.2500000000000000E-002  0.87500000000000000        0.0000000000000000     
   9.3750000000000000E-002  0.87500000000000000        0.0000000000000000     
  0.12500000000000000       0.87500000000000000        0.0000000000000000     
  0.12500000000000000       0.75000000000000000        0.0000000000000000     
  0.15625000000000000       0.75000000000000000        0.0000000000000000     
  0.18750000000000000       0.75000000000000000        0.0000000000000000     
  0.21875000000000000       0.75000000000000000        0.0000000000000000     
  0.25000000000000000       0.75000000000000000        0.0000000000000000     
  0.12500000000000000       0.78125000000000000        0.0000000000000000     
  0.15625000000000000       0.78125000000000000        0.0000000000000000     
  0.18750000000000000       0.78125000000000000        0.0000000000000000     
  0.21875000000000000       0.78125000000000000        0.0000000000000000     
  0.25000000000000000       0.78125000000000000        0.0000000000000000     
  0.12500000000000000       0.81250000000000000        0.0000000000000000     
  0.15625000000000000       0.81250000000000000        0.0000000000000000     
  0.18750000000000000       0.81250000000000000        0.0000000000000000     
  0.21875000000000000       0.81250000000000000        0.0000000000000000     
  0.25000000000000000       0.81250000000000000        0.0000000000000000     
  0.12500000000000000       0.84375000000000000        0.0000000000000000     
  0.15625000000000000       0.84375000000000000        0.0000000000000000     
  0.18750000000000000       0.84375000000000000        0.0000000000000000     
  0.21875000000000000       0.84375000000000000        0.0000000000000000     
  0.25000000000000000       0.84375000000000000        0.0000000000000000     
  0.12500000000000000       0.87500000000000000        0.0000000000000000     
  0.15625000000000000       0.87500000000000000        0.0000000000000000     
  0.18750000000000000       0.87500000000000000        0.0000000000000000     
  0.21875000000000000       0.87500000000000000        0.0000000000000000     
  0.25000000000000000       0.87500000000000000        0.0000000000000000     
  0.25000000000000000       0.75000000000000000        0.0000000000000000     
  0.28125000000000000       0.75000000000000000        0.0000000000000000     
  0.31250000000000000       0.75000000000000000        0.0000000000000000     
  0.34375000000000000       0.75000000000000000        0.0000000000000000     
  0.37500000000000000       0.75000000000000000        0.0000000000000000     
  0.25000000000000000       0.78125000000000000        0.0000000000000000     
  0.28125000000000000       0.78125000000000000        0.0000000000000000     
  0.31250000000000000       0.78125000000000000        0.0000000000000000     
  0.34375000000000000       0.78125000000000000        0.0000000000000000     
  0.37500000000000000       0.78125000000000000        0.0000000000000000     
  0.25000000000000000       0.81250000000000000        0.0000000000000000     
  0.28125000000000000       0.81250000000000000        0.0000000000000000     
  0.31250000000000000       0.81250000000000000        0.0000000000000000     
  0.34375000000000000       0.81250000000000000        0.0000000000000000     
  0.37500000000000000       0.81250000000000000        0.0000000000000000     
  0.25000000000000000       0.84375000000000000        0.0000000000000000     
  0.28125000000000000       0.84375000000000000        0.0000000000000000     
  0.31250000000000000       0.84375000000000000        0.0000000000000000     
  0.34375000000000000       0.84375000000000000        0.0000000000000000     
  0.37500000000000000       0.84375000000000000        0.0000000000000000     
  0.25000000000000000       0.87500000000000000        0.0000000000000000     
  0.28125000000000000       0.87500000000000000        0.0000000000000000     
  0.31250000000000000       0.87500000000000000        0.0000000000000000     
  0.34375000000000000       0.87500000000000000        0.0000000000000000     
  0.37500000000000000       0.87500000000000000        0.0000000000000000     
  0.37500000000000000       0.75000000000000000        0.0000000000000000     
  0.40625000000000000       0.75000000000000000        0.0000000000000000     
  0.43750000000000000       0.75000000000000000        0.0000000000000000     
  0.46875000000000000       0.75000000000000000        0.0000000000000000     
  0.50000000000000000       0.75000000000000000        0.0000000000000000     
  0.37500000000000000       0.78125000000000000        0.0000000000000000     
  0.40625000000000000       0.78125000000000000        0.0000000000000000     
  0.43750000000000000       0.78125000000000000        0.0000000000000000     
  0.46875000000000000       0.78125000000000000        0.0000000000000000     
  0.50000000000000000       0.78125000000000000        0.0000000000000000     
  0.37500000000000000       0.81250000000000000        0.0000000000000000     
  0.40625000000000000       0.81250000000000000        0.0000000000000000     
  0.43750000000000000       0.81250000000000000        0.0000000000000000     
  0.46875000000000000       0.81250000000000000        0.0000000000000000     
  0.50000000000000000       0.81250000000000000        0.0000000000000000     
  0.37500000000000000       0.84375000000000000        0.0000000000000000     
  0.40625000000000000       0.84375000000000000        0.0000000000000000     
  0.43750000000000000       0.84375000000000000        0.0000000000000000     
  0.46875000000000000       0.84375000000000000        0.0000000000000000     
  0.50000000000000000       0.84375000000000000        0.0000000000000000     
  0.37500000000000000       0.87500000000000000        0.0000000000000000     
  0.40625000000000000       0.87500000000000000        0.0000000000000000     
  0.43750000000000000       0.87500000000000000        0.0000000000000000     
  0.46875000000000000       0.87500000000000000        0.0000000000000000     
  0.50000000000000000       0.87500000000000000        0.0000000000000000     
  0.50000000000000000       0.75000000000000000        0.0000000000000000     
  0.53125000000000000       0.75000000000000000        0.0000000000000000     
  0.56250000000000000       0.75000000000000000        0.0000000000000000     
  0.59375000000000000       0.75000000000000000        0.0000000000000000     
  0.62500000000000000       0.75000000000000000        0.0000000000000000     
  0.50000000000000000       0.78125000000000000        0.0000000000000000     
  0.53125000000000000       0.78125000000000000        0.0000000000000000     
  0.56250000000000000       0.78125000000000000        0.0000000000000000     
  0.59375000000000000       0.78125000000000000        0.0000000000000000     
  0.62500000000000000       0.78125000000000000        0.0000000000000000     
  0.50000000000000000       0.81250000000000000        0.0000000000000000     
  0.53125000000000000       0.81250000000000000        0.0000000000000000     
  0.56250000000000000       0.81250000000000000        0.0000000000000000     
  0.59375000000000000       0.81250000000000000        0.0000000000000000     
  0.62500000000000000       0.81250000000000000        0.0000000000000000     
  0.50000000000000000       0.84375000000000000        0.0000000000000000     
  0.53125000000000000       0.84375000000000000        0.0000000000000000     
  0.56250000000000000       0.84375000000000000        0.0000000000000000     
  0.59375000000000000       0.84375000000000000        0.0000000000000000     
  0.62500000000000000       0.84375000000000000        0.0000000000000000     
  0.50000000000000000       0.87500000000000000        0.0000000000000000     
  0.53125000000000000       0.87500000000000000        0.0000000000000000     
  0.56250000000000000       0.87500000000000000        0.0000000000000000     
  0.59375000000000000       0.87500000000000000        0.0000000000000000     
  0.62500000000000000       0.87500000000000000        0.0000000000000000     
  0.62500000000000000       0.75000000000000000        0.0000000000000000     
  0.65625000000000000       0.75000000000000000        0.0000000000000000     
  0.68750000000000000       0.75000000000000000        0.0000000000000000     
  0.71875000000000000       0.75000000000000000        0.0000000000000000     
  0.75000000000000000       0.75000000000000000        0.0000000000000000     
  0.62500000000000000       0.78125000000000000        0.0000000000000000     
  0.65625000000000000       0.78125000000000000        0.0000000000000000     
  0.68750000000000000       0.78125000000000000        0.0000000000000000     
  0.71875000000000000       0.78125000000000000        0.0000000000000000     
  0.75000000000000000       0.78125000000000000        0.0000000000000000     
  0.62500000000000000       0.81250000000000000        0.0000000000000000     
  0.65625000000000000       0.81250000000000000        0.0000000000000000     
  0.68750000000000000       0.81250000000000000        0.0000000000000000     
  0.71875000000000000       0.81250000000000000        0.0000000000000000     
  0.75000000000000000       0.81250000000000000        0.0000000000000000     
  0.62500000000000000       0.84375000000000000        0.0000000000000000     
  0.65625000000000000       0.84375000000000000        0.0000000000000000     
  0.68750000000000000       0.84375000000000000        0.0000000000000000     
  0.71875000000000000       0.84375000000000000        0.0000000000000000     
  0.75000000000000000       0.84375000000000000        0.0000000000000000     
  0.62500000000000000       0.87500000000000000        0.0000000000000000     
  0.65625000000000000       0.87500000000000000        0.0000000000000000     
  0.68750000000000000       0.87500000000000000        0.0000000000000000     
  0.71875000000000000       0.87500000000000000        0.0000000000000000     
  0.75000000000000000       0.87500000000000000        0.0000000000000000     
  0.75000000000000000       0.75000000000000000        0.0000000000000000     
  0.78125000000000000       0.75000000000000000        0.0000000000000000     
  0.81250000000000000       0.75000000000000000        0.0000000000000000     
  0.84375000000000000       0.75000000000000000        0.0000000000000000     
  0.87500000000000000       0.75000000000000000        0.0000000000000000     
  0.75000000000000000       0.78125000000000000        0.0000000000000000     
  0.78125000000000000       0.78125000000000000        0.0000000000000000     
  0.81250000000000000       0.78125000000000000        0.0000000000000000     
  0.84375000000000000       0.78125000000000000        0.0000000000000000     
  0.87500000000000000       0.78125000000000000        0.0000000000000000     
  0.75000000000000000       0.81250000000000000        0.0000000000000000     
  0.78125000000000000       0.81250000000000000        0.0000000000000000     
  0.81250000000000000       0.81250000000000000        0.0000000000000000     
  0.84375000000000000       0.81250000000000000        0.0000000000000000     
  0.87500000000000000       0.81250000000000000        0.0000000000000000     
  0.75000000000000000       0.84375000000000000        0.0000000000000000     
  0.78125000000000000       0.84375000000000000        0.0000000000000000     
  0.81250000000000000       0.84375000000000000        0.0000000000000000     
  0.84375000000000000       0.84375000000000000        0.0000000000000000     
  0.87500000000000000       0.84375000000000000        0.0000000000000000     
  0.75000000000000000       0.87500000000000000        0.0000000000000000     
  0.78125000000000000       0.87500000000000000        0.0000000000000000     
  0.81250000000000000       0.87500000000000000        0.0000000000000000     
  0.84375000000000000       0.87500000000000000        0.0000000000000000     
  0.87500000000000000       0.87500000000000000        0.0000000000000000     
  0.87500000000000000       0.75000000000000000        0.0000000000000000     
  0.90625000000000000       0.75000000000000000        0.0000000000000000     
  0.93750000000000000       0.75000000000000000        0.0000000000000000     
  0.96875000000000000       0.75000000000000000        0.0000000000000000     
   1.0000000000000000       0.75000000000000000        0.0000000000000000     
  0.87500000000000000       0.78125000000000000        0.0000000000000000     
  0.90625000000000000       0.78125000000000000        0.0000000000000000     
  0.93750000000000000       0.78125000000000000        0.0000000000000000     
  0.96875000000000000       0.78125000000000000        0.0000000000000000     
   1.0000000000000000       0.78125000000000000        0.0000000000000000     
  0.87500000000000000       0.81250000000000000        0.0000000000000000     
  0.90625000000000000       0.81250000000000000        0.0000000000000000     
  0.93750000000000000       0.81250000000000000        0.0000000000000000     
  0.96875000000000000       0.81250000000000000        0.0000000000000000     
   1.0000000000000000       0.81250000000000000        0.0000000000000000     
  0.87500000000000000       0.84375000000000000        0.0000000000000000     
  0.90625000000000000       0.84375000000000000        0.0000000000000000     
  0.93750000000000000       0.84375000000000000        0.0000000000000000     
  0.96875000000000000       0.84375000000000000        0.0000000000000000     
   1.0000000000000000       0.84375000000000000        0.0000000000000000     
  0.87500000000000000       0.87500000000000000        0.0000000000000000     
  0.90625000000000000       0.87500000000000000        0.0000000000000000     
  0.93750000000000000       0.87500000000000000        0.0000000000000000     
  0.96875000000000000       0.87500000000000000        0.0000000000000000     
   1.0000000000000000       0.87500000000000000        0.0000000000000000     
   0.0000000000000000       0.87500000000000000        0.0000000000000000     
   3.1250000000000000E-002  0.87500000000000000        0.0000000000000000     
   6.2500000000000000E-002  0.87500000000000000        0.0000000000000000     
   9.3750000000000000E-002  0.87500000000000000        0.0000000000000000     
  0.12500000000000000       0.87500000000000000        0.0000000000000000     
   0.0000000000000000       0.90625000000000000        0.0000000000000000     
   3.1250000000000000E-002  0.90625000000000000        0.0000000000000000     
   6.2500000000000000E-002  0.90625000000000000        0.0000000000000000     
   9.3750000000000000E-002  0.90625000000000000        0.0000000000000000     
  0.12500000000000000       0.90625000000000000        0.0000000000000000     
   0.0000000000000000       0.93750000000000000        0.0000000000000000     
   3.1250000000000000E-002  0.93750000000000000        0.0000000000000000     
   6.2500000000000000E-002  0.93750000000000000        0.0000000000000000     
   9.3750000000000000E-002  0.93750000000000000        0.0000000000000000     
  0.12500000000000000       0.93750000000000000        0.0000000000000000     
   0.0000000000000000       0.96875000000000000        0.0000000000000000     
   3.1250000000000000E-002  0.96875000000000000        0.0000000000000000     
   6.2500000000000000E-002  0.96875000000000000        0.0000000000000000     
   9.3750000000000000E-002  0.96875000000000000        0.0000000000000000     
  0.12500000000000000       0.96875000000000000        0.0000000000000000     
   0.0000000000000000        1.0000000000000000        0.0000000000000000     
   3.1250000000000000E-002   1.0000000000000000        0.0000000000000000     
   6.2500000000000000E-002   1.0000000000000000        0.0000000000000000     
   9.3750000000000000E-002   1.0000000000000000        0.0000000000000000     
  0.12500000000000000        1.0000000000000000        0.0000000000000000     
  0.12500000000000000       0.87500000000000000        0.0000000000000000     
  0.15625000000000000       0.87500000000000000        0.0000000000000000     
  0.18750000000000000       0.87500000000000000        0.0000000000000000     
  0.21875000000000000       0.87500000000000000        0.0000000000000000     
  0.25000000000000000       0.87500000000000000        0.0000000000000000     
  0.12500000000000000       0.90625000000000000        0.0000000000000000     
  0.15625000000000000       0.90625000000000000        0.0000000000000000     
  0.18750000000000000       0.90625000000000000        0.0000000000000000     
  0.21875000000000000       0.90625000000000000        0.0000000000000000     
  0.25000000000000000       0.90625000000000000        0.0000000000000000     
  0.12500000000000000       0.93750000000000000        0.0000000000000000     
  0.15625000000000000       0.93750000000000000        0.0000000000000000     
  0.18750000000000000       0.93750000000000000        0.0000000000000000     
  0.21875000000000000       0.93750000000000000        0.0000000000000000     
  0.25000000000000000       0.93750000000000000        0.0000000000000000     
  0.12500000000000000       0.96875000000000000        0.0000000000000000     
  0.15625000000000000       0.96875000000000000        0.0000000000000000     
  0.18750000000000000       0.96875000000000000        0.0000000000000000     
  0.21875000000000000       0.96875000000000000        0.0000000000000000     
  0.25000000000000000       0.96875000000000000        0.0000000000000000     
  0.12500000000000000        1.0000000000000000        0.0000000000000000     
  0.15625000000000000        1.0000000000000000        0.0000000000000000     
  0.18750000000000000        1.0000000000000000        0.0000000000000000     
  0.21875000000000000        1.0000000000000000        0.0000000000000000     
  0.25000000000000000        1.0000000000000000        0.0000000000000000     
  0.25000000000000000       0.87500000000000000        0.0000000000000000     
  0.28125000000000000       0.87500000000000000        0.0000000000000000     
  0.31250000000000000       0.87500000000000000        0.0000000000000000     
  0.34375000000000000       0.87500000000000000        0.0000000000000000     
  0.37500000000000000       0.87500000000000000        0.0000000000000000     
  0.25000000000000000       0.90625000000000000        0.0000000000000000     
  0.28125000000000000       0.90625000000000000        0.0000000000000000     
  0.31250000000000000       0.90625000000000000        0.0000000000000000     
  0.34375000000000000       0.90625000000000000        0.0000000000000000     
  0.37500000000000000       0.90625000000000000        0.0000000000000000     
  0.25000000000000000       0.93750000000000000        0.0000000000000000     
  0.28125000000000000       0.93750000000000000        0.0000000000000000     
  0.31250000000000000       0.93750000000000000        0.0000000000000000     
  0.34375000000000000       0.93750000000000000        0.0000000000000000     
  0.37500000000000000       0.93750000000000000        0.0000000000000000     
  0.25000000000000000       0.96875000000000000        0.0000000000000000     
  0.28125000000000000       0.96875000000000000        0.0000000000000000     
  0.31250000000000000       0.96875000000000000        0.0000000000000000     
  0.34375000000000000       0.96875000000000000        0.0000000000000000     
  0.37500000000000000       0.96875000000000000        0.0000000000000000     
  0.25000000000000000        1.0000000000000000        0.0000000000000000     
  0.28125000000000000        1.0000000000000000        0.0000000000000000     
  0.31250000000000000        1.0000000000000000        0.0000000000000000     
  0.34375000000000000        1.0000000000000000        0.0000000000000000     
  0.37500000000000000        1.0000000000000000        0.0000000000000000     
  0.37500000000000000       0.87500000000000000        0.0000000000000000     
  0.40625000000000000       0.87500000000000000        0.0000000000000000     
  0.43750000000000000       0.87500000000000000        0.0000000000000000     
  0.46875000000000000       0.87500000000000000        0.0000000000000000     
  0.50000000000000000       0.87500000000000000        0.0000000000000000     
  0.37500000000000000       0.90625000000000000        0.0000000000000000     
  0.40625000000000000       0.90625000000000000        0.0000000000000000     
  0.43750000000000000       0.90625000000000000        0.0000000000000000     
  0.46875000000000000       0.90625000000000000        0.0000000000000000     
  0.50000000000000000       0.90625000000000000        0.0000000000000000     
  0.37500000000000000       0.93750000000000000        0.0000000000000000     
  0.40625000000000000       0.93750000000000000        0.0000000000000000     
  0.43750000000000000       0.93750000000000000        0.0000000000000000     
  0.46875000000000000       0.93750000000000000        0.0000000000000000     
  0.50000000000000000       0.93750000000000000        0.0000000000000000     
  0.37500000000000000       0.96875000000000000        0.0000000000000000     
  0.40625000000000000       0.96875000000000000        0.0000000000000000     
  0.43750000000000000       0.96875000000000000        0.0000000000000000     
  0.46875000000000000       0.96875000000000000        0.0000000000000000     
  0.50000000000000000       0.96875000000000000        0.0000000000000000     
  0.37500000000000000        1.0000000000000000        0.0000000000000000     
  0.40625000000000000        1.0000000000000000        0.0000000000000000     
  0.43750000000000000        1.0000000000000000        0.0000000000000000     
  0.46875000000000000        1.0000000000000000        0.0000000000000000     
  0.50000000000000000        1.0000000000000000        0.0000000000000000     
  0.50000000000000000       0.87500000000000000        0.0000000000000000     
  0.53125000000000000       0.87500000000000000        0.0000000000000000     
  0.56250000000000000       0.87500000000000000        0.0000000000000000     
  0.59375000000000000       0.87500000000000000        0.0000000000000000     
  0.62500000000000000       0.87500000000000000        0.0000000000000000     
  0.50000000000000000       0.90625000000000000        0.0000000000000000     
  0.53125000000000000       0.90625000000000000        0.0000000000000000     
  0.56250000000000000       0.90625000000000000        0.0000000000000000     
  0.59375000000000000       0.90625000000000000        0.0000000000000000     
  0.62500000000000000       0.90625000000000000        0.0000000000000000     
  0.50000000000000000       0.93750000000000000        0.0000000000000000     
  0.53125000000000000       0.93750000000000000        0.0000000000000000     
  0.56250000000000000       0.93750000000000000        0.0000000000000000     
  0.59375000000000000       0.93750000000000000        0.0000000000000000     
  0.62500000000000000       0.93750000000000000        0.0000000000000000     
  0.50000000000000000       0.96875000000000000        0.0000000000000000     
  0.53125000000000000       0.96875000000000000        0.0000000000000000     
  0.56250000000000000       0.96875000000000000        0.0000000000000000     
  0.59375000000000000       0.96875000000000000        0.0000000000000000     
  0.62500000000000000       0.96875000000000000        0.0000000000000000     
  0.50000000000000000        1.0000000000000000        0.0000000000000000     
  0.53125000000000000        1.0000000000000000        0.0000000000000000     
  0.56250000000000000        1.0000000000000000        0.0000000000000000     
  0.59375000000000000        1.0000000000000000        0.0000000000000000     
  0.62500000000000000        1.0000000000000000        0.0000000000000000     
  0.62500000000000000       0.87500000000000000        0.0000000000000000     
  0.65625000000000000       0.87500000000000000        0.0000000000000000     
  0.68750000000000000       0.87500000000000000        0.0000000000000000     
  0.71875000000000000       0.87500000000000000        0.0000000000000000     
  0.75000000000000000       0.87500000000000000        0.0000000000000000     
  0.62500000000000000       0.90625000000000000        0.0000000000000000     
  0.65625000000000000       0.90625000000000000        0.0000000000000000     
  0.68750000000000000       0.90625000000000000        0.0000000000000000     
  0.71875000000000000       0.90625000000000000        0.0000000000000000     
  0.75000000000000000       0.90625000000000000        0.0000000000000000     
  0.62500000000000000       0.93750000000000000        0.0000000000000000     
  0.65625000000000000       0.93750000000000000        0.0000000000000000     
  0.68750000000000000       0.93750000000000000        0.0000000000000000     
  0.71875000000000000       0.93750000000000000        0.0000000000000000     
  0.75000000000000000       0.93750000000000000        0.0000000000000000     
  0.62500000000000000       0.96875000000000000        0.0000000000000000     
  0.65625000000000000       0.96875000000000000        0.0000000000000000     
  0.68750000000000000       0.96875000000000000        0.0000000000000000     
  0.71875000000000000       0.96875000000000000        0.0000000000000000     
  0.75000000000000000       0.96875000000000000        0.0000000000000000     
  0.62500000000000000        1.0000000000000000        0.0000000000000000     
  0.65625000000000000        1.0000000000000000        0.0000000000000000     
  0.68750000000000000        1.0000000000000000        0.0000000000000000     
  0.71875000000000000        1.0000000000000000        0.0000000000000000     
  0.75000000000000000        1.0000000000000000        0.0000000000000000     
  0.75000000000000000       0.87500000000000000        0.0000000000000000     
  0.78125000000000000       0.87500000000000000        0.0000000000000000     
  0.81250000000000000       0.87500000000000000        0.0000000000000000     
  0.84375000000000000       0.87500000000000000        0.0000000000000000     
  0.87500000000000000       0.87500000000000000        0.0000000000000000     
  0.75000000000000000       0.90625000000000000        0.0000000000000000     
  0.78125000000000000       0.90625000000000000        0.0000000000000000     
  0.81250000000000000       0.90625000000000000        0.0000000000000000     
  0.84375000000000000       0.90625000000000000        0.0000000000000000     
  0.87500000000000000       0.90625000000000000        0.0000000000000000     
  0.75000000000000000       0.93750000000000000        0.0000000000000000     
  0.78125000000000000       0.93750000000000000        0.0000000000000000     
  0.81250000000000000       0.93750000000000000        0.0000000000000000     
  0.84375000000000000       0.93750000000000000        0.0000000000000000     
  0.87500000000000000       0.93750000000000000        0.0000000000000000     
  0.75000000000000000       0.96875000000000000        0.0000000000000000     
  0.78125000000000000       0.96875000000000000        0.0000000000000000     
  0.81250000000000000       0.96875000000000000        0.0000000000000000     
  0.84375000000000000       0.96875000000000000        0.0000000000000000     
  0.87500000000000000       0.96875000000000000        0.0000000000000000     
  0.75000000000000000        1.0000000000000000        0.0000000000000000     
  0.78125000000000000        1.0000000000000000        0.0000000000000000     
  0.81250000000000000        1.0000000000000000        0.0000000000000000     
  0.84375000000000000        1.0000000000000000        0.0000000000000000     
  0.87500000000000000        1.0000000000000000        0.0000000000000000     
  0.87500000000000000       0.87500000000000000        0.0000000000000000     
  0.90625000000000000       0.87500000000000000        0.0000000000000000     
  0.93750000000000000       0.87500000000000000        0.0000000000000000     
  0.96875000000000000       0.87500000000000000        0.0000000000000000     
   1.0000000000000000       0.87500000000000000        0.0000000000000000     
  0.87500000000000000       0.90625000000000000        0.0000000000000000     
  0.90625000000000000       0.90625000000000000        0.0000000000000000     
  0.93750000000000000       0.90625000000000000        0.0000000000000000     
  0.96875000000000000       0.90625000000000000        0.0000000000000000     
   1.0000000000000000       0.90625000000000000        0.0000000000000000     
  0.87500000000000000       0.93750000000000000        0.0000000000000000     
  0.90625000000000000       0.93750000000000000        0.0000000000000000     
  0.93750000000000000       0.93750000000000000        0.0000000000000000     
  0.96875000000000000       0.93750000000000000        0.0000000000000000     
   1.0000000000000000       0.93750000000000000        0.0000000000000000     
  0.87500000000000000       0.96875000000000000        0.0000000000000000     
  0.90625000000000000       0.96875000000000000        0.0000000000000000     
  0.93750000000000000       0.96875000000000000        0.0000000000000000     
  0.96875000000000000       0.96875000000000000        0.0000000000000000     
   1.0000000000000000       0.96875000000000000        0.0000000000000000     
  0.87500000000000000        1.0000000000000000        0.0000000000000000     
  0.90625000000000000        1.0000000000000000        0.0000000000000000     
  0.93750000000000000        1.0000000000000000        0.0000000000000000     
  0.96875000000000000        1.0000000000000000        0.0000000000000000     
   1.0000000000000000        1.0000000000000000        0.0000000000000000     
 </DataArray>
 </Points>
 <Cells>
 <DataArray  type="Int32"  Name="connectivity"  format="ascii">
           0           1           6           5
           1           2           7           6
           2           3           8           7
           3           4           9           8
           5           6          11          10
           6           7          12          11
           7           8          13          12
           8           9          14          13
          10          11          16          15
          11          12          17          16
          12          13          18          17
          13          14          19          18
          15          16          21          20
          16          17          22          21
          17          18          23          22
          18          19          24          23
          25          26          31          30
          26          27          32          31
          27          28          33          32
          28          29          34          33
          30          31          36          35
          31          32          37          36
          32          33          38          37
          33          34          39          38
          35          36          41          40
          36          37          42          41
          37          38          43          42
          38          39          44          43
          40          41          46          45
          41          42          47          46
          42          43          48          47
          43          44          49          48
          50          51          56          55
          51          52          57          56
          52          53          58          57
          53          54          59          58
          55          56          61          60
          56          57          62          61
          57          58          63          62
          58          59          64          63
          60          61          66          65
          61          62          67          66
          62          63          68          67
          63          64          69          68
          65          66          71          70
          66          67          72          71
          67          68          73          72
          68          69          74          73
          75          76          81          80
          76          77          82          81
          77          78          83          82
          78          79          84          83
          80          81          86          85
          81          82          87          86
          82          83          88          87
          83          84          89          88
          85          86          91          90
          86          87          92          91
          87          88          93          92
          88          89          94          93
          90          91          96          95
          91          92          97          96
          92          93          98          97
          93          94          99          98
         100         101         106         105
         101         102         107         106
         102         103         108         107
         103         104         109         108
         105         106         111         110
         106         107         112         111
         107         108         113         112
         108         109         114         113
         110         111         116         115
         111         112         117         116
         112         113         118         117
         113         114         119         118
         115         116         121         120
         116         117         122         121
         117         118         123         122
         118         119         124         123
         125         126         131         130
         126         127         132         131
         127         128         133         132
         128         129         134         133
         130         131         136         135
         131         132         137         136
         132         133         138         137
         133         134         139         138
         135         136         141         140
         136         137         142         141
         137         138         143         142
         138         139         144         143
         140         141         146         145
         141         142         147         146
         142         143         148         147
         143         144         149         148
         150         151         156         155
         151         152         157         156
         152         153         158         157
         153         154         159         158
         155         156         161         160
         156         157         162         161
         157         158         163         162
         158         159         164         163
         160         161         166         165
         161         162         167         166
         162         163         168         167
         163         164         169         168
         165         166         171         170
         166         167         172         171
         167         168         173         172
         168         169         174         173
         175         176         181         180
         176         177         182         181
         177         178         183         182
         178         179         184         183
         180         181         186         185
         181         182         187         186
         182         183         188         187
         183         184         189         188
         185         186         191         190
         186         187         192         191
         187         188         193         192
         188         189         194         193
         190         191         196         195
         191         192         197         196
         192         193         198         197
         193         194         199         198
         200         201         206         205
         201         202         207         206
         202         203         208         207
         203         204         209         208
         205         206         211         210
         206         207         212         211
         207         208         213         212
         208         209         214         213
         210         211         216         215
         211         212         217         216
         212         213         218         217
         213         214         219         218
         215         216         221         220
         216         217         222         221
         217         218         223         222
         218         219         224         223
         225         226         231         230
         226         227         232         231
         227         228         233         232
         228         229         234         233
         230         231         236         235
         231         232         237         236
         232         233         238         237
         233         234         239         238
         235         236         241         240
         236         237         242         241
         237         238         243         242
         238         239         244         243
         240         241         246         245
         241         242         247         246
         242         243         248         247
         243         244         249         248
         250         251         256         255
         251         252         257         256
         252         253         258         257
         253         254         259         258
         255         256         261         260
         256         257         262         261
         257         258         263         262
         258         259         264         263
         260         261         266         265
         261         262         267         266
         262         263         268         267
         263         264         269         268
         265         266         271         270
         266         267         272         271
         267         268         273         272
         268         269         274         273
         275         276         281         280
         276         277         282         281
         277         278         283         282
         278         279         284         283
         280         281         286         285
         281         282         287         286
         282         283         288         287
         283         284         289         288
         285         286         291         290
         286         287         292         291
         287         288         293         292
         288         289         294         293
         290         291         296         295
         291         292         297         296
         292         293         298         297
         293         294         299         298
         300         301         306         305
         301         302         307         306
         302         303         308         307
         303         304         309         308
         305         306         311         310
         306         307         312         311
         307         308         313         312
         308         309         314         313
         310         311         316         315
         311         312         317         316
         312         313         318         317
         313         314         319         318
         315         316         321         320
         316         317         322         321
         317         318         323         322
         318         319         324         323
         325         326         331         330
         326         327         332         331
         327         328         333         332
         328         329         334         333
         330         331         336         335
         331         332         337         336
         332         333         338         337
         333         334         339         338
         335         336         341         340
         336         337         342         341
         337         338         343         342
         338         339         344         343
         340         341         346         345
         341         342         347         346
         342         343         348         347
         343         344         349         348
         350         351         356         355
         351         352         357         356
         352         353         358         357
         353         354         359         358
         355         356         361         360
         356         357         362         361
         357         358         363         362
         358         359         364         363
         360         361         366         365
         361         362         367         366
         362         363         368         367
         363         364         369         368
         365         366         371         370
         366         367         372         371
         367         368         373         372
         368         369         374         373
         375         376         381         380
         376         377         382         381
         377         378         383         382
         378         379         384         383
         380         381         386         385
         381         382         387         386
         382         383         388         387
         383         384         389         388
         385         386         391         390
         386         387         392         391
         387         388         393         392
         388         389         394         393
         390         391         396         395
         391         392         397         396
         392         393         398         397
         393         394         399         398
         400         401         406         405
         401         402         407         406
         402         403         408         407
         403         404         409         408
         405         406         411         410
         406         407         412         411
         407         408         413         412
         408         409         414         413
         410         411         416         415
         411         412         417         416
         412         413         418         417
         413         414         419         418
         415         416         421         420
         416         417         422         421
         417         418         423         422
         418         419         424         423
         425         426         431         430
         426         427         432         431
         427         428         433         432
         428         429         434         433
         430         431         436         435
         431         432         437         436
         432         433         438         437
         433         434         439         438
         435         436         441         440
         436         437         442         441
         437         438         443         442
         438         439         444         443
         440         441         446         445
         441         442         447         446
         442         443         448         447
         443         444         449         448
         450         451         456         455
         451         452         457         456
         452         453         458         457
         453         454         459         458
         455         456         461         460
         456         457         462         461
         457         458         463         462
         458         459         464         463
         460         461         466         465
         461         462         467         466
         462         463         468         467
         463         464         469         468
         465         466         471         470
         466         467         472         471
         467         468         473         472
         468         469         474         473
         475         476         481         480
         476         477         482         481
         477         478         483         482
         478         479         484         483
         480         481         486         485
         481         482         487         486
         482         483         488         487
         483         484         489         488
         485         486         491         490
         486         487         492         491
         487         488         493         492
         488         489         494         493
         490         491         496         495
         491         492         497         496
         492         493         498         497
         493         494         499         498
         500         501         506         505
         501         502         507         506
         502         503         508         507
         503         504         509         508
         505         506         511         510
         506         507         512         511
         507         508         513         512
         508         509         514         513
         510         511         516         515
         511         512         517         516
         512         513         518         517
         513         514         519         518
         515         516         521         520
         516         517         522         521
         517         518         523         522
         518         519         524         523
         525         526         531         530
         526         527         532         531
         527         528         533         532
         528         529         534         533
         530         531         536         535
         531         532         537         536
         532         533         538         537
         533         534         539         538
         535         536         541         540
         536         537         542         541
         537         538         543         542
         538         539         544         543
         540         541         546         545
         541         542         547         546
         542         543         548         547
         543         544         549         548
         550         551         556         555
         551         552         557         556
         552         553         558         557
         553         554         559         558
         555         556         561         560
         556         557         562         561
         557         558         563         562
         558         559         564         563
         560         561         566         565
         561         562         567         566
         562         563         568         567
         563         564         569         568
         565         566         571         570
         566         567         572         571
         567         568         573         572
         568         569         574         573
         575         576         581         580
         576         577         582         581
         577         578         583         582
         578         579         584         583
         580         581         586         585
         581         582         587         586
         582         583         588         587
         583         584         589         588
         585         586         591         590
         586         587         592         591
         587         588         593         592
         588         589         594         593
         590         591         596         595
         591         592         597         596
         592         593         598         597
         593         594         599         598
         600         601         606         605
         601         602         607         606
         602         603         608         607
         603         604         609         608
         605         606         611         610
         606         607         612         611
         607         608         613         612
         608         609         614         613
         610         611         616         615
         611         612         617         616
         612         613         618         617
         613         614         619         618
         615         616         621         620
         616         617         622         621
         617         618         623         622
         618         619         624         623
         625         626         631         630
         626         627         632         631
         627         628         633         632
         628         629         634         633
         630         631         636         635
         631         632         637         636
         632         633         638         637
         633         634         639         638
         635         636         641         640
         636         637         642         641
         637         638         643         642
         638         639         644         643
         640         641         646         645
         641         642         647         646
         642         643         648         647
         643         644         649         648
         650         651         656         655
         651         652         657         656
         652         653         658         657
         653         654         659         658
         655         656         661         660
         656         657         662         661
         657         658         663         662
         658         659         664         663
         660         661         666         665
         661         662         667         666
         662         663         668         667
         663         664         669         668
         665         666         671         670
         666         667         672         671
         667         668         673         672
         668         669         674         673
         675         676         681         680
         676         677         682         681
         677         678         683         682
         678         679         684         683
         680         681         686         685
         681         682         687         686
         682         683         688         687
         683         684         689         688
         685         686         691         690
         686         687         692         691
         687         688         693         692
         688         689         694         693
         690         691         696         695
         691         692         697         696
         692         693         698         697
         693         694         699         698
         700         701         706         705
         701         702         707         706
         702         703         708         707
         703         704         709         708
         705         706         711         710
         706         707         712         711
         707         708         713         712
         708         709         714         713
         710         711         716         715
         711         712         717         716
         712         713         718         717
         713         714         719         718
         715         716         721         720
         716         717         722         721
         717         718         723         722
         718         719         724         723
         725         726         731         730
         726         727         732         731
         727         728         733         732
         728         729         734         733
         730         731         736         735
         731         732         737         736
         732         733         738         737
         733         734         739         738
         735         736         741         740
         736         737         742         741
         737         738         743         742
         738         739         744         743
         740         741         746         745
         741         742         747         746
         742         743         748         747
         743         744         749         748
         750         751         756         755
         751         752         757         756
         752         753         758         757
         753         754         759         758
         755         756         761         760
         756         757         762         761
         757         758         763         762
         758         759         764         763
         760         761         766         765
         761         762         767         766
         762         763         768         767
         763         764         769         768
         765         766         771         770
         766         767         772         771
         767         768         773         772
         768         769         774         773
         775         776         781         780
         776         777         782         781
         777         778         783         782
         778         779         784         783
         780         781         786         785
         781         782         787         786
         782         783         788         787
         783         784         789         788
         785         786         791         790
         786         787         792         791
         787         788         793         792
         788         789         794         793
         790         791         796         795
         791         792         797         796
         792         793         798         797
         793         794         799         798
         800         801         806         805
         801         802         807         806
         802         803         808         807
         803         804         809         808
         805         806         811         810
         806         807         812         811
         807         808         813         812
         808         809         814         813
         810         811         816         815
         811         812         817         816
         812         813         818         817
         813         814         819         818
         815         816         821         820
         816         817         822         821
         817         818         823         822
         818         819         824         823
         825         826         831         830
         826         827         832         831
         827         828         833         832
         828         829         834         833
         830         831         836         835
         831         832         837         836
         832         833         838         837
         833         834         839         838
         835         836         841         840
         836         837         842         841
         837         838         843         842
         838         839         844         843
         840         841         846         845
         841         842         847         846
         842         843         848         847
         843         844         849         848
         850         851         856         855
         851         852         857         856
         852         853         858         857
         853         854         859         858
         855         856         861         860
         856         857         862         861
         857         858         863         862
         858         859         864         863
         860         861         866         865
         861         862         867         866
         862         863         868         867
         863         864         869         868
         865         866         871         870
         866         867         872         871
         867         868         873         872
         868         869         874         873
         875         876         881         880
         876         877         882         881
         877         878         883         882
         878         879         884         883
         880         881         886         885
         881         882         887         886
         882         883         888         887
         883         884         889         888
         885         886         891         890
         886         887         892         891
         887         888         893         892
         888         889         894         893
         890         891         896         895
         891         892         897         896
         892         893         898         897
         893         894         899         898
         900         901         906         905
         901         902         907         906
         902         903         908         907
         903         904         909         908
         905         906         911         910
         906         907         912         911
         907         908         913         912
         908         909         914         913
         910         911         916         915
         911         912         917         916
         912         913         918         917
         913         914         919         918
         915         916         921         920
         916         917         922         921
         917         918         923         922
         918         919         924         923
         925         926         931         930
         926         927         932         931
         927         928         933         932
         928         929         934         933
         930         931         936         935
         931         932         937         936
         932         933         938         937
         933         934         939         938
         935         936         941         940
         936         937         942         941
         937         938         943         942
         938         939         944         943
         940         941         946         945
         941         942         947         946
         942         943         948         947
         943         944         949         948
         950         951         956         955
         951         952         957         956
         952         953         958         957
         953         954         959         958
         955         956         961         960
         956         957         962         961
         957         958         963         962
         958         959         964         963
         960         961         966         965
         961         962         967         966
         962         963         968         967
         963         964         969         968
         965         966         971         970
         966         967         972         971
         967         968         973         972
         968         969         974         973
         975         976         981         980
         976         977         982         981
         977         978         983         982
         978         979         984         983
         980         981         986         985
         981         982         987         986
         982         983         988         987
         983         984         989         988
         985         986         991         990
         986         987         992         991
         987         988         993         992
         988         989         994         993
         990         991         996         995
         991         992         997         996
         992         993         998         997
         993         994         999         998
        1000        1001        1006        1005
        1001        1002        1007        1006
        1002        1003        1008        1007
        1003        1004        1009        1008
        1005        1006        1011        1010
        1006        1007        1012        1011
        1007        1008        1013        1012
        1008        1009        1014        1013
        1010        1011        1016        1015
        1011        1012        1017        1016
        1012        1013        1018        1017
        1013        1014        1019        1018
        1015        1016        1021        1020
        1016        1017        1022        1021
        1017        1018        1023        1022
        1018        1019        1024        1023
        1025        1026        1031        1030
        1026        1027        1032        1031
        1027        1028        1033        1032
        1028        1029        1034        1033
        1030        1031        1036        1035
        1031        1032        1037        1036
        1032        1033        1038        1037
        1033        1034        1039        1038
        1035        1036        1041        1040
        1036        1037        1042        1041
        1037        1038        1043        1042
        1038        1039        1044        1043
        1040        1041        1046        1045
        1041        1042        1047        1046
        1042        1043        1048        1047
        1043        1044        1049        1048
        1050        1051        1056        1055
        1051        1052        1057        1056
        1052        1053        1058        1057
        1053        1054        1059        1058
        1055        1056        1061        1060
        1056        1057        1062        1061
        1057        1058        1063        1062
        1058        1059        1064        1063
        1060        1061        1066        1065
        1061        1062        1067        1066
        1062        1063        1068        1067
        1063        1064        1069        1068
        1065        1066        1071        1070
        1066        1067        1072        1071
        1067        1068        1073        1072
        1068        1069        1074        1073
        1075        1076        1081        1080
        1076        1077        1082        1081
        1077        1078        1083        1082
        1078        1079        1084        1083
        1080        1081        1086        1085
        1081        1082        1087        1086
        1082        1083        1088        1087
        1083        1084        1089        1088
        1085        1086        1091        1090
        1086        1087        1092        1091
        1087        1088        1093        1092
        1088        1089        1094        1093
        1090        1091        1096        1095
        1091        1092        1097        1096
        1092        1093        1098        1097
        1093        1094        1099        1098
        1100        1101        1106        1105
        1101        1102        1107        1106
        1102        1103        1108        1107
        1103        1104        1109        1108
        1105        1106        1111        1110
        1106        1107        1112        1111
        1107        1108        1113        1112
        1108        1109        1114        1113
        1110        1111        1116        1115
        1111        1112        1117        1116
        1112        1113        1118        1117
        1113        1114        1119        1118
        1115        1116        1121        1120
        1116        1117        1122        1121
        1117        1118        1123        1122
        1118        1119        1124        1123
        1125        1126        1131        1130
        1126        1127        1132        1131
        1127        1128        1133        1132
        1128        1129        1134        1133
        1130        1131        1136        1135
        1131        1132        1137        1136
        1132        1133        1138        1137
        1133        1134        1139        1138
        1135        1136        1141        1140
        1136        1137        1142        1141
        1137        1138        1143        1142
        1138        1139        1144        1143
        1140        1141        1146        1145
        1141        1142        1147        1146
        1142        1143        1148        1147
        1143        1144        1149        1148
        1150        1151        1156        1155
        1151        1152        1157        1156
        1152        1153        1158        1157
        1153        1154        1159        1158
        1155        1156        1161        1160
        1156        1157        1162        1161
        1157        1158        1163        1162
        1158        1159        1164        1163
        1160        1161        1166        1165
        1161        1162        1167        1166
        1162        1163        1168        1167
        1163        1164        1169        1168
        1165        1166        1171        1170
        1166        1167        1172        1171
        1167        1168        1173        1172
        1168        1169        1174        1173
        1175        1176        1181        1180
        1176        1177        1182        1181
        1177        1178        1183        1182
        1178        1179        1184        1183
        1180        1181        1186        1185
        1181        1182        1187        1186
        1182        1183        1188        1187
        1183        1184        1189        1188
        1185        1186        1191        1190
        1186        1187        1192        1191
        1187        1188        1193        1192
        1188        1189        1194        1193
        1190        1191        1196        1195
        1191        1192        1197        1196
        1192        1193        1198        1197
        1193        1194        1199        1198
        1200        1201        1206        1205
        1201        1202        1207        1206
        1202        1203        1208        1207
        1203        1204        1209        1208
        1205        1206        1211        1210
        1206        1207        1212        1211
        1207        1208        1213        1212
        1208        1209        1214        1213
        1210        1211        1216        1215
        1211        1212        1217        1216
        1212        1213        1218        1217
        1213        1214        1219        1218
        1215        1216        1221        1220
        1216        1217        1222        1221
        1217        1218        1223        1222
        1218        1219        1224        1223
        1225        1226        1231        1230
        1226        1227        1232        1231
        1227        1228        1233        1232
        1228        1229        1234        1233
        1230        1231        1236        1235
        1231        1232        1237        1236
        1232        1233        1238        1237
        1233        1234        1239        1238
        1235        1236        1241        1240
        1236        1237        1242        1241
        1237        1238        1243        1242
        1238        1239        1244        1243
        1240        1241        1246        1245
        1241        1242        1247        1246
        1242        1243        1248        1247
        1243        1244        1249        1248
        1250        1251        1256        1255
        1251        1252        1257        1256
        1252        1253        1258        1257
        1253        1254        1259        1258
        1255        1256        1261        1260
        1256        1257        1262        1261
        1257        1258        1263        1262
        1258        1259        1264        1263
        1260        1261        1266        1265
        1261        1262        1267        1266
        1262        1263        1268        1267
        1263        1264        1269        1268
        1265        1266        1271        1270
        1266        1267        1272        1271
        1267        1268        1273        1272
        1268        1269        1274        1273
        1275        1276        1281        1280
        1276        1277        1282        1281
        1277        1278        1283        1282
        1278        1279        1284        1283
        1280        1281        1286        1285
        1281        1282        1287        1286
        1282        1283        1288        1287
        1283        1284        1289        1288
        1285        1286        1291        1290
        1286        1287        1292        1291
        1287        1288        1293        1292
        1288        1289        1294        1293
        1290        1291        1296        1295
        1291        1292        1297        1296
        1292        1293        1298        1297
        1293        1294        1299        1298
        1300        1301        1306        1305
        1301        1302        1307        1306
        1302        1303        1308        1307
        1303        1304        1309        1308
        1305        1306        1311        1310
        1306        1307        1312        1311
        1307        1308        1313        1312
        1308        1309        1314        1313
        1310        1311        1316        1315
        1311        1312        1317        1316
        1312        1313        1318        1317
        1313        1314        1319        1318
        1315        1316        1321        1320
        1316        1317        1322        1321
        1317        1318        1323        1322
        1318        1319        1324        1323
        1325        1326        1331        1330
        1326        1327        1332        1331
        1327        1328        1333        1332
        1328        1329        1334        1333
        1330        1331        1336        1335
        1331        1332        1337        1336
        1332        1333        1338        1337
        1333        1334        1339        1338
        1335        1336        1341        1340
        1336        1337        1342        1341
        1337        1338        1343        1342
        1338        1339        1344        1343
        1340        1341        1346        1345
        1341        1342        1347        1346
        1342        1343        1348        1347
        1343        1344        1349        1348
        1350        1351        1356        1355
        1351        1352        1357        1356
        1352        1353        1358        1357
        1353        1354        1359        1358
        1355        1356        1361        1360
        1356        1357        1362        1361
        1357        1358        1363        1362
        1358        1359        1364        1363
        1360        1361        1366        1365
        1361        1362        1367        1366
        1362        1363        1368        1367
        1363        1364        1369        1368
        1365        1366        1371        1370
        1366        1367        1372        1371
        1367        1368        1373        1372
        1368        1369        1374        1373
        1375        1376        1381        1380
        1376        1377        1382        1381
        1377        1378        1383        1382
        1378        1379        1384        1383
        1380        1381        1386        1385
        1381        1382        1387        1386
        1382        1383        1388        1387
        1383        1384        1389        1388
        1385        1386        1391        1390
        1386        1387        1392        1391
        1387        1388        1393        1392
        1388        1389        1394        1393
        1390        1391        1396        1395
        1391        1392        1397        1396
        1392        1393        1398        1397
        1393        1394        1399        1398
        1400        1401        1406        1405
        1401        1402        1407        1406
        1402        1403        1408        1407
        1403        1404        1409        1408
        1405        1406        1411        1410
        1406        1407        1412        1411
        1407        1408        1413        1412
        1408        1409        1414        1413
        1410        1411        1416        1415
        1411        1412        1417        1416
        1412        1413        1418        1417
        1413        1414        1419        1418
        1415        1416        1421        1420
        1416        1417        1422        1421
        1417        1418        1423        1422
        1418        1419        1424        1423
        1425        1426        1431        1430
        1426        1427        1432        1431
        1427        1428        1433        1432
        1428        1429        1434        1433
        1430        1431        1436        1435
        1431        1432        1437        1436
        1432        1433        1438        1437
        1433        1434        1439        1438
        1435        1436        1441        1440
        1436        1437        1442        1441
        1437        1438        1443        1442
        1438        1439        1444        1443
        1440        1441        1446        1445
        1441        1442        1447        1446
        1442        1443        1448        1447
        1443        1444        1449        1448
        1450        1451        1456        1455
        1451        1452        1457        1456
        1452        1453        1458        1457
        1453        1454        1459        1458
        1455        1456        1461        1460
        1456        1457        1462        1461
        1457        1458        1463        1462
        1458        1459        1464        1463
        1460        1461        1466        1465
        1461        1462        1467        1466
        1462        1463        1468        1467
        1463        1464        1469        1468
        1465        1466        1471        1470
        1466        1467        1472        1471
        1467        1468        1473        1472
        1468        1469        1474        1473
        1475        1476        1481        1480
        1476        1477        1482        1481
        1477        1478        1483        1482
        1478        1479        1484        1483
        1480        1481        1486        1485
        1481        1482        1487        1486
        1482        1483        1488        1487
        1483        1484        1489        1488
        1485        1486        1491        1490
        1486        1487        1492        1491
        1487        1488        1493        1492
        1488        1489        1494        1493
        1490        1491        1496        1495
        1491        1492        1497        1496
        1492        1493        1498        1497
        1493        1494        1499        1498
        1500        1501        1506        1505
        1501        1502        1507        1506
        1502        1503        1508        1507
        1503        1504        1509        1508
        1505        1506        1511        1510
        1506        1507        1512        1511
        1507        1508        1513        1512
        1508        1509        1514        1513
        1510        1511        1516        1515
        1511        1512        1517        1516
        1512        1513        1518        1517
        1513        1514        1519        1518
        1515        1516        1521        1520
        1516        1517        1522        1521
        1517        1518        1523        1522
        1518        1519        1524        1523
        1525        1526        1531        1530
        1526        1527        1532        1531
        1527        1528        1533        1532
        1528        1529        1534        1533
        1530        1531        1536        1535
        1531        1532        1537        1536
        1532        1533        1538        1537
        1533        1534        1539        1538
        1535        1536        1541        1540
        1536        1537        1542        1541
        1537        1538        1543        1542
        1538        1539        1544        1543
        1540        1541        1546        1545
        1541        1542        1547        1546
        1542        1543        1548        1547
        1543        1544        1549        1548
        1550        1551        1556        1555
        1551        1552        1557        1556
        1552        1553        1558        1557
        1553        1554        1559        1558
        1555        1556        1561        1560
        1556        1557        1562        1561
        1557        1558        1563        1562
        1558        1559        1564        1563
        1560        1561        1566        1565
        1561        1562        1567        1566
        1562        1563        1568        1567
        1563        1564        1569        1568
        1565        1566        1571        1570
        1566        1567        1572        1571
        1567        1568        1573        1572
        1568        1569        1574        1573
        1575        1576        1581        1580
        1576        1577        1582        1581
        1577        1578        1583        1582
        1578        1579        1584        1583
        1580        1581        1586        1585
        1581        1582        1587        1586
        1582        1583        1588        1587
        1583        1584        1589        1588
        1585        1586        1591        1590
        1586        1587        1592        1591
        1587        1588        1593        1592
        1588        1589        1594        1593
        1590        1591        1596        1595
        1591        1592        1597        1596
        1592        1593        1598        1597
        1593        1594        1599        1598
 </DataArray>
 <DataArray  type="Int32"  Name="offsets"  format="ascii"> 
           4
           8
          12
          16
          20
          24
          28
          32
          36
          40
          44
          48
          52
          56
          60
          64
          68
          72
          76
          80
          84
          88
          92
          96
         100
         104
         108
         112
         116
         120
         124
         128
         132
         136
         140
         144
         148
         152
         156
         160
         164
         168
         172
         176
         180
         184
         188
         192
         196
         200
         204
         208
         212
         216
         220
         224
         228
         232
         236
         240
         244
         248
         252
         256
         260
         264
         268
         272
         276
         280
         284
         288
         292
         296
         300
         304
         308
         312
         316
         320
         324
         328
         332
         336
         340
         344
         348
         352
         356
         360
         364
         368
         372
         376
         380
         384
         388
         392
         396
         400
         404
         408
         412
         416
         420
         424
         428
         432
         436
         440
         444
         448
         452
         456
         460
         464
         468
         472
         476
         480
         484
         488
         492
         496
         500
         504
         508
         512
         516
         520
         524
         528
         532
         536
         540
         544
         548
         552
         556
         560
         564
         568
         572
         576
         580
         584
         588
         592
         596
         600
         604
         608
         612
         616
         620
         624
         628
         632
         636
         640
         644
         648
         652
         656
         660
         664
         668
         672
         676
         680
         684
         688
         692
         696
         700
         704
         708
         712
         716
         720
         724
         728
         732
         736
         740
         744
         748
         752
         756
         760
         764
         768
         772
         776
         780
         784
         788
         792
         796
         800
         804
         808
         812
         816
         820
         824
         828
         832
         836
         840
         844
         848
         852
         856
         860
         864
         868
         872
         876
         880
         884
         888
         892
         896
         900
         904
         908
         912
         916
         920
         924
         928
         932
         936
         940
         944
         948
         952
         956
         960
         964
         968
         972
         976
         980
         984
         988
         992
         996
        1000
        1004
        1008
        1012
        1016
        1020
        1024
        1028
        1032
        1036
        1040
        1044
        1048
        1052
        1056
        1060
        1064
        1068
        1072
        1076
        1080
        1084
        1088
        1092
        1096
        1100
        1104
        1108
        1112
        1116
        1120
        1124
        1128
        1132
        1136
        1140
        1144
        1148
        1152
        1156
        1160
        1164
        1168
        1172
        1176
        1180
        1184
        1188
        1192
        1196
        1200
        1204
        1208
        1212
        1216
        1220
        1224
        1228
        1232
        1236
        1240
        1244
        1248
        1252
        1256
        1260
        1264
        1268
        1272
        1276
        1280
        1284
        1288
        1292
        1296
        1300
        1304
        1308
        1312
        1316
        1320
        1324
        1328
        1332
        1336
        1340
        1344
        1348
        1352
        1356
        1360
        1364
        1368
        1372
        1376
        1380
        1384
        1388
        1392
        1396
        1400
        1404
        1408
        1412
        1416
        1420
        1424
        1428
        1432
        1436
        1440
        1444
        1448
        1452
        1456
        1460
        1464
        1468
        1472
        1476
        1480
        1484
        1488
        1492
        1496
        1500
        1504
        1508
        1512
        1516
        1520
        1524
        1528
        1532
        1536
        1540
        1544
        1548
        1552
        1556
        1560
        1564
        1568
        1572
        1576
        1580
        1584
        1588
        1592
        1596
        1600
        1604
        1608
        1612
        1616
        1620
        1624
        1628
        1632
        1636
        1640
        1644
        1648
        1652
        1656
        1660
        1664
        1668
        1672
        1676
        1680
        1684
        1688
        1692
        1696
        1700
        1704
        1708
        1712
        1716
        1720
        1724
        1728
        1732
        1736
        1740
        1744
        1748
        1752
        1756
        1760
        1764
        1768
        1772
        1776
        1780
        1784
        1788
        1792
        1796
        1800
        1804
        1808
        1812
        1816
        1820
        1824
        1828
        1832
        1836
        1840
        1844
        1848
        1852
        1856
        1860
        1864
        1868
        1872
        1876
        1880
        1884
        1888
        1892
        1896
        1900
        1904
        1908
        1912
        1916
        1920
        1924
        1928
        1932
        1936
        1940
        1944
        1948
        1952
        1956
        1960
        1964
        1968
        1972
        1976
        1980
        1984
        1988
        1992
        1996
        2000
        2004
        2008
        2012
        2016
        2020
        2024
        2028
        2032
        2036
        2040
        2044
        2048
        2052
        2056
        2060
        2064
        2068
        2072
        2076
        2080
        2084
        2088
        2092
        2096
        2100
        2104
        2108
        2112
        2116
        2120
        2124
        2128
        2132
        2136
        2140
        2144
        2148
        2152
        2156
        2160
        2164
        2168
        2172
        2176
        2180
        2184
        2188
        2192
        2196
        2200
        2204
        2208
        2212
        2216
        2220
        2224
        2228
        2232
        2236
        2240
        2244
        2248
        2252
        2256
        2260
        2264
        2268
        2272
        2276
        2280
        2284
        2288
        2292
        2296
        2300
        2304
        2308
        2312
        2316
        2320
        2324
        2328
        2332
        2336
        2340
        2344
        2348
        2352
        2356
        2360
        2364
        2368
        2372
        2376
        2380
        2384
        2388
        2392
        2396
        2400
        2404
        2408
        2412
        2416
        2420
        2424
        2428
        2432
        2436
        2440
        2444
        2448
        2452
        2456
        2460
        2464
        2468
        2472
        2476
        2480
        2484
        2488
        2492
        2496
        2500
        2504
        2508
        2512
        2516
        2520
        2524
        2528
        2532
        2536
        2540
        2544
        2548
        2552
        2556
        2560
        2564
        2568
        2572
        2576
        2580
        2584
        2588
        2592
        2596
        2600
        2604
        2608
        2612
        2616
        2620
        2624
        2628
        2632
        2636
        2640
        2644
        2648
        2652
        2656
        2660
        2664
        2668
        2672
        2676
        2680
        2684
        2688
        2692
        2696
        2700
        2704
        2708
        2712
        2716
        2720
        2724
        2728
        2732
        2736
        2740
        2744
        2748
        2752
        2756
        2760
        2764
        2768
        2772
        2776
        2780
        2784
        2788
        2792
        2796
        2800
        2804
        2808
        2812
        2816
        2820
        2824
        2828
        2832
        2836
        2840
        2844
        2848
        2852
        2856
        2860
        2864
        2868
        2872
        2876
        2880
        2884
        2888
        2892
        2896
        2900
        2904
        2908
        2912
        2916
        2920
        2924
        2928
        2932
        2936
        2940
        2944
        2948
        2952
        2956
        2960
        2964
        2968
        2972
        2976
        2980
        2984
        2988
        2992
        2996
        3000
        3004
        3008
        3012
        3016
        3020
        3024
        3028
        3032
        3036
        3040
        3044
        3048
        3052
        3056
        3060
        3064
        3068
        3072
        3076
        3080
        3084
        3088
        3092
        3096
        3100
        3104
        3108
        3112
        3116
        3120
        3124
        3128
        3132
        3136
        3140
        3144
        3148
        3152
        3156
        3160
        3164
        3168
        3172
        3176
        3180
        3184
        3188
        3192
        3196
        3200
        3204
        3208
        3212
        3216
        3220
        3224
        3228
        3232
        3236
        3240
        3244
        3248
        3252
        3256
        3260
        3264
        3268
        3272
        3276
        3280
        3284
        3288
        3292
        3296
        3300
        3304
        3308
        3312
        3316
        3320
        3324
        3328
        3332
        3336
        3340
        3344
        3348
        3352
        3356
        3360
        3364
        3368
        3372
        3376
        3380
        3384
        3388
        3392
        3396
        3400
        3404
        3408
        3412
        3416
        3420
        3424
        3428
        3432
        3436
        3440
        3444
        3448
        3452
        3456
        3460
        3464
        3468
        3472
        3476
        3480
        3484
        3488
        3492
        3496
        3500
        3504
        3508
        3512
        3516
        3520
        3524
        3528
        3532
        3536
        3540
        3544
        3548
        3552
        3556
        3560
        3564
        3568
        3572
        3576
        3580
        3584
        3588
        3592
        3596
        3600
        3604
        3608
        3612
        3616
        3620
        3624
        3628
        3632
        3636
        3640
        3644
        3648
        3652
        3656
        3660
        3664
        3668
        3672
        3676
        3680
        3684
        3688
        3692
        3696
        3700
        3704
        3708
        3712
        3716
        3720
        3724
        3728
        3732
        3736
        3740
        3744
        3748
        3752
        3756
        3760
        3764
        3768
        3772
        3776
        3780
        3784
        3788
        3792
        3796
        3800
        3804
        3808
        3812
        3816
        3820
        3824
        3828
        3832
        3836
        3840
        3844
        3848
        3852
        3856
        3860
        3864
        3868
        3872
        3876
        3880
        3884
        3888
        3892
        3896
        3900
        3904
        3908
        3912
        3916
        3920
        3924
        3928
        3932
        3936
        3940
        3944
        3948
        3952
        3956
        3960
        3964
        3968
        3972
        3976
        3980
        3984
        3988
        3992
        3996
        4000
        4004
        4008
        4012
        4016
        4020
        4024
        4028
        4032
        4036
        4040
        4044
        4048
        4052
        4056
        4060
        4064
        4068
        4072
        4076
        4080
        4084
        4088
        4092
        4096
 </DataArray>
 <DataArray  type="UInt8"  Name="types"  format="ascii">
 9
 9
 9
 9
 9
 9
 9
 9
 9
 9
 9
 9
 9
 9
 9
 9
 9
 9
 9
 9
 9
 9
 9
 9
 9
 9
 9
 9
 9
 9
 9
 9
 9
 9
 9
 9
 9
 9
 9
 9
 9
 9
 9
 9
 9
 9
 9
 9
 9
 9
 9
 9
 9
 9
 9
 9
 9
 9
 9
 9
 9
 9
 9
 9
 9
 9
 9
 9
 9
 9
 9
 9
 9
 9
 9
 9
 9
 9
 9
 9
 9
 9
 9
 9
 9
 9
 9
 9
 9
 9
 9
 9
 9
 9
 9
 9
 9
 9
 9
 9
 9
 9
 9
 9
 9
 9
 9
 9
 9
 9
 9
 9
 9
 9
 9
 9
 9
 9
 9
 9
 9
 9
 9
 9
 9
 9
 9
 9
 9
 9
 9
 9
 9
 9
 9
 9
 9
 9
 9
 9
 9
 9
 9
 9
 9
 9
 9
 9
 9
 9
 9
 9
 9
 9
 9
 9
 9
 9
 9
 9
 9
 9
 9
 9
 9
 9
 9
 9
 9
 9
 9
 9
 9
 9
 9
 9
 9
 9
 9
 9
 9
 9
 9
 9
 9
 9
 9
 9
 9
 9
 9
 9
 9
 9
 9
 9
 9
 9
 9
 9
 9
 9
 9
 9
 9
 9
 9
 9
 9
 9
 9
 9
 9
 9
 9
 9
 9
 9
 9
 9
 9
 9
 9
 9
 9
 9
 9
 9
 9
 9
 9
 9
 9
 9
 9
 9
 9
 9
 9
 9
 9
 9
 9
 9
 9
 9
 9
 9
 9
 9
 9
 9
 9
 9
 9
 9
 9
 9
 9
 9
 9
 9
 9
 9
 9
 9
 9
 9
 9
 9
 9
 9
 9
 9
 9
 9
 9
 9
 9
 9
 9
 9
 9
 9
 9
 9
 9
 9
 9
 9
 9
 9
 9
 9
 9
 9
 9
 9
 9
 9
 9
 9
 9
 9
 9
 9
 9
 9
 9
 9
 9
 9
 9
 9
 9
 9
 9
 9
 9
 9
 9
 9
 9
 9
 9
 9
 9
 9
 9
 9
 9
 9
 9
 9
 9
 9
 9
 9
 9
 9
 9
 9
 9
 9
 9
 9
 9
 9
 9
 9
 9
 9
 9
 9
 9
 9
 9
 9
 9
 9
 9
 9
 9
 9
 9
 9
 9
 9
 9
 9
 9
 9
 9
 9
 9
 9
 9
 9
 9
 9
 9
 9
 9
 9
 9
 9
 9
 9
 9
 9
 9
 9
 9
 9
 9
 9
 9
 9
 9
 9
 9
 9
 9
 9
 9
 9
 9
 9
 9
 9
 9
 9
 9
 9
 9
 9
 9
 9
 9
 9
 9
 9
 9
 9
 9
 9
 9
 9
 9
 9
 9
 9
 9
 9
 9
 9
 9
 9
 9
 9
 9
 9
 9
 9
 9
 9
 9
 9
 9
 9
 9
 9
 9
 9
 9
 9
 9
 9
 9
 9
 9
 9
 9
 9
 9
 9
 9
 9
 9
 9
 9
 9
 9
 9
 9
 9
 9
 9
 9
 9
 9
 9
 9
 9
 9
 9
 9
 9
 9
 9
 9
 9
 9
 9
 9
 9
 9
 9
 9
 9
 9
 9
 9
 9
 9
 9
 9
 9
 9
 9
 9
 9
 9
 9
 9
 9
 9
 9
 9
 9
 9
 9
 9
 9
 9
 9
 9
 9
 9
 9
 9
 9
 9
 9
 9
 9
 9
 9
 9
 9
 9
 9
 9
 9
 9
 9
 9
 9
 9
 9
 9
 9
 9
 9
 9
 9
 9
 9
 9
 9
 9
 9
 9
 9
 9
 9
 9
 9
 9
 9
 9
 9
 9
 9
 9
 9
 9
 9
 9
 9
 9
 9
 9
 9
 9
 9
 9
 9
 9
 9
 9
 9
 9
 9
 9
 9
 9
 9
 9
 9
 9
 9
 9
 9
 9
 9
 9
 9
 9
 9
 9
 9
 9
 9
 9
 9
 9
 9
 9
 9
 9
 9
 9
 9
 9
 9
 9
 9
 9
 9
 9
 9
 9
 9
 9
 9
 9
 9
 9
 9
 9
 9
 9
 9
 9
 9
 9
 9
 9
 9
 9
 9
 9
 9
 9
 9
 9
 9
 9
 9
 9
 9
 9
 9
 9
 9
 9
 9
 9
 9
 9
 9
 9
 9
 9
 9
 9
 9
 9
 9
 9
 9
 9
 9
 9
 9
 9
 9
 9
 9
 9
 9
 9
 9
 9
 9
 9
 9
 9
 9
 9
 9
 9
 9
 9
 9
 9
 9
 9
 9
 9
 9
 9
 9
 9
 9
 9
 9
 9
 9
 9
 9
 9
 9
 9
 9
 9
 9
 9
 9
 9
 9
 9
 9
 9
 9
 9
 9
 9
 9
 9
 9
 9
 9
 9
 9
 9
 9
 9
 9
 9
 9
 9
 9
 9
 9
 9
 9
 9
 9
 9
 9
 9
 9
 9
 9
 9
 9
 9
 9
 9
 9
 9
 9
 9
 9
 9
 9
 9
 9
 9
 9
 9
 9
 9
 9
 9
 9
 9
 9
 9
 9
 9
 9
 9
 9
 9
 9
 9
 9
 9
 9
 9
 9
 9
 9
 9
 9
 9
 9
 9
 9
 9
 9
 9
 9
 9
 9
 9
 9
 9
 9
 9
 9
 9
 9
 9
 9
 9
 9
 9
 9
 9
 9
 9
 9
 9
 9
 9
 9
 9
 9
 9
 9
 9
 9
 9
 9
 9
 9
 9
 9
 9
 9
 9
 9
 9
 9
 9
 9
 9
 9
 9
 9
 9
 9
 9
 9
 9
 9
 9
 9
 9
 9
 9
 9
 9
 9
 9
 9
 9
 9
 9
 9
 9
 9
 9
 9
 9
 9
 9
 9
 9
 9
 9
 9
 9
 9
 9
 9
 9
 9
 9
 9
 9
 9
 9
 9
 9
 9
 9
 9
 9
 9
 9
 9
 9
 9
 9
 9
 9
 9
 9
 9
 9
 9
 9
 9
 9
 9
 9
 9
 9
 9
 9
 9
 9
 9
 9
 9
 9
 9
 9
 9
 9
 9
 9
 9
 9
 9
 9
 9
 9
 9
 9
 9
 9
 9
 9
 9
 9
 9
 9
 9
 9
 9
 9
 9
 9
 9
 9
 9
 9
 9
 9
 9
 9
 9
 9
 9
 9
 9
 9
 9
 9
 9
 9
 9
 9
 9
 9
 9
 9
 9
 9
 9
 9
 9
 9
 9
 9
 9
 9
 9
 9
 9
 9
 9
 9
 9
 9
 9
 9
 9
 9
 9
 9
 9
 9
 9
 9
 9
 9
 9
 </DataArray>
 </Cells> 
 <PointData>
 <DataArray  type="Float64" Name="disp" NumberOfComponents="3" format="ascii">
   0.0000000000000000        0.0000000000000000        0.0000000000000000     
   6.0960795809134865E-003   3.7902328232511662E-003   0.0000000000000000     
   1.1666285781377274E-002   7.3236176192993160E-003   0.0000000000000000     
   1.6710618601391364E-002   1.0600154388144451E-002   0.0000000000000000     
   2.1229078040955755E-002   1.3619843129786572E-002   0.0000000000000000     
   0.0000000000000000        0.0000000000000000        0.0000000000000000     
   4.8912725807480524E-003   3.0220025969465037E-003   0.0000000000000000     
   9.5739083670682359E-003   6.0603541564801851E-003   0.0000000000000000     
   1.4047907358960551E-002   9.1150546786010443E-003   0.0000000000000000     
   1.8313269556424996E-002   1.2186104163309085E-002   0.0000000000000000     
   0.0000000000000000        0.0000000000000000        0.0000000000000000     
   3.9536885215748921E-003   2.4250074109565031E-003   0.0000000000000000     
   7.9108855908139042E-003   5.0627326869018760E-003   0.0000000000000000     
   1.1871591207717035E-002   7.9131758278361206E-003   0.0000000000000000     
   1.5835805372284288E-002   1.0976336833759232E-002   0.0000000000000000     
   0.0000000000000000        0.0000000000000000        0.0000000000000000     
   3.2833274033940056E-003   1.9992472652811638E-003   0.0000000000000000     
   6.6772174526142786E-003   4.3307532105643885E-003   0.0000000000000000     
   1.0181670147660821E-002   6.9945178358496746E-003   0.0000000000000000     
   1.3796685488533633E-002   9.9905411411370226E-003   0.0000000000000000     
   0.0000000000000000        0.0000000000000000        0.0000000000000000     
   2.8801892262053930E-003   1.7447221599204859E-003   0.0000000000000000     
   5.8729039524693626E-003   3.8644157274677227E-003   0.0000000000000000     
   8.9781441787919070E-003   6.3590807026417118E-003   0.0000000000000000     
   1.2195909905173028E-002   9.2287170854424526E-003   0.0000000000000000     
   2.1229078040955755E-002   1.3619843129786572E-002   0.0000000000000000     
   2.5434444717443747E-002   1.6613043718755171E-002   0.0000000000000000     
   2.9539499248228643E-002   1.9810116029579734E-002   0.0000000000000000     
   3.3544241633310448E-002   2.3211060062260265E-002   0.0000000000000000     
   3.7448671872689153E-002   2.6815875816796772E-002   0.0000000000000000     
   1.8313269556424996E-002   1.2186104163309085E-002   0.0000000000000000     
   2.2408174956890743E-002   1.5341707649706750E-002   0.0000000000000000     
   2.6370803557786968E-002   1.8650070176896502E-002   0.0000000000000000     
   3.0201155359113659E-002   2.2111191744878342E-002   0.0000000000000000     
   3.3899230360870836E-002   2.5725072353652258E-002   0.0000000000000000     
   1.5835805372284288E-002   1.0976336833759232E-002   0.0000000000000000     
   1.9731756518223054E-002   1.4210963359124723E-002   0.0000000000000000     
   2.3487673079240719E-002   1.7575803058386106E-002   0.0000000000000000     
   2.7103555055337302E-002   2.1070855931543377E-002   0.0000000000000000     
   3.0579402446512780E-002   2.4696121978596532E-002   0.0000000000000000     
   1.3796685488533633E-002   9.9905411411370226E-003   0.0000000000000000     
   1.7405189401440674E-002   1.3220810847009089E-002   0.0000000000000000     
   2.0890107812589920E-002   1.6587314674048542E-002   0.0000000000000000     
   2.4251440721981352E-002   2.0090052622255369E-002   0.0000000000000000     
   2.7489188129614990E-002   2.3729024691629578E-002   0.0000000000000000     
   1.2195909905173028E-002   9.2287170854424526E-003   0.0000000000000000     
   1.5428473606543610E-002   1.2371250113359850E-002   0.0000000000000000     
   1.8578107757834545E-002   1.5684605023883805E-002   0.0000000000000000     
   2.1644812359045831E-002   1.9168781817014327E-002   0.0000000000000000     
   2.4628587410177469E-002   2.2823780492751404E-002   0.0000000000000000     
   3.7448671872689153E-002   2.6815875816796772E-002   0.0000000000000000     
   4.1257409226692951E-002   3.0620492237246038E-002   0.0000000000000000     
   4.4975072955650022E-002   3.4620838267664870E-002   0.0000000000000000     
   4.8601663059560374E-002   3.8816913908053259E-002   0.0000000000000000     
   5.2137179538423992E-002   4.3208719158411207E-002   0.0000000000000000     
   3.3899230360870836E-002   2.5725072353652258E-002   0.0000000000000000     
   3.7488180574617030E-002   2.9520944124959342E-002   0.0000000000000000     
   4.0991158011910785E-002   3.3528039180540654E-002   0.0000000000000000     
   4.4408162672752126E-002   3.7746357520396200E-002   0.0000000000000000     
   4.7739194557141013E-002   4.2175899144525991E-002   0.0000000000000000     
   3.0579402446512780E-002   2.4696121978596532E-002   0.0000000000000000     
   3.3944462773541344E-002   2.8496417058240749E-002   0.0000000000000000     
   3.7227983557197163E-002   3.2516557029171209E-002   0.0000000000000000     
   4.0429964797480240E-002   3.6756541891387891E-002   0.0000000000000000     
   4.3550406494390570E-002   4.1216371644890823E-002   0.0000000000000000     
   2.7489188129614990E-002   2.3729024691629578E-002   0.0000000000000000     
   3.0626255823465894E-002   2.7546911037090265E-002   0.0000000000000000     
   3.3685549591509149E-002   3.1586391813556512E-002   0.0000000000000000     
   3.6667069433744724E-002   3.5847467021028333E-002   0.0000000000000000     
   3.9570815350172657E-002   4.0330136659505703E-002   0.0000000000000000     
   2.4628587410177469E-002   2.2823780492751404E-002   0.0000000000000000     
   2.7533559724390692E-002   2.6672426061507878E-002   0.0000000000000000     
   3.0363856114846731E-002   3.0737543533696576E-002   0.0000000000000000     
   3.3119476581545591E-002   3.5019132909317498E-002   0.0000000000000000     
   3.5800421124487274E-002   3.9517194188370644E-002   0.0000000000000000     
   5.2137179538423992E-002   4.3208719158411207E-002   0.0000000000000000     
   5.5577948967430429E-002   4.7799556009351526E-002   0.0000000000000000     
   5.8920297921769220E-002   5.2592726451487021E-002   0.0000000000000000     
   6.2164226401440363E-002   5.7588230484817711E-002   0.0000000000000000     
   6.5309734406443859E-002   6.2786068109343562E-002   0.0000000000000000     
   4.7739194557141013E-002   4.2175899144525991E-002   0.0000000000000000     
   5.0980159292433019E-002   4.6809239705339109E-002   0.0000000000000000     
   5.4126962505983658E-002   5.1638954855244681E-002   0.0000000000000000     
   5.7179604197792937E-002   5.6665044594242688E-002   0.0000000000000000     
   6.0138084367860861E-002   6.1887508922333148E-002   0.0000000000000000     
   4.3550406494390570E-002   4.1216371644890823E-002   0.0000000000000000     
   4.6585694651401659E-002   4.5882861555560428E-002   0.0000000000000000     
   4.9532215271987014E-002   5.0742826889277177E-002   0.0000000000000000     
   5.2389968356146621E-002   5.5796267646041051E-002   0.0000000000000000     
   5.5158953903880495E-002   6.1043183825852054E-002   0.0000000000000000     
   3.9570815350172657E-002   4.0330136659505703E-002   0.0000000000000000     
   4.2394555044336361E-002   4.5020421560015490E-002   0.0000000000000000     
   4.5136056219779272E-002   4.9904342553584516E-002   0.0000000000000000     
   4.7795318876501423E-002   5.4981899640212779E-002   0.0000000000000000     
   5.0372343014502760E-002   6.0253092819900281E-002   0.0000000000000000     
   3.5800421124487274E-002   3.9517194188370644E-002   0.0000000000000000     
   3.8406740471237107E-002   4.4221919718704289E-002   0.0000000000000000     
   4.0938485349360454E-002   4.9123501848166697E-002   0.0000000000000000     
   4.3395655758857309E-002   5.4221940576757867E-002   0.0000000000000000     
   4.5778251699727657E-002   5.9517235904477814E-002   0.0000000000000000     
   6.5309734406443859E-002   6.2786068109343562E-002   0.0000000000000000     
   6.8361659937928684E-002   6.8174518879303786E-002   0.0000000000000000     
   7.1324840997043837E-002   7.3741862348937551E-002   0.0000000000000000     
   7.4199277583789344E-002   7.9488098518244885E-002   0.0000000000000000     
   7.6984969698165179E-002   8.5413227387225760E-002   0.0000000000000000     
   6.0138084367860861E-002   6.1887508922333148E-002   0.0000000000000000     
   6.3006783309863160E-002   6.7299005031184800E-002   0.0000000000000000     
   6.5790081317475602E-002   7.2892190112466324E-002   0.0000000000000000     
   6.8487978390698159E-002   7.8667064166177761E-002   0.0000000000000000     
   7.1100474529530860E-002   8.4623627192319084E-002   0.0000000000000000     
   5.5158953903880495E-002   6.1043183825852054E-002   0.0000000000000000     
   5.7842842192239473E-002   6.6478461800048350E-002   0.0000000000000000     
   6.0445303498274386E-002   7.2096987939968077E-002   0.0000000000000000     
   6.2966337821985269E-002   7.7898762245611208E-002   0.0000000000000000     
   6.5405945163372087E-002   8.3883784716977799E-002   0.0000000000000000     
   5.0372343014502760E-002   6.0253092819900281E-002   0.0000000000000000     
   5.2869836585057603E-002   6.5712889185894477E-002   0.0000000000000000     
   5.5290507539440238E-002   7.1356255831442797E-002   0.0000000000000000     
   5.7634355877650638E-002   7.7183192756545282E-002   0.0000000000000000     
   5.9901381599688823E-002   8.3193699961201864E-002   0.0000000000000000     
   4.5778251699727657E-002   5.9517235904477814E-002   0.0000000000000000     
   4.8087766488317578E-002   6.5002287188723140E-002   0.0000000000000000     
   5.0325693440973124E-002   7.0669993786890498E-002   0.0000000000000000     
   5.2492032557694294E-002   7.6520355698979872E-002   0.0000000000000000     
   5.4586783838481104E-002   8.2553372924991264E-002   0.0000000000000000     
   7.6984969698165179E-002   8.5413227387225760E-002   0.0000000000000000     
   7.9672795684340325E-002   9.1506221617146000E-002   0.0000000000000000     
   8.2253633886483796E-002   9.7756053869271470E-002   0.0000000000000000     
   8.4727484304595591E-002  0.10416272414360213        0.0000000000000000     
   8.7094346938675696E-002  0.11072623244013800        0.0000000000000000     
   7.1100474529530860E-002   8.4623627192319084E-002   0.0000000000000000     
   7.3619028749035767E-002   9.0747814094628898E-002   0.0000000000000000     
   7.6035100064274969E-002   9.7025559776845752E-002   0.0000000000000000     
   7.8348688475248465E-002  0.10345686423896963        0.0000000000000000     
   8.0559793981956229E-002  0.11004172748100058        0.0000000000000000     
   6.5405945163372087E-002   8.3883784716977799E-002   0.0000000000000000     
   6.7756234426683049E-002   9.0036118652054187E-002   0.0000000000000000     
   7.0009314516166377E-002   9.6339827348826831E-002   0.0000000000000000     
   7.2165185431822043E-002  0.10279491080729568        0.0000000000000000     
   7.4223847173650062E-002  0.10940136902746075        0.0000000000000000     
   5.9901381599688823E-002   8.3193699961201864E-002   0.0000000000000000     
   6.2084412717282163E-002   8.9371135289421894E-002   0.0000000000000000     
   6.4176277242157992E-002   9.5698856585214681E-002   0.0000000000000000     
   6.6176975174316352E-002  0.10217686384858023        0.0000000000000000     
   6.8086506513757195E-002  0.10880515707951853        0.0000000000000000     
   5.4586783838481104E-002   8.2553372924991264E-002   0.0000000000000000     
   5.6603563620833103E-002   8.8752864006731991E-002   0.0000000000000000     
   5.8535988242249849E-002   9.5102647486009328E-002   0.0000000000000000     
   6.0384057702731378E-002  0.10160272336282331        0.0000000000000000     
   6.2147772002277640E-002  0.10825309163717389        0.0000000000000000     
   8.7094346938675696E-002  0.11072623244013800        0.0000000000000000     
   8.9365996512444326E-002  0.11743557297516348        0.0000000000000000     
   9.1554207749621669E-002  0.12427973996496296        0.0000000000000000     
   9.3658980650207738E-002  0.13125873340953639        0.0000000000000000     
   9.5680315214202533E-002  0.13837255330888387        0.0000000000000000     
   8.0559793981956229E-002  0.11004172748100058        0.0000000000000000     
   8.2686100109156724E-002  0.11677438289542713        0.0000000000000000     
   8.4745290381608412E-002  0.12364906387473786        0.0000000000000000     
   8.6737364799311281E-002  0.13066577041893271        0.0000000000000000     
   8.8662323362265302E-002  0.13782450252801182        0.0000000000000000     
   7.4223847173650062E-002  0.10940136902746075        0.0000000000000000     
   7.6206014078866860E-002  0.11615696234607435        0.0000000000000000     
   7.8132400484688863E-002  0.12305945109988879        0.0000000000000000     
   8.0003006391116044E-002  0.13010883528890405        0.0000000000000000     
   8.1817831798148444E-002  0.13730511491312014        0.0000000000000000     
   6.8086506513757195E-002  0.10880515707951853        0.0000000000000000     
   6.9925738421574707E-002  0.11558331132710518        0.0000000000000000     
   7.1715538058862993E-002  0.12251090164041580        0.0000000000000000     
   7.3455905425622081E-002  0.12958792801945038        0.0000000000000000     
   7.5146840521851943E-002  0.13681439046420887        0.0000000000000000     
   6.2147772002277640E-002  0.10825309163717389        0.0000000000000000     
   6.3845273137280265E-002  0.11505342983851959        0.0000000000000000     
   6.5494703104130830E-002  0.12200341549631882        0.0000000000000000     
   6.7096061902829338E-002  0.12910304861057165        0.0000000000000000     
   6.8649349533375786E-002  0.13635232918127804        0.0000000000000000     
   9.5680315214202533E-002  0.13837255330888387        0.0000000000000000     
   9.7622924162892769E-002  0.14561668441319991        0.0000000000000000     
   9.9491520217565216E-002  0.15298661147267928        0.0000000000000000     
  0.10128610337821985       0.16048233448732183        0.0000000000000000     
  0.10300667364485669       0.16810385345712764        0.0000000000000000     
   8.8662323362265302E-002  0.13782450252801182        0.0000000000000000     
   9.0500722604555037E-002  0.14510605943839314        0.0000000000000000     
   9.2233119060264976E-002  0.15249124038649486        0.0000000000000000     
   9.3859512729395134E-002  0.15998004537231700        0.0000000000000000     
   9.5379903611945482E-002  0.16757247439585946        0.0000000000000000     
   8.1817831798148444E-002  0.13730511491312014        0.0000000000000000     
   8.3544066710686982E-002  0.14462011608374686        0.0000000000000000     
   8.5148901133632646E-002  0.15202566491199401        0.0000000000000000     
   8.6632335066985422E-002  0.15952176139786162        0.0000000000000000     
   8.7994368510745297E-002  0.16710840554134962        0.0000000000000000     
   7.5146840521851943E-002  0.13681439046420887        0.0000000000000000     
   7.6752956481288645E-002  0.14415885434926110        0.0000000000000000     
   7.8238866437668253E-002  0.15158988504917667        0.0000000000000000     
   7.9604570390990753E-002  0.15910748256395565        0.0000000000000000     
   8.0850068341256173E-002  0.16671164689359808        0.0000000000000000     
   6.8649349533375786E-002  0.13635232918127804        0.0000000000000000     
   7.0127391916359999E-002  0.14372227423493583        0.0000000000000000     
   7.1503014972371770E-002  0.15118390079804292        0.0000000000000000     
   7.2776218701411141E-002  0.15873720887059925        0.0000000000000000     
   7.3947003103478084E-002  0.16638219845260488        0.0000000000000000     
   0.0000000000000000        0.0000000000000000        0.0000000000000000     
   2.8801892262053930E-003   1.7447221599204859E-003   0.0000000000000000     
   5.8729039524693626E-003   3.8644157274677227E-003   0.0000000000000000     
   8.9781441787919070E-003   6.3590807026417118E-003   0.0000000000000000     
   1.2195909905173028E-002   9.2287170854424526E-003   0.0000000000000000     
   0.0000000000000000        0.0000000000000000        0.0000000000000000     
   2.6104303250623390E-003   1.5887826498621569E-003   0.0000000000000000     
   5.2899594987641570E-003   3.5564214152934348E-003   0.0000000000000000     
   8.0385875211054555E-003   5.9029162962938335E-003   0.0000000000000000     
   1.0856314392086234E-002   8.6282672928633536E-003   0.0000000000000000     
   0.0000000000000000        0.0000000000000000        0.0000000000000000     
   2.3402070350181268E-003   1.4587792900938664E-003   0.0000000000000000     
   4.7203984998836716E-003   3.2994714517230804E-003   0.0000000000000000     
   7.1405743945966342E-003   5.5220764848876421E-003   0.0000000000000000     
   9.6007347191570131E-003   8.1265943895875523E-003   0.0000000000000000     
   0.0000000000000000        0.0000000000000000        0.0000000000000000     
   2.0695193560727582E-003   1.3547120806156130E-003   0.0000000000000000     
   4.1642209558279061E-003   3.0935658367566596E-003   0.0000000000000000     
   6.2841047992654416E-003   5.2165612684231394E-003   0.0000000000000000     
   8.4291708863853676E-003   7.7236983756150514E-003   0.0000000000000000     
   0.0000000000000000        0.0000000000000000        0.0000000000000000     
   1.7983672882262321E-003   1.2765810214273978E-003   0.0000000000000000     
   3.6214268665968581E-003   2.9387045703941723E-003   0.0000000000000000     
   5.4691787351118784E-003   4.9863706469003228E-003   0.0000000000000000     
   7.3416228937712930E-003   7.4195792509458500E-003   0.0000000000000000     
   1.2195909905173028E-002   9.2287170854424526E-003   0.0000000000000000     
   1.5428473606543610E-002   1.2371250113359850E-002   0.0000000000000000     
   1.8578107757834545E-002   1.5684605023883805E-002   0.0000000000000000     
   2.1644812359045831E-002   1.9168781817014327E-002   0.0000000000000000     
   2.4628587410177469E-002   2.2823780492751404E-002   0.0000000000000000     
   1.0856314392086234E-002   8.6282672928633536E-003   0.0000000000000000     
   1.3689795397969204E-002   1.1650214942551591E-002   0.0000000000000000     
   1.6485685825017082E-002   1.4886499782908156E-002   0.0000000000000000     
   1.9243985673229866E-002   1.8337121813933040E-002   0.0000000000000000     
   2.1964694942607554E-002   2.2002081035626245E-002   0.0000000000000000     
   9.6007347191570131E-003   8.1265943895875523E-003   0.0000000000000000     
   1.2077341040154805E-002   1.1045639118958913E-002   0.0000000000000000     
   1.4546854924179993E-002   1.4211824626137830E-002   0.0000000000000000     
   1.7009276371232583E-002   1.7625150911124307E-002   0.0000000000000000     
   1.9464605381312575E-002   2.1285617973918338E-002   0.0000000000000000     
   8.4291708863853676E-003   7.7236983756150514E-003   0.0000000000000000     
   1.0591110533100405E-002   1.0557522642581810E-002   0.0000000000000000     
   1.2761615055323283E-002   1.3660579553572838E-002   0.0000000000000000     
   1.4940684453053991E-002   1.7032869108588120E-002   0.0000000000000000     
   1.7128318726292543E-002   2.0674391307627677E-002   0.0000000000000000     
   7.3416228937712930E-003   7.4195792509458500E-003   0.0000000000000000     
   9.2311038768060107E-003   1.0185865513420288E-002   0.0000000000000000     
   1.1129966218446944E-002   1.3232764565213169E-002   0.0000000000000000     
   1.3038209918694090E-002   1.6560276406324494E-002   0.0000000000000000     
   1.4955834977547450E-002   2.0168401036754269E-002   0.0000000000000000     
   2.4628587410177469E-002   2.2823780492751404E-002   0.0000000000000000     
   2.7533559724390692E-002   2.6672426061507878E-002   0.0000000000000000     
   3.0363856114846731E-002   3.0737543533696576E-002   0.0000000000000000     
   3.3119476581545591E-002   3.5019132909317498E-002   0.0000000000000000     
   3.5800421124487274E-002   3.9517194188370644E-002   0.0000000000000000     
   2.1964694942607554E-002   2.2002081035626245E-002   0.0000000000000000     
   2.4631354289985381E-002   2.5879465073165818E-002   0.0000000000000000     
   2.7227504372198588E-002   2.9967361551729799E-002   0.0000000000000000     
   2.9753145189247175E-002   3.4265770471318180E-002   0.0000000000000000     
   3.2208276741131144E-002   3.8774691831930969E-002   0.0000000000000000     
   1.9464605381312575E-002   2.1285617973918338E-002   0.0000000000000000     
   2.1884619333919619E-002   2.5174531013736300E-002   0.0000000000000000     
   2.4241095608553372E-002   2.9273195229794560E-002   0.0000000000000000     
   2.6534034205213823E-002   3.3581610622093139E-002   0.0000000000000000     
   2.8763435123900991E-002   3.8099777190632012E-002   0.0000000000000000     
   1.7128318726292543E-002   2.0674391307627677E-002   0.0000000000000000     
   1.9293354856193410E-002   2.4557623883219321E-002   0.0000000000000000     
   2.1404629823911076E-002   2.8655044567890881E-002   0.0000000000000000     
   2.3462143629445542E-002   3.2966653361642360E-002   0.0000000000000000     
   2.5465896272796804E-002   3.7492450264473759E-002   0.0000000000000000     
   1.4955834977547450E-002   2.0168401036754269E-002   0.0000000000000000     
   1.6857560856806748E-002   2.4028743681614884E-002   0.0000000000000000     
   1.8718107018271705E-002   2.8112909566018748E-002   0.0000000000000000     
   2.0537473461942322E-002   3.2420898689965866E-002   0.0000000000000000     
   2.2315660187818599E-002   3.6952711053456225E-002   0.0000000000000000     
   3.5800421124487274E-002   3.9517194188370644E-002   0.0000000000000000     
   3.8406740471237107E-002   4.4221919718704289E-002   0.0000000000000000     
   4.0938485349360454E-002   4.9123501848166697E-002   0.0000000000000000     
   4.3395655758857309E-002   5.4221940576757867E-002   0.0000000000000000     
   4.5778251699727657E-002   5.9517235904477814E-002   0.0000000000000000     
   3.2208276741131144E-002   3.8774691831930969E-002   0.0000000000000000     
   3.4594811166103301E-002   4.3489344277783178E-002   0.0000000000000000     
   3.6914660602416438E-002   4.8404946453089827E-002   0.0000000000000000     
   3.9167825050070583E-002   5.3521498357850909E-002   0.0000000000000000     
   4.1354304509065722E-002   5.8838999992066418E-002   0.0000000000000000     
   2.8763435123900991E-002   3.8099777190632012E-002   0.0000000000000000     
   3.0931327362934278E-002   4.2824683483408524E-002   0.0000000000000000     
   3.3039739920633131E-002   4.7753318048419986E-002   0.0000000000000000     
   3.5088672796997525E-002   5.2885680885666447E-002   0.0000000000000000     
   3.7078125992027477E-002   5.8221771995147865E-002   0.0000000000000000     
   2.5465896272796804E-002   3.7492450264473759E-002   0.0000000000000000     
   2.7416289061730062E-002   4.2227937335580307E-002   0.0000000000000000     
   2.9313723304010501E-002   4.7168616634157216E-002   0.0000000000000000     
   3.1158198999638134E-002   5.2314488160204495E-002   0.0000000000000000     
   3.2949716148612945E-002   5.7665551913722128E-002   0.0000000000000000     
   2.2315660187818599E-002   3.6952711053456225E-002   0.0000000000000000     
   2.4049696262490650E-002   4.1699105834298526E-002   0.0000000000000000     
   2.5736610752548579E-002   4.6650842210301462E-002   0.0000000000000000     
   2.7376403657992404E-002   5.1807920181465031E-002   0.0000000000000000     
   2.8969074978822111E-002   5.7170339747789220E-002   0.0000000000000000     
   4.5778251699727657E-002   5.9517235904477814E-002   0.0000000000000000     
   4.8087766488317578E-002   6.5002287188723140E-002   0.0000000000000000     
   5.0325693440973124E-002   7.0669993786890498E-002   0.0000000000000000     
   5.2492032557694294E-002   7.6520355698979872E-002   0.0000000000000000     
   5.4586783838481104E-002   8.2553372924991264E-002   0.0000000000000000     
   4.1354304509065722E-002   5.8838999992066418E-002   0.0000000000000000     
   4.3474466947968998E-002   6.4347780334359547E-002   0.0000000000000000     
   4.5528680335347557E-002   7.0038168363353470E-002   0.0000000000000000     
   4.7516944671201398E-002   7.5910164079048187E-002   0.0000000000000000     
   4.9439259955530529E-002   8.1963767481443683E-002   0.0000000000000000     
   3.7078125992027477E-002   5.8221771995147865E-002   0.0000000000000000     
   3.9007773009961486E-002   6.3750493148628823E-002   0.0000000000000000     
   4.0877287355038025E-002   6.9460746117873964E-002   0.0000000000000000     
   4.2686669027257110E-002   7.5352530902883255E-002   0.0000000000000000     
   4.4435918026618712E-002   8.1425847503656723E-002   0.0000000000000000     
   3.2949716148612945E-002   5.7665551913722128E-002   0.0000000000000000     
   3.4687684674295047E-002   6.3210425631531023E-002   0.0000000000000000     
   3.6371514500044534E-002   6.8937727050452022E-002   0.0000000000000000     
   3.8001205625861421E-002   7.4847456170485147E-002   0.0000000000000000     
   3.9576758051745681E-002   8.0939612991630411E-002   0.0000000000000000     
   2.8969074978822111E-002   5.7170339747789220E-002   0.0000000000000000     
   3.0514201940969675E-002   6.2727577783066077E-002   0.0000000000000000     
   3.2011361770367085E-002   6.8469111161087629E-002   0.0000000000000000     
   3.3460554467014327E-002   7.4394939881853819E-002   0.0000000000000000     
   3.4861780030911414E-002   8.0505063945364719E-002   0.0000000000000000     
   5.4586783838481104E-002   8.2553372924991264E-002   0.0000000000000000     
   5.6603563620833103E-002   8.8752864006731991E-002   0.0000000000000000     
   5.8535988242249849E-002   9.5102647486009328E-002   0.0000000000000000     
   6.0384057702731378E-002  0.10160272336282331        0.0000000000000000     
   6.2147772002277640E-002  0.10825309163717389        0.0000000000000000     
   4.9439259955530529E-002   8.1963767481443683E-002   0.0000000000000000     
   5.1289960646127473E-002   8.8183448463463085E-002   0.0000000000000000     
   5.3063381200784770E-002   9.4553676918029558E-002   0.0000000000000000     
   5.4759521619502427E-002  0.10107445284514306        0.0000000000000000     
   5.6378381902280443E-002  0.10774577624480360        0.0000000000000000     
   4.4435918026618712E-002   8.1425847503656723E-002   0.0000000000000000     
   4.6119877301956880E-002   8.7665032319093852E-002   0.0000000000000000     
   4.7733389802105598E-002   9.4054421748094169E-002   0.0000000000000000     
   4.9276455527064861E-002  0.10059401579065767        0.0000000000000000     
   5.0749074476834674E-002  0.10728381444678436        0.0000000000000000     
   3.9576758051745681E-002   8.0939612991630411E-002   0.0000000000000000     
   4.1093313588321322E-002   8.7197615573624251E-002   0.0000000000000000     
   4.2546014046212312E-002   9.3604881976203161E-002   0.0000000000000000     
   4.3934859425418644E-002  0.10016141219936714        0.0000000000000000     
   4.5259849725940340E-002  0.10686720624311620        0.0000000000000000     
   3.4861780030911414E-002   8.0505063945364719E-002   0.0000000000000000     
   3.6210269505220792E-002   8.6781198227054282E-002   0.0000000000000000     
   3.7501253933104918E-002   9.3205057602356534E-002   0.0000000000000000     
   3.8734733314563799E-002   9.9776642071271474E-002   0.0000000000000000     
   3.9910707649597421E-002  0.10649595163379910        0.0000000000000000     
   6.2147772002277640E-002  0.10825309163717389        0.0000000000000000     
   6.3845273137280265E-002  0.11505342983851959        0.0000000000000000     
   6.5494703104130830E-002  0.12200341549631882        0.0000000000000000     
   6.7096061902829338E-002  0.12910304861057165        0.0000000000000000     
   6.8649349533375786E-002  0.13635232918127804        0.0000000000000000     
   5.6378381902280443E-002  0.10774577624480360        0.0000000000000000     
   5.7934520902483820E-002  0.11456701044047832        0.0000000000000000     
   5.9442497473477601E-002  0.12153751875563429        0.0000000000000000     
   6.0902311615261738E-002  0.12865730119027152        0.0000000000000000     
   6.2313963327836279E-002  0.13592635774439005        0.0000000000000000     
   5.0749074476834674E-002  0.10728381444678436        0.0000000000000000     
   5.2163384393685688E-002  0.11412374569314201        0.0000000000000000     
   5.3531523019888533E-002  0.12111373750639842        0.0000000000000000     
   5.4853490355443200E-002  0.12825378988655353        0.0000000000000000     
   5.6129286400349712E-002  0.13554390283360743        0.0000000000000000     
   4.5259849725940340E-002  0.10686720624311620        0.0000000000000000     
   4.6531863610885842E-002  0.11372363559651076        0.0000000000000000     
   4.7761779743363639E-002  0.12073207174861127        0.0000000000000000     
   4.8949598123373718E-002  0.12789251469941773        0.0000000000000000     
   5.0095318750916093E-002  0.13520496444893013        0.0000000000000000     
   3.9910707649597421E-002  0.10649595163379910        0.0000000000000000     
   4.1039958554084301E-002  0.11336668015058449        0.0000000000000000     
   4.2133267643902919E-002  0.12039252148227281        0.0000000000000000     
   4.3190634919053290E-002  0.12757347562886401        0.0000000000000000     
   4.4212060379535408E-002  0.13490954259035814        0.0000000000000000     
   6.8649349533375786E-002  0.13635232918127804        0.0000000000000000     
   7.0127391916359999E-002  0.14372227423493583        0.0000000000000000     
   7.1503014972371770E-002  0.15118390079804292        0.0000000000000000     
   7.2776218701411141E-002  0.15873720887059925        0.0000000000000000     
   7.3947003103478084E-002  0.16638219845260488        0.0000000000000000     
   6.2313963327836279E-002  0.13592635774439005        0.0000000000000000     
   6.3661165428514410E-002  0.14331944228818566        0.0000000000000000     
   6.4927630734609401E-002  0.15081130869185416        0.0000000000000000     
   6.6113359246121217E-002  0.15840195695539552        0.0000000000000000     
   6.7218350963049872E-002  0.16609138707880977        0.0000000000000000     
   5.6129286400349712E-002  0.13554390283360743        0.0000000000000000     
   5.7348069430365321E-002  0.14295942505642517        0.0000000000000000     
   5.8498997721247309E-002  0.15047570526387194        0.0000000000000000     
   5.9582071272995661E-002  0.15809274345594776        0.0000000000000000     
   6.0597290085610378E-002  0.16581053963265260        0.0000000000000000     
   5.0095318750916093E-002  0.13520496444893013        0.0000000000000000     
   5.1188103921912698E-002  0.14264222253965436        0.0000000000000000     
   5.2217115932285486E-002  0.15017709051409625        0.0000000000000000     
   5.3182354782034452E-002  0.15780956837225588        0.0000000000000000     
   5.4083820471159616E-002  0.16553965611413329        0.0000000000000000     
   4.4212060379535408E-002  0.13490954259035814        0.0000000000000000     
   4.5181268903156546E-002  0.14236783473787318        0.0000000000000000     
   4.6081985367723940E-002  0.14991546444252715        0.0000000000000000     
   4.6914209773237625E-002  0.15755243170432007        0.0000000000000000     
   4.7677942119697572E-002  0.16527873652325192        0.0000000000000000     
   0.0000000000000000        0.0000000000000000        0.0000000000000000     
   1.7983672882262321E-003   1.2765810214273978E-003   0.0000000000000000     
   3.6214268665968581E-003   2.9387045703941723E-003   0.0000000000000000     
   5.4691787351118784E-003   4.9863706469003228E-003   0.0000000000000000     
   7.3416228937712930E-003   7.4195792509458500E-003   0.0000000000000000     
   0.0000000000000000        0.0000000000000000        0.0000000000000000     
   1.5350276984330306E-003   1.2172833370822840E-003   0.0000000000000000     
   3.0993771874545796E-003   2.8203896522952282E-003   0.0000000000000000     
   4.6930484670646457E-003   4.8093189456388328E-003   0.0000000000000000     
   6.3160415372632301E-003   7.1840712171130968E-003   0.0000000000000000     
   0.0000000000000000        0.0000000000000000        0.0000000000000000     
   1.2877774536476357E-003   1.1697162521333354E-003   0.0000000000000000     
   2.6054328736651172E-003   2.7241230821194369E-003   0.0000000000000000     
   3.9529662600524453E-003   4.6632204899583057E-003   0.0000000000000000     
   5.3303776128096197E-003   6.9870084756499407E-003   0.0000000000000000     
   0.0000000000000000        0.0000000000000000        0.0000000000000000     
   1.0566165538700469E-003   1.1338797665805520E-003   0.0000000000000000     
   2.1395939252284728E-003   2.6499048598667995E-003   0.0000000000000000     
   3.2489321140752761E-003   4.5480752798587425E-003   0.0000000000000000     
   4.3846311204104593E-003   6.8283910265563809E-003   0.0000000000000000     
   0.0000000000000000        0.0000000000000000        0.0000000000000000     
   8.4154499910026504E-004   1.1097738804239339E-003   0.0000000000000000     
   1.7018603421446446E-003   2.5977349855373149E-003   0.0000000000000000     
   2.5809460291331388E-003   4.4638833153401430E-003   0.0000000000000000     
   3.4788020600657480E-003   6.7082188698324181E-003   0.0000000000000000     
   7.3416228937712930E-003   7.4195792509458500E-003   0.0000000000000000     
   9.2311038768060107E-003   1.0185865513420288E-002   0.0000000000000000     
   1.1129966218446944E-002   1.3232764565213169E-002   0.0000000000000000     
   1.3038209918694090E-002   1.6560276406324494E-002   0.0000000000000000     
   1.4955834977547450E-002   2.0168401036754269E-002   0.0000000000000000     
   6.3160415372632301E-003   7.1840712171130968E-003   0.0000000000000000     
   7.9556875922758077E-003   9.8950141418188836E-003   0.0000000000000000     
   9.5993178263278443E-003   1.2892515394857048E-002   0.0000000000000000     
   1.1246932239419347E-002   1.6176574976227594E-002   0.0000000000000000     
   1.2898530831550311E-002   1.9747192885930520E-002   0.0000000000000000     
   5.3303776128096197E-003   6.9870084756499407E-003   0.0000000000000000     
   6.7232282005139764E-003   9.6493149381221381E-003   0.0000000000000000     
   8.1170792917428427E-003   1.2603967776302686E-002   0.0000000000000000     
   9.5119308864962306E-003   1.5850966990191593E-002   0.0000000000000000     
   1.0907782984774132E-002   1.9390312579788856E-002   0.0000000000000000     
   4.3846311204104593E-003   6.8283910265563809E-003   0.0000000000000000     
   5.5337257015205159E-003   9.4487679023300512E-003   0.0000000000000000     
   6.6832506146919440E-003   1.2367121709550092E-002   0.0000000000000000     
   7.8332058599247436E-003   1.5583452448216495E-002   0.0000000000000000     
   8.9835914372189130E-003   1.9097760118329272E-002   0.0000000000000000     
   3.4788020600657480E-003   6.7082188698324181E-003   0.0000000000000000     
   4.3871800952954296E-003   9.2933730344426264E-003   0.0000000000000000     
   5.2978317951751404E-003   1.2181977194599255E-002   0.0000000000000000     
   6.2107571597048829E-003   1.5374031350302303E-002   0.0000000000000000     
   7.1259561888846554E-003   1.8869535501551769E-002   0.0000000000000000     
   1.4955834977547450E-002   2.0168401036754269E-002   0.0000000000000000     
   1.6857560856806748E-002   2.4028743681614884E-002   0.0000000000000000     
   1.8718107018271705E-002   2.8112909566018748E-002   0.0000000000000000     
   2.0537473461942322E-002   3.2420898689965866E-002   0.0000000000000000     
   2.2315660187818599E-002   3.6952711053456225E-002   0.0000000000000000     
   1.2898530831550311E-002   1.9747192885930520E-002   0.0000000000000000     
   1.4537726484590070E-002   2.3578463146467159E-002   0.0000000000000000     
   1.6148132080407961E-002   2.7644479780338835E-002   0.0000000000000000     
   1.7729747619003977E-002   3.1945242787545534E-002   0.0000000000000000     
   1.9282573100378127E-002   3.6480752168087285E-002   0.0000000000000000     
   1.0907782984774132E-002   1.9390312579788856E-002   0.0000000000000000     
   1.2294340888373815E-002   2.3197355015320310E-002   0.0000000000000000     
   1.3661309899092543E-002   2.7247444767011783E-002   0.0000000000000000     
   1.5008690016930322E-002   3.1540581834863295E-002   0.0000000000000000     
   1.6336481241887142E-002   3.6076766218874810E-002   0.0000000000000000     
   8.9835914372189130E-003   1.9097760118329272E-002   0.0000000000000000     
   1.0127404068157975E-002   2.2885419288174336E-002   0.0000000000000000     
   1.1257640474325455E-002   2.6921804526037617E-002   0.0000000000000000     
   1.2374300655721345E-002   3.1206915831919112E-002   0.0000000000000000     
   1.3477384612345654E-002   3.5740753205818813E-002   0.0000000000000000     
   7.1259561888846554E-003   1.8869535501551769E-002   0.0000000000000000     
   8.0369160239425596E-003   2.2642655965029245E-002   0.0000000000000000     
   8.9371238061066935E-003   2.6667559057416322E-002   0.0000000000000000     
   9.8265795353770606E-003   3.0944244778713006E-002   0.0000000000000000     
   1.0705283211753659E-002   3.5472713128919288E-002   0.0000000000000000     
   2.2315660187818599E-002   3.6952711053456225E-002   0.0000000000000000     
   2.4049696262490650E-002   4.1699105834298526E-002   0.0000000000000000     
   2.5736610752548579E-002   4.6650842210301462E-002   0.0000000000000000     
   2.7376403657992404E-002   5.1807920181465031E-002   0.0000000000000000     
   2.8969074978822111E-002   5.7170339747789220E-002   0.0000000000000000     
   1.9282573100378127E-002   3.6480752168087285E-002   0.0000000000000000     
   2.0800296334157774E-002   4.1236305339523570E-002   0.0000000000000000     
   2.2276605129970307E-002   4.6197199719413877E-002   0.0000000000000000     
   2.3711499487815719E-002   5.1363435307758228E-002   0.0000000000000000     
   2.5104979407694010E-002   5.6735012104556587E-002   0.0000000000000000     
   1.6336481241887142E-002   3.6076766218874810E-002   0.0000000000000000     
   1.7636836645673188E-002   4.0837652211215783E-002   0.0000000000000000     
   1.8901909299998628E-002   4.5804894104055575E-002   0.0000000000000000     
   2.0131699204863462E-002   5.0978491897394194E-002   0.0000000000000000     
   2.1326206360267688E-002   5.6358445591231668E-002   0.0000000000000000     
   1.3477384612345654E-002   3.5740753205818813E-002   0.0000000000000000     
   1.4559317197036882E-002   4.0503146449375159E-002   0.0000000000000000     
   1.5612523262633536E-002   4.5473925364226536E-002   0.0000000000000000     
   1.6637002809135621E-002   5.0653089950372959E-002   0.0000000000000000     
   1.7632755836543133E-002   5.6040640207814435E-002   0.0000000000000000     
   1.0705283211753659E-002   3.5472713128919288E-002   0.0000000000000000     
   1.1567737988248863E-002   4.0232788054001711E-002   0.0000000000000000     
   1.2408447017875045E-002   4.5204293499926780E-002   0.0000000000000000     
   1.3227410300632209E-002   5.0387229466694515E-002   0.0000000000000000     
   1.4024627836520351E-002   5.5781595954304916E-002   0.0000000000000000     
   2.8969074978822111E-002   5.7170339747789220E-002   0.0000000000000000     
   3.0514201940969675E-002   6.2727577783066077E-002   0.0000000000000000     
   3.2011361770367085E-002   6.8469111161087629E-002   0.0000000000000000     
   3.3460554467014327E-002   7.4394939881853819E-002   0.0000000000000000     
   3.4861780030911414E-002   8.0505063945364719E-002   0.0000000000000000     
   2.5104979407694010E-002   5.6735012104556587E-002   0.0000000000000000     
   2.6456862470489825E-002   6.2302385924771032E-002   0.0000000000000000     
   2.7766966257087803E-002   6.8056012583363551E-002   0.0000000000000000     
   2.9035290767487943E-002   7.3995892080334164E-002   0.0000000000000000     
   3.0261836001690256E-002   8.0122024415682863E-002   0.0000000000000000     
   2.1326206360267688E-002   5.6358445591231668E-002   0.0000000000000000     
   2.2485203923359932E-002   6.1935286378182845E-002   0.0000000000000000     
   2.3608465051288826E-002   6.7699545450862653E-002   0.0000000000000000     
   2.4695989744054361E-002   7.3651222809271055E-002   0.0000000000000000     
   2.5747778001656545E-002   7.9790318453408088E-002   0.0000000000000000     
   1.7632755836543133E-002   5.6040640207814435E-002   0.0000000000000000     
   1.8599226299579996E-002   6.1626279143301550E-002   0.0000000000000000     
   1.9535858152970143E-002   6.7399709763584920E-002   0.0000000000000000     
   2.0442651396713571E-002   7.3360932068664522E-002   0.0000000000000000     
   2.1319606030810283E-002   7.9509946058540379E-002   0.0000000000000000     
   1.4024627836520351E-002   5.5781595954304916E-002   0.0000000000000000     
   1.4798929599150022E-002   6.1375364220127127E-002   0.0000000000000000     
   1.5549145562131762E-002   6.7156505521530338E-002   0.0000000000000000     
   1.6275275725465579E-002   7.3125019858514551E-002   0.0000000000000000     
   1.6977320089151468E-002   7.9280907231079736E-002   0.0000000000000000     
   3.4861780030911414E-002   8.0505063945364719E-002   0.0000000000000000     
   3.6210269505220792E-002   8.6781198227054282E-002   0.0000000000000000     
   3.7501253933104918E-002   9.3205057602356534E-002   0.0000000000000000     
   3.8734733314563799E-002   9.9776642071271474E-002   0.0000000000000000     
   3.9910707649597421E-002  0.10649595163379910        0.0000000000000000     
   3.0261836001690256E-002   8.0122024415682863E-002   0.0000000000000000     
   3.1441971653005885E-002   8.6414410417288659E-002   0.0000000000000000     
   3.2571067414746011E-002   9.2853050913030560E-002   0.0000000000000000     
   3.3649123286910609E-002   9.9437945902908553E-002   0.0000000000000000     
   3.4676139269499702E-002  0.10616909538692268        0.0000000000000000     
   2.5747778001656545E-002   7.9790318453408088E-002   0.0000000000000000     
   2.6759646632027199E-002   8.6095882282232125E-002   0.0000000000000000     
   2.7727412443098152E-002   9.2546964194701528E-002   0.0000000000000000     
   2.8651075434869402E-002   9.9143564190816352E-002   0.0000000000000000     
   2.9530635607340948E-002  0.10588568227057654        0.0000000000000000     
   2.1319606030810283E-002   7.9509946058540379E-002   0.0000000000000000     
   2.2163294442284723E-002   8.5825613821884639E-002   0.0000000000000000     
   2.2970289018161352E-002   9.2286797447369451E-002   0.0000000000000000     
   2.3740589758440157E-002   9.8893496934994815E-002   0.0000000000000000     
   2.4474196663121155E-002  0.10564571228476075        0.0000000000000000     
   1.6977320089151468E-002   7.9280907231079736E-002   0.0000000000000000     
   1.7652915083778465E-002   8.5603605036246228E-002   0.0000000000000000     
   1.8299697139935608E-002   9.2072550671034301E-002   0.0000000000000000     
   1.8917666257622891E-002   9.8687744135443969E-002   0.0000000000000000     
   1.9506822436840321E-002  0.10544918542947525        0.0000000000000000     
   3.9910707649597421E-002  0.10649595163379910        0.0000000000000000     
   4.1039958554084301E-002  0.11336668015058449        0.0000000000000000     
   4.2133267643902919E-002  0.12039252148227281        0.0000000000000000     
   4.3190634919053290E-002  0.12757347562886401        0.0000000000000000     
   4.4212060379535408E-002  0.13490954259035814        0.0000000000000000     
   3.4676139269499702E-002  0.10616909538692268        0.0000000000000000     
   3.5662970871461537E-002  0.11305258996118818        0.0000000000000000     
   3.6620473601744391E-002  0.12009452022182035        0.0000000000000000     
   3.7548647460348257E-002  0.12729488616881923        0.0000000000000000     
   3.8447492447273135E-002  0.13465368780218478        0.0000000000000000     
   2.9530635607340948E-002  0.10588568227057654        0.0000000000000000     
   3.0376202211198074E-002  0.11278107563414665        0.0000000000000000     
   3.1197884497126079E-002  0.11983750148169114        0.0000000000000000     
   3.1995682465124950E-002  0.12705495981321002        0.0000000000000000     
   3.2769596115194699E-002  0.13443345062870332        0.0000000000000000     
   2.4474196663121155E-002  0.10564571228476075        0.0000000000000000     
   2.5179652573293902E-002  0.11255213716945996        0.0000000000000000     
   2.5865500330047982E-002  0.11962146526188520        0.0000000000000000     
   2.6531739933383387E-002  0.12685369656203646        0.0000000000000000     
   2.7178371383300124E-002  0.13424883106991373        0.0000000000000000     
   1.9506822436840321E-002  0.10544918542947525        0.0000000000000000     
   2.0073321957749017E-002  0.11236577456712811        0.0000000000000000     
   2.0623321100510093E-002  0.11944641156240252        0.0000000000000000     
   2.1156819865123556E-002  0.12669109641529849        0.0000000000000000     
   2.1673818251589400E-002  0.13409982912581603        0.0000000000000000     
   4.4212060379535408E-002  0.13490954259035814        0.0000000000000000     
   4.5181268903156546E-002  0.14236783473787318        0.0000000000000000     
   4.6081985367723940E-002  0.14991546444252715        0.0000000000000000     
   4.6914209773237625E-002  0.15755243170432007        0.0000000000000000     
   4.7677942119697572E-002  0.16527873652325192        0.0000000000000000     
   3.8447492447273135E-002  0.13465368780218478        0.0000000000000000     
   3.9295094676967200E-002  0.14213223065746763        0.0000000000000000     
   4.0069540263878649E-002  0.14969182027021835        0.0000000000000000     
   4.0770829208007495E-002  0.15733245664043699        0.0000000000000000     
   4.1398961509353710E-002  0.16505413976812350        0.0000000000000000     
   3.2769596115194699E-002  0.13443345062870332        0.0000000000000000     
   3.3497111546215007E-002  0.14193137930482369        0.0000000000000000     
   3.4155714857065568E-002  0.14950715121822375        0.0000000000000000     
   3.4745406047746397E-002  0.15716076636890361        0.0000000000000000     
   3.5266185118257472E-002  0.16489222475686313        0.0000000000000000     
   2.7178371383300124E-002  0.13424883106991373        0.0000000000000000     
   2.7787319510899969E-002  0.14176528067994126        0.0000000000000000     
   2.8340509147284709E-002  0.14936145728654329        0.0000000000000000     
   2.8837940292454341E-002  0.15703736088971981        0.0000000000000000     
   2.9279612946408864E-002  0.16479299148947080        0.0000000000000000     
   2.1673818251589400E-002  0.13409982912581603        0.0000000000000000     
   2.2165718571022085E-002  0.14163393478282044        0.0000000000000000     
   2.2623923134536060E-002  0.14925473847517701        0.0000000000000000     
   2.3048431942131329E-002  0.15696224020288568        0.0000000000000000     
   2.3439244993807888E-002  0.16475643996594655        0.0000000000000000     
   0.0000000000000000        0.0000000000000000        0.0000000000000000     
   8.4154499910026504E-004   1.1097738804239339E-003   0.0000000000000000     
   1.7018603421446446E-003   2.5977349855373149E-003   0.0000000000000000     
   2.5809460291331388E-003   4.4638833153401430E-003   0.0000000000000000     
   3.4788020600657480E-003   6.7082188698324181E-003   0.0000000000000000     
   0.0000000000000000        0.0000000000000000        0.0000000000000000     
   6.3366671748958517E-004   1.0938185442642167E-003   0.0000000000000000     
   1.2777059817069799E-003   2.5617466073842659E-003   0.0000000000000000     
   1.9321177926521840E-003   4.4037841893601465E-003   0.0000000000000000     
   2.5969021503251979E-003   6.6199312901918592E-003   0.0000000000000000     
   0.0000000000000000        0.0000000000000000        0.0000000000000000     
   4.2408563718930321E-004   1.0824337087021365E-003   0.0000000000000000     
   8.5260470120882437E-004   2.5360728736609343E-003   0.0000000000000000     
   1.2855571920585630E-003   4.3609174948763948E-003   0.0000000000000000     
   1.7229431097385197E-003   6.5569675723485153E-003   0.0000000000000000     
   0.0000000000000000        0.0000000000000000        0.0000000000000000     
   2.1280175819941917E-004   1.0756193737376930E-003   0.0000000000000000     
   4.2655650065017786E-004   2.5207137843673215E-003   0.0000000000000000     
   6.4126422735227601E-004   4.3352832318888854E-003   0.0000000000000000     
   8.5692493830571363E-004   6.5193277163023856E-003   0.0000000000000000     
   0.0000000000000000        0.0000000000000000        0.0000000000000000     
  -1.8491948006700630E-007   1.0733755393708864E-003   0.0000000000000000     
  -4.3861996895953664E-007   2.5156693395034266E-003   0.0000000000000000     
  -7.6110146667750971E-007   4.3268814003976207E-003   0.0000000000000000     
  -1.1523639732211152E-006   6.5070117220534700E-003   0.0000000000000000     
   3.4788020600657480E-003   6.7082188698324181E-003   0.0000000000000000     
   4.3871800952954296E-003   9.2933730344426264E-003   0.0000000000000000     
   5.2978317951751404E-003   1.2181977194599255E-002   0.0000000000000000     
   6.2107571597048829E-003   1.5374031350302303E-002   0.0000000000000000     
   7.1259561888846554E-003   1.8869535501551769E-002   0.0000000000000000     
   2.5969021503251979E-003   6.6199312901918592E-003   0.0000000000000000     
   3.2690810074940397E-003   9.1772137494545766E-003   0.0000000000000000     
   3.9456763169267292E-003   1.2042657406723471E-002   0.0000000000000000     
   4.6266880786232653E-003   1.5216262261998540E-002   0.0000000000000000     
   5.3121162925836496E-003   1.8698028315279787E-002   0.0000000000000000     
   1.7229431097385197E-003   6.5569675723485153E-003   0.0000000000000000     
   2.1649180637716733E-003   9.0943734623606196E-003   0.0000000000000000     
   2.6116376636810025E-003   1.1943285521196032E-002   0.0000000000000000     
   3.0631019094665077E-003   1.5103703748854749E-002   0.0000000000000000     
   3.5193108011281897E-003   1.8575628145336767E-002   0.0000000000000000     
   8.5692493830571363E-004   6.5193277163023856E-003   0.0000000000000000     
   1.0746912641283290E-003   9.0448521731607556E-003   0.0000000000000000     
   1.2957158354379606E-003   1.1883861538016934E-002   0.0000000000000000     
   1.5199986522346084E-003   1.5036355810870920E-002   0.0000000000000000     
   1.7475397145182722E-003   1.8502334991722713E-002   0.0000000000000000     
  -1.1523639732211152E-006   6.5070117220534700E-003   0.0000000000000000     
  -1.5993914359933018E-006   9.0286498818549846E-003   0.0000000000000000     
  -2.0891678023969774E-006   1.1864385457186183E-002   0.0000000000000000     
  -2.6216930724328907E-006   1.5014218448047059E-002   0.0000000000000000     
  -3.1969672461002862E-006   1.8478148854437618E-002   0.0000000000000000     
   7.1259561888846554E-003   1.8869535501551769E-002   0.0000000000000000     
   8.0369160239425596E-003   2.2642655965029245E-002   0.0000000000000000     
   8.9371238061066935E-003   2.6667559057416322E-002   0.0000000000000000     
   9.8265795353770606E-003   3.0944244778713006E-002   0.0000000000000000     
   1.0705283211753659E-002   3.5472713128919288E-002   0.0000000000000000     
   5.3121162925836496E-003   1.8698028315279787E-002   0.0000000000000000     
   5.9951618173632549E-003   2.2460549736762273E-002   0.0000000000000000     
   6.6690255115174546E-003   2.6476420696641047E-002   0.0000000000000000     
   7.3337073750462493E-003   3.0745641194916126E-002   0.0000000000000000     
   7.9892074079496393E-003   3.5268211231587493E-002   0.0000000000000000     
   3.5193108011281897E-003   1.8575628145336767E-002   0.0000000000000000     
   3.9744265100557586E-003   2.2330585294250645E-002   0.0000000000000000     
   4.4226112076389294E-003   2.6340101779204921E-002   0.0000000000000000     
   4.8638648938777009E-003   3.0604177600199605E-002   0.0000000000000000     
   5.2981875687720748E-003   3.5122812757234681E-002   0.0000000000000000     
   1.7475397145182722E-003   1.8502334991722713E-002   0.0000000000000000     
   1.9747101020200697E-003   2.2252762637494372E-002   0.0000000000000000     
   2.1978808944711175E-003   2.6258602305107945E-002   0.0000000000000000     
   2.4170520918714166E-003   3.0519853994563449E-002   0.0000000000000000     
   2.6322236942209667E-003   3.5036517705860866E-002   0.0000000000000000     
  -3.1969672461002862E-006   1.8478148854437618E-002   0.0000000000000000     
  -3.9874067438118097E-006   2.2227081766493444E-002   0.0000000000000000     
  -5.1654279859794563E-006   2.6231922274350120E-002   0.0000000000000000     
  -6.7310309726038766E-006   3.0492670378007649E-002   0.0000000000000000     
  -8.6842157036839864E-006   3.5009326077466027E-002   0.0000000000000000     
   1.0705283211753659E-002   3.5472713128919288E-002   0.0000000000000000     
   1.1567737988248863E-002   4.0232788054001711E-002   0.0000000000000000     
   1.2408447017875045E-002   4.5204293499926780E-002   0.0000000000000000     
   1.3227410300632209E-002   5.0387229466694515E-002   0.0000000000000000     
   1.4024627836520351E-002   5.5781595954304916E-002   0.0000000000000000     
   7.9892074079496393E-003   3.5268211231587493E-002   0.0000000000000000     
   8.6326069063358789E-003   4.0024637521415524E-002   0.0000000000000000     
   9.2609871663132306E-003   4.4995426779160574E-002   0.0000000000000000     
   9.8743481878816857E-003   5.0180579004822652E-002   0.0000000000000000     
   1.0472689971041253E-002   5.5580094198401750E-002   0.0000000000000000     
   5.2981875687720748E-003   3.5122812757234681E-002   0.0000000000000000     
   5.7244318383246834E-003   3.9876755347936700E-002   0.0000000000000000     
   6.1414503085381661E-003   4.4846753469932200E-002   0.0000000000000000     
   6.5492429794125201E-003   5.0032807123221168E-002   0.0000000000000000     
   6.9478098509477473E-003   5.5434916307803617E-002   0.0000000000000000     
   2.6322236942209667E-003   3.5036517705860866E-002   0.0000000000000000     
   2.8432127842152777E-003   3.9789141533565255E-002   0.0000000000000000     
   3.0498364445498585E-003   4.4758273572241658E-002   0.0000000000000000     
   3.2520946752247113E-003   4.9943913821890076E-002   0.0000000000000000     
   3.4499874762398334E-003   5.5346062282510516E-002   0.0000000000000000     
  -8.6842157036839864E-006   3.5009326077466027E-002   0.0000000000000000     
  -1.1050255992340143E-005   3.9761796078301159E-002   0.0000000000000000     
  -1.3854425651693464E-005   4.4729987086088940E-002   0.0000000000000000     
  -1.7096724681742349E-005   4.9913899100829370E-002   0.0000000000000000     
  -2.0777153082488127E-005   5.5313532122522442E-002   0.0000000000000000     
   1.4024627836520351E-002   5.5781595954304916E-002   0.0000000000000000     
   1.4798929599150022E-002   6.1375364220127127E-002   0.0000000000000000     
   1.5549145562131762E-002   6.7156505521530338E-002   0.0000000000000000     
   1.6275275725465579E-002   7.3125019858514551E-002   0.0000000000000000     
   1.6977320089151468E-002   7.9280907231079736E-002   0.0000000000000000     
   1.0472689971041253E-002   5.5580094198401750E-002   0.0000000000000000     
   1.1054386506435950E-002   6.1180214258664940E-002   0.0000000000000000     
   1.1617811784709801E-002   6.6967181084379310E-002   0.0000000000000000     
   1.2162965805862805E-002   7.2940994675544837E-002   0.0000000000000000     
   1.2689848569894963E-002   7.9101655032161558E-002   0.0000000000000000     
   6.9478098509477473E-003   5.5434916307803617E-002   0.0000000000000000     
   7.3356697058037379E-003   6.1038501908920358E-002   0.0000000000000000     
   7.7113413266403814E-003   6.6828984811812209E-002   0.0000000000000000     
   8.0748247134576796E-003   7.2806365016479163E-002   0.0000000000000000     
   8.4261198662556325E-003   7.8970642522921228E-002   0.0000000000000000     
   3.4499874762398334E-003   5.5346062282510516E-002   0.0000000000000000     
   3.6427791972533804E-003   6.0950227170893358E-002   0.0000000000000000     
   3.8297341879235032E-003   6.6741916703829007E-002   0.0000000000000000     
   4.0108524482502031E-003   7.2721130881317472E-002   0.0000000000000000     
   4.1861339782334802E-003   7.8887869703358732E-002   0.0000000000000000     
  -2.0777153082488127E-005   5.5313532122522442E-002   0.0000000000000000     
  -2.4285019215121982E-005   6.0915390044583961E-002   0.0000000000000000     
  -2.7009631440835043E-005   6.6705976760429747E-002   0.0000000000000000     
  -2.8950989759627134E-005   7.2685292270059806E-002   0.0000000000000000     
  -3.0109094171498893E-005   7.8853336573474098E-002   0.0000000000000000     
   1.6977320089151468E-002   7.9280907231079736E-002   0.0000000000000000     
   1.7652915083778465E-002   8.5603605036246228E-002   0.0000000000000000     
   1.8299697139935608E-002   9.2072550671034301E-002   0.0000000000000000     
   1.8917666257622891E-002   9.8687744135443969E-002   0.0000000000000000     
   1.9506822436840321E-002  0.10544918542947525        0.0000000000000000     
   1.2689848569894963E-002   7.9101655032161558E-002   0.0000000000000000     
   1.3197105279994891E-002   8.5429265792161105E-002   0.0000000000000000     
   1.3683381139351206E-002   9.1903930593475180E-002   0.0000000000000000     
   1.4148676147963906E-002   9.8525649436103757E-002   0.0000000000000000     
   1.4592990305832991E-002  0.10529442232004690        0.0000000000000000     
   8.4261198662556325E-003   7.8970642522921228E-002   0.0000000000000000     
   8.7644617544204734E-003   8.5302005956473539E-002   0.0000000000000000     
   9.0890853473384308E-003   9.1780643942471193E-002   0.0000000000000000     
   9.3999906450095046E-003   9.8406556480914203E-002   0.0000000000000000     
   9.6971776474336982E-003  0.10517974357180257        0.0000000000000000     
   4.1861339782334802E-003   7.8887869703358732E-002   0.0000000000000000     
   4.3549845070552130E-003   8.5221825529183462E-002   0.0000000000000000     
   4.5168097638972858E-003   9.1702690718022284E-002   0.0000000000000000     
   4.6716097487596959E-003   9.8330465269875211E-002   0.0000000000000000     
   4.8193844616424434E-003  0.10510514918474224        0.0000000000000000     
  -3.0109094171498893E-005   7.8853336573474098E-002   0.0000000000000000     
  -3.1326462100887643E-005   8.5188724510290928E-002   0.0000000000000000     
  -3.3445610972230981E-005   9.1670070920128494E-002   0.0000000000000000     
  -3.6466540785526534E-005   9.8297375802986850E-002   0.0000000000000000     
  -4.0389251540775672E-005  0.10507063915886594        0.0000000000000000     
   1.9506822436840321E-002  0.10544918542947525        0.0000000000000000     
   2.0073321957749017E-002  0.11236577456712811        0.0000000000000000     
   2.0623321100510093E-002  0.11944641156240252        0.0000000000000000     
   2.1156819865123556E-002  0.12669109641529849        0.0000000000000000     
   2.1673818251589400E-002  0.13409982912581603        0.0000000000000000     
   1.4592990305832991E-002  0.10529442232004690        0.0000000000000000     
   1.5019993322866129E-002  0.11221898545804519        0.0000000000000000     
   1.5433354908970980E-002  0.11930807506283934        0.0000000000000000     
   1.5833075064147537E-002  0.12656169113442930        0.0000000000000000     
   1.6219153788395807E-002  0.13397983367281513        0.0000000000000000     
   9.6971776474336982E-003  0.10517974357180257        0.0000000000000000     
   9.9824496269479476E-003  0.11210876747310547        0.0000000000000000     
   1.0257609855889182E-002  0.11920219044279197        0.0000000000000000     
   1.0522658334257407E-002  0.12646001248086208        0.0000000000000000     
   1.0777595062052617E-002  0.13388223358731585        0.0000000000000000     
   4.8193844616424434E-003  0.10510514918474224        0.0000000000000000     
   4.9606908699944673E-003  0.11203512061230883        0.0000000000000000     
   5.0960859412647079E-003  0.11912875770226035        0.0000000000000000     
   5.2255696754531641E-003  0.12638606045459683        0.0000000000000000     
   5.3491420725598352E-003  0.13380702886931825        0.0000000000000000     
  -4.0389251540775672E-005  0.10507063915886594        0.0000000000000000     
  -4.5282947994305456E-005  0.11199804487565532        0.0000000000000000     
  -5.1216834902443492E-005  0.11908777684124451        0.0000000000000000     
  -5.8190912265189263E-005  0.12633983505563351        0.0000000000000000     
  -6.6205180082543232E-005  0.13375421951882233        0.0000000000000000     
   2.1673818251589400E-002  0.13409982912581603        0.0000000000000000     
   2.2165718571022085E-002  0.14163393478282044        0.0000000000000000     
   2.2623923134536060E-002  0.14925473847517701        0.0000000000000000     
   2.3048431942131329E-002  0.15696224020288568        0.0000000000000000     
   2.3439244993807888E-002  0.16475643996594655        0.0000000000000000     
   1.6219153788395807E-002  0.13397983367281513        0.0000000000000000     
   1.6592393581642894E-002  0.14152697049450455        0.0000000000000000     
   1.6953596943815895E-002  0.14916756941600548        0.0000000000000000     
   1.7302763874914816E-002  0.15690163043731783        0.0000000000000000     
   1.7639894374939655E-002  0.16472915355844167        0.0000000000000000     
   1.0777595062052617E-002  0.13388223358731585        0.0000000000000000     
   1.1027429397823941E-002  0.14143401669603703        0.0000000000000000     
   1.1277170700120489E-002  0.14908052474090938        0.0000000000000000     
   1.1526818968942268E-002  0.15682175772193288        0.0000000000000000     
   1.1776374204289272E-002  0.16465771563910755        0.0000000000000000     
   5.3491420725598352E-003  0.13380702886931825        0.0000000000000000     
   5.4708260195652260E-003  0.14135507338741782        0.0000000000000000     
   5.5946444034498397E-003  0.14899360444988863        0.0000000000000000     
   5.7205972242136780E-003  0.15672262205673076        0.0000000000000000     
   5.8486844818567384E-003  0.16454212620794417        0.0000000000000000     
  -6.6205180082543232E-005  0.13375421951882233        0.0000000000000000     
  -7.7416553133249346E-005  0.14129014056864697        0.0000000000000000     
  -9.3981946196050907E-005  0.14890680854294336        0.0000000000000000     
  -1.1590135927094851E-004  0.15660422344171154        0.0000000000000000     
  -1.4317479235794253E-004  0.16438238526495152        0.0000000000000000     
   0.0000000000000000        0.0000000000000000        0.0000000000000000     
  -1.8491948006700630E-007   1.0733755393708864E-003   0.0000000000000000     
  -4.3861996895953664E-007   2.5156693395034266E-003   0.0000000000000000     
  -7.6110146667750971E-007   4.3268814003976207E-003   0.0000000000000000     
  -1.1523639732211152E-006   6.5070117220534700E-003   0.0000000000000000     
   0.0000000000000000        0.0000000000000000        0.0000000000000000     
  -2.1316551398002734E-004   1.0757069194720441E-003   0.0000000000000000     
  -4.2741338158120481E-004   2.5209328895081694E-003   0.0000000000000000     
  -6.4274360280353244E-004   4.3356779101083771E-003   0.0000000000000000     
  -8.5915617764701019E-004   6.5199419812726634E-003   0.0000000000000000     
   0.0000000000000000        0.0000000000000000        0.0000000000000000     
  -4.2443114343133377E-004   1.0826182279114944E-003   0.0000000000000000     
  -8.5340050511917504E-004   2.5364977848204703E-003   0.0000000000000000     
  -1.2869080850635235E-003   4.3616386707269281E-003   0.0000000000000000     
  -1.7249538832643794E-003   6.5580408856308675E-003   0.0000000000000000     
   0.0000000000000000        0.0000000000000000        0.0000000000000000     
  -6.3398180783398638E-004   1.0941094646892370E-003   0.0000000000000000     
  -1.2783999905828700E-003   2.5623640254403292E-003   0.0000000000000000     
  -1.9332545482466513E-003   4.4047636822532764E-003   0.0000000000000000     
  -2.5985454808253291E-003   6.6213084351280788E-003   0.0000000000000000     
   0.0000000000000000        0.0000000000000000        0.0000000000000000     
  -8.4181750718798499E-004   1.1101806298052721E-003   0.0000000000000000     
  -1.7024118379722899E-003   2.5985316113677458E-003   0.0000000000000000     
  -2.5817829923529150E-003   4.4650529446874218E-003   0.0000000000000000     
  -3.4799309703298599E-003   6.7097446297642990E-003   0.0000000000000000     
  -1.1523639732211152E-006   6.5070117220534700E-003   0.0000000000000000     
  -1.5993914359933018E-006   9.0286498818549846E-003   0.0000000000000000     
  -2.0891678023969774E-006   1.1864385457186183E-002   0.0000000000000000     
  -2.6216930724328907E-006   1.5014218448047059E-002   0.0000000000000000     
  -3.1969672461002862E-006   1.8478148854437618E-002   0.0000000000000000     
  -8.5915617764701019E-004   6.5199419812726634E-003   0.0000000000000000     
  -1.0777817529524154E-003   9.0456541246354341E-003   0.0000000000000000     
  -1.2997509755605266E-003   1.1884743361831086E-002   0.0000000000000000     
  -1.5250638454713428E-003   1.5037209692859620E-002   0.0000000000000000     
  -1.7537203626848653E-003   1.8503053117721036E-002   0.0000000000000000     
  -1.7249538832643794E-003   6.5580408856308675E-003   0.0000000000000000     
  -2.1676836704520603E-003   9.0957524376942302E-003   0.0000000000000000     
  -2.6152432173568840E-003   1.1944821335078957E-002   0.0000000000000000     
  -3.0676325239788506E-003   1.5105247577785053E-002   0.0000000000000000     
  -3.5248515903179589E-003   1.8577031165812514E-002   0.0000000000000000     
  -2.5985454808253291E-003   6.6213084351280788E-003   0.0000000000000000     
  -3.2713051439349273E-003   9.1789448210313762E-003   0.0000000000000000     
  -3.9485658931914689E-003   1.2044619376929801E-002   0.0000000000000000     
  -4.6303277285949544E-003   1.5218332102823362E-002   0.0000000000000000     
  -5.3165906501453815E-003   1.8700082998712054E-002   0.0000000000000000     
  -3.4799309703298599E-003   6.7097446297642990E-003   0.0000000000000000     
  -4.3886461734010179E-003   9.2952312746468670E-003   0.0000000000000000     
  -5.2997190030642828E-003   1.2184137487383616E-002   0.0000000000000000     
  -6.2131494593196555E-003   1.5376463267974542E-002   0.0000000000000000     
  -7.1289375421671325E-003   1.8872208616419653E-002   0.0000000000000000     
  -3.1969672461002862E-006   1.8478148854437618E-002   0.0000000000000000     
  -3.9874067438118097E-006   2.2227081766493444E-002   0.0000000000000000     
  -5.1654279859794563E-006   2.6231922274350120E-002   0.0000000000000000     
  -6.7310309726038766E-006   3.0492670378007649E-002   0.0000000000000000     
  -8.6842157036839864E-006   3.5009326077466027E-002   0.0000000000000000     
  -1.7537203626848653E-003   1.8503053117721036E-002   0.0000000000000000     
  -1.9824065856659727E-003   2.2253538227346385E-002   0.0000000000000000     
  -2.2078085728795458E-003   2.6259929612666724E-002   0.0000000000000000     
  -2.4299263243255835E-003   3.0522227273682052E-002   0.0000000000000000     
  -2.6487598400040864E-003   3.5040431210392353E-002   0.0000000000000000     
  -3.5248515903179589E-003   1.8577031165812514E-002   0.0000000000000000     
  -3.9812880041764998E-003   2.2332127566151716E-002   0.0000000000000000     
  -4.4313293533567609E-003   2.6342492245793023E-002   0.0000000000000000     
  -4.8749756378587451E-003   3.0608125204736457E-002   0.0000000000000000     
  -5.3122268576824500E-003   3.5129026442981985E-002   0.0000000000000000     
  -5.3165906501453815E-003   1.8700082998712054E-002   0.0000000000000000     
  -6.0006316622753944E-003   2.2462849782909425E-002   0.0000000000000000     
  -6.6757277694176297E-003   2.6479610173729039E-002   0.0000000000000000     
  -7.3418789715720889E-003   3.0750364171170864E-002   0.0000000000000000     
  -7.9990852687387721E-003   3.5275111775234937E-002   0.0000000000000000     
  -7.1289375421671325E-003   1.8872208616419653E-002   0.0000000000000000     
  -8.0404375599626519E-003   2.2645704877619521E-002   0.0000000000000000     
  -8.9410038210621465E-003   2.6671283396474735E-002   0.0000000000000000     
  -9.8306363254656148E-003   3.0948944172985295E-002   0.0000000000000000     
  -1.0709335073173058E-002   3.5478687207151194E-002   0.0000000000000000     
  -8.6842157036839864E-006   3.5009326077466027E-002   0.0000000000000000     
  -1.1050255992340143E-005   3.9761796078301159E-002   0.0000000000000000     
  -1.3854425651693464E-005   4.4729987086088940E-002   0.0000000000000000     
  -1.7096724681742349E-005   4.9913899100829370E-002   0.0000000000000000     
  -2.0777153082488127E-005   5.5313532122522442E-002   0.0000000000000000     
  -2.6487598400040864E-003   3.5040431210392353E-002   0.0000000000000000     
  -2.8641720281939323E-003   3.9793732523203368E-002   0.0000000000000000     
  -3.0760257971739957E-003   4.4761322312520821E-002   0.0000000000000000     
  -3.2843211469442794E-003   4.9943200578344699E-002   0.0000000000000000     
  -3.4890580775047810E-003   5.5339367320675022E-002   0.0000000000000000     
  -5.3122268576824500E-003   3.5129026442981985E-002   0.0000000000000000     
  -5.7419672782852583E-003   3.9883964409330806E-002   0.0000000000000000     
  -6.1630811651245546E-003   4.4851707552584053E-002   0.0000000000000000     
  -6.5755685182003389E-003   5.0032255872741752E-002   0.0000000000000000     
  -6.9794293375126104E-003   5.5425609369803890E-002   0.0000000000000000     
  -7.9990852687387721E-003   3.5275111775234937E-002   0.0000000000000000     
  -8.6444360062663175E-003   4.0032491736683454E-002   0.0000000000000000     
  -9.2750205295033701E-003   4.5001142806278649E-002   0.0000000000000000     
  -9.8908388384499196E-003   5.0181064984020501E-002   0.0000000000000000     
  -1.0491890933105973E-002   5.5572258269909032E-002   0.0000000000000000     
  -1.0709335073173058E-002   3.5478687207151194E-002   0.0000000000000000     
  -1.1571578212137119E-002   4.0239314505261331E-002   0.0000000000000000     
  -1.2411843890310440E-002   4.5209628073604589E-002   0.0000000000000000     
  -1.3230132107693027E-002   5.0389627912180969E-002   0.0000000000000000     
  -1.4026442864284875E-002   5.5779314020990477E-002   0.0000000000000000     
  -2.0777153082488127E-005   5.5313532122522442E-002   0.0000000000000000     
  -2.4285019215121982E-005   6.0915390044583961E-002   0.0000000000000000     
  -2.7009631440835043E-005   6.6705976760429747E-002   0.0000000000000000     
  -2.8950989759627134E-005   7.2685292270059806E-002   0.0000000000000000     
  -3.0109094171498893E-005   7.8853336573474098E-002   0.0000000000000000     
  -3.4890580775047810E-003   5.5339367320675022E-002   0.0000000000000000     
  -3.6883714723478225E-003   6.0937605133084244E-002   0.0000000000000000     
  -3.8803962149657209E-003   6.6725696609144847E-002   0.0000000000000000     
  -4.0651323053584763E-003   7.2703641748856865E-002   0.0000000000000000     
  -4.2425797435260868E-003   7.8871440552220229E-002   0.0000000000000000     
  -6.9794293375126104E-003   5.5425609369803890E-002   0.0000000000000000     
  -7.3723286908907752E-003   6.1020487039486281E-002   0.0000000000000000     
  -7.7519316461642420E-003   6.6805607877504780E-002   0.0000000000000000     
  -8.1182382033330048E-003   7.2780971883859333E-002   0.0000000000000000     
  -8.4712483623970714E-003   7.8946579058549987E-002   0.0000000000000000     
  -1.0491890933105973E-002   5.5572258269909032E-002   0.0000000000000000     
  -1.1076156674843983E-002   6.1164035763790085E-002   0.0000000000000000     
  -1.1641615925036397E-002   6.6945710565509492E-002   0.0000000000000000     
  -1.2188268683683222E-002   7.2917282675067294E-002   0.0000000000000000     
  -1.2716114950784452E-002   7.9078752092463442E-002   0.0000000000000000     
  -1.4026442864284875E-002   5.5779314020990477E-002   0.0000000000000000     
  -1.4799855424207444E-002   6.1368251305995658E-002   0.0000000000000000     
  -1.5549449051582190E-002   6.7146004673159038E-002   0.0000000000000000     
  -1.6275223746409120E-002   7.3112574122480678E-002   0.0000000000000000     
  -1.6977179508688225E-002   7.9267959653960524E-002   0.0000000000000000     
  -3.0109094171498893E-005   7.8853336573474098E-002   0.0000000000000000     
  -3.1326462100887643E-005   8.5188724510290928E-002   0.0000000000000000     
  -3.3445610972230981E-005   9.1670070920128494E-002   0.0000000000000000     
  -3.6466540785526534E-005   9.8297375802986850E-002   0.0000000000000000     
  -4.0389251540775672E-005  0.10507063915886594        0.0000000000000000     
  -4.2425797435260868E-003   7.8871440552220229E-002   0.0000000000000000     
  -4.4137076661201697E-003   8.5206661755753019E-002   0.0000000000000000     
  -4.5794852097923305E-003   9.1686874095973259E-002   0.0000000000000000     
  -4.7399123745425738E-003   9.8312077572880935E-002   0.0000000000000000     
  -4.8949891603708943E-003  0.10508227218647603        0.0000000000000000     
  -8.4712483623970714E-003   7.8946579058549987E-002   0.0000000000000000     
  -8.8113956180749676E-003   8.5279596121526829E-002   0.0000000000000000     
  -9.1391134650852315E-003   9.1757189792739932E-002   0.0000000000000000     
  -9.4544019034278580E-003   9.8379360072189295E-002   0.0000000000000000     
  -9.7572609331028522E-003  0.10514610695987490        0.0000000000000000     
  -1.2716114950784452E-002   7.9078752092463442E-002   0.0000000000000000     
  -1.3224390317965289E-002   8.5407527607612374E-002   0.0000000000000000     
  -1.3712330376850932E-002   9.1881018010428542E-002   0.0000000000000000     
  -1.4179935127441388E-002   9.8499223300911959E-002   0.0000000000000000     
  -1.4627204569736650E-002  0.10526214347906258        0.0000000000000000     
  -1.6977179508688225E-002   7.9267959653960524E-002   0.0000000000000000     
  -1.7652691765791123E-002   8.5590456214009653E-002   0.0000000000000000     
  -1.8299135945089435E-002   9.2058358749039115E-002   0.0000000000000000     
  -1.8916512046583154E-002   9.8671667259048912E-002   0.0000000000000000     
  -1.9504820070272287E-002  0.10543038174403906        0.0000000000000000     
  -4.0389251540775672E-005  0.10507063915886594        0.0000000000000000     
  -4.5282947994305456E-005  0.11199804487565532        0.0000000000000000     
  -5.1216834902443492E-005  0.11908777684124451        0.0000000000000000     
  -5.8190912265189263E-005  0.12633983505563351        0.0000000000000000     
  -6.6205180082543232E-005  0.13375421951882233        0.0000000000000000     
  -4.8949891603708943E-003  0.10508227218647603        0.0000000000000000     
  -5.0454016461047042E-003  0.11200547163192202        0.0000000000000000     
  -5.1918359105714140E-003  0.11908968960438236        0.0000000000000000     
  -5.3342919537710202E-003  0.12633492610385705        0.0000000000000000     
  -5.4727697757035263E-003  0.13374118113034603        0.0000000000000000     
  -9.7572609331028522E-003  0.10514610695987490        0.0000000000000000     
  -1.0049595043423060E-002  0.11206533224988599        0.0000000000000000     
  -1.0333308723701346E-002  0.11914493773631177        0.0000000000000000     
  -1.0608401973937693E-002  0.12638492341915220        0.0000000000000000     
  -1.0874874794132121E-002  0.13378528929840733        0.0000000000000000     
  -1.4627204569736650E-002  0.10526214347906258        0.0000000000000000     
  -1.5057863139949380E-002  0.11217762672954724        0.0000000000000000     
  -1.5475635274292231E-002  0.11925352123703273        0.0000000000000000     
  -1.5880520972765214E-002  0.12648982700151906        0.0000000000000000     
  -1.6272520235368328E-002  0.13388654402300623        0.0000000000000000     
  -1.9504820070272287E-002  0.10543038174403906        0.0000000000000000     
  -2.0070205935683653E-002  0.11234235507090576        0.0000000000000000     
  -2.0618815562344083E-002  0.11941544010654526        0.0000000000000000     
  -2.1150648950253582E-002  0.12664963685095759        0.0000000000000000     
  -2.1665706099412145E-002  0.13404494530414271        0.0000000000000000     
  -6.6205180082543232E-005  0.13375421951882233        0.0000000000000000     
  -7.7416553133249346E-005  0.14129014056864697        0.0000000000000000     
  -9.3981946196050907E-005  0.14890680854294336        0.0000000000000000     
  -1.1590135927094851E-004  0.15660422344171154        0.0000000000000000     
  -1.4317479235794253E-004  0.16438238526495152        0.0000000000000000     
  -5.4727697757035263E-003  0.13374118113034603        0.0000000000000000     
  -5.6152058805253504E-003  0.14126377725470851        0.0000000000000000     
  -5.7695367723929131E-003  0.14885803704780362        0.0000000000000000     
  -5.9357624513062170E-003  0.15652396050963130        0.0000000000000000     
  -6.1138829172652596E-003  0.16426154764019163        0.0000000000000000     
  -1.0874874794132121E-002  0.13378528929840733        0.0000000000000000     
  -1.1140449522864937E-002  0.14130054246058665        0.0000000000000000     
  -1.1412848498716471E-002  0.14888518999219960        0.0000000000000000     
  -1.1692071721686724E-002  0.15653923189324623        0.0000000000000000     
  -1.1978119191775695E-002  0.16426266816372653        0.0000000000000000     
  -1.6272520235368328E-002  0.13388654402300623        0.0000000000000000     
  -1.6653147480152012E-002  0.14140043618628129        0.0000000000000000     
  -1.7023917125166731E-002  0.14898826737613124        0.0000000000000000     
  -1.7384829170412477E-002  0.15665003759255625        0.0000000000000000     
  -1.7735883615889250E-002  0.16438574683555612        0.0000000000000000     
  -2.1665706099412145E-002  0.13404494530414271        0.0000000000000000     
  -2.2153299752386574E-002  0.14156345843179247        0.0000000000000000     
  -2.2602742651743685E-002  0.14916726919959869        0.0000000000000000     
  -2.3014034797483464E-002  0.15685637760756135        0.0000000000000000     
  -2.3387176189605924E-002  0.16463078365568051        0.0000000000000000     
   0.0000000000000000        0.0000000000000000        0.0000000000000000     
  -8.4181750718798499E-004   1.1101806298052721E-003   0.0000000000000000     
  -1.7024118379722899E-003   2.5985316113677458E-003   0.0000000000000000     
  -2.5817829923529150E-003   4.4650529446874218E-003   0.0000000000000000     
  -3.4799309703298599E-003   6.7097446297642990E-003   0.0000000000000000     
   0.0000000000000000        0.0000000000000000        0.0000000000000000     
  -1.0568309909420621E-003   1.1343837643955355E-003   0.0000000000000000     
  -2.1399785226125551E-003   2.6508392460668976E-003   0.0000000000000000     
  -3.2494425950114793E-003   4.5493664450140863E-003   0.0000000000000000     
  -4.3852232081388349E-003   6.8299653612371013E-003   0.0000000000000000     
   0.0000000000000000        0.0000000000000000        0.0000000000000000     
  -1.2879150085449492E-003   1.1702709095959636E-003   0.0000000000000000     
  -2.6056425198287855E-003   2.7251256330019613E-003   0.0000000000000000     
  -3.9531825338515094E-003   4.6645641702179929E-003   0.0000000000000000     
  -5.3305350506131204E-003   6.9885865212440581E-003   0.0000000000000000     
   0.0000000000000000        0.0000000000000000        0.0000000000000000     
  -1.5350695599966461E-003   1.2178420654065565E-003   0.0000000000000000     
  -3.0994038296209814E-003   2.8213907721729371E-003   0.0000000000000000     
  -4.6930028088730032E-003   4.8106461202991413E-003   0.0000000000000000     
  -6.3158664977527139E-003   7.1856081097851692E-003   0.0000000000000000     
   0.0000000000000000        0.0000000000000000        0.0000000000000000     
  -1.7982946452971540E-003   1.2770972318273141E-003   0.0000000000000000     
  -3.6212624519891415E-003   2.9396346635798248E-003   0.0000000000000000     
  -5.4689034200759643E-003   4.9876122952575317E-003   0.0000000000000000     
  -7.3412175495576187E-003   7.4210301268604366E-003   0.0000000000000000     
  -3.4799309703298599E-003   6.7097446297642990E-003   0.0000000000000000     
  -4.3886461734010179E-003   9.2952312746468670E-003   0.0000000000000000     
  -5.2997190030642828E-003   1.2184137487383616E-002   0.0000000000000000     
  -6.2131494593196555E-003   1.5376463267974542E-002   0.0000000000000000     
  -7.1289375421671325E-003   1.8872208616419653E-002   0.0000000000000000     
  -4.3852232081388349E-003   6.8299653612371013E-003   0.0000000000000000     
  -5.5344133448827866E-003   9.4506231237738297E-003   0.0000000000000000     
  -6.6841059881315003E-003   1.2369326861662167E-002   0.0000000000000000     
  -7.8343011378849726E-003   1.5586076574902102E-002   0.0000000000000000     
  -8.9849987941432088E-003   1.9100872263493648E-002   0.0000000000000000     
  -5.3305350506131204E-003   6.9885865212440581E-003   0.0000000000000000     
  -6.7233132444126922E-003   9.6511316936453879E-003   0.0000000000000000     
  -8.1171302895492944E-003   1.2606138694987218E-002   0.0000000000000000     
  -9.5119861860229332E-003   1.5853607525269549E-002   0.0000000000000000     
  -1.0907880933833604E-002   1.9393538184492371E-002   0.0000000000000000     
  -6.3158664977527139E-003   7.1856081097851692E-003   0.0000000000000000     
  -7.9553458719907322E-003   9.8967569842615417E-003   0.0000000000000000     
  -9.5987919073176713E-003   1.2894572987358775E-002   0.0000000000000000     
  -1.1246204603733533E-002   1.6179056119076871E-002   0.0000000000000000     
  -1.2897583961238317E-002   1.9750206379415835E-002   0.0000000000000000     
  -7.3412175495576187E-003   7.4210301268604366E-003   0.0000000000000000     
  -9.2305112276169082E-003   1.0187498995622287E-002   0.0000000000000000     
  -1.1129090841436625E-002   1.3234629738776834E-002   0.0000000000000000     
  -1.3036956391016773E-002   1.6562422356324085E-002   0.0000000000000000     
  -1.4954107876357347E-002   2.0170876848264022E-002   0.0000000000000000     
  -7.1289375421671325E-003   1.8872208616419653E-002   0.0000000000000000     
  -8.0404375599626519E-003   2.2645704877619521E-002   0.0000000000000000     
  -8.9410038210621465E-003   2.6671283396474735E-002   0.0000000000000000     
  -9.8306363254656148E-003   3.0948944172985295E-002   0.0000000000000000     
  -1.0709335073173058E-002   3.5478687207151194E-002   0.0000000000000000     
  -8.9849987941432088E-003   1.9100872263493648E-002   0.0000000000000000     
  -1.0128885827095714E-002   2.2889000457758275E-002   0.0000000000000000     
  -1.1258649106932000E-002   2.6925747688017462E-002   0.0000000000000000     
  -1.2374288633652065E-002   3.1211113954271216E-002   0.0000000000000000     
  -1.3475804407255912E-002   3.5745099256519537E-002   0.0000000000000000     
  -1.0907880933833604E-002   1.9393538184492371E-002   0.0000000000000000     
  -1.2294156593532014E-002   2.3201044130801950E-002   0.0000000000000000     
  -1.3660155225668876E-002   2.7251238822344533E-002   0.0000000000000000     
  -1.5005876830244187E-002   3.1544122259120115E-002   0.0000000000000000     
  -1.6331321407257942E-002   3.6079694441128712E-002   0.0000000000000000     
  -1.2897583961238317E-002   1.9750206379415835E-002   0.0000000000000000     
  -1.4536249859271554E-002   2.3581835896750558E-002   0.0000000000000000     
  -1.6145522177272772E-002   2.7647756799455945E-002   0.0000000000000000     
  -1.7725400915241975E-002   3.1947969087532002E-002   0.0000000000000000     
  -1.9275886073179160E-002   3.6482472760978719E-002   0.0000000000000000     
  -1.4954107876357347E-002   2.0170876848264022E-002   0.0000000000000000     
  -1.6855165624314328E-002   2.4031375755604094E-002   0.0000000000000000     
  -1.8714749961743691E-002   2.8115301619351708E-002   0.0000000000000000     
  -2.0532860888645432E-002   3.2422654439506871E-002   0.0000000000000000     
  -2.2309498405019550E-002   3.6953434216069579E-002   0.0000000000000000     
  -1.0709335073173058E-002   3.5478687207151194E-002   0.0000000000000000     
  -1.1571578212137119E-002   4.0239314505261331E-002   0.0000000000000000     
  -1.2411843890310440E-002   4.5209628073604589E-002   0.0000000000000000     
  -1.3230132107693027E-002   5.0389627912180969E-002   0.0000000000000000     
  -1.4026442864284875E-002   5.5779314020990477E-002   0.0000000000000000     
  -1.3475804407255912E-002   3.5745099256519537E-002   0.0000000000000000     
  -1.4555563619130388E-002   4.0507526642143341E-002   0.0000000000000000     
  -1.5605933460662347E-002   4.5478219158523563E-002   0.0000000000000000     
  -1.6626913931851787E-002   5.0657176805660203E-002   0.0000000000000000     
  -1.7618505032698704E-002   5.6044399583553270E-002   0.0000000000000000     
  -1.6331321407257942E-002   3.6079694441128712E-002   0.0000000000000000     
  -1.7628561950478867E-002   4.0840222074408385E-002   0.0000000000000000     
  -1.8889671453675663E-002   4.5807971864997243E-002   0.0000000000000000     
  -2.0114649916848332E-002   5.0982943812895282E-002   0.0000000000000000     
  -2.1303497339996879E-002   5.6365137918102493E-002   0.0000000000000000     
  -1.9275886073179160E-002   3.6482472760978719E-002   0.0000000000000000     
  -2.0790573206182557E-002   4.1237400802056477E-002   0.0000000000000000     
  -2.2263057869350390E-002   4.6198886193025632E-002   0.0000000000000000     
  -2.3693340062682668E-002   5.1366928933886183E-002   0.0000000000000000     
  -2.5081419786179383E-002   5.6741529024638145E-002   0.0000000000000000     
  -2.2309498405019550E-002   3.6953434216069579E-002   0.0000000000000000     
  -2.4041597386241450E-002   4.1699062825087604E-002   0.0000000000000000     
  -2.5726092707686530E-002   4.6650962142608728E-002   0.0000000000000000     
  -2.7362984369354779E-002   5.1809132168632928E-002   0.0000000000000000     
  -2.8952272371246219E-002   5.7173572903160233E-002   0.0000000000000000     
  -1.4026442864284875E-002   5.5779314020990477E-002   0.0000000000000000     
  -1.4799855424207444E-002   6.1368251305995658E-002   0.0000000000000000     
  -1.5549449051582190E-002   6.7146004673159038E-002   0.0000000000000000     
  -1.6275223746409120E-002   7.3112574122480678E-002   0.0000000000000000     
  -1.6977179508688225E-002   7.9267959653960524E-002   0.0000000000000000     
  -1.7618505032698704E-002   5.6044399583553270E-002   0.0000000000000000     
  -1.8580968561540977E-002   6.1629458846322580E-002   0.0000000000000000     
  -1.9514566316716463E-002   6.7401925948087971E-002   0.0000000000000000     
  -2.0419298298225155E-002   7.3361800888849457E-002   0.0000000000000000     
  -2.1295164506067055E-002   7.9509083668607025E-002   0.0000000000000000     
  -2.1303497339996879E-002   5.6365137918102493E-002   0.0000000000000000     
  -2.2457039709404412E-002   6.1943983564990479E-002   0.0000000000000000     
  -2.3576103011354047E-002   6.7708910137930844E-002   0.0000000000000000     
  -2.4660687245845782E-002   7.3659917636923603E-002   0.0000000000000000     
  -2.5710792412879623E-002   7.9797006061968725E-002   0.0000000000000000     
  -2.5081419786179383E-002   5.6741529024638145E-002   0.0000000000000000     
  -2.6428068867797735E-002   6.2311825461999357E-002   0.0000000000000000     
  -2.7734059135494950E-002   6.8066957242687687E-002   0.0000000000000000     
  -2.8999390589271000E-002   7.4006924366703100E-002   0.0000000000000000     
  -3.0224063229125901E-002   8.0131726834045597E-002   0.0000000000000000     
  -2.8952272371246219E-002   5.7173572903160233E-002   0.0000000000000000     
  -3.0494056036720969E-002   6.2732984537349198E-002   0.0000000000000000     
  -3.1988434689139172E-002   6.8476067262358442E-002   0.0000000000000000     
  -3.3435408328500810E-002   7.4402821078187922E-002   0.0000000000000000     
  -3.4834976954805912E-002   8.0513245984837667E-002   0.0000000000000000     
  -1.6977179508688225E-002   7.9267959653960524E-002   0.0000000000000000     
  -1.7652691765791123E-002   8.5590456214009653E-002   0.0000000000000000     
  -1.8299135945089435E-002   9.2058358749039115E-002   0.0000000000000000     
  -1.8916512046583154E-002   9.8671667259048912E-002   0.0000000000000000     
  -1.9504820070272287E-002  0.10543038174403906        0.0000000000000000     
  -2.1295164506067055E-002   7.9509083668607025E-002   0.0000000000000000     
  -2.2137725407898802E-002   8.5823212167557311E-002   0.0000000000000000     
  -2.2942541471377004E-002   9.2283624265896938E-002   0.0000000000000000     
  -2.3709612696501670E-002   9.8890319963625892E-002   0.0000000000000000     
  -2.4438939083272798E-002  0.10564329926074417        0.0000000000000000     
  -2.5710792412879623E-002   7.9797006061968725E-002   0.0000000000000000     
  -2.6720916690634634E-002   8.6100625695094038E-002   0.0000000000000000     
  -2.7685558257289907E-002   9.2551226818327323E-002   0.0000000000000000     
  -2.8604717112845447E-002   9.9148809431668608E-002   0.0000000000000000     
  -2.9478393257301238E-002  0.10589337353511785        0.0000000000000000     
  -3.0224063229125901E-002   8.0131726834045597E-002   0.0000000000000000     
  -3.1402265613998628E-002   8.6422696796619819E-002   0.0000000000000000     
  -3.2528186302828152E-002   9.2861166406330298E-002   0.0000000000000000     
  -3.3601825295614472E-002   9.9447135663177061E-002   0.0000000000000000     
  -3.4623182592357596E-002  0.10618060456716009        0.0000000000000000     
  -3.4834976954805912E-002   8.0513245984837667E-002   0.0000000000000000     
  -3.6181772177990776E-002   8.6789425472134654E-002   0.0000000000000000     
  -3.7470425607991728E-002   9.3213443029905835E-002   0.0000000000000000     
  -3.8700937244808761E-002   9.9785298658151236E-002   0.0000000000000000     
  -3.9873307088441876E-002  0.10650499235687087        0.0000000000000000     
  -1.9504820070272287E-002  0.10543038174403906        0.0000000000000000     
  -2.0070205935683653E-002  0.11234235507090576        0.0000000000000000     
  -2.0618815562344083E-002  0.11941544010654526        0.0000000000000000     
  -2.1150648950253582E-002  0.12664963685095759        0.0000000000000000     
  -2.1665706099412145E-002  0.13404494530414271        0.0000000000000000     
  -2.4438939083272798E-002  0.10564329926074417        0.0000000000000000     
  -2.5138977255961065E-002  0.11255027405682697        0.0000000000000000     
  -2.5818183838837133E-002  0.11961895625144937        0.0000000000000000     
  -2.6476558831901000E-002  0.12684934584461141        0.0000000000000000     
  -2.7114102235152680E-002  0.13424144283631306        0.0000000000000000     
  -2.9478393257301238E-002  0.10589337353511785        0.0000000000000000     
  -3.0316530926116796E-002  0.11279214047017630        0.0000000000000000     
  -3.1129074354751617E-002  0.11985233157834504        0.0000000000000000     
  -3.1916023543205690E-002  0.12707394685962412        0.0000000000000000     
  -3.2677378491479045E-002  0.13445698631401354        0.0000000000000000     
  -3.4623182592357596E-002  0.10618060456716009        0.0000000000000000     
  -3.5602866946150842E-002  0.11306795431095373        0.0000000000000000     
  -3.6551487110087530E-002  0.12011556608723228        0.0000000000000000     
  -3.7469043084167646E-002  0.12732343989599576        0.0000000000000000     
  -3.8355534868391224E-002  0.13469157573724416        0.0000000000000000     
  -3.9873307088441876E-002  0.10650499235687087        0.0000000000000000     
  -4.0997985316063211E-002  0.11337771557915929        0.0000000000000000     
  -4.2085422104844887E-002  0.12040865977811112        0.0000000000000000     
  -4.3135617454786890E-002  0.12759782495372632        0.0000000000000000     
  -4.4148571365889226E-002  0.13494521110600488        0.0000000000000000     
  -2.1665706099412145E-002  0.13404494530414271        0.0000000000000000     
  -2.2153299752386574E-002  0.14156345843179247        0.0000000000000000     
  -2.2602742651743685E-002  0.14916726919959869        0.0000000000000000     
  -2.3014034797483464E-002  0.15685637760756135        0.0000000000000000     
  -2.3387176189605924E-002  0.16463078365568051        0.0000000000000000     
  -2.7114102235152680E-002  0.13424144283631306        0.0000000000000000     
  -2.7708405935719094E-002  0.14176271814085467        0.0000000000000000     
  -2.8237061820727188E-002  0.14938064267253656        0.0000000000000000     
  -2.8700069890176965E-002  0.15709521643135874        0.0000000000000000     
  -2.9097430144068410E-002  0.16490643941732119        0.0000000000000000     
  -3.2677378491479045E-002  0.13445698631401354        0.0000000000000000     
  -3.3385965626300050E-002  0.14197132425720235        0.0000000000000000     
  -3.4014611374397104E-002  0.14958683500487968        0.0000000000000000     
  -3.4563315735770227E-002  0.15730351855704550        0.0000000000000000     
  -3.5032078710419398E-002  0.16512137491369983        0.0000000000000000     
  -3.8355534868391224E-002  0.13469157573724416        0.0000000000000000     
  -3.9185978824129414E-002  0.14218927678083554        0.0000000000000000     
  -3.9935391312753435E-002  0.14978584619662805        0.0000000000000000     
  -4.0603772334263252E-002  0.15748128398462166        0.0000000000000000     
  -4.1191121888658894E-002  0.16527559014481635        0.0000000000000000     
  -4.4148571365889226E-002  0.13494521110600488        0.0000000000000000     
  -4.5108445529207217E-002  0.14241657571175423        0.0000000000000000     
  -4.5999401635796161E-002  0.14997767624778166        0.0000000000000000     
  -4.6821439685656038E-002  0.15762851271408718        0.0000000000000000     
  -4.7574559678786883E-002  0.16536908511067083        0.0000000000000000     
   0.0000000000000000        0.0000000000000000        0.0000000000000000     
  -1.7982946452971540E-003   1.2770972318273141E-003   0.0000000000000000     
  -3.6212624519891415E-003   2.9396346635798248E-003   0.0000000000000000     
  -5.4689034200759643E-003   4.9876122952575317E-003   0.0000000000000000     
  -7.3412175495576187E-003   7.4210301268604366E-003   0.0000000000000000     
   0.0000000000000000        0.0000000000000000        0.0000000000000000     
  -2.0693423558320410E-003   1.3551626430844542E-003   0.0000000000000000     
  -4.1638871837816963E-003   3.0943899219009925E-003   0.0000000000000000     
  -6.2836344838489676E-003   5.2176818364496154E-003   0.0000000000000000     
  -8.4285842560338515E-003   7.7250383867303240E-003   0.0000000000000000     
   0.0000000000000000        0.0000000000000000        0.0000000000000000     
  -2.3399647829868780E-003   1.4591645334041941E-003   0.0000000000000000     
  -4.7199468218470757E-003   3.3001891618148079E-003   0.0000000000000000     
  -7.1399461165805918E-003   5.5230738852318417E-003   0.0000000000000000     
  -9.5999626671874286E-003   8.1278187036552957E-003   0.0000000000000000     
   0.0000000000000000        0.0000000000000000        0.0000000000000000     
  -2.6101619267616641E-003   1.5891029027865339E-003   0.0000000000000000     
  -5.2894413661852763E-003   3.5570323833212709E-003   0.0000000000000000     
  -8.0378383182708405E-003   5.9037884416042108E-003   0.0000000000000000     
  -1.0855352783018350E-002   8.6293710776353550E-003   0.0000000000000000     
   0.0000000000000000        0.0000000000000000        0.0000000000000000     
  -2.8799337871563994E-003   1.7449777512314735E-003   0.0000000000000000     
  -5.8723708167963025E-003   3.8649195864203815E-003   0.0000000000000000     
  -8.9773110889197084E-003   6.3598255055667243E-003   0.0000000000000000     
  -1.2194754603526616E-002   9.2296955086705011E-003   0.0000000000000000     
  -7.3412175495576187E-003   7.4210301268604366E-003   0.0000000000000000     
  -9.2305112276169082E-003   1.0187498995622287E-002   0.0000000000000000     
  -1.1129090841436625E-002   1.3234629738776834E-002   0.0000000000000000     
  -1.3036956391016773E-002   1.6562422356324085E-002   0.0000000000000000     
  -1.4954107876357347E-002   2.0170876848264022E-002   0.0000000000000000     
  -8.4285842560338515E-003   7.7250383867303240E-003   0.0000000000000000     
  -1.0590338493644125E-002   1.0559029008388185E-002   0.0000000000000000     
  -1.2760499189987569E-002   1.3662223137068269E-002   0.0000000000000000     
  -1.4939066345064183E-002   1.7034620772770577E-002   0.0000000000000000     
  -1.7126039958873955E-002   2.0676221915495112E-002   0.0000000000000000     
  -9.5999626671874286E-003   8.1278187036552957E-003   0.0000000000000000     
  -1.2076356852425299E-002   1.1047018303219790E-002   0.0000000000000000     
  -1.4545489051051920E-002   1.4213267370059946E-002   0.0000000000000000     
  -1.7007359263067286E-002   1.7626565904175762E-002   0.0000000000000000     
  -1.9461967488471413E-002   2.1286913905567247E-002   0.0000000000000000     
  -1.0855352783018350E-002   8.6293710776353550E-003   0.0000000000000000     
  -1.3688566303960422E-002   1.1651466880117107E-002   0.0000000000000000     
  -1.6484060424629673E-002   1.4887762437751868E-002   0.0000000000000000     
  -1.9241835145026098E-002   1.8338257750539641E-002   0.0000000000000000     
  -2.1961890465149694E-002   2.2002952818480432E-002   0.0000000000000000     
  -1.2194754603526616E-002   9.2296955086705011E-003   0.0000000000000000     
  -1.5426966848249499E-002   1.2372374739080132E-002   0.0000000000000000     
  -1.8576213310720825E-002   1.5685708340144038E-002   0.0000000000000000     
  -2.1642493990940603E-002   1.9169696311862213E-002   0.0000000000000000     
  -2.4625808888908821E-002   2.2824338654234666E-002   0.0000000000000000     
  -1.4954107876357347E-002   2.0170876848264022E-002   0.0000000000000000     
  -1.6855165624314328E-002   2.4031375755604094E-002   0.0000000000000000     
  -1.8714749961743691E-002   2.8115301619351708E-002   0.0000000000000000     
  -2.0532860888645432E-002   3.2422654439506871E-002   0.0000000000000000     
  -2.2309498405019550E-002   3.6953434216069579E-002   0.0000000000000000     
  -1.7126039958873955E-002   2.0676221915495112E-002   0.0000000000000000     
  -1.9290358770697930E-002   2.4559389478352959E-002   0.0000000000000000     
  -2.1400961519817137E-002   2.8656486374455226E-002   0.0000000000000000     
  -2.3457848206231553E-002   3.2967512603801909E-002   0.0000000000000000     
  -2.5461018829941201E-002   3.7492468166393005E-002   0.0000000000000000     
  -1.9461967488471413E-002   2.1286913905567247E-002   0.0000000000000000     
  -2.1881284180459957E-002   2.5175602835987566E-002   0.0000000000000000     
  -2.4237279792228599E-002   2.9273924157189924E-002   0.0000000000000000     
  -2.6529954323777350E-002   3.3581877869174305E-002   0.0000000000000000     
  -2.8759307775106192E-002   3.8099463971940729E-002   0.0000000000000000     
  -2.1961890465149694E-002   2.2002952818480432E-002   0.0000000000000000     
  -2.4627941853600389E-002   2.5880015828507918E-002   0.0000000000000000     
  -2.7223704778978088E-002   2.9967614967555803E-002   0.0000000000000000     
  -2.9749179241282803E-002   3.4265750235624080E-002   0.0000000000000000     
  -3.2204365240514524E-002   3.8774421632712754E-002   0.0000000000000000     
  -2.4625808888908821E-002   2.2824338654234666E-002   0.0000000000000000     
  -2.7530331790119239E-002   2.6672628455914008E-002   0.0000000000000000     
  -3.0360236480065608E-002   3.0737558805552855E-002   0.0000000000000000     
  -3.3115522958747923E-002   3.5019129703151221E-002   0.0000000000000000     
  -3.5796191226166188E-002   3.9517341148709084E-002   0.0000000000000000     
  -2.2309498405019550E-002   3.6953434216069579E-002   0.0000000000000000     
  -2.4041597386241450E-002   4.1699062825087604E-002   0.0000000000000000     
  -2.5726092707686530E-002   4.6650962142608728E-002   0.0000000000000000     
  -2.7362984369354779E-002   5.1809132168632928E-002   0.0000000000000000     
  -2.8952272371246219E-002   5.7173572903160233E-002   0.0000000000000000     
  -2.5461018829941201E-002   3.7492468166393005E-002   0.0000000000000000     
  -2.7410798288600872E-002   4.2227176584910361E-002   0.0000000000000000     
  -2.9307511479865354E-002   4.7167461382035827E-002   0.0000000000000000     
  -3.1151158403734655E-002   5.2313322557769396E-002   0.0000000000000000     
  -3.2941739060208780E-002   5.7664760112111073E-002   0.0000000000000000     
  -2.8759307775106192E-002   3.8099463971940729E-002   0.0000000000000000     
  -3.0927339711206130E-002   4.2823710522933309E-002   0.0000000000000000     
  -3.3036049697068158E-002   4.7751645579596221E-002   0.0000000000000000     
  -3.5085437732692244E-002   5.2883269141929444E-002   0.0000000000000000     
  -3.7075503818078434E-002   5.8218581209932979E-002   0.0000000000000000     
  -3.2204365240514524E-002   3.8774421632712754E-002   0.0000000000000000     
  -3.4591221654057237E-002   4.3488664639156488E-002   0.0000000000000000     
  -3.6911707359294915E-002   4.8403514735289921E-002   0.0000000000000000     
  -3.9165822356227571E-002   5.3518971921113087E-002   0.0000000000000000     
  -4.1353566644855191E-002   5.8835036196625945E-002   0.0000000000000000     
  -3.5796191226166188E-002   3.9517341148709084E-002   0.0000000000000000     
  -3.8402444117154183E-002   4.4222038933579864E-002   0.0000000000000000     
  -4.0934484466545649E-002   4.9123068849116935E-002   0.0000000000000000     
  -4.3392312274340608E-002   5.4220430895320311E-002   0.0000000000000000     
  -4.5775927540539059E-002   5.9514125072189984E-002   0.0000000000000000     
  -2.8952272371246219E-002   5.7173572903160233E-002   0.0000000000000000     
  -3.0494056036720969E-002   6.2732984537349198E-002   0.0000000000000000     
  -3.1988434689139172E-002   6.8476067262358442E-002   0.0000000000000000     
  -3.3435408328500810E-002   7.4402821078187922E-002   0.0000000000000000     
  -3.4834976954805912E-002   8.0513245984837667E-002   0.0000000000000000     
  -3.2941739060208780E-002   5.7664760112111073E-002   0.0000000000000000     
  -3.4678678005948947E-002   6.3210393861791683E-002   0.0000000000000000     
  -3.6361399797616413E-002   6.8938843623542065E-002   0.0000000000000000     
  -3.7989904435211178E-002   7.4850109397362224E-002   0.0000000000000000     
  -3.9564191918733227E-002   8.0944191183252134E-002   0.0000000000000000     
  -3.7075503818078434E-002   5.8218581209932979E-002   0.0000000000000000     
  -3.9005611565256532E-002   6.3746986506078449E-002   0.0000000000000000     
  -4.0875124586256403E-002   6.9457889752837468E-002   0.0000000000000000     
  -4.2684042881078042E-002   7.5351290950210051E-002   0.0000000000000000     
  -4.4432366449721435E-002   8.1427190098196198E-002   0.0000000000000000     
  -4.1353566644855191E-002   5.8835036196625945E-002   0.0000000000000000     
  -4.3474856714643732E-002   6.4342762470209480E-002   0.0000000000000000     
  -4.5529609055059136E-002   7.0033205650244637E-002   0.0000000000000000     
  -4.7517823666101397E-002   7.5906365736731443E-002   0.0000000000000000     
  -4.9439500547770528E-002   8.1962242729669885E-002   0.0000000000000000     
  -4.5775927540539059E-002   5.9514125072189984E-002   0.0000000000000000     
  -4.8086413454110535E-002   6.4997721754184806E-002   0.0000000000000000     
  -5.0324853204024599E-002   7.0664791315763614E-002   0.0000000000000000     
  -5.2491246790281249E-002   7.6515333756926387E-002   0.0000000000000000     
  -5.4585594212880485E-002   8.2549349077673168E-002   0.0000000000000000     
  -3.4834976954805912E-002   8.0513245984837667E-002   0.0000000000000000     
  -3.6181772177990776E-002   8.6789425472134654E-002   0.0000000000000000     
  -3.7470425607991728E-002   9.3213443029905835E-002   0.0000000000000000     
  -3.8700937244808761E-002   9.9785298658151236E-002   0.0000000000000000     
  -3.9873307088441876E-002  0.10650499235687087        0.0000000000000000     
  -3.9564191918733227E-002   8.0944191183252134E-002   0.0000000000000000     
  -4.1079469209710145E-002   8.7203762161684573E-002   0.0000000000000000     
  -4.2530943269669469E-002   9.3611495513132317E-002   0.0000000000000000     
  -4.3918614098611246E-002  0.10016739123759531        0.0000000000000000     
  -4.5242481696535448E-002  0.10687144933507361        0.0000000000000000     
  -4.4432366449721435E-002   8.1427190098196198E-002   0.0000000000000000     
  -4.6115389536255769E-002   8.7668657305315631E-002   0.0000000000000000     
  -4.7728406384750260E-002   9.4058762680088018E-002   0.0000000000000000     
  -4.9271416995204875E-002  0.10059750622251339        0.0000000000000000     
  -5.0744421367619648E-002  0.10728488793259175        0.0000000000000000     
  -4.9439500547770528E-002   8.1962242729669885E-002   0.0000000000000000     
  -5.1289533157627680E-002   8.8184110903027774E-002   0.0000000000000000     
  -5.3062814953234047E-002   9.4555244530772978E-002   0.0000000000000000     
  -5.4759345934589664E-002  0.10107564361290546        0.0000000000000000     
  -5.6379126101694488E-002  0.10774530814942529        0.0000000000000000     
  -5.4585594212880485E-002   8.2549349077673168E-002   0.0000000000000000     
  -5.6601900073825859E-002   8.8750122954821070E-002   0.0000000000000000     
  -5.8534168975120877E-002   9.5100941065187183E-002   0.0000000000000000     
  -6.0382400916765590E-002  0.10160180340877158        0.0000000000000000     
  -6.2146595898759961E-002  0.10825270998557421        0.0000000000000000     
  -3.9873307088441876E-002  0.10650499235687087        0.0000000000000000     
  -4.0997985316063211E-002  0.11337771557915929        0.0000000000000000     
  -4.2085422104844887E-002  0.12040865977811112        0.0000000000000000     
  -4.3135617454786890E-002  0.12759782495372632        0.0000000000000000     
  -4.4148571365889226E-002  0.13494521110600488        0.0000000000000000     
  -4.5242481696535448E-002  0.10687144933507361        0.0000000000000000     
  -4.6513067344563584E-002  0.11372744366292145        0.0000000000000000     
  -4.7740892323817175E-002  0.12073914807849306        0.0000000000000000     
  -4.8925956634296233E-002  0.12790656258178842        0.0000000000000000     
  -5.0068260276000739E-002  0.13522968717280762        0.0000000000000000     
  -5.0744421367619648E-002  0.10728488793259175        0.0000000000000000     
  -5.2159294340361630E-002  0.11412315795036868        0.0000000000000000     
  -5.3527910751797907E-002  0.12111456641588969        0.0000000000000000     
  -5.4850270601928500E-002  0.12825911332915485        0.0000000000000000     
  -5.6126373890753402E-002  0.13555679869016410        0.0000000000000000     
  -5.6379126101694488E-002  0.10774530814942529        0.0000000000000000     
  -5.7936666303457347E-002  0.11456485844150094        0.0000000000000000     
  -5.9446477388787097E-002  0.12153491479030101        0.0000000000000000     
  -6.0908559357683724E-002  0.12865547719582551        0.0000000000000000     
  -6.2322912210147241E-002  0.13592654565807438        0.0000000000000000     
  -6.2146595898759961E-002  0.10825270998557421        0.0000000000000000     
  -6.3845183233850758E-002  0.11505254513631828        0.0000000000000000     
  -6.5496592234784740E-002  0.12200019320172700        0.0000000000000000     
  -6.7100822901561913E-002  0.12909565418180041        0.0000000000000000     
  -6.8657875234182250E-002  0.13633892807653847        0.0000000000000000     
  -4.4148571365889226E-002  0.13494521110600488        0.0000000000000000     
  -4.5108445529207217E-002  0.14241657571175423        0.0000000000000000     
  -4.5999401635796161E-002  0.14997767624778166        0.0000000000000000     
  -4.6821439685656038E-002  0.15762851271408718        0.0000000000000000     
  -4.7574559678786883E-002  0.16536908511067083        0.0000000000000000     
  -5.0068260276000739E-002  0.13522968717280762        0.0000000000000000     
  -5.1160662312184239E-002  0.14267098860449884        0.0000000000000000     
  -5.2196021806100307E-002  0.15019293362981040        0.0000000000000000     
  -5.3174338757748907E-002  0.15779552224874233        0.0000000000000000     
  -5.4095613167130047E-002  0.16547875446129462        0.0000000000000000     
  -5.6126373890753402E-002  0.13555679869016410        0.0000000000000000     
  -5.7349925743711297E-002  0.14297028301360978        0.0000000000000000     
  -5.8514631286240869E-002  0.15046222681418417        0.0000000000000000     
  -5.9620490518342131E-002  0.15803263009188734        0.0000000000000000     
  -6.0667503440015071E-002  0.16568149284671913        0.0000000000000000     
  -6.2322912210147241E-002  0.13592654565807438        0.0000000000000000     
  -6.3676235823788369E-002  0.14331445893908712        0.0000000000000000     
  -6.4955230076217868E-002  0.15078555580090297        0.0000000000000000     
  -6.6159894967435712E-002  0.15833983624352208        0.0000000000000000     
  -6.7290230497441941E-002  0.16597730026694435        0.0000000000000000     
  -6.8657875234182250E-002  0.13633892807653847        0.0000000000000000     
  -7.0139592552415489E-002  0.14370351638093073        0.0000000000000000     
  -7.1517818176031284E-002  0.15116292058996680        0.0000000000000000     
  -7.2792552105029690E-002  0.15871714070364662        0.0000000000000000     
  -7.3963794339410666E-002  0.16636617672197027        0.0000000000000000     
   0.0000000000000000        0.0000000000000000        0.0000000000000000     
  -2.8799337871563994E-003   1.7449777512314735E-003   0.0000000000000000     
  -5.8723708167963025E-003   3.8649195864203815E-003   0.0000000000000000     
  -8.9773110889197084E-003   6.3598255055667243E-003   0.0000000000000000     
  -1.2194754603526616E-002   9.2296955086705011E-003   0.0000000000000000     
   0.0000000000000000        0.0000000000000000        0.0000000000000000     
  -3.2830962416477969E-003   1.9994462262350196E-003   0.0000000000000000     
  -6.6766908488038717E-003   4.3311576115312687E-003   0.0000000000000000     
  -1.0180783821468226E-002   6.9951341558887482E-003   0.0000000000000000     
  -1.3795375159640855E-002   9.9913758593074570E-003   0.0000000000000000     
   0.0000000000000000        0.0000000000000000        0.0000000000000000     
  -3.9534651677125684E-003   2.4251654752931772E-003   0.0000000000000000     
  -7.9103571373317048E-003   5.0630532990730602E-003   0.0000000000000000     
  -1.1870675908857414E-002   7.9136634713396509E-003   0.0000000000000000     
  -1.5834421482289685E-002   1.0976995992092949E-002   0.0000000000000000     
   0.0000000000000000        0.0000000000000000        0.0000000000000000     
  -4.8910405653507143E-003   3.0221354984059459E-003   0.0000000000000000     
  -9.5733696823798054E-003   6.0606066490457569E-003   0.0000000000000000     
  -1.4046987351087271E-002   9.1154134519194352E-003   0.0000000000000000     
  -1.8311893571473118E-002   1.2186555907026976E-002   0.0000000000000000     
   0.0000000000000000        0.0000000000000000        0.0000000000000000     
  -6.0958224345622342E-003   3.7903562955733270E-003   0.0000000000000000     
  -1.1665728483948168E-002   7.3238176614493587E-003   0.0000000000000000     
  -1.6709718148157804E-002   1.0600384097628094E-002   0.0000000000000000     
  -2.1227791427191132E-002   1.3620055604109536E-002   0.0000000000000000     
  -1.2194754603526616E-002   9.2296955086705011E-003   0.0000000000000000     
  -1.5426966848249499E-002   1.2372374739080132E-002   0.0000000000000000     
  -1.8576213310720825E-002   1.5685708340144038E-002   0.0000000000000000     
  -2.1642493990940603E-002   1.9169696311862213E-002   0.0000000000000000     
  -2.4625808888908821E-002   2.2824338654234666E-002   0.0000000000000000     
  -1.3795375159640855E-002   9.9913758593074570E-003   0.0000000000000000     
  -1.7403449328729816E-002   1.3221782495700418E-002   0.0000000000000000     
  -2.0887990794143167E-002   1.6588253838980657E-002   0.0000000000000000     
  -2.4248999555880901E-002   2.0090789889148163E-002   0.0000000000000000     
  -2.7486475613943025E-002   2.3729390646202945E-002   0.0000000000000000     
  -1.5834421482289685E-002   1.0976995992092949E-002   0.0000000000000000     
  -1.9729904588838658E-002   1.4211730765569522E-002   0.0000000000000000     
  -2.3485435959714460E-002   1.7576547696005928E-002   0.0000000000000000     
  -2.7101015594917083E-002   2.1071446783402177E-002   0.0000000000000000     
  -3.0576643494446529E-002   2.4696428027758260E-002   0.0000000000000000     
  -1.8311893571473118E-002   1.2186555907026976E-002   0.0000000000000000     
  -2.2406332628576026E-002   1.5342219548687431E-002   0.0000000000000000     
  -2.6368548807434705E-002   1.8650589911219859E-002   0.0000000000000000     
  -3.0198542108049144E-002   2.2111666994624250E-002   0.0000000000000000     
  -3.3896312530419352E-002   2.5725450798900613E-002   0.0000000000000000     
  -2.1227791427191132E-002   1.3620055604109536E-002   0.0000000000000000     
  -2.5432733447941915E-002   1.6613248845054163E-002   0.0000000000000000     
  -2.9537329337303901E-002   1.9810380484622445E-002   0.0000000000000000     
  -3.3541579095277094E-002   2.3211450522814391E-002   0.0000000000000000     
  -3.7445482721861482E-002   2.6816458959629998E-002   0.0000000000000000     
  -2.4625808888908821E-002   2.2824338654234666E-002   0.0000000000000000     
  -2.7530331790119239E-002   2.6672628455914008E-002   0.0000000000000000     
  -3.0360236480065608E-002   3.0737558805552855E-002   0.0000000000000000     
  -3.3115522958747923E-002   3.5019129703151221E-002   0.0000000000000000     
  -3.5796191226166188E-002   3.9517341148709084E-002   0.0000000000000000     
  -2.7486475613943025E-002   2.3729390646202945E-002   0.0000000000000000     
  -3.0623237940784431E-002   2.7546943392119265E-002   0.0000000000000000     
  -3.3682105508860020E-002   3.1586335408871395E-002   0.0000000000000000     
  -3.6663078318169798E-002   3.5847566696459318E-002   0.0000000000000000     
  -3.9566156368713766E-002   4.0330637254883048E-002   0.0000000000000000     
  -3.0576643494446529E-002   2.4696428027758260E-002   0.0000000000000000     
  -3.3941444256363890E-002   2.8496463311037119E-002   0.0000000000000000     
  -3.7224542478730208E-002   3.2516524515201685E-002   0.0000000000000000     
  -4.0425938161545522E-002   3.6756611640251964E-002   0.0000000000000000     
  -4.3545631304809804E-002   4.1216724686187950E-002   0.0000000000000000     
  -3.3896312530419352E-002   2.5725450798900613E-002   0.0000000000000000     
  -3.7484950736857599E-002   2.9521188212667575E-002   0.0000000000000000     
  -4.0987547389676179E-002   3.3528126124543756E-002   0.0000000000000000     
  -4.4404102488875073E-002   3.7746264534529166E-002   0.0000000000000000     
  -4.7734616034454301E-002   4.2175603442623805E-002   0.0000000000000000     
  -3.7445482721861482E-002   2.6816458959629998E-002   0.0000000000000000     
  -4.1253757382265589E-002   3.0621118097010614E-002   0.0000000000000000     
  -4.4971120241697922E-002   3.4621140236897587E-002   0.0000000000000000     
  -4.8597571300158487E-002   3.8816525379290916E-002   0.0000000000000000     
  -5.2133110557647272E-002   4.3207273524190612E-002   0.0000000000000000     
  -3.5796191226166188E-002   3.9517341148709084E-002   0.0000000000000000     
  -3.8402444117154183E-002   4.4222038933579864E-002   0.0000000000000000     
  -4.0934484466545649E-002   4.9123068849116935E-002   0.0000000000000000     
  -4.3392312274340608E-002   5.4220430895320311E-002   0.0000000000000000     
  -4.5775927540539059E-002   5.9514125072189984E-002   0.0000000000000000     
  -3.9566156368713766E-002   4.0330637254883048E-002   0.0000000000000000     
  -4.2389322959115468E-002   4.5021184337618821E-002   0.0000000000000000     
  -4.5130561387998439E-002   4.9904845198142887E-002   0.0000000000000000     
  -4.7789871655362699E-002   5.4981619836455241E-002   0.0000000000000000     
  -5.0367253761208236E-002   6.0251508252555881E-002   0.0000000000000000     
  -4.3545631304809804E-002   4.1216724686187950E-002   0.0000000000000000     
  -4.6580174038559574E-002   4.5883451782688739E-002   0.0000000000000000     
  -4.9526118492831353E-002   5.0743381059433414E-002   0.0000000000000000     
  -5.2383464667625140E-002   5.5796512516421981E-002   0.0000000000000000     
  -5.5152212562940915E-002   6.1042846153654434E-002   0.0000000000000000     
  -4.7734616034454301E-002   4.2175603442623805E-002   0.0000000000000000     
  -5.0974997355486523E-002   4.6808841268789612E-002   0.0000000000000000     
  -5.4121155781044393E-002   5.1638676432988521E-002   0.0000000000000000     
  -5.7173091311127938E-002   5.6665108935220553E-002   0.0000000000000000     
  -6.0130803945737138E-002   6.1888138775485657E-002   0.0000000000000000     
  -5.2133110557647272E-002   4.3207273524190612E-002   0.0000000000000000     
  -5.5573792909896301E-002   4.7797352795921448E-002   0.0000000000000000     
  -5.8915673252637579E-002   5.2590731318808211E-002   0.0000000000000000     
  -6.2158751585871100E-002   5.7587409092850914E-002   0.0000000000000000     
  -6.5303027909596856E-002   6.2787386118049543E-002   0.0000000000000000     
  -4.5775927540539059E-002   5.9514125072189984E-002   0.0000000000000000     
  -4.8086413454110535E-002   6.4997721754184806E-002   0.0000000000000000     
  -5.0324853204024599E-002   7.0664791315763614E-002   0.0000000000000000     
  -5.2491246790281249E-002   7.6515333756926387E-002   0.0000000000000000     
  -5.4585594212880485E-002   8.2549349077673168E-002   0.0000000000000000     
  -5.0367253761208236E-002   6.0251508252555881E-002   0.0000000000000000     
  -5.2865177966789946E-002   6.5709905078106756E-002   0.0000000000000000     
  -5.5286114533362740E-002   7.1352204944769765E-002   0.0000000000000000     
  -5.7630063460926632E-002   7.7178407852544970E-002   0.0000000000000000     
  -5.9897024749481595E-002   8.3188513801432343E-002   0.0000000000000000     
  -5.5152212562940915E-002   6.1042846153654434E-002   0.0000000000000000     
  -5.7836046435814963E-002   6.6477353162077688E-002   0.0000000000000000     
  -6.0438650543283505E-002   7.2095004732638648E-002   0.0000000000000000     
  -6.2960024885346549E-002   7.7895800865337317E-002   0.0000000000000000     
  -6.5400169462004082E-002   8.3879741560173693E-002   0.0000000000000000     
  -6.0130803945737138E-002   6.1888138775485657E-002   0.0000000000000000     
  -6.2999018861185585E-002   6.7300066006097642E-002   0.0000000000000000     
  -6.5782461233786879E-002   7.2893190679370223E-002   0.0000000000000000     
  -6.8481131063541006E-002   7.8667512795303415E-002   0.0000000000000000     
  -7.1095028350447953E-002   8.4623032353897204E-002   0.0000000000000000     
  -6.5303027909596856E-002   6.2787386118049543E-002   0.0000000000000000     
  -6.8354095242901800E-002   6.8178043610166578E-002   0.0000000000000000     
  -7.1317546604872842E-002   7.3746762784964476E-002   0.0000000000000000     
  -7.4193381995509997E-002   7.9493543642443251E-002   0.0000000000000000     
  -7.6981601414813222E-002   8.5418386182602890E-002   0.0000000000000000     
  -5.4585594212880485E-002   8.2549349077673168E-002   0.0000000000000000     
  -5.6601900073825859E-002   8.8750122954821070E-002   0.0000000000000000     
  -5.8534168975120877E-002   9.5100941065187183E-002   0.0000000000000000     
  -6.0382400916765590E-002  0.10160180340877158        0.0000000000000000     
  -6.2146595898759961E-002  0.10825270998557421        0.0000000000000000     
  -5.9897024749481595E-002   8.3188513801432343E-002   0.0000000000000000     
  -6.2079866774605356E-002   8.9366114460284765E-002   0.0000000000000000     
  -6.4171457911875632E-002   9.5694801497955145E-002   0.0000000000000000     
  -6.6171798161292414E-002  0.10217457491444348        0.0000000000000000     
  -6.8080887522855696E-002  0.10880543470974981        0.0000000000000000     
  -6.5400169462004082E-002   8.3879741560173693E-002   0.0000000000000000     
  -6.7750809749721266E-002   9.0031506419008187E-002   0.0000000000000000     
  -7.0003671224963190E-002   9.6335775043701347E-002   0.0000000000000000     
  -7.2158753887729882E-002  0.10279254743425308        0.0000000000000000     
  -7.4216057738021327E-002  0.10940182359066340        0.0000000000000000     
  -7.1095028350447953E-002   8.4623032353897204E-002   0.0000000000000000     
  -7.3614728999173581E-002   9.0746298830991390E-002   0.0000000000000000     
  -7.6030808914383560E-002   9.7023861702425759E-002   0.0000000000000000     
  -7.8343268096078028E-002  0.10345572096820030        0.0000000000000000     
  -8.0552106544256832E-002  0.11004187662831502        0.0000000000000000     
  -7.6981601414813222E-002   8.5418386182602890E-002   0.0000000000000000     
  -7.9671624522962253E-002   9.1510491696234320E-002   0.0000000000000000     
  -8.2252870980136783E-002   9.7759061474128398E-002   0.0000000000000000     
  -8.4725340786336770E-002  0.10416409551628518        0.0000000000000000     
  -8.7089033941562255E-002  0.11072559382270464        0.0000000000000000     
  -6.2146595898759961E-002  0.10825270998557421        0.0000000000000000     
  -6.3845183233850758E-002  0.11505254513631828        0.0000000000000000     
  -6.5496592234784740E-002  0.12200019320172700        0.0000000000000000     
  -6.7100822901561913E-002  0.12909565418180041        0.0000000000000000     
  -6.8657875234182250E-002  0.13633892807653847        0.0000000000000000     
  -6.8080887522855696E-002  0.10880543470974981        0.0000000000000000     
  -6.9920231937331156E-002  0.11558455316510047        0.0000000000000000     
  -7.1711337345484419E-002  0.12250910256172187        0.0000000000000000     
  -7.3454203747315497E-002  0.12957908289961406        0.0000000000000000     
  -7.5148831142824390E-002  0.13679449417877695        0.0000000000000000     
  -7.4216057738021327E-002  0.10940182359066340        0.0000000000000000     
  -7.6197199219687844E-002  0.11615921765812734        0.0000000000000000     
  -7.8123794776579700E-002  0.12306034378183983        0.0000000000000000     
  -7.9995844408696976E-002  0.13010520196180089        0.0000000000000000     
  -8.1813348116039575E-002  0.13729379219801052        0.0000000000000000     
  -8.0552106544256832E-002  0.11004187662831502        0.0000000000000000     
  -8.2676085080920836E-002  0.11677653861539888        0.0000000000000000     
  -8.4733964528070652E-002  0.12365391686208085        0.0000000000000000     
  -8.6725744885706321E-002  0.13067401136836093        0.0000000000000000     
  -8.8651426153827817E-002  0.13783682213423909        0.0000000000000000     
  -8.7089033941562255E-002  0.11072559382270464        0.0000000000000000     
  -8.9356889521030103E-002  0.11743651603691510        0.0000000000000000     
  -9.1541846599957191E-002  0.12428982180244495        0.0000000000000000     
  -9.3643905178343534E-002  0.13128551111929418        0.0000000000000000     
  -9.5663065256189145E-002  0.13842358398746279        0.0000000000000000     
  -6.8657875234182250E-002  0.13633892807653847        0.0000000000000000     
  -7.0139592552415489E-002  0.14370351638093073        0.0000000000000000     
  -7.1517818176031284E-002  0.15116292058996680        0.0000000000000000     
  -7.2792552105029690E-002  0.15871714070364662        0.0000000000000000     
  -7.3963794339410666E-002  0.16636617672197027        0.0000000000000000     
  -7.5148831142824390E-002  0.13679449417877695        0.0000000000000000     
  -7.6755418706997966E-002  0.14413536070612587        0.0000000000000000     
  -7.8234165614823076E-002  0.15158170678857599        0.0000000000000000     
  -7.9585071866299789E-002  0.15913353242612738        0.0000000000000000     
  -8.0808137461428051E-002  0.16679083761878000        0.0000000000000000     
  -8.1813348116039575E-002  0.13729379219801052        0.0000000000000000     
  -8.3539137064941121E-002  0.14460789728165754        0.0000000000000000     
  -8.5136042421735197E-002  0.15202930000393092        0.0000000000000000     
  -8.6604064186421789E-002  0.15955800036483059        0.0000000000000000     
  -8.7943202359000952E-002  0.16719399836435658        0.0000000000000000     
  -8.8651426153827817E-002  0.13783682213423909        0.0000000000000000     
  -9.0490747626244983E-002  0.14512112610752584        0.0000000000000000     
  -9.2223448596767621E-002  0.15250570023603160        0.0000000000000000     
  -9.3849529065395731E-002  0.15999054451975636        0.0000000000000000     
  -9.5368989032129328E-002  0.16757565895870008        0.0000000000000000     
  -9.5663065256189145E-002  0.13842358398746279        0.0000000000000000     
  -9.7610250390909564E-002  0.14567504718373073        0.0000000000000000     
  -9.9496384139920374E-002  0.15301090748487797        0.0000000000000000     
 -0.10132146650322159       0.16043116489090453        0.0000000000000000     
 -0.10308549748081319       0.16793581940181046        0.0000000000000000     
 </DataArray>
 <DataArray  type="Float64" Name="stress" NumberOfComponents="3" format="ascii">
   13416825539.105059        4025047661.7315178        2893777356.4450512     
   11766833019.956125        1890662232.7798116        1715734404.1758180     
   10314080012.111633        413741841.50956964        810761390.11218572     
   9058566515.5715752       -405713512.07921076        178858314.25415221     
   8000292530.3359623       -567703827.98652649       -179974823.39828092     
   10540147997.458258        3162044399.2374773        2225596146.9436913     
   9667875949.0600491        1589746388.9151380        1446632528.1753566     
   8944213765.4434452        512814594.53149128        863133005.94135559     
   8369161446.6084509       -68750983.913463593        475097580.24168754     
   7942718992.5550632       -154950346.41972685        282526251.07635236     
   8338146984.2486124        2501444095.2745838        1712232722.5566041     
   8021864430.3975058        1424714210.7205253        1275613849.6791987     
   7805562094.8051748        681251720.36238766        956853231.66485953     
   7689239977.4716196        271056624.20017052        755950868.51358509     
   7672898078.3968401        194128922.23387480        672906760.22537851     
   6810822499.4761257        2043246749.8428376        1353687083.2837906     
   6828798463.9684992        1395565698.1959729        1202678368.6873438     
   6898125000.1968212        919053219.00225925        1091922067.2826962     
   7018802108.1610861        613709312.26169467        1021418179.0698475     
   7190829787.8612967        479533977.97428083        991166704.04879785     
   5958174543.1407938        1787452362.9422381        1149959229.1252506     
   6088678049.7730331        1502300851.3414829        1227826085.1997926     
   6221902481.6183853        1226219090.4511063        1268339512.7948670     
   6357847838.6768494        959207080.27110815        1271499511.9104736     
   6496514120.9484291        701264820.80148935        1237306082.5466123     
   8000292530.3359623       -567703827.98652649       -179974823.39828092     
   7917828957.1557865       -200584672.75396538       -78320471.334704489     
   7793971816.0930920        28555922.870205879       -9208707.4241340142     
   7628721107.1478806        119717958.88597918        27360468.333432976     
   7422076830.3201513        72901435.293358803        31387055.937994007     
   7942718992.5550632       -154950346.41972685        282526251.07635236     
   7740036810.6966209        16013897.963760376        281087192.99694508     
   7514042912.5607014        109272421.42232752        264981388.12935409     
   7264737298.1473036        124825223.95597601        234208836.47357899     
   6992119967.4564323        62672305.564700603        188769538.02961984     
   7672898078.3968401        194128922.23387480        672906760.22537851     
   7401071120.3310461        184260405.50956059        589469785.54220426     
   7124014297.5928154        156959006.54379988        509241905.43566734     
   6841727610.1821537        112224725.33659482        432223119.90576726     
   6554211058.0990543        50057561.887940407        358413428.95250332     
   7190829787.8612967        479533977.97428083        991166704.04879785     
   6900931886.0590649        304154849.88343906        846827306.30107331     
   6623885971.1894417        171615678.23462629        723572844.49480629     
   6359692043.2524233        81916463.027841806        621403318.62999690     
   6108350102.2480183        35057204.263086081        540318728.70664334     
   6496514120.9484291        701264820.80148935        1237306082.5466123     
   6239619107.8806763        375697231.08539605        1053159755.2735530     
   6013657933.3505735        153242436.49480534        907974205.30677152     
   5818630597.3581219        33900437.029718399        801749432.64626586     
   5654537099.9033203        17671232.690132141        734485437.29204094     
   7422076830.3201513        72901435.293358803        31387055.937994007     
   7220218973.4523993       -17086887.300116062        15136355.341297194     
   7030342997.6613283       -67135606.304652214        2898939.4350063917     
   6852448902.9469376       -77244721.720252037       -5325191.7808743957     
   6686536689.3092337       -47414233.546904087       -9536038.3063462898     
   6992119967.4564323        62672305.564700603        188769538.02961984     
   6809359223.5657492        3695595.2246451378        180930599.53358355     
   6634230568.7071571       -29840818.341766357        176611937.34794110     
   6466734002.8806553       -37936935.134548903        175813551.47268823     
   6306869526.0862436       -20592755.153695822        178535441.90783399     
   6554211058.0990543        50057561.887940407        358413428.95250332     
   6389138831.8139677        21669885.189873219        353911495.17177063     
   6227348902.5163813        4223198.4501347542        352436829.32141560     
   6068841270.2062893       -2282498.3312776089        353989431.40143883     
   5913615934.8836994        2152794.8456392288        358569301.41183847     
   6108350102.2480183        35057204.263086081        540318728.70664334     
   5959557798.1970549        36835982.595561266        534079042.25585771     
   5809697999.0889969        35056444.071056366        530373615.35543519     
   5658770704.9238424        29718588.689572573        529202448.00537360     
   5506775915.7016010        20822416.451115131        530565540.20567155     
   5654537099.9033203        17671232.690132141        734485437.29204094     
   5520616122.7150059        49193887.441705465        721433240.78584576     
   5381277858.4250050        62658918.520995855        710422295.44999647     
   5236522307.0333166        58066325.927998066        701452601.28449214     
   5086349468.5399466        35416109.662719011        694524158.28933585     
   6686536689.3092337       -47414233.546904087       -9536038.3063462898     
   6508744251.0779676       -10164656.444838285       -5500464.3267925624     
   6326211573.2909689        11284122.138127565        1261093.7007303450     
   6138938655.9482517        16932102.202025414        10748635.776217951     
   5946925499.0497999        6779283.7468106747        22962161.899669614     
   6306869526.0862436       -20592755.153695822        178535441.90783399     
   6132142009.0078058       -384072.93711376190        173834361.11627764     
   5954611027.7242727        10479728.595829964        172697442.13712430     
   5774276582.2356415        11998649.445102930        175124684.97036824     
   5591138672.5419159        4172689.6107270718        181116089.61600432     
   5913615934.8836994        2152794.8456392288        358569301.41183847     
   5744348132.5707502        6039020.2605512142        347391137.09158057     
   5574213641.4033356        7036282.8272433281        340615312.34814698     
   5403212461.3814545        5144582.5457108021        338241827.18154508     
   5231344592.5051107        363919.41597390175        340270681.59177256     
   5506775915.7016010        20822416.451115131        530565540.20567155     
   5345362621.7668037        9104623.1481475830        515169863.59910870     
   5185019414.3281708        953784.83239698410        505014704.33381021     
   5025746293.3857002       -3630098.4961421490        500100062.40976310     
   4867543258.9393997       -4647026.8374562263        500425937.82698357     
   5086349468.5399466        35416109.662719011        694524158.28933585     
   4935185476.5959558        8812735.7256665230        677170540.63887417     
   4787028346.4987679       -7767765.3887233734        665895618.09409904     
   4641878078.2483683       -14325393.680475950        660699390.65501785     
   4499734671.8447704       -10860149.149563074        661581858.32162416     
   5946925499.0497999        6779283.7468106747        22962161.899669614     
   5774038255.7895346       -1546903.9548809528        20346636.192414280     
   5603312476.2577877       -2668212.5614845753        19967416.407707468     
   5434748160.4545498        3415357.9269313812        21824502.545560710     
   5268345308.3798351        16703807.510418415        25917894.605963755     
   5591138672.5419159        4172689.6107270718        181116089.61600432     
   5425772123.9610796       -483158.89689826965        179395733.33315396     
   5261784008.5916348       -544230.03322005272        180377219.52867937     
   5099174326.4335804        3989476.2017457485        184060548.20259687     
   4937943077.4869118        13117959.808028698        190445719.35488442     
   5231344592.5051107        363919.41597390175        340270681.59177256     
   5074828843.0489321       -222558.56402707100        338531959.13000953     
   4918908496.2870169        1175639.1035177708        339960615.70246077     
   4763583552.2193632        4558512.4186058044        344556651.30912042     
   4608854010.8459711        9926061.3812367916        352320065.94998860     
   4867543258.9393997       -4647026.8374562263        500425937.82698357     
   4721208413.0530891       -765102.95627260208        497755313.58299869     
   4574685939.3439245        2491394.8487136364        498717604.92905515     
   4427975837.8118887        5122466.5774788857        503312811.86514062     
   4281078108.4569945        7128112.2300362587        511540934.39127028     
   4499734671.8447704       -10860149.149563074        661581858.32162416     
   4364910833.9735613       -2110792.0736136436        657065796.69210482     
   4229116337.7623620        3403037.2023639679        656648187.20845103     
   4092351183.2111745        5681338.6783783436        660329029.87065721     
   3954615370.3199987        4724112.3544328213        668108324.67872596     
   5268345308.3798351        16703807.510418415        25917894.605963755     
   5063320669.0028687        18010160.723300934        16364307.132838728     
   4855873756.9875622        11242271.808367252        9853516.7771935258     
   4646004572.3339071       -3599859.2343800068        6385523.5390371140     
   4433713115.0418987       -26516232.404982090        5960327.4183579637     
   4937943077.4869118        13117959.808028698        190445719.35488442     
   4740495449.8987865        10849788.481490374        179214028.38253987     
   4541318790.4133177        2818177.4971349239        171592901.17784101     
   4340413099.0305004       -10976873.145046234        167582337.74077401     
   4137778375.7503304       -30535363.445066929        167182338.07136482     
   4608854010.8459711        9926061.3812367916        352320065.94998860     
   4420605585.4757147        4570022.6439886093        340219052.34292680     
   4231321368.9491067       -4238653.2810940742        332296369.15366757     
   4041001361.2661557       -16499966.393986225        328552016.38220787     
   3849645562.4268532       -32213916.694717169        328985994.02856481     
   4281078108.4569945        7128112.2300362587        511540934.39127028     
   4103651075.7336392       -829136.78922390938        499379379.01398957     
   3925881492.5949311       -9928220.5263028145        491963920.70467263     
   3747769359.0408783       -20169138.981206656        489294559.46332502     
   3569314675.0714798       -31551892.153933287        491371295.28993982     
   3954615370.3199987        4724112.3544328213        668108324.67872596     
   3789631920.6725640       -5347689.8181328773        656695008.39573312     
   3624999161.3507857       -14250524.238512754        650595555.83086479     
   3460717092.3546615       -21984390.906716585        649809966.98412371     
   3296785713.6841969       -28549289.822725296        654338241.85550702     
   4433713115.0418987       -26516232.404982090        5960327.4183579637     
   4272544250.3621116       -29740427.153409004       -2250703.2915500053     
   4116669351.0493560       -15318070.678407669        3433191.6010163710     
   3966088417.1036415        16750837.020067453        23012012.096032754     
   3820801448.5249400        66466295.941923141        56485758.193523481     
   4137778375.7503304       -30535363.445066929        167182338.07136482     
   4010809541.1960802       -24223341.566741705        165176846.82823637     
   3887660340.0076928       -5179208.4688904285        173383480.08842203     
   3768330772.1851563        26597035.848476410        191802237.85191894     
   3652820837.7284808        71105391.385368824        220433120.11873826     
   3849645562.4268532       -32213916.694717169        328985994.02856481     
   3746354469.1434336       -19522364.846038818        331465988.25083143     
   3645408677.2246919        986858.21822595596        340475305.87727296     
   3546808186.6706285        29313752.498106003        356013946.90787661     
   3450552997.4812508        65458317.993580341        378081911.34263384     
   3569314675.0714798       -31551892.153933287        491371295.28993982     
   3479179034.2041678       -15637496.991332054        496616720.97624689     
   3389914362.7003632        3180129.3829636574        504708668.96756196     
   3301520660.5600576        24900986.968925595        515647139.26389354     
   3213997927.7832575        49525075.766557693        529432131.86523950     
   3296785713.6841969       -28549289.822725296        654338241.85550702     
   3209283236.3782778       -12568738.002604127        660629045.00446916     
   3121177396.4346924        1400605.0252804756        666083569.35929286     
   3032468193.8534265        13358739.260905981        670701814.91998136     
   2943155628.6344962        23305664.704301357        674483781.68653142     
   3820801448.5249400        66466295.941923141        56485758.193523481     
   3689591770.4760976        102783224.15971708        75363464.363167658     
   3541469411.9856358        82724550.905457020        64491518.345901527     
   3376434373.0535960        6290276.1792895794        23869920.141730838     
   3194486653.6799688       -126519600.01888204       -46501330.249328382     
   3652820837.7284808        71105391.385368824        220433120.11873826     
   3451595814.5024037        78773148.075768471        217063534.62546167     
   3239215286.1199245        49255887.578143358        196196990.76600745     
   3015679252.5810418       -17446390.107489705        157833488.54038012     
   2780987713.8857393       -121333684.98117661        101973027.94853801     
   3450552997.4812508        65458317.993580341        378081911.34263384     
   3214320325.7085738        54979212.145805597        359181738.68584013     
   2972689324.0646768        26505673.393956304        335037301.48358005     
   2725659992.5495491       -19962298.261970162        305648599.73584229     
   2473232331.1632195       -84424702.821958780        271015633.44264799     
   3213997927.7832575        49525075.766557693        529432131.86523950     
   2977765304.0946026        31401416.369793534        501718076.54430294     
   2741891525.8199053        14473908.352904797        481012450.49861079     
   2506376592.9591770       -1257448.2841045856        467315253.72815907     
   2271220505.5124097       -15792653.541227698        460626486.23297149     
   2943155628.6344962        23305664.704301357        674483781.68653142     
   2741930749.6604695        8039760.7477231026        644672548.20083380     
   2546821891.3856030        13160592.455000162        634122437.81109715     
   2357829053.8098745        38668159.826081395        642833450.51732624     
   2174952236.9333048        84562462.861014724        670805586.31952703     
   5958174543.1407938        1787452362.9422381        1149959229.1252506     
   6088678049.7730331        1502300851.3414829        1227826085.1997926     
   6221902481.6183853        1226219090.4511063        1268339512.7948670     
   6357847838.6768494        959207080.27110815        1271499511.9104736     
   6496514120.9484291        701264820.80148935        1237306082.5466123     
   5434825636.7316370        1630447691.0194912        1033369544.9188408     
   5490120409.1247520        1372530967.7038708        1113762175.0545852     
   5547612040.4252033        1121937107.4127040        1167370410.0354412     
   5607300530.6329908        878666110.14599025        1194194249.8614075     
   5669185879.7481127        642717975.90372920        1194233694.5324845     
   4895398301.7376747        1468619490.5213025        936238415.50241911     
   4905681577.9618902        1246996726.9118848        1018545409.0092924     
   4917637646.7876644        1030949938.6409950        1084637040.6858549     
   4931266508.2149992        820479125.70863259        1134513310.5321074     
   4946568162.2438889        615584288.11479747        1168174218.5480490     
   4339892538.1589041        1301967761.4476712        858565840.87598526     
   4335361556.2844467        1125698128.9655244        942175787.06391323     
   4331979300.7057695        953257584.13597894        1020139404.7461090     
   4329745771.4228735        784646126.95903563        1092456693.9225736     
   4328660968.4357586        619863757.43469381        1159127654.5933058     
   3768308345.9953270        1130492503.7985981        800351821.03953934     
   3779160344.0924206        1008635173.8647889        884653309.21844780     
   3790637002.1795173        888860043.89765573        973877502.21620321     
   3802738320.2566156        771167113.89719808        1068024400.0328047     
   3815464298.3237190        655556383.86341703        1167094002.6682549     
   6496514120.9484291        701264820.80148935        1237306082.5466123     
   6239619107.8806763        375697231.08539605        1053159755.2735530     
   6013657933.3505735        153242436.49480534        907974205.30677152     
   5818630597.3581219        33900437.029718399        801749432.64626586     
   5654537099.9033203        17671232.690132141        734485437.29204094     
   5669185879.7481127        642717975.90372920        1194233694.5324845     
   5519143526.6221361        383156503.36174250        1073390741.0422136     
   5393254845.8235073        204107271.91091633        980549183.16069937     
   5291519837.3522263        105570281.55124879        915709020.88794267     
   5213938501.2082939        87545532.282743216        878870254.22394192     
   4946568162.2438889        615584288.11479747        1168174218.5480490     
   4872065949.9239149        412635177.00618529        1102724444.9285471     
   4814937243.7209854        267597752.95438957        1054316685.2202803     
   4775182043.6351042        180472015.95941305        1022950939.4232502     
   4752800349.6662645        151257966.02125239        1008627207.5374562     
   4328660968.4357586        619863757.43469381        1159127654.5933058     
   4298386377.7860136        464133252.01872313        1141160866.9325521     
   4278705127.0430117        343713879.62522709        1129276711.4855132     
   4269617216.2067542        258605640.25420785        1123475188.2521908     
   4271122645.2772388        208808533.90566325        1123756297.2325826     
   3815464298.3237190        655556383.86341703        1167094002.6682549     
   3798104810.2084322        537650728.39935780        1188700007.0542293     
   3784558495.7895846        432455651.92342961        1205429261.9563982     
   3774825355.0671763        339971154.43563545        1217281767.3747623     
   3768905388.0412087        260197235.93597233        1224257523.3093224     
   5654537099.9033203        17671232.690132141        734485437.29204094     
   5520616122.7150059        49193887.441705465        721433240.78584576     
   5381277858.4250050        62658918.520995855        710422295.44999647     
   5236522307.0333166        58066325.927998066        701452601.28449214     
   5086349468.5399466        35416109.662719011        694524158.28933585     
   5213938501.2082939        87545532.282743216        878870254.22394192     
   5077915690.8232765        85395461.386264801        855264046.38737595     
   4939765881.0632353        76155392.573039770        835770421.60947597     
   4799489071.9281683        59825325.843059540        820389379.89024377     
   4657085263.4180756        36405261.196329594        809120921.22967291     
   4752800349.6662645        151257966.02125239        1008627207.5374562     
   4620593797.1940365        117210596.80957246        978305657.38495564     
   4489550533.0734406        87040855.436674595        954168022.17944098     
   4359670557.3044806        60748741.902558804        936214301.92091215     
   4230953869.8871541        38334256.207224131        924444496.60937214     
   4271122645.2772388        208808533.90566325        1123756297.2325826     
   4148650441.8272781        144639293.71162391        1090558073.7785838     
   4030631814.4556165        95315307.111901522        1065615097.1598923     
   3917066763.1622491        60836574.106495380        1048927367.3765056     
   3807955287.9471750        41203094.695401907        1040494884.4284265     
   3768905388.0412087        260197235.93597233        1224257523.3093224     
   3662085624.7230101        167681552.09242225        1192021295.5682614     
   3563009725.2097678        100978747.59872258        1170111646.5508292     
   3471677689.5014782        60088822.454868555        1158528576.2570229     
   3388089517.5981436        45011776.660864592        1157272084.6868439     
   5086349468.5399466        35416109.662719011        694524158.28933585     
   4935185476.5959558        8812735.7256665230        677170540.63887417     
   4787028346.4987679       -7767765.3887233734        665895618.09409904     
   4641878078.2483683       -14325393.680475950        660699390.65501785     
   4499734671.8447704       -10860149.149563074        661581858.32162416     
   4657085263.4180756        36405261.196329594        809120921.22967291     
   4522774144.0315447        15485457.325523138        795633789.36222327     
   4390637795.9137859        1814891.0173003674        787720117.41799045     
   4260676219.0648065       -4606437.7283289433        785379905.39697576     
   4132889413.4846010       -3778528.9113767147        788613153.29918480     
   4230953869.8871541        38334256.207224131        924444496.60937214     
   4112052093.9652987        22664963.674823046        913853078.18391073     
   3994492998.7342019        11471273.444949865        908329884.49919534     
   3878276584.1938601        4753185.5175938606        907874915.55522811     
   3763402850.3442764        2510699.8927619457        912488171.35200703     
   3807955287.9471750        41203094.695401907        1040494884.4284265     
   3703019326.3972239        30351254.773580313        1031828407.1039326     
   3598593954.9600086        21201381.894210815        1027724919.3377138     
   3494679173.6355362        13753476.057307005        1028184421.1297710     
   3391274982.4237938        8007537.2628548145        1033206912.4801047     
   3388089517.5981436        45011776.660864592        1157272084.6868439     
   3295675841.3273211        38544330.621785402        1149559776.1222942     
   3202940664.5912137        31005216.365096688        1145905221.9335463     
   3109883987.3898268        22394433.890807390        1146308422.1206052     
   3016505809.7231550        12711983.198899031        1150769376.6834674     
   4499734671.8447704       -10860149.149563074        661581858.32162416     
   4364910833.9735613       -2110792.0736136436        657065796.69210482     
   4229116337.7623620        3403037.2023639679        656648187.20845103     
   4092351183.2111745        5681338.6783783436        660329029.87065721     
   3954615370.3199987        4724112.3544328213        668108324.67872596     
   4132889413.4846010       -3778528.9113767147        788613153.29918480     
   4007564955.6960435        547208.21827840805        782464575.85143161     
   3881884929.2597213        3687716.5220510960        780545597.07822847     
   3755849334.1756387        5642995.9999525547        782856216.97957635     
   3629458170.4437923        6413046.6519818306        789396435.55547976     
   3763402850.3442764        2510699.8927619457        912488171.35200703     
   3647952477.0060482        2525228.3864223957        905424682.72695315     
   3532761624.7122846        3404827.0282993317        902721939.30513728     
   3417830293.4629827        5149495.8183856010        904379941.08656216     
   3303158483.2581515        7759234.7566986084        910398688.07122147     
   3391274982.4237938        8007537.2628548145        1033206912.4801047     
   3286073397.9035735        3823268.4308283329        1025946117.3186799     
   3181746424.1200461        2554368.7211053371        1023177213.8891830     
   3078294061.0732107        4200838.1336928606        1024900202.1916118     
   2975716308.7630653        8762676.6685798168        1031115082.2259665     
   3016505809.7231550        12711983.198899031        1150769376.6834674     
   2921927718.3886213        4441328.3514846563        1144028879.6266060     
   2828839327.4830089        1136341.6004741192        1141911420.8303556     
   2737240637.0063119        2797022.9458469152        1144417000.2947218     
   2647131646.9585376        9423372.3876347542        1151545618.0197024     
   3954615370.3199987        4724112.3544328213        668108324.67872596     
   3789631920.6725640       -5347689.8181328773        656695008.39573312     
   3624999161.3507857       -14250524.238512754        650595555.83086479     
   3460717092.3546615       -21984390.906716585        649809966.98412371     
   3296785713.6841969       -28549289.822725296        654338241.85550702     
   3629458170.4437923        6413046.6519818306        789396435.55547976     
   3478967988.3563728       -628023.62568736076        777682381.92357147     
   3328450024.0883489       -7761701.1720418930        771103732.25933599     
   3177904277.6397200       -14987985.987078190        769660486.56277847     
   3027330749.0104828       -22306878.070805550        773352644.83389914     
   3303158483.2581515        7759234.7566986084        910398688.07122147     
   3166651683.7294621        3595930.8735401630        897942345.83309257     
   3029738629.5139089       -1921555.2991709709        890442947.81219125     
   2892419320.6114902       -8793223.7614325285        887900494.00851941     
   2754693757.0222049       -17019074.513246417        890314984.42207456     
   2975716308.7630653        8762676.6685798168        1031115082.2259665     
   2852683006.7918253        7324173.6795457602        1017474900.1243097     
   2728864977.6274652        3269913.3801051378        1008613202.4894357     
   2604262221.2699747       -3400104.2297685146        1004529989.3213409     
   2478874737.7193551       -12685879.150068283        1005225260.6200297     
   2647131646.9585376        9423372.3876347542        1151545618.0197024     
   2537061957.5434694        10556704.792344213        1136280044.7972205     
   2425829068.4290128        7812704.8657652140        1125614496.2910686     
   2313432979.6151733        1191372.6079062223        1119548972.5012472     
   2199873691.1019449       -9307291.9812480211        1118083473.4277642     
   3296785713.6841969       -28549289.822725296        654338241.85550702     
   3209283236.3782778       -12568738.002604127        660629045.00446916     
   3121177396.4346924        1400605.0252804756        666083569.35929286     
   3032468193.8534265        13358739.260905981        670701814.91998136     
   2943155628.6344962        23305664.704301357        674483781.68653142     
   3027330749.0104828       -22306878.070805550        773352644.83389914     
   2938243862.0665083       -11023620.942509174        779022929.44101870     
   2849287717.7689157        695445.00705969334        785394707.28034186     
   2760462316.1177139        12850319.777924657        792467978.35186851     
   2671767657.1128955        25441003.370074391        800242742.65560985     
   2754693757.0222049       -17019074.513246417        890314984.42207456     
   2668416094.8011479       -9115021.7684990168        896221206.65208566     
   2583003280.5105371        1671857.4110676050        904366694.14063847     
   2498455314.1503687        15341563.025446653        914751446.88774252     
   2414772195.7206492        31894095.074648738        927375464.89339864     
   2478874737.7193551       -12685879.150068283        1005225260.6200297     
   2399799934.5822010       -6842940.4805593491        1012223876.6376650     
   2322324084.6595507        4329842.2372970581        1022999529.9401883     
   2246447187.9514017        20832469.003489137        1037552220.5276055     
   2172169244.4577565        42664939.818028450        1055881948.3999180     
   2199873691.1019449       -9307291.9812480211        1118083473.4277642     
   2132395381.4096675       -4207377.0786956549        1127030939.3977611     
   2067250130.2159529        8669399.4857277870        1141293214.6789870     
   2004437937.5208025        29323037.712035298        1160870299.2714529     
   1943958803.3242154        57753537.600220084        1185762193.1751542     
   2943155628.6344962        23305664.704301357        674483781.68653142     
   2741930749.6604695        8039760.7477231026        644672548.20083380     
   2546821891.3856030        13160592.455000162        634122437.81109715     
   2357829053.8098745        38668159.826081395        642833450.51732624     
   2174952236.9333048        84562462.861014724        670805586.31952703     
   2671767657.1128955        25441003.370074391        800242742.65560985     
   2515846315.4847579        22418683.275196552        777462816.54256213     
   2362797528.6387749        28971545.787504196        767445199.78537297     
   2212621296.5749650        45099590.907050133        770189892.38406074     
   2065317619.2933154        70802818.633796811        785696894.33859611     
   2414772195.7206492        31894095.074648738        927375464.89339864     
   2285586352.1809511        35544947.064213276        907842802.58318985     
   2156029597.5064292        37959428.604363441        894573635.88873994     
   2026101931.6970906        39137539.695112586        887567964.81005359     
   1895803354.7529216        39079280.336451173        886825789.34712613     
   2172169244.4577565        42664939.818028450        1055881948.3999180     
   2051150859.7490637        47418552.114813089        1035812506.3227284     
   1926518097.9885631        40124240.905567765        1015507746.1211966     
   1798270959.1762538        20782006.190294862        994967667.79531682     
   1666409443.3121350       -10608152.031009316        974192271.34509885     
   1943958803.3242154        57753537.600220084        1185762193.1751542     
   1812539838.1890938        58039498.427001476        1161371927.7611730     
   1674263030.0851724        35465982.691111684        1130247530.4827352     
   1529128379.0124600       -9967009.6074159145        1092389001.3398676     
   1377135884.9709504       -78259478.468589008        1047796340.3325305     
   3768308345.9953270        1130492503.7985981        800351821.03953934     
   3779160344.0924206        1008635173.8647889        884653309.21844780     
   3790637002.1795173        888860043.89765573        973877502.21620321     
   3802738320.2566156        771167113.89719808        1068024400.0328047     
   3815464298.3237190        655556383.86341703        1167094002.6682549     
   3207806881.3477378        962342064.40432131        756459210.84328878     
   3235851699.3403363        868165331.27980101        852849163.46460235     
   3263626889.3002496        773089838.04632950        951153827.30762136     
   3291132451.2274785        677115584.70390701        1051373202.3723452     
   3318368385.1220207        580242571.25253344        1153507288.6587753     
   2685549300.3169317        805664790.09507954        721750865.13744140     
   2722192670.7846308        736590373.55372643        829185946.17469037     
   2757672125.1969562        663636236.82779539        935527744.83650351     
   2791987663.5539079        586802379.91728592        1040776261.1228799     
   2825139285.8554854        506088802.82219809        1144931495.0338209     
   2201535602.9029088        660460680.87087262        696226783.92199695     
   2238183258.4253035        613910300.68656576        813663657.34871221     
   2272772709.8696365        560499240.24205339        926999254.80284965     
   2305303957.2359071        500227499.53733593        1036233576.2844095     
   2335777000.5241165        433095078.57241297        1141366621.7933910     
   1755765789.1056693        526729736.73170072        679886967.19695520     
   1783823462.2623541        500125112.67831826        806282296.98666739     
   1808928643.3182900        463678848.28910363        925568357.20665991     
   1831081332.2734754        417390943.56405640        1037745147.8569328     
   1850281529.1279120        361261398.50317699        1142812668.9374864     
   3815464298.3237190        655556383.86341703        1167094002.6682549     
   3798104810.2084322        537650728.39935780        1188700007.0542293     
   3784558495.7895846        432455651.92342961        1205429261.9563982     
   3774825355.0671763        339971154.43563545        1217281767.3747623     
   3768905388.0412087        260197235.93597233        1224257523.3093224     
   3318368385.1220207        580242571.25253344        1153507288.6587753     
   3293866672.3254533        473071449.41141117        1181748369.7668600     
   3273078446.2105269        378278616.50909531        1206894981.3063185     
   3256003706.7772441        295864072.54558742        1228947123.2771492     
   3242642454.0256019        225827817.52088606        1247904795.6793532     
   2825139285.8554854        506088802.82219809        1144931495.0338209     
   2798587576.7067175        411179883.10273767        1179691351.3467531     
   2775649667.2247934        328316962.27275836        1213139018.0062361     
   2756325557.4097147        257500040.33226144        1245274495.0122697     
   2740615247.2614779        198729117.28124392        1276097782.3648546     
   2335777000.5241165        433095078.57241297        1141366621.7933910     
   2312267523.3522272        351976029.47333765        1182528951.7939067     
   2292272158.8323836        282570689.21441901        1224161372.0561509     
   2275790906.9645877        224879057.79565471        1266263882.5801237     
   2262823767.7488384        178901135.21704662        1308836483.3658245     
   1850281529.1279120        361261398.50317699        1142812668.9374864     
   1834906512.2619805        295459888.52321059        1190261171.1083214     
   1822945921.0332985        241039797.33407623        1239962043.4560621     
   1814399755.4418657        198001124.93577105        1291915285.9807096     
   1809268015.4876816        166343871.32829583        1346120898.6822641     
   3768905388.0412087        260197235.93597233        1224257523.3093224     
   3662085624.7230101        167681552.09242225        1192021295.5682614     
   3563009725.2097678        100978747.59872258        1170111646.5508292     
   3471677689.5014782        60088822.454868555        1158528576.2570229     
   3388089517.5981436        45011776.660864592        1157272084.6868439     
   3242642454.0256019        225827817.52088606        1247904795.6793532     
   3165029959.3522034        151375868.16286707        1231040095.7447538     
   3093501568.0476308        97204263.367600918        1222147392.7012503     
   3028057280.1118851        63313003.135091662        1221226686.5488451     
   2968697095.5449653        49702087.465334296        1228277977.2875354     
   2740615247.2614779        198729117.28124392        1276097782.3648546     
   2685482644.5685086        140322689.40944648        1272668223.0612314     
   2634774384.8082376        96664071.313307762        1274856078.8161762     
   2588490467.9806638        67753262.992827058        1282661349.6296859     
   2546630894.0857878        53590264.448005438        1296084035.5017653     
   2262823767.7488384        178901135.21704662        1308836483.3658245     
   2223443680.3719268        134522015.83215725        1316905677.5176952     
   2186828175.4915867        99358171.435834646        1328237704.8956029     
   2152977253.1078148        73409602.028074980        1342832565.4995475     
   2121890913.2206116        56676307.608878136        1360690259.3295307     
   1809268015.4876816        166343871.32829583        1346120898.6822641     
   1778913066.7624590        133973847.43100578        1363752459.1141450     
   1749662940.0976770        105286563.73518479        1382292270.9395330     
   1721517635.4933348        80282020.240831017        1401740334.1584282     
   1694477152.9494350        58960216.947947145        1422096648.7708316     
   3388089517.5981436        45011776.660864592        1157272084.6868439     
   3295675841.3273211        38544330.621785402        1149559776.1222942     
   3202940664.5912137        31005216.365096688        1145905221.9335463     
   3109883987.3898268        22394433.890807390        1146308422.1206052     
   3016505809.7231550        12711983.198899031        1150769376.6834674     
   2968697095.5449653        49702087.465334296        1228277977.2875354     
   2885903412.0446844        38775545.453962684        1219786314.2802951     
   2803430739.4646249        28919039.843330979        1215665913.4835801     
   2721279077.8047867        20132570.633438587        1215916774.8973935     
   2639448427.0651736        12416137.824292064        1220538898.5217302     
   2546630894.0857878        53590264.448005438        1296084035.5017653     
   2474352940.0266814        38473347.465530753        1287562614.6682558     
   2403038508.2733021        26568171.502140164        1283725963.8799953     
   2332687598.8256521        17874736.557849288        1284574083.1369851     
   2263300211.6837287        12393042.632647753        1290106972.4392195     
   2121890913.2206116        56676307.608878136        1360690259.3295307     
   2061024425.2733145        37637736.656485915        1352888677.2861764     
   2001763971.0172493        23952611.341533780        1350085373.1227925     
   1944109550.4524167        15620931.664025068        1352280346.8393781     
   1888061163.5788186        12642697.623961449        1359473598.4359350     
   1694477152.9494350        58960216.947947145        1422096648.7708316     
   1645917867.7845821        36268713.026834846        1415764502.1340551     
   1599607127.6964641        21072359.361506760        1414744141.2119706     
   1555544932.6850860        13371155.951977432        1419035566.0045764     
   1513731282.7504451        13165102.798239350        1428638776.5118749     
   3016505809.7231550        12711983.198899031        1150769376.6834674     
   2921927718.3886213        4441328.3514846563        1144028879.6266060     
   2828839327.4830089        1136341.6004741192        1141911420.8303556     
   2737240637.0063119        2797022.9458469152        1144417000.2947218     
   2647131646.9585376        9423372.3876347542        1151545618.0197024     
   2639448427.0651736        12416137.824292064        1220538898.5217302     
   2557502693.1996412        6651059.2719959021        1215508601.0574307     
   2476545319.3114395        4180513.9774724245        1214994253.4713378     
   2396576305.4005704        5004501.9407279491        1218995855.7634501     
   2317595651.4670343        9123023.1617512703        1227513407.9337671     
   2263300211.6837287        12393042.632647753        1290106972.4392195     
   2193680868.4803123        9041750.3333976269        1286201977.3739667     
   2124548544.8026447        7313856.4533035755        1286705843.8045106     
   2055903240.6507220        7209360.9923634529        1291618571.7308514     
   1987744956.0245447        8728263.9505751133        1300940161.1529877     
   1888061163.5788186        12642697.623961449        1359473598.4359350     
   1830462244.2306423        11613401.535701990        1356109008.5762088     
   1772849003.9566228        10536369.027969599        1357046191.8298757     
   1715221442.7567642        9411600.1007726192        1362285148.1969264     
   1657579560.6310651        8239094.7541038990        1371825877.6773694     
   1513731282.7504451        13165102.798239350        1428638776.5118749     
   1467846820.4506238        14366012.878894985        1425229694.6641607     
   1421446696.7733746        13848051.701463580        1426015297.5474269     
   1374530911.7187006        11611219.265946686        1430995585.1616735     
   1327099465.2865975        7655515.5723326206        1440170557.5069001     
   2647131646.9585376        9423372.3876347542        1151545618.0197024     
   2537061957.5434694        10556704.792344213        1136280044.7972205     
   2425829068.4290128        7812704.8657652140        1125614496.2910686     
   2313432979.6151733        1191372.6079062223        1119548972.5012472     
   2199873691.1019449       -9307291.9812480211        1118083473.4277642     
   2317595651.4670343        9123023.1617512703        1227513407.9337671     
   2219221059.8074036        7863010.9129389524        1211225953.5338213     
   2120147985.8724115        4274724.4129232168        1199887013.7648501     
   2020376429.6620541       -1641836.3383080959        1193496588.6268487     
   1919906391.1763415       -9886671.3407315016        1192054678.1198177     
   1987744956.0245447        8728263.9505751133        1300940161.1529877     
   1902061147.5907502        5373612.6893581152        1284172995.9036098     
   1816143574.3056178        1239745.2570167780        1272702835.1998420     
   1729992236.1691480       -3673338.3464517593        1266529679.0416856     
   1643607133.1813397       -9365638.1210446358        1265653527.4291420     
   1657579560.6310651        8239094.7541038990        1371825877.6773694     
   1585582220.8935061        3088510.1215980053        1355121171.9065852     
   1513815833.7286367       -1292232.6019390821        1344061960.5960512     
   1442280399.1364498       -4903133.4165363908        1338648243.7457676     
   1370975917.1169515       -7744192.3221703768        1338880021.3557391     
   1327099465.2865975        7655515.5723326206        1440170557.5069001     
   1269784279.7156742        1007703.2096650004        1424070481.5427411     
   1213164764.1414599       -3321209.1639704108        1413964389.9534726     
   1157240918.5639608       -5331221.5485574603        1409852282.7390969     
   1102012742.9831722       -5022333.9441100359        1411734159.8996081     
   2199873691.1019449       -9307291.9812480211        1118083473.4277642     
   2132395381.4096675       -4207377.0786956549        1127030939.3977611     
   2067250130.2159529        8669399.4857277870        1141293214.6789870     
   2004437937.5208025        29323037.712035298        1160870299.2714529     
   1943958803.3242154        57753537.600220084        1185762193.1751542     
   1919906391.1763415       -9886671.3407315016        1192054678.1198177     
   1865831712.3305504       -2430822.0811699629        1204308366.2811570     
   1813630511.1689270        11269952.792276621        1221014053.2384815     
   1763302787.6914694        31215653.279609680        1242171738.9917912     
   1714848541.8981748        57406279.380825639        1267781423.5410836     
   1643607133.1813397       -9365638.1210446358        1265653527.4291420     
   1600470912.2813258       -293406.37467473745        1280677260.1650302     
   1558748588.2510743        13491814.937579870        1299290181.1816540     
   1518440161.0905902        31990025.815723360        1321492290.4790063     
   1479545630.7998734        55201226.259752691        1347283588.0570920     
   1370975917.1169515       -7744192.3221703768        1338880021.3557391     
   1336312981.2619889        2204870.0407842398        1356137621.0493774     
   1302604361.4623966        15334985.921637654        1376121598.5084965     
   1269850057.7181683        31646155.320369303        1398831953.7330973     
   1238050070.0293083        51138378.237000704        1424268686.7231815     
   1102012742.9831722       -5022333.9441100359        1411734159.8996081     
   1073357919.2725439        5064007.1652107835        1430689448.9341974     
   1045197830.8028882        16799465.744436979        1451508305.2190170     
   1017532477.5742015        30184041.793559492        1474190728.7540658     
   990361859.58648229        45217735.312573791        1498736719.5393505     
   1943958803.3242154        57753537.600220084        1185762193.1751542     
   1812539838.1890938        58039498.427001476        1161371927.7611730     
   1674263030.0851724        35465982.691111684        1130247530.4827352     
   1529128379.0124600       -9967009.6074159145        1092389001.3398676     
   1377135884.9709504       -78259478.468589008        1047796340.3325305     
   1714848541.8981748        57406279.380825639        1267781423.5410836     
   1573040372.7725773        52914896.104243577        1238390810.2493732     
   1427594440.8783507        36297636.932241201        1208845097.4686704     
   1278510746.2155011        7554501.8648214340        1179144285.1989782     
   1125789288.7840221       -33314509.098020196        1149288373.4402936     
   1479545630.7998734        55201226.259752691        1347283588.0570920     
   1346145493.0422502        51571669.487365842        1316649387.1211841     
   1212327672.7161674        46549837.486785412        1292439119.0717392     
   1078092169.8216205        40135730.257992327        1274652783.9087663     
   943438984.35861897        32329347.801012874        1263290381.6322460     
   1238050070.0293083        51138378.237000704        1424268686.7231815     
   1131855198.9981058        54009818.576341152        1396147658.3766048     
   1028462725.5986040        66222584.354694068        1381029595.2919474     
   927872649.83081722        87776675.572084665        1378914497.4692173     
   830084971.69473433        118672092.22849813        1389802364.9084001     
   990361859.58648229        45217735.312573791        1498736719.5393505     
   930169490.64014149        60229343.371163934        1476885624.0156324     
   875999599.52567899        95315877.536015034        1474616526.1292958     
   827852186.24308455        150477337.80709010        1491929425.8803382     
   785727250.79237068        225713724.18443969        1528824323.2687497     
   1755765789.1056693        526729736.73170072        679886967.19695520     
   1783823462.2623541        500125112.67831826        806282296.98666739     
   1808928643.3182900        463678848.28910363        925568357.20665991     
   1831081332.2734754        417390943.56405640        1037745147.8569328     
   1850281529.1279120        361261398.50317699        1142812668.9374864     
   1326024673.3201170        397807401.99603516        669610179.57142198     
   1339256893.3877177        375530503.16338992        791736829.09783530     
   1350279498.8304369        345888222.24780619        908569847.68988657     
   1359092489.6482742        308880559.24928391        1020109235.3475760     
   1365695865.8412304        264507514.16782311        1126354992.0709038     
   890097069.94115710        267029120.98234716        662275185.65450251     
   893691375.87783802        250636209.05788860        780999845.30612969     
   895818944.66550505        229354173.30338517        896246512.65875292     
   896479776.30415881        203183013.71883714        1008015187.7123716     
   895673870.79379928        172122730.30424449        1116305870.4669859     
   447982978.96878999        134394893.69063699        657881985.44619703     
   447126909.73271501        125442230.36181431        774071345.61155117     
   445546980.82349473        114076701.45584069        888598352.11325860     
   443243192.24112916        100298306.97271624        1001463004.9513192     
   440215543.98561841        84107046.912440807        1112665304.1257334     
  -317599.59698483633       -95279.879095450902        656430578.94650531     
  -436505.04765100603       -51432.924832836216        770951330.01409948     
  -536392.69559437095        55806.705172547867        885625366.05340385     
  -617262.54081483104        226439.01092073141        1000452687.0644194     
  -679114.58331237757        460463.99241213338        1115433293.0471458     
   1850281529.1279120        361261398.50317699        1142812668.9374864     
   1834906512.2619805        295459888.52321059        1190261171.1083214     
   1822945921.0332985        241039797.33407623        1239962043.4560621     
   1814399755.4418657        198001124.93577105        1291915285.9807096     
   1809268015.4876816        166343871.32829583        1346120898.6822641     
   1365695865.8412304        264507514.16782311        1126354992.0709038     
   1359902552.9426954        216931176.68408269        1181709816.0029004     
   1356658886.0922301        177853659.36057577        1237977002.2337821     
   1355964865.2898333        147274962.19729704        1295156550.7635469     
   1357820490.5355062        125195085.19425130        1353248461.5921979     
   895673870.79379928        172122730.30424449        1116305870.4669859     
   895633667.92545378        141622987.13556752        1178558106.6394355     
   897278331.51599884        116739465.49652499        1240382697.2327473     
   900607861.56543279        97472165.387113035        1301779642.2469208     
   905622258.07375705        83821086.807334661        1362748941.6819580     
   440215543.98561841        84107046.912440807        1112665304.1257334     
   442099857.21025705        69535319.877666160        1180806043.0179260     
   444804257.30460602        57697215.741926089        1247179128.4529586     
   448328744.26866478        48592734.505218610        1311784560.4308319     
   452673318.10243428        42221876.167546764        1374622338.9515448     
  -679114.58331237757        460463.99241213338        1115433293.0471458     
  -698879.20289603039        668174.91037681489        1188453625.1383722     
  -763336.54194803350        726910.09677989536        1258366295.8944163     
  -872486.60047064407        636669.55161441374        1325171305.3152781     
  -1026329.3784624198        397453.27488539554        1388868653.4009585     
   1809268015.4876816        166343871.32829583        1346120898.6822641     
   1778913066.7624590        133973847.43100578        1363752459.1141450     
   1749662940.0976770        105286563.73518479        1382292270.9395330     
   1721517635.4933348        80282020.240831017        1401740334.1584282     
   1694477152.9494350        58960216.947947145        1422096648.7708316     
   1357820490.5355062        125195085.19425130        1353248461.5921979     
   1332699447.2441919        100221990.22579795        1372025674.1444154     
   1308457185.9898782        78178168.714013100        1392213732.8071713     
   1285093706.7725658        59063620.658899248        1413812637.5804620     
   1262609009.5922537        42878346.060452700        1436822388.4642909     
   905622258.07375705        83821086.807334661        1362748941.6819580     
   887171105.12214875        66675716.239460140        1382408092.9938340     
   869372694.18410039        51706152.383451968        1403980685.1332750     
   852227025.25961280        38912395.239313781        1427466718.1002817     
   835734098.34868574        28294444.807042122        1452866191.8948531     
   452673318.10243428        42221876.167546764        1374622338.9515448     
   442328040.39632833        33335025.471988171        1394899715.6623983     
   432409464.68034202        25870514.743495435        1417593127.9178464     
   422917590.95447665        19828343.982072175        1442702575.7178872     
   413852419.21873069        15208513.187713861        1470228059.0625243     
  -1026329.3784624198        397453.27488539554        1388868653.4009585     
  -1829746.9332691943        199917.92338287004        1409500542.1501095     
  -2432502.5213967273        671255.79414482950        1433051061.1608837     
  -2834596.1428431114        1811466.8871767642        1459520210.4332800     
  -3036027.7976109348        3620551.2024712623        1488907989.9672997     
   1694477152.9494350        58960216.947947145        1422096648.7708316     
   1645917867.7845821        36268713.026834846        1415764502.1340551     
   1599607127.6964641        21072359.361506760        1414744141.2119706     
   1555544932.6850860        13371155.951977432        1419035566.0045764     
   1513731282.7504451        13165102.798239350        1428638776.5118749     
   1262609009.5922537        42878346.060452700        1436822388.4642909     
   1228979284.2662930        26902387.457488477        1434058854.5165195     
   1196813298.5115786        15805560.758677781        1435918070.4259384     
   1166111052.3281121        9587865.9640272856        1442400036.1925490     
   1136872545.7158899        8249303.0735261440        1453504751.8163517     
   835734098.34868574        28294444.807042122        1452866191.8948531     
   815065258.98304391        18443429.358653218        1452755664.2130148     
   795075353.68315840        10855527.462784857        1456578850.5308669     
   775764382.44902980        5530739.1194387674        1464335750.8484097     
   757132345.28065622        2469064.3286110461        1476026365.1656418     
   413852419.21873069        15208513.187713861        1470228059.0625243     
   404175791.93483543        10891838.730330557        1471854931.2235451     
   394393293.21120536        6222259.4738313258        1476726481.5267565     
   384504923.04784179        1199775.4182197750        1484842709.9721582     
   374510681.44474179       -4175613.4365116507        1496203616.5597486     
  -3036027.7976109348        3620551.2024712623        1488907989.9672997     
  -3689116.8783325283        4247615.5725225955        1491356655.5481093     
  -5232882.9042788018        1905756.7918243012        1496360963.4136081     
  -7667325.8754510805       -3405025.1396263069        1503920913.5637949     
  -10992445.791849047       -11684730.221830590        1514036505.9986730     
   1513731282.7504451        13165102.798239350        1428638776.5118749     
   1467846820.4506238        14366012.878894985        1425229694.6641607     
   1421446696.7733746        13848051.701463580        1426015297.5474269     
   1374530911.7187006        11611219.265946686        1430995585.1616735     
   1327099465.2865975        7655515.5723326206        1440170557.5069001     
   1136872545.7158899        8249303.0735261440        1453504751.8163517     
   1101429225.8178623        7040948.9868521690        1448797658.8177030     
   1065835344.0120387        5330721.8741933703        1448483513.1280704     
   1030090900.2984198        3118621.7355505228        1452562314.7474501     
   994195894.67700887        404648.57093107700        1461034063.6758442     
   757132345.28065622        2469064.3286110461        1476026365.1656418     
   732696632.29309106       -978614.57279446721        1470447210.3972969     
   708475456.86736226       -3711168.2680770159        1469459265.5160015     
   684468819.00347102       -5728596.7572376728        1473062530.5217550     
   660676718.70141482       -7030900.0402771831        1481257005.4145544     
   374510681.44474179       -4175613.4365116507        1496203616.5597486     
   361649039.87630945       -9692677.8000446409        1490178349.4029453     
   349367035.33934450       -13277618.725352526        1488942554.7112229     
   337664667.83384812       -14930436.212432250        1492496232.4845848     
   326541937.35981840       -14651130.261288583        1500839382.7230299     
  -10992445.791849047       -11684730.221830590        1514036505.9986730     
  -11713551.432481736       -19101240.694896873        1507991075.8346450     
  -11489920.572014235       -23368629.497629877        1506933380.7137356     
  -10321553.210447043       -24486896.630030062        1510863420.6359422     
  -8208449.3477787450       -22456042.092093572        1519781195.6012664     
   1327099465.2865975        7655515.5723326206        1440170557.5069001     
   1269784279.7156742        1007703.2096650004        1424070481.5427411     
   1213164764.1414599       -3321209.1639704108        1413964389.9534726     
   1157240918.5639608       -5331221.5485574603        1409852282.7390969     
   1102012742.9831722       -5022333.9441100359        1411734159.8996081     
   994195894.67700887        404648.57093107700        1461034063.6758442     
   952671133.74005985       -3733776.4597718120        1445103593.3374660     
   911471313.65282965       -6789065.3247481585        1434746529.7275689     
   870596434.41531968       -8761218.0239903927        1429962872.8461540     
   830046496.02752876       -9650234.5575023890        1430752622.6932213     
   660676718.70141482       -7030900.0402771831        1481257005.4145544     
   633740731.98013365       -9020432.8645036817        1465063623.3637967     
   606758956.96158004       -11162593.346305013        1454023070.3951111     
   579731393.64574778       -13457381.485702574        1448135346.5085003     
   552658042.03264403       -15904797.282670468        1447400451.7039638     
   326541937.35981840       -14651130.261288583        1500839382.7230299     
   312993074.43589669       -14852266.004523039        1483950571.6217303     
   299027694.06770551       -16441793.228657708        1471794011.9560976     
   284645796.25524455       -19419711.933689132        1464369703.7261291     
   269847380.99851692       -23786022.119611219        1461677646.9318268     
  -8208449.3477787450       -22456042.092093572        1519781195.6012664     
  -9571838.8926550448       -21229275.879845131        1501764438.1112673     
  -11722475.028787740       -22626664.971784346        1488059354.4105277     
  -14660357.756193317       -26648209.367967356        1478665944.4990461     
  -18385487.074851520       -33293909.068324391        1473584208.3768196     
   1102012742.9831722       -5022333.9441100359        1411734159.8996081     
   1073357919.2725439        5064007.1652107835        1430689448.9341974     
   1045197830.8028882        16799465.744436979        1451508305.2190170     
   1017532477.5742015        30184041.793559492        1474190728.7540658     
   990361859.58648229        45217735.312573791        1498736719.5393505     
   830046496.02752876       -9650234.5575023890        1430752622.6932213     
   805199973.55378377       -5166818.1956046820        1448411229.0429626     
   780464603.49704492       -312893.77702113986        1468428713.2664087     
   755840385.85731184        4911538.6982489526        1490805075.3635533     
   731327320.63458490        10506479.230206549        1515540315.3343995     
   552658042.03264403       -15904797.282670468        1447400451.7039638     
   533034994.00569677       -16599753.705219895        1463314862.0742328     
   513139515.57179159       -18202811.484299451        1482083460.9416749     
   492971606.73092747       -20713970.619906813        1503706248.3062885     
   472531267.48310453       -24133231.112043947        1528183224.1680696     
   269847380.99851692       -23786022.119611219        1461677646.9318268     
   256862980.62828264       -29234799.363639072        1475400348.0280027     
   243222567.02712750       -36870287.377402455        1492472548.2448175     
   228926140.19504955       -46692486.160908937        1512894247.5822709     
   213973700.13204497       -58701395.714170665        1536665446.0403702     
  -18385487.074851520       -33293909.068324391        1473584208.3768196     
  -23316066.578453921       -43071955.170841664        1484667686.9042709     
  -29286242.136946950       -56315321.456327707        1499595975.1758337     
  -36296013.750324346       -73024007.924761280        1518369073.1915076     
  -44345381.418590084       -93198014.576156706        1540986980.9512925     
   990361859.58648229        45217735.312573791        1498736719.5393505     
   930169490.64014149        60229343.371163934        1476885624.0156324     
   875999599.52567899        95315877.536015034        1474616526.1292958     
   827852186.24308455        150477337.80709010        1491929425.8803382     
   785727250.79237068        225713724.18443969        1528824323.2687497     
   731327320.63458490        10506479.230206549        1515540315.3343995     
   711526395.83479178        21536555.438356638        1495180271.9971268     
   694265852.82633960        41034570.950977415        1487227387.7160757     
   679545691.60922670        69000525.768056393        1491681662.4912581     
   667365912.18344939        105434419.88959315        1508543096.3226445     
   472531267.48310453       -24133231.112043947        1528183224.1680696     
   472622248.02656502       -23234548.395300418        1505251787.6366165     
   471771514.32082176       -25474913.175904185        1487552671.5802302     
   469979066.36588401       -30854325.453822851        1475085875.9989097     
   467244904.16174233       -39372785.229082435        1467851400.8926620     
   213973700.13204497       -58701395.714170665        1536665446.0403702     
   213457047.21545592       -74083968.129828840        1507100170.9341073     
   208516584.00912464       -104212574.84463106        1475592377.7217510     
   199152310.51305819       -149087215.85855031        1442142066.4033158     
   185364226.72725397       -208707891.17159241        1406749236.9787776     
  -44345381.418590084       -93198014.576156706        1540986980.9512925     
  -65969206.598534912       -131011703.76522514        1500725421.8895900     
  -95498938.108760446       -195178414.05522931        1451346506.1406450     
  -132934575.94925129       -285698145.44611496        1392850233.7044518     
  -178276120.12002403       -402570897.93794596        1325236604.5810149     
  -317599.59698483633       -95279.879095450902        656430578.94650531     
  -436505.04765100603       -51432.924832836216        770951330.01409948     
  -536392.69559437095        55806.705172547867        885625366.05340385     
  -617262.54081483104        226439.01092073141        1000452687.0644194     
  -679114.58331237757        460463.99241213338        1115433293.0471458     
  -448613986.11576742       -134584195.83473021        657930383.40184879     
  -447972474.74534225       -125518761.42461888        774161230.35947168     
  -446589420.90028161       -113981518.76572233        888741823.56410432     
  -444464824.58058536       -99972467.858040929        1001672163.0157471     
  -441598685.78625357       -83491608.701574117        1112952248.7143993     
  -890715500.94715798       -267214650.28414738        662390816.05864882     
  -894466540.54050159       -250673518.75364536        781174704.35686564     
  -896753512.98729682       -229252163.40131575        896504800.17739141     
  -897576418.28754413       -202950584.22715896        1008381103.5202258     
  -896935256.44124269       -171768781.23117459        1116803614.3853688     
  -1326622144.0911565       -397986643.22734696        669811876.91690540     
  -1339918702.4331288       -375515704.91191214        791991752.00628102     
  -1351028668.9566405       -345756127.20160776        908914295.89326429     
  -1359952043.6616912       -308707910.09643358        1020579508.5778552     
  -1366688826.5482807       -264371053.59638947        1126987390.0600538     
  -1756333915.5477629       -526900174.66432887        680193565.97661865     
  -1784328960.4232242       -500045319.89941937        806612373.30771780     
  -1809414888.8083119       -463493410.16659796        925970310.71172357     
  -1831591700.7030265       -417244445.46586484        1038267378.1886358     
  -1850859396.1073666       -361298425.79721916        1143503575.7384548     
  -679114.58331237757        460463.99241213338        1115433293.0471458     
  -698879.20289603039        668174.91037681489        1188453625.1383722     
  -763336.54194803350        726910.09677989536        1258366295.8944163     
  -872486.60047064407        636669.55161441374        1325171305.3152781     
  -1026329.3784624198        397453.27488539554        1388868653.4009585     
  -441598685.78625357       -83491608.701574117        1112952248.7143993     
  -443566450.45634419       -68651481.531227872        1181064775.9540999     
  -446401402.18137449       -56701977.877346709        1247409791.5088122     
  -450103540.96134377       -47643097.739928767        1311987295.3785355     
  -454672866.79625213       -41474841.118974924        1374797287.5632706     
  -896935256.44124269       -171768781.23117459        1116803614.3853688     
  -897022022.16128933       -141147538.10828316        1179048760.0488293     
  -898798469.27174473       -116158566.28675523        1240866543.6774945     
  -902264597.77260935       -96801865.766590774        1302256965.2713645     
  -907420407.66388237       -83077436.547788441        1363220024.8304381     
  -1366688826.5482807       -264371053.59638947        1126987390.0600538     
  -1361065594.3177307       -216819994.82078731        1182405577.4225595     
  -1357954537.8130593       -177642855.13144749        1238736552.4004633     
  -1357355657.0342665       -146839634.52836967        1295980314.9937656     
  -1359268951.9813528       -124410333.01155394        1354136865.2024641     
  -1850859396.1073666       -361298425.79721916        1143503575.7384548     
  -1835697166.9256678       -295668851.66873890        1191135228.0752914     
  -1823869607.8053181       -241154844.41142333        1241019817.6777186     
  -1815376718.7463167       -197756404.02526683        1293157344.5457373     
  -1810218499.7486627       -165473530.51027125        1347547808.6793470     
  -1026329.3784624198        397453.27488539554        1388868653.4009585     
  -1829746.9332691943        199917.92338287004        1409500542.1501095     
  -2432502.5213967273        671255.79414482950        1433051061.1608837     
  -2834596.1428431114        1811466.8871767642        1459520210.4332800     
  -3036027.7976109348        3620551.2024712623        1488907989.9672997     
  -454672866.79625213       -41474841.118974924        1374797287.5632706     
  -445792847.78605574       -32893886.663875923        1395535716.0048001     
  -437115161.90952706       -24987375.987669766        1418778506.2024157     
  -428639809.16666466       -17755309.090350553        1444525658.1561186     
  -420366789.55746955       -11197685.971923545        1472777171.8659089     
  -907420407.66388237       -83077436.547788441        1363220024.8304381     
  -890040576.39021480       -66073079.576547205        1383594832.0139410     
  -873266073.35056174       -51086483.385353982        1406059732.4479949     
  -857096898.54492247       -38117647.974207103        1430614726.1325984     
  -841533051.97329855       -27166573.343111992        1457259813.0677538     
  -1359268951.9813528       -124410333.01155394        1354136865.2024641     
  -1334572932.7457457       -99337660.814627886        1373677890.1775353     
  -1310885236.8445001       -77626066.398908019        1394894739.8976214     
  -1288205864.2776172       -59275549.764395595        1417787414.3627203     
  -1266534815.0450959       -44286110.911090553        1442355913.5728347     
  -1810218499.7486627       -165473530.51027125        1347547808.6793470     
  -1779389916.8526499       -132687630.37812448        1365784890.4955814     
  -1749972652.3913445       -104606125.02833778        1385283528.5512936     
  -1721966706.3647482       -81229014.460914493        1406043722.8464832     
  -1695372078.7728634       -62556298.675859153        1428065473.3811522     
  -3036027.7976109348        3620551.2024712623        1488907989.9672997     
  -3689116.8783325283        4247615.5725225955        1491356655.5481093     
  -5232882.9042788018        1905756.7918243012        1496360963.4136081     
  -7667325.8754510805       -3405025.1396263069        1503920913.5637949     
  -10992445.791849047       -11684730.221830590        1514036505.9986730     
  -420366789.55746955       -11197685.971923545        1472777171.8659089     
  -412077845.65557957       -6341755.9082210660        1473221198.7085111     
  -404711713.90081465       -4561866.3349369466        1477012178.0929744     
  -398268394.29317355       -5858017.2520640194        1484150110.0192978     
  -392747886.83265692       -10230208.659607574        1494634994.4874861     
  -841533051.97329855       -27166573.343111992        1457259813.0677538     
  -822041188.63973331       -17403511.651039630        1455661710.1032658     
  -803504272.65519190       -10823607.789048940        1458201869.9378123     
  -785922304.01967394       -7426861.7571343184        1464880292.5713935     
  -769295282.73317909       -7213273.5552979708        1475696978.0040069     
  -1266534815.0450959       -44286110.911090553        1442355913.5728347     
  -1233579145.8307912       -28937651.655927956        1438678189.7323747     
  -1201610559.1674101       -16879467.570510745        1439930038.9481213     
  -1170629055.0549514       -8111558.6548348069        1446111461.2200744     
  -1140634633.4934163       -2633924.9089050293        1457222456.5482328     
  -1695372078.7728634       -62556298.675859153        1428065473.3811522     
  -1646691717.2287560       -40944175.922889233        1422270637.5958388     
  -1599030573.4374719       -22729445.679330349        1422196685.1239040     
  -1552388647.3990085       -7912107.9451736212        1427843615.9653480     
  -1506765939.1133661        3507837.2795791626        1439211430.1201701     
  -10992445.791849047       -11684730.221830590        1514036505.9986730     
  -11713551.432481736       -19101240.694896873        1507991075.8346450     
  -11489920.572014235       -23368629.497629877        1506933380.7137356     
  -10321553.210447043       -24486896.630030062        1510863420.6359422     
  -8208449.3477787450       -22456042.092093572        1519781195.6012664     
  -392747886.83265692       -10230208.659607574        1494634994.4874861     
  -379578766.40728879       -12980514.815959349        1491059304.6624670     
  -365930371.39848477       -14133239.027524978        1492103852.6950874     
  -351802701.80624801       -13688381.294315249        1497768638.5853524     
  -337195757.63057387       -11645941.616313234        1508053662.3332558     
  -769295282.73317909       -7213273.5552979708        1475696978.0040069     
  -743285928.20031023       -5612372.9824824035        1474047989.6140525     
  -717262761.00167370       -3965430.1904407740        1476651741.8962634     
  -691225781.13726521       -2272445.1791586280        1483508234.8506410     
  -665174988.60708785       -533417.94864690304        1494617468.4771862     
  -1140634633.4934163       -2633924.9089050293        1457222456.5482328     
  -1102835036.8115492        3003184.8055240512        1456957130.6894023     
  -1065487089.3815787        7134797.0136328340        1460577048.3172605     
  -1028590791.2035033        9760911.7154250145        1468082209.4318109     
  -992146142.27732134        10881528.910904467        1479472614.0330496     
  -1506765939.1133661        3507837.2795791626        1439211430.1201701     
  -1458226092.2410026        12866158.548069537        1439786727.8885188     
  -1410603356.5382020        19167442.584686399        1443879771.9580810     
  -1363897732.0049586        22411689.389445722        1451490562.3288605     
  -1318109218.6412754        22598898.962336242        1462619099.0008554     
  -8208449.3477787450       -22456042.092093572        1519781195.6012664     
  -9571838.8926550448       -21229275.879845131        1501764438.1112673     
  -11722475.028787740       -22626664.971784346        1488059354.4105277     
  -14660357.756193317       -26648209.367967356        1478665944.4990461     
  -18385487.074851520       -33293909.068324391        1473584208.3768196     
  -337195757.63057387       -11645941.616313234        1508053662.3332558     
  -326657388.54906976       -10760469.778253824        1489980697.0260711     
  -316556356.89386481       -11332789.361192137        1476830017.1131930     
  -306892662.66496414       -13362900.365146041        1468601622.5946257     
  -297666305.86236483       -16850802.790101424        1465295513.4703710     
  -665174988.60708785       -533417.94864690304        1494617468.4771862     
  -640990256.31333888        534140.89098364115        1476896522.7119298     
  -616892952.28093076        1310272.1928133965        1464708473.9460363     
  -592883076.50986540        1794975.9568328261        1458053322.1795068     
  -568960629.00014031        1988252.1830512285        1456931067.4123368     
  -992146142.27732134        10881528.910904467        1479472614.0330496     
  -952570442.18546414        12654556.127866328        1462511915.1688480     
  -912732261.18998957        15302519.690221012        1451694724.9090600     
  -872631599.29089546        18825419.597971380        1447021043.2536864     
  -832268456.48818398        23223255.851115882        1448490870.2027268     
  -1318109218.6412754        22598898.962336242        1462619099.0008554     
  -1261397946.1654470        25600775.932385087        1446826874.3968253     
  -1204074283.6210427        30643953.131022096        1437788770.0022621     
  -1146138231.0080526        37728430.558275580        1435504785.8171651     
  -1087589788.3264885        46854208.214112341        1439974921.8415351     
  -18385487.074851520       -33293909.068324391        1473584208.3768196     
  -23316066.578453921       -43071955.170841664        1484667686.9042709     
  -29286242.136946950       -56315321.456327707        1499595975.1758337     
  -36296013.750324346       -73024007.924761280        1518369073.1915076     
  -44345381.418590084       -93198014.576156706        1540986980.9512925     
  -297666305.86236483       -16850802.790101424        1465295513.4703710     
  -291861666.38908195       -22962620.655276418        1478069657.5301805     
  -286672920.41790760       -31127416.860816404        1494410799.9271774     
  -282100067.94884199       -41345191.406716689        1514318940.6613557     
  -278143108.98188108       -53615944.292968743        1537794079.7327192     
  -568960629.00014031        1988252.1830512285        1456931067.4123368     
  -553214517.42691243       -695461.50786858797        1471890196.6494207     
  -537660596.80301273       -4019811.6965489089        1490138512.8167591     
  -522298867.12843949       -7984798.3829828501        1511676015.9143510     
  -507129328.40319568       -12590421.567181170        1536502705.9421999     
  -832268456.48818398        23223255.851115882        1448490870.2027268     
  -807374619.69194806        23729522.271379352        1466129304.2619934     
  -782249271.29225981        25007494.036482930        1486779113.8445842     
  -756892411.28912032        27057171.146422774        1510440298.9505000     
  -731304039.68253243        29878553.601193070        1537112859.5797391     
  -1087589788.3264885        46854208.214112341        1439974921.8415351     
  -1054341973.1841885        50312330.682460904        1460786980.3678927     
  -1020438943.8856525        55954500.338264406        1484332603.0106463     
  -985880700.43088841        63780717.181497216        1510611789.7697952     
  -950667242.81989074        73790981.212170839        1539624540.6453426     
  -44345381.418590084       -93198014.576156706        1540986980.9512925     
  -65969206.598534912       -131011703.76522514        1500725421.8895900     
  -95498938.108760446       -195178414.05522931        1451346506.1406450     
  -132934575.94925129       -285698145.44611496        1392850233.7044518     
  -178276120.12002403       -402570897.93794596        1325236604.5810149     
  -278143108.98188108       -53615944.292968743        1537794079.7327192     
  -309780848.28921157       -82948438.224667072        1496796165.3141766     
  -345011484.13608479       -124257253.95484231        1455255397.8101094     
  -383835016.52248985       -177542391.48345870        1413171777.2205291     
  -426251445.44843793       -242803850.81055036        1370545303.5454187     
  -507129328.40319568       -12590421.567181170        1536502705.9421999     
  -524282400.11870944       -26092145.725770414        1499800280.9226823     
  -540715358.58302021       -37193492.380347848        1471129506.4193647     
  -556428203.79613173       -45894461.530929834        1450490382.4322474     
  -571420935.75804412       -52195053.177512482        1437882908.9613349     
  -731304039.68253243        29878553.601193070        1537112859.5797391     
  -709473862.08701968        39557173.731493384        1509737768.7151053     
  -682610561.44956684        66012870.668254524        1498968831.9683988     
  -650714137.77017534        109245644.41148171        1504806049.3396130     
  -613784591.04884696        169255494.96116644        1527249420.8287468     
  -950667242.81989074        73790981.212170839        1539624540.6453426     
  -865355234.19414449        113999520.14711285        1526608628.6914568     
  -770697092.73571575        185361835.19099706        1538773374.4572117     
  -666692818.44461882        287877926.34377855        1576118777.9426231     
  -553342411.32084179        421547793.60548776        1638644839.1476696     
  -1756333915.5477629       -526900174.66432887        680193565.97661865     
  -1784328960.4232242       -500045319.89941937        806612373.30771780     
  -1809414888.8083119       -463493410.16659796        925970310.71172357     
  -1831591700.7030265       -417244445.46586484        1038267378.1886358     
  -1850859396.1073666       -361298425.79721916        1143503575.7384548     
  -2202034751.1093020       -660610425.33279061        696626145.79024410     
  -2238542177.0641031       -613875984.52016687        814058490.35443687     
  -2273019847.9955897       -560375693.62983012        927416122.61983573     
  -2305467763.9037633       -500109552.66178107        1036699042.5864403     
  -2335885924.7886214       -433077561.61601800        1141907250.2542508     
  -2685908586.5680995       -805772575.97042978        722199878.91023755     
  -2722396514.6642418       -736598985.42869234        829619838.99595451     
  -2757734049.2041302       -663590749.69944119        935951244.41117668     
  -2791921190.1877642       -586747868.78267634        1041194095.1559037     
  -2824957937.6151443       -506070342.67839754        1145348391.2301354     
  -3207955421.9241538       -962386626.57724619        756914765.33659911     
  -3235891973.2236409       -868214322.62499583        853296419.23227060     
  -3263557492.4339318       -773138578.37543035        951575676.08574581     
  -3290951979.5550299       -677159393.82855105        1051752535.8970257     
  -3318075434.5869336       -580276768.98435664        1153826998.6661098     
  -3768175257.1774669       -1130452577.1532400        800770805.06932867     
  -3779028552.7422986       -1008721996.1090771        885088231.06338441     
  -3790490177.6849966       -889019179.65779853        974289417.64354384     
  -3802560132.0055609       -771344127.79940534        1068374364.8098068     
  -3815238415.7039876       -655696840.53389561        1167343072.5621731     
  -1850859396.1073666       -361298425.79721916        1143503575.7384548     
  -1835697166.9256678       -295668851.66873890        1191135228.0752914     
  -1823869607.8053181       -241154844.41142333        1241019817.6777186     
  -1815376718.7463167       -197756404.02526683        1293157344.5457373     
  -1810218499.7486627       -165473530.51027125        1347547808.6793470     
  -2335885924.7886214       -433077561.61601800        1141907250.2542508     
  -2312558404.5289931       -352103119.12011671        1183271789.3218675     
  -2292698828.0134740       -282688489.10458314        1225123260.7913575     
  -2276307195.2420645       -224833671.56941545        1267461664.6627212     
  -2263383506.2147675       -178538666.51461697        1310287000.9359579     
  -2824957937.6151443       -506070342.67839754        1145348391.2301354     
  -2798510854.4596348       -411264750.26968890        1180290331.0653105     
  -2775664988.7309985       -328463215.95055461        1213953198.4386415     
  -2756420340.4292326       -257665739.72099125        1246336993.3501277     
  -2740776909.5543399       -198872321.58100331        1277441715.7997704     
  -3318075434.5869336       -580276768.98435664        1153826998.6661098     
  -3293554516.7175937       -473153745.11745667        1182190853.3056209     
  -3272768089.9578896       -378479024.94933522        1207509630.6195705     
  -3255716154.3078184       -296252608.47999358        1229783330.6079576     
  -3242398709.7673798       -226474495.70942807        1249011953.2707832     
  -3815238415.7039876       -655696840.53389561        1167343072.5621731     
  -3797689391.3028708       -537770103.66341913        1188973356.0427985     
  -3784008131.6941485       -432735916.10092676        1205792557.3341441     
  -3774194636.8778219       -340594277.84641802        1217800676.4362113     
  -3768248906.8538895       -261345188.89989686        1224997713.3489976     
  -1810218499.7486627       -165473530.51027125        1347547808.6793470     
  -1779389916.8526499       -132687630.37812448        1365784890.4955814     
  -1749972652.3913445       -104606125.02833778        1385283528.5512936     
  -1721966706.3647482       -81229014.460914493        1406043722.8464832     
  -1695372078.7728634       -62556298.675859153        1428065473.3811522     
  -2263383506.2147675       -178538666.51461697        1310287000.9359579     
  -2222820434.4623070       -133720447.28355896        1318580821.2754903     
  -2185230254.5534005       -98811867.531012654        1330324464.7038329     
  -2150612966.4880500       -73812927.256981850        1345517931.2209845     
  -2118968570.2662511       -58723626.461463332        1364161220.8269451     
  -2740776909.5543399       -198872321.58100331        1277441715.7997704     
  -2684227157.9473438       -140146125.95160949        1273970439.0189493     
  -2632211871.5927467       -96534814.496878028        1276137252.1762688     
  -2584731050.4905491       -68038387.216808319        1283942155.2717288     
  -2541784694.6407499       -54656844.111402035        1297385148.3053291     
  -3242398709.7673798       -226474495.70942807        1249011953.2707832     
  -3163610087.3077607       -151964666.38227451        1231953743.7259564     
  -3090917503.5093837       -97774965.925930500        1222721890.9686007     
  -3024320958.3722496       -63905394.340396881        1221316394.9987187     
  -2963820451.8963575       -50355951.625672936        1227737255.8163075     
  -3768248906.8538895       -261345188.89989686        1224997713.3489976     
  -3660969222.5435529       -169176068.57554960        1192530735.3965123     
  -3561347150.3033075       -102532321.81816745        1170078381.0808315     
  -3469382690.1331477       -61413948.627740383        1157640650.4019516     
  -3385075842.0330763       -45820949.004277825        1155217543.3598781     
  -1695372078.7728634       -62556298.675859153        1428065473.3811522     
  -1646691717.2287560       -40944175.922889233        1422270637.5958388     
  -1599030573.4374719       -22729445.679330349        1422196685.1239040     
  -1552388647.3990085       -7912107.9451736212        1427843615.9653480     
  -1506765939.1133661        3507837.2795791626        1439211430.1201701     
  -2118968570.2662511       -58723626.461463332        1364161220.8269451     
  -2056991770.7206869       -40226264.835032105        1357342583.5060742     
  -1995794822.2983057       -24328406.952540755        1355749883.1329153     
  -1935377724.9991081       -11030052.813997746        1359383119.7074699     
  -1875740478.8230913       -331202.41938722134        1368242293.2297354     
  -2541784694.6407499       -54656844.111402035        1297385148.3053291     
  -2467925589.5670605       -39698483.353507400        1289821970.5168140     
  -2394606968.9869146       -26541737.574087143        1286989783.3103435     
  -2321828832.9003134       -15186606.773151159        1288888586.6859202     
  -2249591181.3072557       -5633090.9506896734        1295518380.6435432     
  -2963820451.8963575       -50355951.625672936        1227737255.8163075     
  -2879493173.7678757       -39360831.478312612        1219708798.6280589     
  -2795467013.5032969       -29369437.543965578        1215916385.6561902     
  -2711741971.1026235       -20381769.822634459        1216360016.9007022     
  -2628318046.5658555       -12397828.314320326        1221039692.3615911     
  -3385075842.0330763       -45820949.004277825        1155217543.3598781     
  -3291694523.3231320       -39213309.209453940        1147003067.8398077     
  -3198374955.8474550       -32811506.862178326        1142529690.1704519     
  -3105117139.6060419       -26615541.962456703        1141797410.3518107     
  -3011921074.5988917       -20625414.510282278        1144806228.3838828     
  -1506765939.1133661        3507837.2795791626        1439211430.1201701     
  -1458226092.2410026        12866158.548069537        1439786727.8885188     
  -1410603356.5382020        19167442.584686399        1443879771.9580810     
  -1363897732.0049586        22411689.389445722        1451490562.3288605     
  -1318109218.6412754        22598898.962336242        1462619099.0008554     
  -1875740478.8230913       -331202.41938722134        1368242293.2297354     
  -1818030705.5676117        7293756.9647604227        1366280152.3708589     
  -1761186564.1346459        12033276.940537333        1368254061.3249340     
  -1705208054.5241895        13887357.507949829        1374164020.0919604     
  -1650095176.7362382        12855998.667003989        1384010028.6719401     
  -2249591181.3072557       -5633090.9506896734        1295518380.6435432     
  -2181516328.7779875        617052.41631317139        1291078860.3956668     
  -2114255628.7241793        4153354.1984529495        1290993693.4724786     
  -2047809081.1458285        4975814.3957329988        1295262879.8739798     
  -1982176686.0429378        3084433.0081508160        1303886419.6001697     
  -2628318046.5658555       -12397828.314320326        1221039692.3615911     
  -2548682961.8721194       -7163955.0972520113        1214182851.9629412     
  -2469810550.3067956       -4472325.6415536404        1212098668.4007173     
  -2391700811.8698797       -4322939.9472129345        1214787141.6749170     
  -2314353746.5613694       -6715798.0142254829        1222248271.7855430     
  -3011921074.5988917       -20625414.510282278        1144806228.3838828     
  -2919530604.8500171       -16049265.575955033        1135592127.0726833     
  -2827851328.8824983       -13843762.579485416        1131568986.1096485     
  -2736883246.6963367       -14008905.520870566        1132736805.4947724     
  -2646626358.2915316       -16544694.400114059        1139095585.2280607     
  -1318109218.6412754        22598898.962336242        1462619099.0008554     
  -1261397946.1654470        25600775.932385087        1446826874.3968253     
  -1204074283.6210427        30643953.131022096        1437788770.0022621     
  -1146138231.0080526        37728430.558275580        1435504785.8171651     
  -1087589788.3264885        46854208.214112341        1439974921.8415351     
  -1650095176.7362382        12855998.667003989        1384010028.6719401     
  -1576431951.8079617        16833116.298621476        1368485786.7494376     
  -1502270102.3118145        22472315.823139429        1359022332.5051451     
  -1427609628.2477968        29773597.240557075        1355619665.9390619     
  -1352450529.6159046        38736960.550895751        1358277787.0511904     
  -1982176686.0429378        3084433.0081508160        1303886419.6001697     
  -1893542458.7515161        7442506.2745460272        1288497433.9417028     
  -1804523372.3929338        13083443.098146081        1278475903.4301877     
  -1715119426.9671862        20007243.478965044        1273821828.0656259     
  -1625330622.4742765        28213907.416990757        1274535207.8480151     
  -2314353746.5613694       -6715798.0142254829        1222248271.7855430     
  -2212729466.9961100       -2571054.1398431063        1206861815.9736190     
  -2110834093.8643990        2477334.9560502768        1196149482.7773898     
  -2008667627.1662288        8429369.2734702826        1190111272.1968553     
  -1906230066.9016073        15285048.812398791        1188747184.2320185     
  -2646626358.2915316       -16544694.400114059        1139095585.2280607     
  -2533992976.5417423       -13207564.944540381        1123578932.8451869     
  -2421202266.7262077       -9346008.6031465530        1112043070.5467494     
  -2308254228.8449259       -4960025.3759241104        1104487998.3327515     
  -2195148862.8978930       -49615.262876152992        1100913716.2031908     
  -1087589788.3264885        46854208.214112341        1439974921.8415351     
  -1054341973.1841885        50312330.682460904        1460786980.3678927     
  -1020438943.8856525        55954500.338264406        1484332603.0106463     
  -985880700.43088841        63780717.181497216        1510611789.7697952     
  -950667242.81989074        73790981.212170839        1539624540.6453426     
  -1352450529.6159046        38736960.550895751        1358277787.0511904     
  -1312677769.6174080        37990652.414493978        1376984123.1773665     
  -1272806119.8066022        37573976.985801280        1398946336.7545485     
  -1232835580.1834774        37486934.264831841        1424164427.7827325     
  -1192766150.7480359        37729524.251584351        1452638396.2619226     
  -1625330622.4742765        28213907.416990757        1274535207.8480151     
  -1577540593.8064280        23710865.819769561        1290486776.5061128     
  -1530207999.6701777        17683042.450553834        1310216535.9498219     
  -1483332840.0655296        10130437.309330702        1333724486.1791425     
  -1436915114.9924836        1053050.3961053491        1361010627.1940746     
  -1906230066.9016073        15285048.812398791        1188747184.2320185     
  -1848930445.7512355        7472970.8983225822        1201294940.3541322     
  -1792644583.4763837       -3718303.2674812078        1218143200.5964658     
  -1737372480.0770457       -18288773.685004473        1239291964.9590156     
  -1683114135.5532293       -36238440.354255438        1264741233.4417880     
  -2195148862.8978930       -49615.262876152992        1100913716.2031908     
  -2126847325.4518425       -10723032.349877834        1109408614.7214210     
  -2060115871.2252192       -26630060.168305039        1122726330.6944783     
  -1994954500.2180357       -47770698.718198419        1140866864.1223609     
  -1931363212.4302788       -74144947.999517441        1163830215.0050671     
  -950667242.81989074        73790981.212170839        1539624540.6453426     
  -865355234.19414449        113999520.14711285        1526608628.6914568     
  -770697092.73571575        185361835.19099706        1538773374.4572117     
  -666692818.44461882        287877926.34377855        1576118777.9426231     
  -553342411.32084179        421547793.60548776        1638644839.1476696     
  -1192766150.7480359        37729524.251584351        1452638396.2619226     
  -1055577851.0258038        74877837.085758269        1442412539.9298606     
  -913365323.47101212        128773576.02846396        1447617071.2063947     
  -766128568.08366919        199416741.07967353        1468251990.0915277     
  -613867584.86376452        286807332.23941755        1504317296.5852542     
  -1436915114.9924836        1053050.3961053491        1361010627.1940746     
  -1275708438.7767568        26783762.748622298        1348532603.9836917     
  -1113799439.7285955        54855551.209257662        1341734698.2708619     
  -951188117.84800398        85268415.778003156        1340616910.0555801     
  -787874473.13496923        118022356.45486951        1345179239.3378415     
  -1683114135.5532293       -36238440.354255438        1264741233.4417880     
  -1525746997.4470077       -30282702.864303052        1244968820.8529480     
  -1371999441.5084722       -36392239.266639769        1221126255.6506083     
  -1221871467.7376230       -54567049.561255813        1193213537.8347671     
  -1075363076.1344597       -84807133.748167753        1161230667.4054275     
  -1931363212.4302788       -74144947.999517441        1163830215.0050671     
  -1805693527.0365543       -96321559.753017008        1131721190.5376263     
  -1687965328.8106391       -144969795.39922011        1085791743.3456366     
  -1578178617.7525344       -220089654.93811148        1026041873.4291000     
  -1476333393.8622313       -321681138.36968923        952471580.78801513     
  -3768175257.1774669       -1130452577.1532400        800770805.06932867     
  -3779028552.7422986       -1008721996.1090771        885088231.06338441     
  -3790490177.6849966       -889019179.65779853        974289417.64354384     
  -3802560132.0055609       -771344127.79940534        1068374364.8098068     
  -3815238415.7039876       -655696840.53389561        1167343072.5621731     
  -4339497747.2138557       -1301849324.1641567        858927009.39205801     
  -4335050894.0398760       -1125730658.6981583        942542689.55492997     
  -4331737085.0599709       -953388807.21240759        1020492857.9103614     
  -4329556320.2741394       -784823769.70690417        1092777514.4583514     
  -4328508599.6823826       -620035546.18164873        1159396659.1989012     
  -4894852546.9191418       -1468455764.0757425        936542389.58841896     
  -4905246323.2736197       -1246991247.6680894        1018844156.6345299     
  -4917297858.6383801       -1031052594.6280466        1084931139.4796557     
  -4931007153.0134230       -820639804.95561445        1134803338.1237965     
  -4946374206.3987503       -615752878.65079391        1168460752.5669522     
  -5434239656.2933235       -1630271896.8879969        1033616945.6584114     
  -5489614840.4435263       -1372503763.0188694        1113992632.3021843     
  -5547172498.4202223       -1122010541.9047160        1167604262.3514280     
  -5606912630.2234097       -878792233.54553628        1194451835.8061419     
  -5668835235.8530912       -642848837.94133091        1194535352.6663270     
  -5957659075.3364000       -1787297722.6009200        1150150677.6020355     
  -6088156445.5495996       -1502268204.7504997        1227988116.5578933     
  -6221361004.4055004       -1226262649.0424159        1268512226.5256777     
  -6357272751.9041033       -959281055.47666907        1271723007.5053880     
  -6495891688.0454054       -701323424.05325961        1237620459.4970248     
  -3815238415.7039876       -655696840.53389561        1167343072.5621731     
  -3797689391.3028708       -537770103.66341913        1188973356.0427985     
  -3784008131.6941485       -432735916.10092676        1205792557.3341441     
  -3774194636.8778219       -340594277.84641802        1217800676.4362113     
  -3768248906.8538895       -261345188.89989686        1224997713.3489976     
  -4328508599.6823826       -620035546.18164873        1159396659.1989012     
  -4297908545.0631723       -464234028.22534788        1141417523.2724509     
  -4277946263.2458410       -343891752.94196486        1129548389.4524667     
  -4268621754.2303843       -259008720.33149934        1123789257.7389498     
  -4269935018.0168018       -209584930.39395237        1124140128.1318986     
  -4946374206.3987503       -615752878.65079391        1168460752.5669522     
  -4871520023.5736065       -412715650.21231627        1102973854.5557001     
  -4814073621.5598154       -267704357.81168771        1054518042.9466599     
  -4774035000.3573837       -180719001.44891119        1023093317.7398331     
  -4751404159.9663048       -151759581.12398386        1008699678.9352180     
  -5668835235.8530912       -642848837.94133091        1194535352.6663270     
  -5518523826.8341637       -383214969.62432218        1073642349.8925463     
  -5392390206.6360750       -204173730.71009636        980701517.81672359     
  -5290434375.2588196       -105725121.19865465        915712856.43885958     
  -5212656332.7023964       -87869141.089992046        878676365.75895417     
  -6495891688.0454054       -701323424.05325961        1237620459.4970248     
  -6238919954.8448524       -375731986.46136665        1053423009.2829888     
  -6012896018.4746151       -153299871.63718820        908098814.06265736     
  -5817819878.9346914       -34027079.580728054        801647873.83603072     
  -5653691536.2250814       -17913610.291980028        734070188.60310864     
  -3768248906.8538895       -261345188.89989686        1224997713.3489976     
  -3660969222.5435529       -169176068.57554960        1192530735.3965123     
  -3561347150.3033075       -102532321.81816745        1170078381.0808315     
  -3469382690.1331477       -61413948.627740383        1157640650.4019516     
  -3385075842.0330763       -45820949.004277825        1155217543.3598781     
  -4269935018.0168018       -209584930.39395237        1124140128.1318986     
  -4147678350.9395676       -145845508.11373401        1090761564.1161206     
  -4029787436.4998584       -96658594.625269175        1065449831.9867221     
  -3916262274.6976752       -62024189.928556204        1048204931.7437032     
  -3807102865.5330176       -41942294.023600340        1039026863.3870635     
  -4751404159.9663048       -151759581.12398386        1008699678.9352180     
  -4619735629.4090919       -118119392.67396736        978250031.52746868     
  -4489140992.0568485       -88058848.240501881        953919424.25567472     
  -4359620247.9095650       -61577947.823580503        935707857.11983776     
  -4231173396.9672484       -38676691.423209190        923615330.11995578     
  -5212656332.7023964       -87869141.089992046        878676365.75895417     
  -5077141057.9521360       -85997722.256259441        854996137.63055539     
  -4939407816.9742785       -76733082.663866282        835487157.88768864     
  -4799456609.7688198       -60075222.312814951        820149426.53035486     
  -4657287436.3357677       -36024141.203105688        808982943.55855227     
  -5653691536.2250814       -17913610.291980028        734070188.60310864     
  -5519894636.5686941       -49480496.860603333        720999882.42538261     
  -5380587911.2521467       -62681297.895362854        710153032.88276517     
  -5235771360.2754412       -57516013.396258354        701529639.97525668     
  -5085444983.6385756       -33984643.363288164        695129703.70285690     
  -3385075842.0330763       -45820949.004277825        1155217543.3598781     
  -3291694523.3231320       -39213309.209453940        1147003067.8398077     
  -3198374955.8474550       -32811506.862178326        1142529690.1704519     
  -3105117139.6060419       -26615541.962456703        1141797410.3518107     
  -3011921074.5988917       -20625414.510282278        1144806228.3838828     
  -3807102865.5330176       -41942294.023600340        1039026863.3870635     
  -3701905941.7006807       -30909992.578319788        1029877251.9426972     
  -3597526242.5011373       -22601773.242341995        1025054393.8993515     
  -3493963767.9343843       -17017636.015668631        1024558289.2570269     
  -3391218518.0004196       -14157580.898291111        1028388938.0157231     
  -4231173396.9672484       -38676691.423209190        923615330.11995578     
  -4112487566.4402137       -22717737.855780125        912649197.11967897     
  -3995374433.9444966       -12001111.059408426        906595473.07073045     
  -3879833999.4800959       -6526811.0340888500        905454157.97310901     
  -3765866263.0470085       -6294837.7798237801        909225251.82681572     
  -4657287436.3357677       -36024141.203105688        808982943.55855227     
  -4523439397.5417318       -14636545.041837215        795318903.37075329     
  -4391919530.1775351       -1009520.3133771420        787152927.68458784     
  -4262727834.2431808        4856932.9822783470        784485016.50005782     
  -4135864309.7386723        2962814.8451225758        787315169.81716323     
  -5085444983.6385756       -33984643.363288164        695129703.70285690     
  -4934761435.0052290       -6666414.1364898682        677886370.69591868     
  -4787161531.2002506        10372998.995747566        666726757.74092674     
  -4642645272.2236376        17133596.033430338        661650864.83787274     
  -4501212658.0753937        13615376.976554394        662658691.98676288     
  -3011921074.5988917       -20625414.510282278        1144806228.3838828     
  -2919530604.8500171       -16049265.575955033        1135592127.0726833     
  -2827851328.8824983       -13843762.579485416        1131568986.1096485     
  -2736883246.6963367       -14008905.520870566        1132736805.4947724     
  -2646626358.2915316       -16544694.400114059        1139095585.2280607     
  -3391218518.0004196       -14157580.898291111        1028388938.0157231     
  -3286639275.7333145       -12549892.739927530        1020010332.1460046     
  -3182431313.0041494       -12179803.041369319        1016501774.1981392     
  -3078594629.8129277       -13047311.802629828        1017863264.1721264     
  -2975129226.1596546       -15152419.023705244        1024094802.0679673     
  -3765866263.0470085       -6294837.7798237801        909225251.82681572     
  -3650015140.9082718       -7930678.1914007664        902078708.01589310     
  -3534195384.0640593       -9671069.5847396851        899481299.70051455     
  -3418406992.5143809       -11516011.959854364        901433026.88068044     
  -3302649966.2592330       -13465505.316732883        907933889.55638957     
  -4135864309.7386723        2962814.8451225758        787315169.81716323     
  -4009658200.3748922       -2191621.9303696156        781797254.68235195     
  -3883143542.0622296       -6317562.2095856667        780507562.61677480     
  -3756320334.8006830       -9415005.9925251007        783446093.62043548     
  -3629188578.5902605       -11483953.279195547        790612847.69332898     
  -4501212658.0753937        13615376.976554394        662658691.98676288     
  -4365568454.1331730        4667276.0431606770        659165972.14537871     
  -4229275786.9986601       -2119280.9159095287        659580562.94691968     
  -4092334656.6718488       -6744293.9006640911        663902464.39139009     
  -3954745063.1527395       -9207762.9110901356        672131676.47878420     
  -2646626358.2915316       -16544694.400114059        1139095585.2280607     
  -2533992976.5417423       -13207564.944540381        1123578932.8451869     
  -2421202266.7262077       -9346008.6031465530        1112043070.5467494     
  -2308254228.8449259       -4960025.3759241104        1104487998.3327515     
  -2195148862.8978930       -49615.262876152992        1100913716.2031908     
  -2975129226.1596546       -15152419.023705244        1024094802.0679673     
  -2851497284.5524006       -11386625.511992693        1009361343.3656029     
  -2727612125.3764806       -6776773.4380598068        999008602.76389349     
  -2603473748.6318936       -1322862.8019124269        993036580.26284158     
  -2479082154.3186479        4975106.3964536190        991445275.86244845     
  -3302649966.2592330       -13465505.316732883        907933889.55638957     
  -3166876813.3195968       -8928252.3063993454        894095495.62127006     
  -3030754553.3083839       -3227309.0574687719        885037747.80302811     
  -2894283186.2255821        3637324.4300800562        880760646.10165989     
  -2757462712.0712037        11665648.156234860        881264190.51717126     
  -3629188578.5902605       -11483953.279195547        790612847.69332898     
  -3480131562.8433366       -5832445.3277761936        777781389.61219180     
  -3330629550.5219140        1302384.5386326313        770130505.66415048     
  -3180682541.6259880        9920536.3200523853        767660195.84920669     
  -3030290536.1555681        20022010.016472459        770370460.16735697     
  -3954745063.1527395       -9207762.9110901356        672131676.47878420     
  -3791261533.1236143       -2099204.5761091709        660419025.33836675     
  -3627237117.0170689        6812307.3502566814        654286876.34726667     
  -3462671814.8331070        17526772.868022442        653735229.50547898     
  -3297565626.5717273        30044191.977178574        658764084.81300807     
  -2195148862.8978930       -49615.262876152992        1100913716.2031908     
  -2126847325.4518425       -10723032.349877834        1109408614.7214210     
  -2060115871.2252192       -26630060.168305039        1122726330.6944783     
  -1994954500.2180357       -47770698.718198419        1140866864.1223609     
  -1931363212.4302788       -74144947.999517441        1163830215.0050671     
  -2479082154.3186479        4975106.3964536190        991445275.86244845     
  -2399765713.4968839       -4305037.6880687475        999282357.82930207     
  -2322057809.3001184       -18946970.522596240        1010448100.3990027     
  -2245958441.7283487       -38950692.107105255        1024942503.5715414     
  -2171467610.7815876       -64316202.441640615        1042765567.3469278     
  -2757462712.0712037        11665648.156234860        881264190.51717126     
  -2671400387.4508209        2498071.2010598183        888398593.62615454     
  -2586985052.8610048       -12159472.522670150        897367500.48600006     
  -2504216708.3017597       -32306983.014958024        908170911.09670317     
  -2423095353.7730803       -57944460.275814056        920808825.45826280     
  -3030290536.1555681        20022010.016472459        770370460.16735697     
  -2941751347.3136635        9686294.3175141811        776757322.11197436     
  -2854897601.9078908       -6267566.1685473919        783484530.95546830     
  -2769729299.9382577       -27839571.441748738        790552086.69783807     
  -2686246441.4047594       -55029721.502045631        797959989.33908737     
  -3297565626.5717273        30044191.977178574        658764084.81300807     
  -3210818593.0853958        17259631.661314964        664358543.28676641     
  -3125795456.4407692       -1271251.4602282047        668799191.80741334     
  -3042496216.6378365       -25548457.387428284        672086030.37495255     
  -2960920873.6766195       -55571986.120338440        674219058.98938751     
  -1931363212.4302788       -74144947.999517441        1163830215.0050671     
  -1805693527.0365543       -96321559.753017008        1131721190.5376263     
  -1687965328.8106391       -144969795.39922011        1085791743.3456366     
  -1578178617.7525344       -220089654.93811148        1026041873.4291000     
  -1476333393.8622313       -321681138.36968923        952471580.78801513     
  -2171467610.7815876       -64316202.441640615        1042765567.3469278     
  -2069432270.2870169       -89270671.304772139        1004959843.3841451     
  -1970965741.3386173       -126121178.65515709        963435320.78724754     
  -1876068023.9364085       -174867724.49283397        918191999.55623412     
  -1784739118.0803721       -235510308.81775755        869229879.69109559     
  -2423095353.7730803       -57944460.275814056        920808825.45826280     
  -2315832575.0621419       -77018251.313916206        882407856.89204049     
  -2207765932.2757602       -93412495.433860660        850389713.78212976     
  -2098895425.4139230       -107127192.63564205        824754396.12852979     
  -1989221054.4766474       -118162342.91926616        805501903.93124902     
  -2686246441.4047594       -55029721.502045631        797959989.33908737     
  -2544894441.3619413       -59564299.780467629        764065231.06131804     
  -2398365901.6220393       -46843745.735286355        746654922.33029628     
  -2246660822.1850710       -16868059.366546869        745729063.14601958     
  -2089779203.0510228        30362759.325795054        761287653.50848305     
  -2960920873.6766195       -55571986.120338440        674219058.98938751     
  -2756617869.1864076       -36908816.704428911        649931965.89197218     
  -2542765649.3774843        13585070.440516353        652230946.43173528     
  -2319364214.2498536        95909675.314466119        681116000.60868037     
  -2086413563.8035324        210064997.91741598        736587128.42279255     
  -5957659075.3364000       -1787297722.6009200        1150150677.6020355     
  -6088156445.5495996       -1502268204.7504997        1227988116.5578933     
  -6221361004.4055004       -1226262649.0424159        1268512226.5256777     
  -6357272751.9041033       -959281055.47666907        1271723007.5053880     
  -6495891688.0454054       -701323424.05325961        1237620459.4970248     
  -6810402585.7976074       -2043120775.7392821        1353831616.0278678     
  -6828273791.5625782       -1395501922.3695385        1202815839.1292677     
  -6897491832.2897129       -919039185.54034257        1092074440.2898433     
  -7018056707.9790115       -613732565.25169373        1021607419.5095947     
  -7189968418.6304760       -479582061.50359297        991414776.78852177     
  -8337761969.4261827       -2501328590.8278546        1712347791.5444846     
  -8021327847.7507801       -1424616653.0411448        1275732544.7520528     
  -7804880207.3570061       -681192986.19319296        956979383.06604624     
  -7688419048.2448635       -271057590.28400230        756088306.48646450     
  -7671944370.4143410       -194210465.31356621        673059315.01330864     
  -10539737226.222120       -3161921167.8666363        2225699204.1518869     
  -9667318614.1142082       -1589612396.7653189        1446738233.4262493     
  -8943526129.6073875       -512724051.00096989        863227054.85428607     
  -8368359772.7016516        68743869.426410198        475165668.43599838     
  -7941819543.3970118        154791364.51682091        282554074.17138475     
  -13416328356.185429       -4024898506.8556285        2893885853.8500738     
  -11766246090.652861       -1890489153.5420589        1715832905.1518562     
  -10313429599.040846       -413632379.96366978        810817455.65456331     
  -9057878881.3493881        405671813.87953711        178839505.35819447     
  -7999593937.5784807        567423427.98756695       -180100945.73724949     
  -6495891688.0454054       -701323424.05325961        1237620459.4970248     
  -6238919954.8448524       -375731986.46136665        1053423009.2829888     
  -6012896018.4746151       -153299871.63718820        908098814.06265736     
  -5817819878.9346914       -34027079.580728054        801647873.83603072     
  -5653691536.2250814       -17913610.291980028        734070188.60310864     
  -7189968418.6304760       -479582061.50359297        991414776.78852177     
  -6900193926.9156876       -304276392.64489388        846993319.04641485     
  -6623259872.0624352       -171772179.99131513        723612828.72151995     
  -6359166254.0707178       -82069423.542853355        621273305.81383896     
  -6107913072.9405355       -35168123.299510241        539974750.32336998     
  -7671944370.4143410       -194210465.31356621        673059315.01330864     
  -7400316513.2610092       -184475383.11076880        589539103.04003799     
  -7123421733.0004330       -157183890.55049372        509227570.90749019     
  -6841260029.6326151       -112335987.63274002        432124718.61566347     
  -6553831403.1575489       -49931674.357503891        358230546.16455847     
  -7941819543.3970118        154791364.51682091        282554074.17138475     
  -7739287713.8808250       -16328957.858993530        281060361.26386076     
  -7513381601.2886152       -109535003.31472826        264943040.62056795     
  -7264101205.6203775       -124826771.85038233        234202112.24150360     
  -6991446526.8761234       -62204263.465970039        188837576.12667140     
  -7999593937.5784807        567423427.98756695       -180100945.73724949     
  -7917107528.7751255        200162883.11044312       -78442906.282117426     
  -7793139476.9269733       -28825518.284015179       -9240762.1392445918     
  -7627689782.0340157       -119541776.19579506        27505486.691363908     
  -7420758444.0962563       -71985890.624901295        31795840.209711909     
  -5653691536.2250814       -17913610.291980028        734070188.60310864     
  -5519894636.5686941       -49480496.860603333        720999882.42538261     
  -5380587911.2521467       -62681297.895362854        710153032.88276517     
  -5235771360.2754412       -57516013.396258354        701529639.97525668     
  -5085444983.6385756       -33984643.363288164        695129703.70285690     
  -6107913072.9405355       -35168123.299510241        539974750.32336998     
  -5958835451.4778719       -36769174.525172472        533845770.98724884     
  -5808686415.2869177       -34798843.323200226        530332543.63400912     
  -5657465964.3676682       -29257129.693588495        529435068.26365286     
  -5505174098.7201290       -20144033.636331797        531153344.87617850     
  -6553831403.1575489       -49931674.357503891        358230546.16455847     
  -6388352216.0378284       -21230637.084978342        353864747.58286363     
  -6226240025.1216822       -3752920.4910364151        352506996.33182228     
  -6067494830.4091091        2501475.4243226051        354157292.41143793     
  -5912116631.9001150       -2467449.3389050961        358815635.82171404     
  -6991446526.8761234       -62204263.465970039        188837576.12667140     
  -6808444930.2485590       -2864884.5400147438        181056812.21222281     
  -6633248740.7564373        30456470.601132393        176676390.97620177     
  -6465857958.3997583        37759801.957470179        175696312.41861561     
  -6306272583.1785231        19045109.528993845        178116576.53945944     
  -7420758444.0962563       -71985890.624901295        31795840.209711909     
  -7219113594.1100712        18328083.109712601        15421964.875330565     
  -7029712562.1911898        67829329.953299522        2840727.5671553486     
  -6852555348.3396225        76517849.905845642       -5947871.7148188688     
  -6687641952.5553627        44393642.967369080       -10943832.970583117     
  -5085444983.6385756       -33984643.363288164        695129703.70285690     
  -4934761435.0052290       -6666414.1364898682        677886370.69591868     
  -4787161531.2002506        10372998.995747566        666726757.74092674     
  -4642645272.2236376        17133596.033430338        661650864.83787274     
  -4501212658.0753937        13615376.976554394        662658691.98676288     
  -5505174098.7201290       -20144033.636331797        531153344.87617850     
  -5344331777.9889355       -8343198.2521624565        515622654.22317916     
  -5184480034.9738464        155711.41166257858        505403620.63411140     
  -5025618869.6748533        5352695.3551511765        500496244.10897499     
  -4867748282.0919743        7247753.5782866478        500900524.64776939     
  -5912116631.9001150       -2467449.3389050961        358815635.82171404     
  -5743321433.3225279       -6845776.0727949142        347439499.15362531     
  -5573423745.3487854       -7549138.1528236866        340602956.56145728     
  -5402423567.9788780       -4577535.5789737701        338306008.04521298     
  -5230320901.2128143        2069031.6487438679        340548653.60488826     
  -6306272583.1785231        19045109.528993845        178116576.53945944     
  -6131730401.0060091       -2174147.5984003544        173336905.48725772     
  -5953992662.3250694       -12741549.697708368        172324765.52297199     
  -5773059367.1357079       -12657096.768940210        175080156.64658964     
  -5588930515.4379158       -1920788.8120770454        181603078.85812083     
  -6687641952.5553627        44393642.967369080       -10943832.970583117     
  -6509558681.0393801        5671687.1710274220       -6685126.7759195408     
  -6326186785.9027042       -15421523.223009109        569047.51863992785     
  -6137526267.1453381       -18885988.214745045        10818689.913102495     
  -5943577124.7672844       -4721707.8041777611        24063800.407464474     
  -4501212658.0753937        13615376.976554394        662658691.98676288     
  -4365568454.1331730        4667276.0431606770        659165972.14537871     
  -4229275786.9986601       -2119280.9159095287        659580562.94691968     
  -4092334656.6718488       -6744293.9006640911        663902464.39139009     
  -3954745063.1527395       -9207762.9110901356        672131676.47878420     
  -4867748282.0919743        7247753.5782866478        500900524.64776939     
  -4720848896.4782238        4191482.6337165833        498854293.11119062     
  -4574053417.9243965        788854.82273316383        500198929.91236830     
  -4427361846.4304876       -2960129.8546516895        504934435.05129725     
  -4280774181.9965072       -7055471.3984513283        513060808.52798027     
  -5230320901.2128143        2069031.6487438679        340548653.60488826     
  -5073641883.3708801        4461925.8599882126        339071145.07886314     
  -4917819142.8410892        4000562.3640947342        340468062.58541536     
  -4762852679.6234407        684941.16105937958        344739406.12455100     
  -4608742493.7179365       -5484937.7491126060        351885175.69626927     
  -5588930515.4379158       -1920788.8120770454        181603078.85812083     
  -5423947414.8111515        5478605.7219800949        179816528.04838547     
  -5260572961.7487516        7515841.7081613541        180387960.96606255     
  -5098807156.2507048        4190919.1464910507        183317377.61115295     
  -4938649998.3170280       -4496161.9630715847        188604777.98365018     
  -5943577124.7672844       -4721707.8041777611        24063800.407464474     
  -5771765490.7990370        7241522.2196877003        21090442.019772597     
  -5602314874.6473742        11334692.854940414        19958625.054319888     
  -5435225276.3122845        7557804.1016116142        20668349.511097863     
  -5270496695.7937794       -4089144.0403287411        23219615.390117887     
  -3954745063.1527395       -9207762.9110901356        672131676.47878420     
  -3791261533.1236143       -2099204.5761091709        660419025.33836675     
  -3627237117.0170689        6812307.3502566814        654286876.34726667     
  -3462671814.8331070        17526772.868022442        653735229.50547898     
  -3297565626.5717273        30044191.977178574        658764084.81300807     
  -4280774181.9965072       -7055471.3984513283        513060808.52798027     
  -4103755382.6509609       -998489.17561984062        501185730.69319326     
  -3925958181.7664785        7653164.8436379433        494384567.74760509     
  -3747382579.3430777        18899490.659316540        492657319.69121057     
  -3568028575.3807406        32740488.271427631        496003986.52401930     
  -4608742493.7179365       -5484937.7491126060        351885175.69626927     
  -4419635817.2277279       -913749.28995609283        340124772.53886980     
  -4229513223.7370787        7043829.1706559658        332931697.01055384     
  -4038374713.2459927        18387797.632734299        330305949.11131716     
  -3846220285.7544680        33118156.096271038        332247528.84116495     
  -4938649998.3170280       -4496161.9630715847        188604777.98365018     
  -4738902836.8539228       -1844984.9191246033        177236150.87540203     
  -4537902242.9288673        4984300.3313171864        169928264.13611966     
  -4335648216.5418606        15991693.788265705        166681117.76580170     
  -4132140757.6929059        31177195.451699972        167494711.76444721     
  -5270496695.7937794       -4089144.0403287411        23219615.390117887     
  -5061556441.5295362       -3792196.0631051064        12519865.702789094     
  -4851125239.3418379        1474578.3256368637        5374269.1242999593     
  -4639203089.2306852        11711179.125896931        1782825.6546572896     
  -4425789991.1960630        26917606.337713480        1745535.2938682106     
  -3297565626.5717273        30044191.977178574        658764084.81300807     
  -3210818593.0853958        17259631.661314964        664358543.28676641     
  -3125795456.4407692       -1271251.4602282047        668799191.80741334     
  -3042496216.6378365       -25548457.387428284        672086030.37495255     
  -2960920873.6766195       -55571986.120338440        674219058.98938751     
  -3568028575.3807406        32740488.271427631        496003986.52401930     
  -3479681476.3104973        18501178.043552399        499071458.26523179     
  -3392625901.6620574       -43213.590309143066        504859271.15763611     
  -3306861851.4354110       -22892686.630160570        513367425.20123923     
  -3222389325.6305590       -50047241.076008797        524595920.39603281     
  -3846220285.7544680        33118156.096271038        332247528.84116495     
  -3745204117.9451723        20744796.902929544        333292448.33972400     
  -3645047102.1377707        5507597.7032816410        340931860.09378028     
  -3545749238.3322568       -12593441.502671480        355165764.10333347     
  -3447310526.5286303       -33558320.714908838        375994160.36837864     
  -4132140757.6929059        31177195.451699972        167494711.76444721     
  -4007386517.9894166        23990488.239424944        167021513.51024953     
  -3883059057.8678994        15381182.420554876        177016958.61584634     
  -3759158377.3283772        5349277.9950540066        197481047.08123413     
  -3635684476.3708339       -6105225.0370569229        228413778.90642211     
  -4425789991.1960630        26917606.337713480        1745535.2938682106     
  -4266228676.4432273        28238252.053050518        258653.77679935319     
  -4106661768.8524623        29577540.561484575        13114566.723818695     
  -3947089268.4237862        30935471.862962961        40313274.134951860     
  -3787511175.1571708        32312045.957555056        81854776.010168090     
  -2960920873.6766195       -55571986.120338440        674219058.98938751     
  -2756617869.1864076       -36908816.704428911        649931965.89197218     
  -2542765649.3774843        13585070.440516353        652230946.43173528     
  -2319364214.2498536        95909675.314466119        681116000.60868037     
  -2086413563.8035324        210064997.91741598        736587128.42279255     
  -3222389325.6305590       -50047241.076008797        524595920.39603281     
  -2968636696.3839951       -22385344.217443705        512369758.99325830     
  -2710933804.0748348        18444096.183108449        509519067.43296212     
  -2449280648.7030668        72441080.125680089        516043845.71515328     
  -2183677230.2686992        139605607.61027479        531944093.83982265     
  -3447310526.5286303       -33558320.714908838        375994160.36837864     
  -3193281426.2248516       -11649642.523470759        369296819.69478637     
  -2940901015.1145616        4763405.0229983330        354764345.06898773     
  -2690169293.1977854        15680821.924449444        332396736.49097419     
  -2441086260.4744806        21102608.180948973        302193993.96075231     
  -3635684476.3708339       -6105225.0370569229        228413778.90642211     
  -3430552058.7089572       -4701711.6224601269        220713147.99656579     
  -3232667282.4966698       -27457003.039821625        187966779.33980820     
  -3042030147.7339916       -74371099.289210916        130174672.93613756     
  -2858640654.4209003       -145444000.37056828        47336828.785573252     
  -3787511175.1571708        32312045.957555056        81854776.010168090     
  -3680448593.8363142       -1541551.5144250393        66618743.898592211     
  -3586232606.2211609       -78217128.005381107        9126370.2454288732     
  -3504863212.3117137       -197714683.51536393       -90622344.949331686     
  -3436340412.1079369       -360034218.04427052       -232627401.68570498     
 </DataArray>
 <DataArray  type="Float64" Name="VM" NumberOfComponents="1" format="ascii">
   12935636672.695314     
   11340947484.436647     
   10210585901.164452     
   9273261804.5694885     
   8304573301.0742588     
   10130383175.203554     
   9322225328.9496174     
   8826676106.7017593     
   8443940503.9013510     
   8036229520.8389387     
   7982464020.7155867     
   7735168217.4290838     
   7669423396.6913738     
   7669944513.5236425     
   7666807030.9233103     
   6491792943.6058426     
   6587060115.0131702     
   6757656750.2533531     
   6961508689.0979204     
   7171957401.3347969     
   5657923237.0464802     
   5891057011.3097878     
   6116561411.9225798     
   6331978184.3299675     
   6537084234.3842697     
   8304573301.0742588     
   8021149981.4366856     
   7779749510.9822645     
   7569720535.5381222     
   7386096024.4567966     
   8036229520.8389387     
   7747354912.8941536     
   7474111927.0670080     
   7214549758.9698973     
   6968669815.2162437     
   7666807030.9233103     
   7381632959.1494198     
   7101832129.1088905     
   6827479077.6075182     
   6558771309.1785069     
   7171957401.3347969     
   6911423053.6818972     
   6658770727.4475689     
   6410136969.4419756     
   6162374646.8169765     
   6537084234.3842697     
   6329077642.8639374     
   6143229514.0461407     
   5965631869.8209858     
   5787277945.5096769     
   7386096024.4567966     
   7228825103.8436546     
   7064151853.2394791     
   6891402128.4601593     
   6710389767.1676207     
   6968669815.2162437     
   6814721542.5941839     
   6656234063.7696447     
   6492930552.3857450     
   6324755158.3147326     
   6558771309.1785069     
   6407719776.2085285     
   6255096163.5157909     
   6100870203.9513588     
   5945068804.4527521     
   6162374646.8169765     
   6012809754.3880663     
   5864643293.2882109     
   5717916062.6293201     
   5572687821.3945894     
   5787277945.5096769     
   5636438557.0611067     
   5489899087.6329288     
   5347576948.0018902     
   5209525691.0511589     
   6710389767.1676207     
   6513839494.5457544     
   6320577444.2261477     
   6130518410.4086485     
   5943671822.8040609     
   6324755158.3147326     
   6139721175.3675451     
   5956892883.7360163     
   5776256266.9164906     
   5597850310.1132212     
   5945068804.4527521     
   5772774333.8509140     
   5601851645.5347815     
   5432325164.9733877     
   5264258257.3762217     
   5572687821.3945894     
   5414842278.8817348     
   5257813366.6546755     
   5101635341.1845846     
   4946402423.4196348     
   5209525691.0511589     
   5068364695.9033709     
   4927792220.0573149     
   4787828849.8598480     
   4648620173.2656212     
   5943671822.8040609     
   5774919394.3863363     
   5604753763.3542404     
   5433172788.4135323     
   5260204852.6046963     
   5597850310.1132212     
   5434903253.2405119     
   5271322670.2714252     
   5107140741.0477524     
   4942417110.5449438     
   5264258257.3762217     
   5108701297.2428589     
   4953443143.5601873     
   4798561455.4900227     
   4644165623.5312862     
   4946402423.4196348     
   4799656522.2919998     
   4654301027.0172739     
   4510463996.2466660     
   4368316261.2320929     
   4648620173.2656212     
   4511858912.5460491     
   4377739743.7550621     
   4246436592.5262747     
   4118182754.2735157     
   5260204852.6046963     
   5054419127.4213104     
   4850292419.5569258     
   4647818706.9128857     
   4447042504.9643679     
   4942417110.5449438     
   4745243350.9146414     
   4549628383.4030781     
   4355594338.9774885     
   4163212781.5300846     
   4644165623.5312862     
   4457445386.1546803     
   4272387649.6133833     
   4089068343.7320185     
   3907622833.2574105     
   4368316261.2320929     
   4194221574.9132628     
   4022151983.5165572     
   3852271893.5150661     
   3684828171.4043550     
   4118182754.2735157     
   3959210713.0284295     
   3802933587.0415888     
   3649642015.8298879     
   3499743933.3455038     
   4447042504.9643679     
   4287493597.9361105     
   4124354007.7994218     
   3957940282.5515933     
   3789268911.0657773     
   4163212781.5300846     
   4033135917.3335662     
   3901826526.1706533     
   3769769499.2680635     
   3637883048.5924091     
   3907622833.2574105     
   3799776274.2154527     
   3692313393.8086805     
   3585662441.3008771     
   3480455599.4168439     
   3684828171.4043550     
   3591548612.7431536     
   3499277304.6712909     
   3408243466.2159648     
   3318728230.6317053     
   3499743933.3455038     
   3413104995.4489164     
   3326917601.7861176     
   3241150200.8298683     
   3155772666.9377165     
   3789268911.0657773     
   3641629119.1187186     
   3502621867.7607989     
   3373546984.6538682     
   3260583457.6901264     
   3637883048.5924091     
   3433536885.1298332     
   3232780717.2582059     
   3036770106.2098203     
   2849076606.6209340     
   3480455599.4168439     
   3247336082.8771462     
   3015881498.9917974     
   2786448371.2479844     
   2559913283.6165957     
   3318728230.6317053     
   3087025962.3216963     
   2858778004.5557451     
   2634431150.1644936     
   2414765179.1806197     
   3155772666.9377165     
   2956858550.8413620     
   2767542422.6329713     
   2590247999.3604937     
   2429730258.5304828     
   5657923237.0464802     
   5891057011.3097878     
   6116561411.9225798     
   6331978184.3299675     
   6537084234.3842697     
   5151509323.8216038     
   5311431222.7303152     
   5467991536.3007526     
   5618294060.2545376     
   5760872296.2327137     
   4643481182.5596724     
   4755591231.4805746     
   4868828616.9217443     
   4980555741.3599558     
   5088845052.9932127     
   4134101236.1991644     
   4224373722.8322530     
   4320567760.8487291     
   4421021898.1283684     
   4524277573.6921473     
   3624887014.3519464     
   3719601887.5848627     
   3825567599.1598301     
   3942714683.0277190     
   4070945251.3182425     
   6537084234.3842697     
   6329077642.8639374     
   6143229514.0461407     
   5965631869.8209858     
   5787277945.5096769     
   5760872296.2327137     
   5652394314.5517321     
   5559899745.4032965     
   5474328184.0954981     
   5390139206.4125814     
   5088845052.9932127     
   5054197485.1015863     
   5030061018.4691772     
   5011230671.3832579     
   4994504755.5920353     
   4524277573.6921473     
   4539082005.5453730     
   4558574791.4840097     
   4580278425.1743641     
   4602469711.3451929     
   4070945251.3182425     
   4112376169.2777205     
   4151195767.9850330     
   4186511652.5456262     
   4217595418.1572094     
   5787277945.5096769     
   5636438557.0611067     
   5489899087.6329288     
   5347576948.0018902     
   5209525691.0511589     
   5390139206.4125814     
   5249125542.5799179     
   5111402291.5981636     
   4977013123.0962143     
   4846055724.3881264     
   4994504755.5920353     
   4867575236.5939827     
   4743856619.2771626     
   4623317524.6535053     
   4506000729.7599173     
   4602469711.3451929     
   4494453679.9090185     
   4390615392.8700056     
   4290636090.3129978     
   4194426115.8419948     
   4217595418.1572094     
   4133723301.2782617     
   4056221215.1032786     
   3984233051.4257979     
   3917462028.4834599     
   5209525691.0511589     
   5068364695.9033709     
   4927792220.0573149     
   4787828849.8598480     
   4648620173.2656212     
   4846055724.3881264     
   4720676637.0546017     
   4596873281.8944540     
   4474759701.9349213     
   4354553655.6781168     
   4506000729.7599173     
   4395642041.6410961     
   4287828532.3472943     
   4182741717.4706092     
   4080644867.0562582     
   4194426115.8419948     
   4098157101.9728642     
   4005332485.0792060     
   3916171256.4652910     
   3830953398.0807161     
   3917462028.4834599     
   3834109848.9631586     
   3754967202.1187277     
   3680258799.3513651     
   3610253952.0614309     
   4648620173.2656212     
   4511858912.5460491     
   4377739743.7550621     
   4246436592.5262747     
   4118182754.2735157     
   4354553655.6781168     
   4230264369.8080983     
   4108829906.3639989     
   3990467816.0653024     
   3875457656.9746161     
   4080644867.0562582     
   3969601152.0553703     
   3861749415.3208590     
   3757352733.3663392     
   3656742198.0308542     
   3830953398.0807161     
   3734089682.9121909     
   3640887846.6278105     
   3551653394.0910349     
   3466768528.9403667     
   3610253952.0614309     
   3528613085.7218838     
   3451232212.3042202     
   3378447693.1035614     
   3310682977.8988695     
   4118182754.2735157     
   3959210713.0284295     
   3802933587.0415888     
   3649642015.8298879     
   3499743933.3455038     
   3875457656.9746161     
   3730921225.9138784     
   3590024671.0885839     
   3453123573.8204441     
   3320690033.4759603     
   3656742198.0308542     
   3526359330.1804800     
   3400559894.4567389     
   3279741209.1673484     
   3164410213.0801196     
   3466768528.9403667     
   3350033724.0262861     
   3238779613.2278595     
   3133414996.3218346     
   3034445760.9174194     
   3310682977.8988695     
   3206775456.2672176     
   3109144481.0120759     
   3018176123.9767776     
   2934337695.2744126     
   3499743933.3455038     
   3413104995.4489164     
   3326917601.7861176     
   3241150200.8298683     
   3155772666.9377165     
   3320690033.4759603     
   3238274042.3791914     
   3157054639.6962276     
   3077151441.8479047     
   2998696808.5815644     
   3164410213.0801196     
   3091033413.4664311     
   3020137030.2472482     
   2952032306.6395526     
   2887074778.2471733     
   3034445760.9174194     
   2974777263.8096623     
   2919372658.5666838     
   2868746023.8881140     
   2823495018.6672750     
   2934337695.2744126     
   2892524117.6538219     
   2857153661.9101257     
   2828906967.6947193     
   2808582692.1379128     
   3155772666.9377165     
   2956858550.8413620     
   2767542422.6329713     
   2590247999.3604937     
   2429730258.5304828     
   2998696808.5815644     
   2843752558.1704507     
   2698539238.0026813     
   2564666853.7728281     
   2444642801.7585378     
   2887074778.2471733     
   2759794020.0755863     
   2639857735.1913991     
   2527974449.3038511     
   2425054816.1297989     
   2823495018.6672750     
   2707568726.6179137     
   2594137584.5566764     
   2483288270.8350043     
   2375260456.2480102     
   2808582692.1379128     
   2688833317.4609132     
   2564646873.6806293     
   2435880737.7971768     
   2303048683.8592525     
   3624887014.3519464     
   3719601887.5848627     
   3825567599.1598301     
   3942714683.0277190     
   4070945251.3182425     
   3137803587.4710603     
   3255341470.0913658     
   3382296911.3558254     
   3518198130.3673973     
   3662584984.9104552     
   2694511313.5932121     
   2830265959.0624981     
   2973333808.6103382     
   3122632353.9589839     
   3277250507.1786361     
   2298507085.5931401     
   2449173746.4465661     
   2604563431.1973290     
   2762755422.7974648     
   2922321904.8769469     
   1955014714.6213415     
   2119030389.1377430     
   2284401302.8764820     
   2448171206.4010892     
   2608386212.0274892     
   4070945251.3182425     
   4112376169.2777205     
   4151195767.9850330     
   4186511652.5456262     
   4217595418.1572094     
   3662584984.9104552     
   3701986979.8257685     
   3740025150.7315874     
   3775803790.7832699     
   3808575659.8314857     
   3277250507.1786361     
   3320459826.8085556     
   3363903843.2796922     
   3406759253.4230294     
   3448347690.8732944     
   2922321904.8769469     
   2975185649.4034085     
   3030237963.4735112     
   3086792799.8069959     
   3144314567.5636320     
   2608386212.0274892     
   2676229090.9502859     
   2748517256.1199512     
   2824735924.6156993     
   2904528328.4960356     
   4217595418.1572094     
   4133723301.2782617     
   4056221215.1032786     
   3984233051.4257979     
   3917462028.4834599     
   3808575659.8314857     
   3756008425.3359184     
   3709370812.9062524     
   3668188638.5180387     
   3632365987.6674519     
   3448347690.8732944     
   3422532185.7307668     
   3401832748.3256111     
   3386023500.4416251     
   3375089285.5357013     
   3144314567.5636320     
   3140926222.7870812     
   3141250780.9330893     
   3145194543.3695736     
   3152745827.8213606     
   2904528328.4960356     
   2919523107.0011864     
   2936049289.8952222     
   2954063159.7260466     
   2973533087.7315998     
   3917462028.4834599     
   3834109848.9631586     
   3754967202.1187277     
   3680258799.3513651     
   3610253952.0614309     
   3632365987.6674519     
   3561134022.3534751     
   3494641403.0921168     
   3433123884.5811858     
   3376864820.0037045     
   3375089285.5357013     
   3316950178.9963546     
   3264247639.4701066     
   3217210979.8430858     
   3176123464.3364062     
   3152745827.8213606     
   3108470573.3881764     
   3070484781.4340153     
   3038983969.1211667     
   3014227928.2370458     
   2973533087.7315998     
   2943438992.1881199     
   2920613371.5976739     
   2905182473.4922051     
   2897352852.1087513     
   3610253952.0614309     
   3528613085.7218838     
   3451232212.3042202     
   3378447693.1035614     
   3310682977.8988695     
   3376864820.0037045     
   3310020791.1803026     
   3248318652.9160604     
   3192093678.2903228     
   3141744237.5874782     
   3176123464.3364062     
   3123368273.3651156     
   3076533301.3111572     
   3035918965.6011853     
   3001864843.5351462     
   3014227928.2370458     
   2974317389.7611465     
   2940943439.5862889     
   2914342579.8281369     
   2894771086.5347524     
   2897352852.1087513     
   2868367586.6185098     
   2846326948.8015428     
   2831387497.7007117     
   2823714870.7313423     
   3310682977.8988695     
   3206775456.2672176     
   3109144481.0120759     
   3018176123.9767776     
   2934337695.2744126     
   3141744237.5874782     
   3051025911.2900968     
   2967350542.8779426     
   2891114501.6743298     
   2822782819.7589912     
   3001864843.5351462     
   2924883825.9310584     
   2855773972.8932910     
   2794912120.4647250     
   2742728952.6174531     
   2894771086.5347524     
   2831650332.0535407     
   2777247542.4870224     
   2731886865.3592525     
   2695932338.4976192     
   2823714870.7313423     
   2773986981.9429011     
   2733805925.3513727     
   2703415404.7570653     
   2683090009.7133951     
   2934337695.2744126     
   2892524117.6538219     
   2857153661.9101257     
   2828906967.6947193     
   2808582692.1379128     
   2822782819.7589912     
   2799454467.5427017     
   2782367529.1472359     
   2772028206.4027247     
   2769001109.0099273     
   2742728952.6174531     
   2735393856.3990178     
   2733736228.6261811     
   2738089583.2674904     
   2748808635.7213264     
   2695932338.4976192     
   2701873163.2998800     
   2712594666.8078380     
   2728282844.6529384     
   2749126245.3389277     
   2683090009.7133951     
   2699500745.0850120     
   2719520369.9860344     
   2743225308.0454793     
   2770688470.3204479     
   2808582692.1379128     
   2688833317.4609132     
   2564646873.6806293     
   2435880737.7971768     
   2303048683.8592525     
   2769001109.0099273     
   2644778654.1484842     
   2524172044.5314865     
   2407515736.7757106     
   2295344809.1160579     
   2748808635.7213264     
   2635534325.5025845     
   2535087423.8926306     
   2448436796.3114591     
   2376621404.8215871     
   2749126245.3389277     
   2659053743.3494163     
   2591474826.8581409     
   2547826995.0125127     
   2529677458.8677969     
   2770688470.3204479     
   2712267095.3922749     
   2686344252.2749238     
   2694618695.4373026     
   2739137822.0542045     
   1955014714.6213415     
   2119030389.1377430     
   2284401302.8764820     
   2448171206.4010892     
   2608386212.0274892     
   1653548641.8056946     
   1819956590.1151121     
   1988050581.9161334     
   2155135936.1188059     
   2319456683.9959030     
   1393456411.8752353     
   1570793952.4954183     
   1749116502.4974635     
   1926419922.9854271     
   2101453895.3600910     
   1207050219.4962869     
   1398974257.8204393     
   1590446531.6870039     
   1780688683.3326905     
   1969241155.3979197     
   1136971149.4207058     
   1335326937.6758630     
   1533948235.0319057     
   1732835049.6291447     
   1931987391.1714635     
   2608386212.0274892     
   2676229090.9502859     
   2748517256.1199512     
   2824735924.6156993     
   2904528328.4960356     
   2319456683.9959030     
   2406387976.9573488     
   2495722277.0461936     
   2587068307.7706804     
   2680149629.8320241     
   2101453895.3600910     
   2205078695.7277985     
   2308600533.0010891     
   2411783957.1182237     
   2514462455.7088556     
   1969241155.3979197     
   2086253729.3315475     
   2200427950.2337918     
   2311689987.0218410     
   2419988187.4095063     
   1931987391.1714635     
   2058462401.6913729     
   2179554741.1999326     
   2295264404.6731591     
   2405591409.2876301     
   2904528328.4960356     
   2919523107.0011864     
   2936049289.8952222     
   2954063159.7260466     
   2973533087.7315998     
   2680149629.8320241     
   2701838230.6438098     
   2725923051.0858665     
   2752389976.3315711     
   2781233036.9080472     
   2514462455.7088556     
   2542739046.5329456     
   2574299085.8223190     
   2609142881.5029564     
   2647275191.7931948     
   2419988187.4095063     
   2453417199.1358514     
   2491018145.7000074     
   2532792700.2507277     
   2578744400.0434384     
   2405591409.2876301     
   2441327321.0908408     
   2482118859.3955917     
   2527966412.9719458     
   2578870746.2211604     
   2973533087.7315998     
   2943438992.1881199     
   2920613371.5976739     
   2905182473.4922051     
   2897352852.1087513     
   2781233036.9080472     
   2765434095.6485910     
   2756678743.8629646     
   2755046277.3411679     
   2760651557.2734432     
   2647275191.7931948     
   2642183944.7074556     
   2643576657.0340776     
   2651487882.1847520     
   2665960908.9548488     
   2578744400.0434384     
   2580338214.4776721     
   2587526632.2426562     
   2600318783.5007100     
   2618723980.2462473     
   2578870746.2211604     
   2583114659.4595103     
   2591781122.3285966     
   2604875931.2889743     
   2622412734.0125728     
   2897352852.1087513     
   2868367586.6185098     
   2846326948.8015428     
   2831387497.7007117     
   2823714870.7313423     
   2760651557.2734432     
   2739066405.9207711     
   2724823882.1563969     
   2718031706.8572412     
   2718802116.0887251     
   2665960908.9548488     
   2650322119.2823892     
   2642444344.9995403     
   2642383598.8264942     
   2650199098.2616105     
   2618723980.2462473     
   2606968327.9154863     
   2603405880.0965343     
   2608048473.1989093     
   2620913020.1382122     
   2622412734.0125728     
   2611970439.2869253     
   2610163644.1324000     
   2616978835.8349290     
   2632411816.3183956     
   2823714870.7313423     
   2773986981.9429011     
   2733805925.3513727     
   2703415404.7570653     
   2683090009.7133951     
   2718802116.0887251     
   2678829311.0296993     
   2648113837.9997807     
   2626789646.8666902     
   2615002802.6764112     
   2650199098.2616105     
   2616612229.7386131     
   2591833965.8556042     
   2575919098.4656925     
   2568925454.5244479     
   2620913020.1382122     
   2590204974.1089563     
   2567710514.6003132     
   2553441595.4700499     
   2547411747.2983966     
   2632411816.3183956     
   2601197489.9596901     
   2577468926.7999835     
   2561228866.6054287     
   2552486169.0739474     
   2683090009.7133951     
   2699500745.0850120     
   2719520369.9860344     
   2743225308.0454793     
   2770688470.3204479     
   2615002802.6764112     
   2635568113.4337955     
   2660492051.4009542     
   2689815196.4381618     
   2723573700.6586251     
   2568925454.5244479     
   2591740971.4275999     
   2619675216.9390855     
   2652745543.1281204     
   2690967078.5360947     
   2547411747.2983966     
   2569972988.7485485     
   2598443234.5038161     
   2632835640.4576406     
   2673165395.5964298     
   2552486169.0739474     
   2571791007.3179617     
   2597834502.3422337     
   2630652647.7711062     
   2670288768.5893450     
   2770688470.3204479     
   2712267095.3922749     
   2686344252.2749238     
   2694618695.4373026     
   2739137822.0542045     
   2723573700.6586251     
   2682927867.9883018     
   2662843577.3314810     
   2663643549.0084867     
   2685747039.5077949     
   2690967078.5360947     
   2651837406.5189166     
   2621769349.7843227     
   2600763008.0431986     
   2588827525.2033315     
   2673165395.5964298     
   2623150561.0833030     
   2570639623.1777744     
   2516128161.1419182     
   2460373163.6618667     
   2670288768.5893450     
   2601807763.9032555     
   2519483155.7025661     
   2425162095.7312169     
   2321816766.9905081     
   1136971149.4207058     
   1335326937.6758630     
   1533948235.0319057     
   1732835049.6291447     
   1931987391.1714635     
   1207314470.2004805     
   1399350627.6811945     
   1590948473.0428636     
   1781333937.1694465     
   1970050402.1700161     
   1393933399.2204542     
   1571429376.7800219     
   1749943800.4726000     
   1927476603.6541321     
   2102779786.8353806     
   1654172191.3994703     
   1820710428.2215428     
   1988988415.0896556     
   2156313933.9095764     
   2320930668.8571539     
   1955737669.4438348     
   2119787814.2533593     
   2285261375.1708527     
   2449203353.6864018     
   2609656252.0065336     
   1931987391.1714635     
   2058462401.6913729     
   2179554741.1999326     
   2295264404.6731591     
   2405591409.2876301     
   1970050402.1700161     
   2087044499.5025914     
   2201197639.3749771     
   2312433939.6093330     
   2420700898.2955866     
   2102779786.8353806     
   2206451137.3283172     
   2310016817.4647741     
   2413240709.0722389     
   2515955882.6943836     
   2320930668.8571539     
   2408039259.5717311     
   2497553068.1588073     
   2589084313.0152106     
   2682357705.6226735     
   2609656252.0065336     
   2677845230.7471943     
   2750492969.8816757     
   2827094906.0310011     
   2907298496.8889842     
   2405591409.2876301     
   2441327321.0908408     
   2482118859.3955917     
   2527966412.9719458     
   2578870746.2211604     
   2420700898.2955866     
   2455139347.4590211     
   2493906377.9170361     
   2537006077.2330146     
   2584442741.5865736     
   2515955882.6943836     
   2545728605.9520612     
   2579070236.4491272     
   2615984138.8292551     
   2656477520.9364014     
   2682357705.6226735     
   2705430163.2524238     
   2731278281.7038155     
   2759889904.6375608     
   2791263789.0935140     
   2907298496.8889842     
   2922984186.2699871     
   2940632624.2605329     
   2960197744.0357647     
   2981653327.0402546     
   2578870746.2211604     
   2583114659.4595103     
   2591781122.3285966     
   2604875931.2889743     
   2622412734.0125728     
   2584442741.5865736     
   2584255632.2098317     
   2589722198.2202744     
   2600850555.9422574     
   2617659062.4425559     
   2656477520.9364014     
   2649264282.2897415     
   2648791711.7106571     
   2655092259.1540027     
   2668213417.0081348     
   2791263789.0935140     
   2774210304.5614233     
   2764790382.1189852     
   2763088422.4895344     
   2769213213.5892615     
   2981653327.0402546     
   2952017767.8111353     
   2930699670.2941751     
   2917859253.3625364     
   2913696966.3458524     
   2622412734.0125728     
   2611970439.2869253     
   2610163644.1324000     
   2616978835.8349290     
   2632411816.3183956     
   2617659062.4425559     
   2609424257.5580831     
   2609224928.1028657     
   2617072713.4429030     
   2632980666.5153828     
   2668213417.0081348     
   2658342773.0420866     
   2655774545.7935977     
   2660567142.6278372     
   2672778959.2401185     
   2769213213.5892615     
   2754584977.2631354     
   2746410679.2838035     
   2744800611.3379097     
   2749870194.9836826     
   2913696966.3458524     
   2892111358.0983939     
   2876034295.1340914     
   2865617056.9543095     
   2861026795.7223058     
   2632411816.3183956     
   2601197489.9596901     
   2577468926.7999835     
   2561228866.6054287     
   2552486169.0739474     
   2632980666.5153828     
   2600660162.8773241     
   2576786679.3800874     
   2561373240.0984588     
   2554436550.0775838     
   2672778959.2401185     
   2637210873.1570024     
   2611030384.7363396     
   2594289160.0926309     
   2587043832.8883047     
   2749870194.9836826     
   2708584177.6240115     
   2677598583.4532766     
   2657043029.2661967     
   2647057893.1639080     
   2861026795.7223058     
   2811404801.5059590     
   2772966132.0846362     
   2745964356.2911348     
   2730675438.3285508     
   2552486169.0739474     
   2571791007.3179617     
   2597834502.3422337     
   2630652647.7711062     
   2670288768.5893450     
   2554436550.0775838     
   2575476333.2362065     
   2602694336.3948369     
   2636116832.3921452     
   2675772271.3457680     
   2587043832.8883047     
   2608647983.0621357     
   2635995474.9627457     
   2669116435.0270004     
   2708039031.9401503     
   2647057893.1639080     
   2668366708.5347438     
   2695113688.0056844     
   2727340695.6906228     
   2765085254.1333914     
   2730675438.3285508     
   2751165304.9355121     
   2776914569.1969857     
   2807980208.5608926     
   2844414731.1187100     
   2670288768.5893450     
   2601807763.9032555     
   2519483155.7025661     
   2425162095.7312169     
   2321816766.9905081     
   2675772271.3457680     
   2607363622.7635884     
   2538682222.7901874     
   2470195751.2941918     
   2402567751.2940364     
   2708039031.9401503     
   2647654779.2952023     
   2601213454.5797405     
   2568647255.5355864     
   2549890711.9560046     
   2765085254.1333914     
   2714941454.7377295     
   2693714654.1614666     
   2701809564.6459813     
   2739842649.0961642     
   2844414731.1187100     
   2802157627.4331055     
   2806182698.9698696     
   2858623859.0052018     
   2961861132.0682364     
   1955737669.4438348     
   2119787814.2533593     
   2285261375.1708527     
   2449203353.6864018     
   2609656252.0065336     
   2299247708.8428698     
   2449857383.0296302     
   2605224955.1475854     
   2763428927.5608020     
   2923038821.5057817     
   2695155077.9612069     
   2830815000.9354763     
   2973795076.9661179     
   3123011145.8256392     
   3277550292.7297487     
   3138253096.4384007     
   3255716442.1964312     
   3382581465.3310738     
   3518374755.3509045     
   3662634824.0517030     
   3625055311.8690028     
   3719775688.5464420     
   3825711963.6292524     
   3942793964.0222678     
   4070922780.8281555     
   2609656252.0065336     
   2677845230.7471943     
   2750492969.8816757     
   2827094906.0310011     
   2907298496.8889842     
   2923038821.5057817     
   2976246013.9720674     
   3031673158.9305201     
   3088642312.8657703     
   3146622880.6611619     
   3277550292.7297487     
   3321013192.7583804     
   3364750729.1473932     
   3407943271.7606082     
   3449915305.2060513     
   3662634824.0517030     
   3702126930.2516503     
   3740297019.1573939     
   3776246814.3636413     
   3809227225.5490923     
   4070922780.8281555     
   4112217224.7712240     
   4150940708.1258545     
   4186191107.0715933     
   4217231983.4832320     
   2907298496.8889842     
   2922984186.2699871     
   2940632624.2605329     
   2960197744.0357647     
   2981653327.0402546     
   3146622880.6611619     
   3142855619.6338735     
   3142985509.4020739     
   3146918643.8665781     
   3154655330.8564901     
   3449915305.2060513     
   3423088426.1443353     
   3401372823.1111398     
   3384542106.0598273     
   3372588848.9153528     
   3809227225.5490923     
   3755515300.5817947     
   3707595322.0164814     
   3664992761.9705796     
   3627607710.5440240     
   4217231983.4832320     
   4132596819.7901740     
   4054109453.8120227     
   3980918871.2869945     
   3912711763.6761179     
   2981653327.0402546     
   2952017767.8111353     
   2930699670.2941751     
   2917859253.3625364     
   2913696966.3458524     
   3154655330.8564901     
   3110823824.7222462     
   3073988869.9069271     
   3044376566.7871752     
   3022257785.6221147     
   3372588848.9153528     
   3314390129.2951317     
   3261950042.0800185     
   3215518687.1639199     
   3175393469.5969043     
   3627607710.5440240     
   3555665848.7021723     
   3488374272.3952417     
   3425972111.0731893     
   3368744248.9926982     
   3912711763.6761179     
   3828127531.3435302     
   3747246686.5855169     
   3670275254.1301227     
   3597459624.2821684     
   2913696966.3458524     
   2892111358.0983939     
   2876034295.1340914     
   2865617056.9543095     
   2861026795.7223058     
   3022257785.6221147     
   2986421518.0857882     
   2956260016.9993577     
   2931993939.9898548     
   2913871011.0051179     
   3175393469.5969043     
   3124262129.6367393     
   3078777276.1588769     
   3039219323.0163908     
   3005912042.1713624     
   3368744248.9926982     
   3301559859.5355616     
   3239828375.8350315     
   3183871178.4655418     
   3134072135.0215416     
   3597459624.2821684     
   3513654599.8085032     
   3434986433.2473559     
   3361794673.7157903     
   3294500484.1227818     
   2861026795.7223058     
   2811404801.5059590     
   2772966132.0846362     
   2745964356.2911348     
   2730675438.3285508     
   2913871011.0051179     
   2851353601.4448838     
   2798554100.6406131     
   2755825616.3786650     
   2723558049.7529087     
   3005912042.1713624     
   2929219699.4161806     
   2860696954.2075844     
   2800752738.0138488     
   2749849554.5686479     
   3134072135.0215416     
   3043030658.0350499     
   2958576804.4013710     
   2881118361.4178467     
   2811128443.2333956     
   3294500484.1227818     
   3189845736.5723109     
   3090242475.8124213     
   2996046462.0339789     
   2907679943.0866976     
   2730675438.3285508     
   2751165304.9355121     
   2776914569.1969857     
   2807980208.5608926     
   2844414731.1187100     
   2723558049.7529087     
   2731792731.4941010     
   2745983279.1868162     
   2766267705.1300993     
   2792774970.8246965     
   2749849554.5686479     
   2742748574.8098493     
   2742063102.5726438     
   2748066368.4895887     
   2761030438.5583358     
   2811128443.2333956     
   2785990890.7057371     
   2767406981.9440069     
   2755822368.1712899     
   2751709314.1084723     
   2907679943.0866976     
   2862368023.1208334     
   2823378967.5277858     
   2791336012.0499568     
   2766941057.3348422     
   2844414731.1187100     
   2802157627.4331055     
   2806182698.9698696     
   2858623859.0052018     
   2961861132.0682364     
   2792774970.8246965     
   2727737612.4664330     
   2693551878.3700385     
   2691986367.1599913     
   2724713777.3264365     
   2761030438.5583358     
   2667946441.5341859     
   2589481107.7266197     
   2526835360.8340201     
   2481165819.0833387     
   2751709314.1084723     
   2632956379.0593786     
   2511418867.3630595     
   2387582284.7072883     
   2262248775.8845034     
   2766941057.3348422     
   2634057383.3594790     
   2482412200.7110171     
   2313013661.0966887     
   2128317827.4147086     
   3625055311.8690028     
   3719775688.5464420     
   3825711963.6292524     
   3942793964.0222678     
   4070922780.8281555     
   4133998908.3051429     
   4224333821.5997667     
   4320565212.8230686     
   4421035586.3535089     
   4524290377.7699547     
   4643210558.7396955     
   4755392694.3520536     
   4868687882.7861471     
   4980465473.5189352     
   5088804066.9382744     
   5151169855.3106499     
   5311126001.5515013     
   5467718308.6519022     
   5618058323.2351751     
   5760684641.7897291     
   5657611161.3768950     
   5890694293.0369129     
   6116158926.3358631     
   6331553039.6226492     
   6536654769.2455759     
   4070922780.8281555     
   4112217224.7712240     
   4150940708.1258545     
   4186191107.0715933     
   4217231983.4832320     
   4524290377.7699547     
   4538810150.8182507     
   4558023038.7576361     
   4579444707.2961378     
   4601350883.2326441     
   5088804066.9382744     
   5053824587.9192963     
   5029338612.4193020     
   5010136776.0158978     
   4993017773.2101889     
   5760684641.7897291     
   5651929023.4447889     
   5559127721.8775368     
   5473219525.1969500     
   5388663272.2129250     
   6536654769.2455759     
   6328525503.6275759     
   6142521759.0284491     
   5964741445.0873814     
   5786177320.3655987     
   4217231983.4832320     
   4132596819.7901740     
   4054109453.8120227     
   3980918871.2869945     
   3912711763.6761179     
   4601350883.2326441     
   4493202502.4211569     
   4389141842.1461382     
   4288852404.3170428     
   4192236065.1009717     
   4993017773.2101889     
   4866328028.6318426     
   4742859836.2049112     
   4622582791.3745594     
   4505537953.2224569     
   5388663272.2129250     
   5247970040.8928099     
   5110649462.9368792     
   4976745885.0227814     
   4846360431.5069647     
   5786177320.3655987     
   5635430815.8761082     
   5489111492.0758324     
   5347139482.0475397     
   5209577191.9030790     
   3912711763.6761179     
   3828127531.3435302     
   3747246686.5855169     
   3670275254.1301227     
   3597459624.2821684     
   4192236065.1009717     
   4095433872.7250276     
   4001700259.2184196     
   3911236693.4481244     
   3824304308.8793025     
   4505537953.2224569     
   4395273522.3508759     
   4287301950.7792196     
   4181790670.9922872     
   4078989396.2341375     
   4846360431.5069647     
   4721557704.9713058     
   4598190257.1982536     
   4476363053.3482704     
   4356286457.1661196     
   5209577191.9030790     
   5069280766.8176794     
   4929528786.3172579     
   4790338139.7617893     
   4651852975.4385538     
   3597459624.2821684     
   3513654599.8085032     
   3434986433.2473559     
   3361794673.7157903     
   3294500484.1227818     
   3824304308.8793025     
   3725878620.0397234     
   3631677793.2314229     
   3542017026.5912910     
   3457289920.4919248     
   4078989396.2341375     
   3966732196.0786300     
   3857933503.6226387     
   3752867846.7336183     
   3651881448.2675309     
   4356286457.1661196     
   4231098778.6249642     
   4108757457.5365334     
   3989489775.1893439     
   3873586221.1764770     
   4651852975.4385538     
   4514652186.0218878     
   4379835009.1565504     
   4247581425.5536213     
   4118126019.6953692     
   3294500484.1227818     
   3189845736.5723109     
   3090242475.8124213     
   2996046462.0339789     
   2907679943.0866976     
   3457289920.4919248     
   3339929408.2008748     
   3227302896.6843586     
   3119775347.7492466     
   3017796875.5564094     
   3651881448.2675309     
   3521240414.2700424     
   3394934143.8989897     
   3273321521.9868312     
   3156863000.8406444     
   3873586221.1764770     
   3729059359.2921486     
   3588416871.9240756     
   3451999486.2681708     
   3320262950.3643570     
   4118126019.6953692     
   3959061713.6803699     
   3803403648.6220999     
   3651465732.8683228     
   3503687310.2603745     
   2907679943.0866976     
   2862368023.1208334     
   2823378967.5277858     
   2791336012.0499568     
   2766941057.3348422     
   3017796875.5564094     
   2957069262.4949169     
   2900229574.9403934     
   2847786201.5115948     
   2800326354.8116312     
   3156863000.8406444     
   3083961057.1920815     
   3012804081.8508158     
   2943733104.0559702     
   2877153172.9484978     
   3320262950.3643570     
   3239219859.0775037     
   3158184663.8346291     
   3077334100.3702402     
   2996889262.9541836     
   3503687310.2603745     
   3418945495.4635158     
   3332941982.1584659     
   3245736243.6993752     
   3157421484.4764557     
   2766941057.3348422     
   2634057383.3594790     
   2482412200.7110171     
   2313013661.0966887     
   2128317827.4147086     
   2800326354.8116312     
   2671256712.9567046     
   2537056332.6167135     
   2398202628.9105892     
   2255463614.3265285     
   2877153172.9484978     
   2743461650.7619944     
   2616526586.3109918     
   2496527370.0612836     
   2383780961.8726850     
   2996889262.9541836     
   2842505549.6900392     
   2704530571.3232803     
   2584222916.1016469     
   2483994193.1892858     
   3157421484.4764557     
   2960708616.9825940     
   2788655764.8270617     
   2646290897.0372009     
   2542285018.7937355     
   5657611161.3768950     
   5890694293.0369129     
   6116158926.3358631     
   6331553039.6226492     
   6536654769.2455759     
   6491535334.9091835     
   6586666623.8596811     
   6757132607.4486942     
   6960863655.4942646     
   7171204551.3408012     
   7982220358.9027395     
   7734752510.2639523     
   7668831586.3071785     
   7669176221.7314358     
   7665866080.6271725     
   10130113467.891600     
   9321790696.7730675     
   8826067498.0841179     
   8443150577.4718637     
   8035253171.1684742     
   12935302106.581007     
   11340493083.124014     
   10210006280.540165     
   9272551769.1463985     
   8303730401.4103947     
   6536654769.2455759     
   6328525503.6275759     
   6142521759.0284491     
   5964741445.0873814     
   5786177320.3655987     
   7171204551.3408012     
   6910708160.7503004     
   6658095208.5029097     
   6409506945.9404039     
   6161797891.5575275     
   7665866080.6271725     
   7380799990.6197453     
   7101133358.5930891     
   6826941759.1188736     
   6558425331.6110735     
   8035253171.1684742     
   7746447652.3225908     
   7473319688.6826191     
   7213913336.9280977     
   6968233278.0459995     
   8303730401.4103947     
   8020213696.6202993     
   7778783240.8362331     
   7568776897.0806437     
   7385233975.6251707     
   5786177320.3655987     
   5635430815.8761082     
   5489111492.0758324     
   5347139482.0475397     
   5209577191.9030790     
   6161797891.5575275     
   6012066564.0780706     
   5863759125.5668240     
   5716918783.4603662     
   5571608641.5335302     
   6558425331.6110735     
   6407146538.6225090     
   6254238234.8656750     
   6099668812.8889942     
   5943465932.4969387     
   6968233278.0459995     
   6814232889.6886024     
   6655568002.8075972     
   6491956718.8508091     
   6323346962.3393927     
   7385233975.6251707     
   7228344418.2072878     
   7063873188.7745266     
   6891140596.1975355     
   6709975690.9164743     
   5209577191.9030790     
   5069280766.8176794     
   4929528786.3172579     
   4790338139.7617893     
   4651852975.4385538     
   5571608641.5335302     
   5414329423.6013031     
   5257940566.3475933     
   5102476237.3245363     
   4948030933.0629959     
   5943465932.4969387     
   5771361457.6962452     
   5600809388.9117384     
   5431834353.2207384     
   5264504047.5290346     
   6323346962.3393927     
   6137990566.8732824     
   5955116736.9867992     
   5774708968.5336924     
   5596816226.6925926     
   6709975690.9164743     
   6512406670.5904398     
   6318490215.9077406     
   6128133748.8549595     
   5941363875.2021351     
   4651852975.4385538     
   4514652186.0218878     
   4379835009.1565504     
   4247581425.5536213     
   4118126019.6953692     
   4948030933.0629959     
   4801331694.9924135     
   4655767441.0211248     
   4511464558.9564247     
   4368588865.6249590     
   5264504047.5290346     
   5109736569.3034115     
   4955036899.2866001     
   4800475410.3307562     
   4646151990.9370365     
   5596816226.6925926     
   5435618933.8821259     
   5273598530.1137428     
   5110776501.8414545     
   4947200656.7262468     
   5941363875.2021351     
   5775505182.1208611     
   5608097359.0407925     
   5439125925.6031036     
   5268606815.1775713     
   4118126019.6953692     
   3959061713.6803699     
   3803403648.6220999     
   3651465732.8683228     
   3503687310.2603745     
   4368588865.6249590     
   4194075952.1305537     
   4022002054.1425047     
   3852556386.6999173     
   3686024785.0459847     
   4646151990.9370365     
   4458272954.3461075     
   4272136963.9259248     
   4087832104.2740664     
   3905515623.3050508     
   4947200656.7262468     
   4747915148.3967886     
   4549926012.8202629     
   4353249744.2237768     
   4157950366.9893451     
   5268606815.1775713     
   5059707878.7456713     
   4851871625.9397659     
   4645070777.5689907     
   4439311029.5516567     
   3503687310.2603745     
   3418945495.4635158     
   3332941982.1584659     
   3245736243.6993752     
   3157421484.4764557     
   3686024785.0459847     
   3594456932.2862153     
   3503485771.9093676     
   3413326056.3941274     
   3324248582.1528125     
   3905515623.3050508     
   3799727529.5499372     
   3695291296.1178751     
   3592529920.5796318     
   3491919944.7932000     
   4157950366.9893451     
   4029832498.3981314     
   3902834262.2117915     
   3777354285.1670470     
   3654115594.3384681     
   4439311029.5516567     
   4280417685.2232804     
   4121592731.6125855     
   3963262702.0605097     
   3806411409.5139365     
   3157421484.4764557     
   2960708616.9825940     
   2788655764.8270617     
   2646290897.0372009     
   2542285018.7937355     
   3324248582.1528125     
   3087785500.0373249     
   2859778319.8739948     
   2642074127.2768111     
   2437556792.1875801     
   3491919944.7932000     
   3251018581.5004563     
   3006742987.8513880     
   2758786608.4862938     
   2506955198.6419435     
   3654115594.3384681     
   3449452557.7566972     
   3235448472.9855042     
   3013980041.4727650     
   2789969631.0227566     
   3806411409.5139365     
   3681486764.6461883     
   3547805981.4652953     
   3413917330.6509724     
   3295937872.1218052     
 </DataArray>
 <DataArray  type="Float64" Name="strain" NumberOfComponents="3" format="ascii">
  0.20348852067642673        0.0000000000000000       0.12539701877928555     
  0.18666057250203638       -2.7323127886783767E-002   7.4348490847618784E-002
  0.16983262432764604       -4.4674702702065340E-002   3.5132993571528048E-002
  0.15300467615325566       -5.2054724445844733E-002   7.7505269510132618E-003
  0.13617672797886532       -4.9463193118121918E-002  -7.7989090139255063E-003
  0.15985891129478358        0.0000000000000000        9.6442499700893289E-002
  0.15318253387309178       -2.1843606596714603E-002   6.2687409554265452E-002
  0.14650615645139997       -3.6174158918359040E-002   3.7402430257458742E-002
  0.13982977902970817       -4.2991656964933317E-002   2.0587561810473127E-002
  0.13315340160801636       -4.2296100736437428E-002   1.2242804213308603E-002
  0.12646189592777063        0.0000000000000000        7.4196751310786180E-002
  0.12657416945302247       -1.6364085306645442E-002   5.5276600152765282E-002
  0.12668644297827431       -2.7673615134652749E-002   4.1463640038810583E-002
  0.12679871650352614       -3.3928589484021922E-002   3.2757870968922020E-002
  0.12691099002877795       -3.5129008354752952E-002   2.9159292943099734E-002
  0.10329747457538790        0.0000000000000000        5.8659773608964259E-002
  0.10683547924182846       -1.0884564016576280E-002   5.2116062643118237E-002
  0.11037348390826907       -1.9173071350946452E-002   4.7316622915583507E-002
  0.11391148857470963       -2.4865522003110523E-002   4.4261454426360057E-002
  0.11744949324115021       -2.7961915973068473E-002   4.2950557175447907E-002
   9.0365647237635377E-002   0.0000000000000000        4.9831566595427521E-002
   9.3966463239509801E-002  -5.4050427265071180E-003   5.3205797025324353E-002
   9.7567279241384225E-002  -1.0672527567240155E-002   5.4961378887777572E-002
  0.10116809524325862       -1.5802454522199114E-002   5.5098312182787192E-002
  0.10476891124513305       -2.0794823591383991E-002   5.3616596910353198E-002
  0.13617672797886532       -4.9463193118121918E-002  -7.7989090139255063E-003
  0.13296673931636627       -4.2932222665011691E-002  -3.3938870911705277E-003
  0.12975675065386719       -3.8493927032628703E-002  -3.9904398837914065E-004
  0.12654676199136811       -3.6148306220973078E-002   1.1856202944487623E-003
  0.12333677332886905       -3.5895360230044776E-002   1.3601057573130737E-003
  0.13315340160801636       -4.2296100736437428E-002   1.2242804213308603E-002
  0.12892054402179154       -3.8433285754087096E-002   1.2180445029867620E-002
  0.12468768643556671       -3.5749007539098043E-002   1.1482526818938677E-002
  0.12045482884934185       -3.4243266091470249E-002   1.0149049580521756E-002
  0.11622197126311704       -3.3916061411203818E-002   8.1800133146168602E-003
  0.12691099002877795       -3.5129008354752952E-002   2.9159292943099734E-002
  0.12242988331130296       -3.3934348843162550E-002   2.5543690706828850E-002
  0.11794877659382792       -3.3004088045567419E-002   2.2067149235545584E-002
  0.11346766987635293       -3.2338225961967525E-002   1.8729668529249916E-002
  0.10898656315887788       -3.1936762592362930E-002   1.5531248587941811E-002
  0.11744949324115021       -2.7961915973068473E-002   4.2950557175447907E-002
  0.11349475718490055       -2.9435411932238007E-002   3.6695849939713178E-002
  0.10954002112865090       -3.0259168552036770E-002   3.1354823261441608E-002
  0.10558528507240118       -3.0433185832464755E-002   2.6927477140633201E-002
  0.10163054901615155       -2.9957463773521993E-002   2.3413811577287877E-002
  0.10476891124513305       -2.0794823591383991E-002   5.3616596910353198E-002
  0.10211516564258430       -2.4936475021313451E-002   4.5636922728520629E-002
   9.9461420040035539E-002  -2.7514249058506114E-002   3.9345548896626767E-002
   9.6807674437486779E-002  -2.8528145702961971E-002   3.4742475414671521E-002
   9.4153928834938019E-002  -2.7978164954681070E-002   3.1827702282655107E-002
  0.12333677332886905       -3.5895360230044776E-002   1.3601057573130737E-003
  0.12042241732737391       -3.6385876322263935E-002   6.5590873145621176E-004
  0.11750806132587874       -3.6270641760050841E-002   1.2562070885027699E-004
  0.11459370532438355       -3.5549656543405556E-002  -2.3075831050455714E-004
  0.11167934932288842       -3.4222920672327906E-002  -4.1322832660833919E-004
  0.11622197126311704       -3.3916061411203818E-002   8.1800133146168602E-003
  0.11347084241663927       -3.3985202864084657E-002   7.8403259797886204E-003
  0.11071971357016146       -3.3668499815898555E-002   7.6531839517441150E-003
  0.10796858472368367       -3.2965952266645761E-002   7.6185872304831564E-003
  0.10521745587720588       -3.1877560216326151E-002   7.7365358160061404E-003
  0.10898656315887788       -3.1936762592362930E-002   1.5531248587941811E-002
  0.10637729777095010       -3.1584529405905289E-002   1.5336164790776728E-002
  0.10376803238302235       -3.1066357871746327E-002   1.5272262603928010E-002
  0.10115876699509455       -3.0382247989886077E-002   1.5339542027395682E-002
   9.8549501607166787E-002  -2.9532199760324507E-002   1.5538003061179667E-002
  0.10163054901615155       -2.9957463773521993E-002   2.3413811577287877E-002
   9.9141783390306451E-002  -2.9183855947725924E-002   2.3143425164420500E-002
   9.6653017764461321E-002  -2.8464215927594044E-002   2.2982856665402191E-002
   9.4164252138616178E-002  -2.7798543713126338E-002   2.2932106080232856E-002
   9.1675486512771104E-002  -2.7186839304322752E-002   2.2991173408912435E-002
   9.4153928834938019E-002  -2.7978164954681070E-002   3.1827702282655107E-002
   9.1764299274708236E-002  -2.6783182489546607E-002   3.1262107100719985E-002
   8.9374669714478439E-002  -2.5862073983441761E-002   3.0784966136166513E-002
   8.6985040154248613E-002  -2.5214839436366612E-002   3.0396279388994658E-002
   8.4595410594018844E-002  -2.4841478848321080E-002   3.0096046859204556E-002
  0.11167934932288842       -3.4222920672327906E-002  -4.1322832660833919E-004
  0.10852989413352365       -3.2713132196137140E-002  -2.3835345416101106E-004
  0.10538043894415886       -3.1442989164152724E-002   5.4647393698314950E-005
  0.10223098375479407       -3.0412491576374170E-002   4.6577421696944454E-004
   9.9081528565429289E-002  -2.9621639432802160E-002   9.9502701565234997E-004
  0.10521745587720588       -3.1877560216326151E-002   7.7365358160061404E-003
  0.10220428718148233       -3.0667111260657590E-002   7.5328223150386980E-003
   9.9191118485758734E-002  -2.9598392995357534E-002   7.4835558259420537E-003
   9.6177949790035175E-002  -2.8671405420426493E-002   7.5887363487159576E-003
   9.3164781094311644E-002  -2.7886148535864130E-002   7.8483638833601876E-003
   9.8549501607166787E-002  -2.9532199760324507E-002   1.5538003061179667E-002
   9.5708940441543086E-002  -2.8621090325177900E-002   1.5053615940635159E-002
   9.2868379275919372E-002  -2.7753796826562621E-002   1.4759996868419702E-002
   9.0027818110295685E-002  -2.6930319264478760E-002   1.4657145844533620E-002
   8.7187256944671970E-002  -2.6150657638925989E-002   1.4745062868976810E-002
   9.1675486512771104E-002  -2.7186839304322752E-002   2.2991173408912435E-002
   8.9043853913705992E-002  -2.6575069389698225E-002   2.2324027422628043E-002
   8.6412221314640852E-002  -2.5909200657767570E-002   2.1883970521131776E-002
   8.3780588715575727E-002  -2.5189233108530874E-002   2.1671002704423067E-002
   8.1148956116510601E-002  -2.4415166741987931E-002   2.1685123972502621E-002
   8.4595410594018844E-002  -2.4841478848321080E-002   3.0096046859204556E-002
   8.2209027597970941E-002  -2.4529048454218674E-002   2.9344056761017881E-002
   7.9822644601923079E-002  -2.4064604488972560E-002   2.8855476784077627E-002
   7.7436261605875190E-002  -2.3448146952583109E-002   2.8630306928384107E-002
   7.5049878609827314E-002  -2.2679675845049901E-002   2.8668547193937050E-002
   9.9081528565429289E-002  -2.9621639432802160E-002   9.9502701565234997E-004
   9.6241705449599979E-002  -2.8895973011529019E-002   8.8168756833795214E-004
   9.3401882333770558E-002  -2.8061032590647017E-002   8.6525471100065698E-004
   9.0562059217941165E-002  -2.7116818170157223E-002   9.4572844364096409E-004
   8.7722236102111828E-002  -2.6063329750058872E-002   1.1231087662584294E-003
   9.3164781094311644E-002  -2.7886148535864130E-002   7.8483638833601876E-003
   9.0431951193835819E-002  -2.7136913268087037E-002   7.7738151111033382E-003
   8.7699121293360022E-002  -2.6317990543511846E-002   7.8163461795761058E-003
   8.4966291392884266E-002  -2.5429380362138803E-002   7.9759570887791981E-003
   8.2233461492408400E-002  -2.4471082723967419E-002   8.2526478387116575E-003
   8.7187256944671970E-002  -2.6150657638925989E-002   1.4745062868976810E-002
   8.4581593510302339E-002  -2.5377853524645111E-002   1.4669718228967080E-002
   8.1975930075932693E-002  -2.4574948496376453E-002   1.4731626680439966E-002
   7.9370266641563020E-002  -2.3741942554120050E-002   1.4930788223395219E-002
   7.6764603207193333E-002  -2.2878835697875910E-002   1.5267202857832840E-002
   8.1148956116510601E-002  -2.4415166741987931E-002   2.1685123972502621E-002
   7.8690632398999524E-002  -2.3618793781203323E-002   2.1569396921929943E-002
   7.6232308681488503E-002  -2.2831906449241060E-002   2.1611096213592390E-002
   7.3773984963977426E-002  -2.2054504746101464E-002   2.1810221847489427E-002
   7.1315661246466405E-002  -2.1286588671784373E-002   2.2166773823621713E-002
   7.5049878609827314E-002  -2.2679675845049901E-002   2.8668547193937050E-002
   7.2759067859927418E-002  -2.1859734037761369E-002   2.8472851189991211E-002
   7.0468257110027549E-002  -2.1088864402105743E-002   2.8454754779032879E-002
   6.8177446360127680E-002  -2.0367066938082899E-002   2.8614257961061811E-002
   6.5886635610227812E-002  -1.9694341645692781E-002   2.8951360736078124E-002
   8.7722236102111828E-002  -2.6063329750058872E-002   1.1231087662584294E-003
   8.4298627013097982E-002  -2.5016433999625998E-002   7.0911997575634489E-004
   8.0875017924084192E-002  -2.4091997588131686E-002   4.2698572701171944E-004
   7.7451408835070346E-002  -2.3290020515575868E-002   2.7670602002494160E-004
   7.4027799746056555E-002  -2.2610502781959196E-002   2.5828085479551177E-004
   8.2233461492408400E-002  -2.4471082723967419E-002   8.2526478387116575E-003
   7.8954008555905647E-002  -2.3521647441469090E-002   7.7659412299100616E-003
   7.5674555619402950E-002  -2.2659624327114339E-002   7.4356923843731104E-003
   7.2395102682900225E-002  -2.1885013380903266E-002   7.2619013021002071E-003
   6.9115649746397501E-002  -2.1197814602836096E-002   7.2445679830924758E-003
   7.6764603207193333E-002  -2.2878835697875910E-002   1.5267202857832840E-002
   7.3653909644708637E-002  -2.2026860883312099E-002   1.4742825601526829E-002
   7.0543216082223914E-002  -2.1227251066097103E-002   1.4399509329992261E-002
   6.7432522519739205E-002  -2.0480006246230552E-002   1.4237254043229008E-002
   6.4321828957254468E-002  -1.9785126423712884E-002   1.4256059741237809E-002
   7.1315661246466405E-002  -2.1286588671784373E-002   2.2166773823621713E-002
   6.8398330279506772E-002  -2.0532074325155261E-002   2.1639773090606215E-002
   6.5480999312547028E-002  -1.9794877805079700E-002   2.1318436563869149E-002
   6.2563668345587339E-002  -1.9074999111557838E-002   2.1202764243410752E-002
   5.9646337378627658E-002  -1.8372438244589617E-002   2.1292756129230726E-002
   6.5886635610227812E-002  -1.9694341645692781E-002   2.8951360736078124E-002
   6.3187270460300066E-002  -1.9037287766998368E-002   2.8456783697148436E-002
   6.0487905310372334E-002  -1.8362504544062477E-002   2.8192474086004143E-002
   5.7788540160444608E-002  -1.7669991976885253E-002   2.8158431902645359E-002
   5.5089175010516911E-002  -1.6959750065466406E-002   2.8354657147071971E-002
   7.4027799746056555E-002  -2.2610502781959196E-002   2.5828085479551177E-004
   7.1357772975135569E-002  -2.1858395037700706E-002  -9.7530475967166907E-005
   6.8687746204214639E-002  -2.0838647933220239E-002   1.4877163604404275E-004
   6.6017719433293681E-002  -1.9551261468517080E-002   9.9718719082808605E-004
   6.3347692662372723E-002  -1.7996235643592651E-002   2.4477161883860177E-003
   6.9115649746397501E-002  -2.1197814602836096E-002   7.2445679830924758E-003
   6.6967942394435043E-002  -2.0457770065426095E-002   7.1576633625569097E-003
   6.4820235042472668E-002  -1.9524621841186640E-002   7.5132841371649550E-003
   6.2672527690510224E-002  -1.8398369930117842E-002   8.3114303069164869E-003
   6.0524820338547836E-002  -1.7079014332219589E-002   9.5521018718119910E-003
   6.4321828957254468E-002  -1.9785126423712884E-002   1.4256059741237809E-002
   6.2536852976620760E-002  -1.9057145093151151E-002   1.4363526157536027E-002
   6.0751876995987067E-002  -1.8210595749153027E-002   1.4753929921348496E-002
   5.8966901015353283E-002  -1.7245478391718045E-002   1.5427271032674654E-002
   5.7181925034719611E-002  -1.6161793020846582E-002   1.6383549491514132E-002
   5.9646337378627658E-002  -1.8372438244589617E-002   2.1292756129230726E-002
   5.8064504721692792E-002  -1.7656520120876373E-002   2.1520057908970699E-002
   5.6482672064757905E-002  -1.6896569657119088E-002   2.1870708988594351E-002
   5.4900839407822997E-002  -1.6092586853318193E-002   2.2344709368102053E-002
   5.3319006750888166E-002  -1.5244571709473659E-002   2.2942059047493711E-002
   5.5089175010516911E-002  -1.6959750065466406E-002   2.8354657147071971E-002
   5.3550897629650984E-002  -1.6255895148601457E-002   2.8627258616860329E-002
   5.2012620248785141E-002  -1.5582543565085455E-002   2.8863621338902690E-002
   5.0474342867919242E-002  -1.4939695314918698E-002   2.9063745313199191E-002
   4.8936065487053426E-002  -1.4327350398100791E-002   2.9227630539749694E-002
   6.3347692662372723E-002  -1.7996235643592651E-002   2.4477161883860177E-003
   6.0979280053803042E-002  -1.6734905116385201E-002   3.2657501224039320E-003
   5.8610867445233306E-002  -1.6328604544837227E-002   2.7946324616557328E-003
   5.6242454836663486E-002  -1.6777333928946488E-002   1.0343632061416697E-003
   5.3874042228093888E-002  -1.8081093268714543E-002  -2.0150576441375634E-003
   6.0524820338547836E-002  -1.7079014332219589E-002   9.5521018718119910E-003
   5.7132731167994555E-002  -1.5945093271249211E-002   9.4060865004366723E-003
   5.3740641997441357E-002  -1.5375144970963900E-002   8.5018695998603233E-003
   5.0348552826888146E-002  -1.5369169431363371E-002   6.8394511700831384E-003
   4.6956463656334879E-002  -1.5927166652448310E-002   4.4188312111033134E-003
   5.7181925034719611E-002  -1.6161793020846582E-002   1.6383549491514132E-002
   5.3297109367747203E-002  -1.5155281426112777E-002   1.5564542009719740E-002
   4.9412293700774837E-002  -1.4421685397090780E-002   1.4518283064288470E-002
   4.5527478033802339E-002  -1.3961004933780583E-002   1.3244772655219832E-002
   4.1642662366830119E-002  -1.3773240036182077E-002   1.1744010782514747E-002
   5.3319006750888166E-002  -1.5244571709473659E-002   2.2942059047493711E-002
   4.9472414653061077E-002  -1.4365469580976453E-002   2.1741116650253127E-002
   4.5625822555233897E-002  -1.3468225823217779E-002   2.0843872854939802E-002
   4.1779230457406814E-002  -1.2552840436197631E-002   2.0250327661553560E-002
   3.7932638359579635E-002  -1.1619313419915844E-002   1.9960481070095432E-002
   4.8936065487053426E-002  -1.4327350398100791E-002   2.9227630539749694E-002
   4.5658647023935878E-002  -1.3575657735840296E-002   2.7935810422036134E-002
   4.2381228560818385E-002  -1.2514766249344680E-002   2.7478638971814212E-002
   3.9103810097700836E-002  -1.1144675938614682E-002   2.7856116189084137E-002
   3.5826391634583343E-002  -9.4653868036496114E-003   2.9068242073846173E-002
   9.0365647237635377E-002   0.0000000000000000        4.9831566595427521E-002
   9.3966463239509801E-002  -5.4050427265071180E-003   5.3205797025324353E-002
   9.7567279241384225E-002  -1.0672527567240155E-002   5.4961378887777572E-002
  0.10116809524325862       -1.5802454522199114E-002   5.5098312182787192E-002
  0.10476891124513305       -2.0794823591383991E-002   5.3616596910353198E-002
   8.2428188823763168E-002   0.0000000000000000        4.4779346946483098E-002
   8.4639351980226513E-002  -4.5750859172259102E-003   4.8263027585698698E-002
   8.6850515136689871E-002  -9.0391084119142828E-003   5.0586051101535780E-002
   8.9061678293153229E-002  -1.3392067484065115E-002   5.1748417493994323E-002
   9.1272841449616574E-002  -1.7633963133678415E-002   5.1750126763074326E-002
   7.4246874243021399E-002   0.0000000000000000        4.0570331338438161E-002
   7.5526375998138745E-002  -3.7451291079447038E-003   4.4136967723736001E-002
   7.6805877753256105E-002  -7.4056892565884068E-003   4.7000938429720376E-002
   7.8085379508373479E-002  -1.0981680445931114E-002   4.9162243456391315E-002
   7.9364881263490825E-002  -1.4473102675972819E-002   5.0620882803748789E-002
   6.5821703495410042E-002   0.0000000000000000        3.7204519771292695E-002
   6.6627535293246498E-002  -2.9151722986634964E-003   4.0827617439436241E-002
   6.7433367091082941E-002  -5.7722701012625352E-003   4.4206040872331390E-002
   6.8239198888919383E-002  -8.5712934077971092E-003   4.7339790069978190E-002
   6.9045030686755840E-002  -1.1312242218267231E-002   5.0228865032376585E-002
   5.7152676580929124E-002   0.0000000000000000        3.4681912245046707E-002
   5.7942829865549730E-002  -2.0852154893822895E-003   3.8334976732799404E-002
   5.8732983150170344E-002  -4.1388509459366583E-003   4.2201358429368806E-002
   5.9523136434790944E-002  -6.1609063696631133E-003   4.6281057334754870E-002
   6.0313289719411564E-002  -8.1513817605616424E-003   5.0574073448957715E-002
  0.10476891124513305       -2.0794823591383991E-002   5.3616596910353198E-002
  0.10211516564258430       -2.4936475021313451E-002   4.5636922728520629E-002
   9.9461420040035539E-002  -2.7514249058506114E-002   3.9345548896626767E-002
   9.6807674437486779E-002  -2.8528145702961971E-002   3.4742475414671521E-002
   9.4153928834938019E-002  -2.7978164954681070E-002   3.1827702282655107E-002
   9.1272841449616574E-002  -1.7633963133678415E-002   5.1750126763074326E-002
   9.0069942926893562E-002  -2.1209775910414976E-002   4.6513598778495924E-002
   8.8867044404170537E-002  -2.3564486363935596E-002   4.2490464603630304E-002
   8.7664145881447525E-002  -2.4698094494240319E-002   3.9680724238477516E-002
   8.6461247358724513E-002  -2.4610600301329083E-002   3.8084377683037483E-002
   7.9364881263490825E-002  -1.4473102675972819E-002   5.0620882803748789E-002
   7.9137923280367659E-002  -1.7483076799516488E-002   4.7784725946903708E-002
   7.8910965297244479E-002  -1.9614723669365102E-002   4.5687056359545480E-002
   7.8684007314121340E-002  -2.0868043285518639E-002   4.4327874041674174E-002
   7.8457049330998146E-002  -2.1243035647977117E-002   4.3707178993289769E-002
   6.9045030686755840E-002  -1.1312242218267231E-002   5.0228865032376585E-002
   6.9319106703006617E-002  -1.3756377688618017E-002   4.9450304233743927E-002
   6.9593182719257393E-002  -1.5664960974794605E-002   4.8935324164372240E-002
   6.9867258735508198E-002  -1.7037992076796973E-002   4.8683924824261607E-002
   7.0141334751759002E-002  -1.7875470994625140E-002   4.8696106213411916E-002
   6.0313289719411564E-002  -8.1513817605616424E-003   5.0574073448957715E-002
   6.0613493194810415E-002  -1.0029678577719530E-002   5.1510333639016602E-002
   6.0913696670209259E-002  -1.1715198280224094E-002   5.2235268018110591E-002
   6.1213900145608097E-002  -1.3207940868075292E-002   5.2748876586239696E-002
   6.1514103621006948E-002  -1.4507906341273170E-002   5.3051159343403965E-002
   9.4153928834938019E-002  -2.7978164954681070E-002   3.1827702282655107E-002
   9.1764299274708236E-002  -2.6783182489546607E-002   3.1262107100719985E-002
   8.9374669714478439E-002  -2.5862073983441761E-002   3.0784966136166513E-002
   8.6985040154248613E-002  -2.5214839436366612E-002   3.0396279388994658E-002
   8.4595410594018844E-002  -2.4841478848321080E-002   3.0096046859204556E-002
   8.6461247358724513E-002  -2.4610600301329083E-002   3.8084377683037483E-002
   8.4204950873456613E-002  -2.3966320764345298E-002   3.7061442010119627E-002
   8.1948654388188727E-002  -2.3429572862432180E-002   3.6216718269743958E-002
   7.9692357902920841E-002  -2.3000356595589851E-002   3.5550206461910566E-002
   7.7436061417652940E-002  -2.2678671963818217E-002   3.5061906586619160E-002
   7.8457049330998146E-002  -2.1243035647977117E-002   4.3707178993289769E-002
   7.6423843635852737E-002  -2.1149459039143972E-002   4.2393245153348080E-002
   7.4390637940707299E-002  -2.0997071741422624E-002   4.1347280961109109E-002
   7.2357432245561890E-002  -2.0785873754813090E-002   4.0569286416572863E-002
   7.0324226550416452E-002  -2.0515865079315368E-002   4.0059261519739459E-002
   7.0141334751759002E-002  -1.7875470994625140E-002   4.8696106213411916E-002
   6.8420977561896523E-002  -1.8332597313942663E-002   4.7257516530405295E-002
   6.6700620372034100E-002  -1.8564570620413057E-002   4.6176654210262000E-002
   6.4980263182171677E-002  -1.8571390914036322E-002   4.5453519252981911E-002
   6.3259905992309240E-002  -1.8353058194812512E-002   4.5088111658565147E-002
   6.1514103621006948E-002  -1.4507906341273170E-002   5.3051159343403965E-002
   6.0196352651588063E-002  -1.5515735588741347E-002   5.1654256141291328E-002
   5.8878601682169185E-002  -1.6132069499403462E-002   5.0704838017202603E-002
   5.7560850712750300E-002  -1.6356908073259582E-002   5.0202904971137663E-002
   5.6243099743331401E-002  -1.6190251310309642E-002   5.0148457003096572E-002
   8.4595410594018844E-002  -2.4841478848321080E-002   3.0096046859204556E-002
   8.2209027597970941E-002  -2.4529048454218674E-002   2.9344056761017881E-002
   7.9822644601923079E-002  -2.4064604488972560E-002   2.8855476784077627E-002
   7.7436261605875190E-002  -2.3448146952583109E-002   2.8630306928384107E-002
   7.5049878609827314E-002  -2.2679675845049901E-002   2.8668547193937050E-002
   7.7436061417652940E-002  -2.2678671963818217E-002   3.5061906586619160E-002
   7.5302141780564782E-002  -2.2355779764732332E-002   3.4477464205696341E-002
   7.3168222143476597E-002  -2.1922940795947258E-002   3.4134538421446252E-002
   7.1034302506388425E-002  -2.1380155057462852E-002   3.4033129233868947E-002
   6.8900382869300239E-002  -2.0727422549279284E-002   3.4173236642964677E-002
   7.0324226550416452E-002  -2.0515865079315368E-002   4.0059261519739459E-002
   6.8420876747714188E-002  -2.0182511075246108E-002   3.9600300054636134E-002
   6.6517526945011951E-002  -1.9781277102921845E-002   3.9360961661631798E-002
   6.4614177142309701E-002  -1.9312163162342737E-002   3.9341246340726554E-002
   6.2710827339607464E-002  -1.8775169253508681E-002   3.9541154091920307E-002
   6.3259905992309240E-002  -1.8353058194812512E-002   4.5088111658565147E-002
   6.1565232499419163E-002  -1.8009242385759783E-002   4.4712564307837079E-002
   5.9870559006529094E-002  -1.7639613409896528E-002   4.4534746504634265E-002
   5.8175885513639065E-002  -1.7244171267222563E-002   4.4554658248956741E-002
   5.6481212020748961E-002  -1.6822915957738056E-002   4.4772299540804535E-002
   5.6243099743331401E-002  -1.6190251310309642E-002   5.0148457003096572E-002
   5.4735209035679758E-002  -1.5835973696273514E-002   4.9814256965299411E-002
   5.3227318328028080E-002  -1.5497949716871125E-002   4.9655892950453674E-002
   5.1719427620376415E-002  -1.5176179372102347E-002   4.9673364958559563E-002
   5.0211536912724758E-002  -1.4870662661967460E-002   4.9866672989616917E-002
   7.5049878609827314E-002  -2.2679675845049901E-002   2.8668547193937050E-002
   7.2759067859927418E-002  -2.1859734037761369E-002   2.8472851189991211E-002
   7.0468257110027549E-002  -2.1088864402105743E-002   2.8454754779032879E-002
   6.8177446360127680E-002  -2.0367066938082899E-002   2.8614257961061811E-002
   6.5886635610227812E-002  -1.9694341645692781E-002   2.8951360736078124E-002
   6.8900382869300239E-002  -2.0727422549279284E-002   3.4173236642964677E-002
   6.6790013220509328E-002  -2.0028704641508910E-002   3.3906798286895370E-002
   6.4679643571718431E-002  -1.9347962704264421E-002   3.3823642540056570E-002
   6.2569273922927549E-002  -1.8685196737545651E-002   3.3923769402448310E-002
   6.0458904274136638E-002  -1.8040406741352599E-002   3.4207178874070793E-002
   6.2710827339607464E-002  -1.8775169253508681E-002   3.9541154091920307E-002
   6.0786581808168691E-002  -1.8197675245256534E-002   3.9235069584834636E-002
   5.8862336276729911E-002  -1.7607061006423102E-002   3.9117950703222618E-002
   5.6938090745291117E-002  -1.7003326537008489E-002   3.9189797447084361E-002
   5.5013845213852365E-002  -1.6386471837012445E-002   3.9450609816419596E-002
   5.6481212020748961E-002  -1.6822915957738056E-002   4.4772299540804535E-002
   5.4748773622905415E-002  -1.6366645849004061E-002   4.4457665083809467E-002
   5.3016335225061911E-002  -1.5866159308581811E-002   4.4337679268531265E-002
   5.1283896827218380E-002  -1.5321456336471173E-002   4.4412342094969845E-002
   4.9551458429374862E-002  -1.4732536932672333E-002   4.4681653563125215E-002
   5.0211536912724758E-002  -1.4870662661967460E-002   4.9866672989616917E-002
   4.8676588664719606E-002  -1.4535616452751698E-002   4.9574584783819597E-002
   4.7141640416714439E-002  -1.4125257610740474E-002   4.9482828235982074E-002
   4.5606692168709294E-002  -1.3639586135934110E-002   4.9591403346104609E-002
   4.4071743920704121E-002  -1.3078602028332109E-002   4.9900310114187107E-002
   6.5886635610227812E-002  -1.9694341645692781E-002   2.8951360736078124E-002
   6.3187270460300066E-002  -1.9037287766998368E-002   2.8456783697148436E-002
   6.0487905310372334E-002  -1.8362504544062477E-002   2.8192474086004143E-002
   5.7788540160444608E-002  -1.7669991976885253E-002   2.8158431902645359E-002
   5.5089175010516911E-002  -1.6959750065466406E-002   2.8354657147071971E-002
   6.0458904274136638E-002  -1.8040406741352599E-002   3.4207178874070793E-002
   5.7985939924067989E-002  -1.7405307002209991E-002   3.3699569883354763E-002
   5.5512975573999354E-002  -1.6771611806642439E-002   3.3414495064571226E-002
   5.3040011223930719E-002  -1.6139321154649902E-002   3.3351954417720403E-002
   5.0567046873862070E-002  -1.5508435046232505E-002   3.3511947942802295E-002
   5.5013845213852365E-002  -1.6386471837012445E-002   3.9450609816419596E-002
   5.2759548407790006E-002  -1.5773326237421642E-002   3.8910834986100679E-002
   5.0505251601727669E-002  -1.5180719069222394E-002   3.8585861071861620E-002
   4.8250954795665338E-002  -1.4608650332414661E-002   3.8475688073702510E-002
   4.5996657989602979E-002  -1.4057120026998465E-002   3.8580315991623232E-002
   4.9551458429374862E-002  -1.4732536932672333E-002   4.4681653563125215E-002
   4.7508095911466021E-002  -1.4141345472633363E-002   4.4090579005386751E-002
   4.5464733393557229E-002  -1.3589826331802241E-002   4.3706572107875548E-002
   4.3421370875648423E-002  -1.3077979510179350E-002   4.3529632870591438E-002
   4.1378008357739589E-002  -1.2605805007764578E-002   4.3559761293534623E-002
   4.4071743920704121E-002  -1.3078602028332109E-002   4.9900310114187107E-002
   4.2231582435096102E-002  -1.2509364707844944E-002   4.9238801941212884E-002
   4.0391420949488055E-002  -1.1998933594382311E-002   4.8776628172612968E-002
   3.8551259463880022E-002  -1.1547308687944097E-002   4.8513788808387373E-002
   3.6711097978271989E-002  -1.1154489988530525E-002   4.8450283848536446E-002
   5.5089175010516911E-002  -1.6959750065466406E-002   2.8354657147071971E-002
   5.3550897629650984E-002  -1.6255895148601457E-002   2.8627258616860329E-002
   5.2012620248785141E-002  -1.5582543565085455E-002   2.8863621338902690E-002
   5.0474342867919242E-002  -1.4939695314918698E-002   2.9063745313199191E-002
   4.8936065487053426E-002  -1.4327350398100791E-002   2.9227630539749694E-002
   5.0567046873862070E-002  -1.5508435046232505E-002   3.3511947942802295E-002
   4.9025849139154351E-002  -1.4874946326041028E-002   3.3757660275777479E-002
   4.7484651404446632E-002  -1.4234847838726916E-002   3.4033770648814812E-002
   4.5943453669738940E-002  -1.3588139584289824E-002   3.4340279061914301E-002
   4.4402255935031221E-002  -1.2934821562729903E-002   3.4677185515076425E-002
   4.5996657989602979E-002  -1.4057120026998465E-002   3.8580315991623232E-002
   4.4519176688861628E-002  -1.3493997503480723E-002   3.8836252288257045E-002
   4.3041695388120277E-002  -1.2887152112368225E-002   3.9189223412761001E-002
   4.1564214087378912E-002  -1.2236583853661064E-002   3.9639229365135510E-002
   4.0086732786637574E-002  -1.1542292727359099E-002   4.0186270145380606E-002
   4.1378008357739589E-002  -1.2605805007764578E-002   4.3559761293534623E-002
   4.0030880278772815E-002  -1.2113048680920328E-002   4.3863034654298819E-002
   3.8683752199806028E-002  -1.1539456386009471E-002   4.4329979630741492E-002
   3.7336624120839254E-002  -1.0885028123032192E-002   4.4960596222862907E-002
   3.5989496041872467E-002  -1.0149763891988309E-002   4.5754884430663112E-002
   3.6711097978271989E-002  -1.1154489988530525E-002   4.8450283848536446E-002
   3.5560959908887940E-002  -1.0732099858359934E-002   4.8838007373902981E-002
   3.4410821839503905E-002  -1.0191760659650967E-002   4.9456039302756105E-002
   3.3260683770119863E-002  -9.5334723924034234E-003   5.0304379635096291E-002
   3.2110545700735821E-002  -8.7572350566174073E-003   5.1383028370923345E-002
   4.8936065487053426E-002  -1.4327350398100791E-002   2.9227630539749694E-002
   4.5658647023935878E-002  -1.3575657735840296E-002   2.7935810422036134E-002
   4.2381228560818385E-002  -1.2514766249344680E-002   2.7478638971814212E-002
   3.9103810097700836E-002  -1.1144675938614682E-002   2.7856116189084137E-002
   3.5826391634583343E-002  -9.4653868036496114E-003   2.9068242073846173E-002
   4.4402255935031221E-002  -1.2934821562729903E-002   3.4677185515076425E-002
   4.1818678508369983E-002  -1.2205586856170514E-002   3.3690055383511025E-002
   3.9235101081708731E-002  -1.1331128546735472E-002   3.3255958657366164E-002
   3.6651523655047501E-002  -1.0311446634423991E-002   3.3374895336642632E-002
   3.4067946228386270E-002  -9.1465411192366286E-003   3.4046865421339167E-002
   4.0086732786637574E-002  -1.1542292727359099E-002   4.0186270145380606E-002
   3.7915381134361457E-002  -1.0835515976501203E-002   3.9339854778604896E-002
   3.5744029482085340E-002  -1.0147490844126091E-002   3.8764857555178729E-002
   3.3572677829809279E-002  -9.4782173302335754E-003   3.8461278475102320E-002
   3.1401326177533107E-002  -8.8276954348237568E-003   3.8429117538375468E-002
   3.5989496041872467E-002  -1.0149763891988309E-002   4.5754884430663112E-002
   3.3948754901910329E-002  -9.4654450968317677E-003   4.4885208607318233E-002
   3.1908013761948212E-002  -8.9638531415166846E-003   4.4005335665251853E-002
   2.9867272621986088E-002  -8.6449880260430212E-003   4.3115265604463729E-002
   2.7826531482023964E-002  -8.5088497504108296E-003   4.2214998424954284E-002
   3.2110545700735821E-002  -8.7572350566174073E-003   5.1383028370923345E-002
   2.9918799811016555E-002  -8.0953742171621101E-003   5.0326116869650828E-002
   2.7727053921297318E-002  -7.7802154389073341E-003   4.8977392987585189E-002
   2.5535308031578080E-002  -7.8117587218525658E-003   4.7336856724727594E-002
   2.3343562141858787E-002  -8.1900040659979023E-003   4.5404508081076322E-002
   5.7152676580929124E-002   0.0000000000000000        3.4681912245046707E-002
   5.7942829865549730E-002  -2.0852154893822895E-003   3.8334976732799404E-002
   5.8732983150170344E-002  -4.1388509459366583E-003   4.2201358429368806E-002
   5.9523136434790944E-002  -6.1609063696631133E-003   4.6281057334754870E-002
   6.0313289719411564E-002  -8.1513817605616424E-003   5.0574073448957715E-002
   4.8651737700440692E-002   0.0000000000000000        3.2779899136542515E-002
   4.9590034999273273E-002  -1.7098363087050001E-003   3.6956797083466102E-002
   5.0528332298105841E-002  -3.4333038123957552E-003   4.1216665849996927E-002
   5.1466629596938436E-002  -5.1704025110722741E-003   4.5559505436134962E-002
   5.2404926895771010E-002  -6.9211324047345462E-003   4.9985315841880262E-002
   4.0730831054806800E-002   0.0000000000000000        3.1275870822622460E-002
   4.1686925978641876E-002  -1.3344571280277115E-003   3.5931391000903250E-002
   4.2643020902476958E-002  -2.7277566788548573E-003   4.0539535609581817E-002
   4.3599115826312033E-002  -4.1798986524814417E-003   4.5100304648658128E-002
   4.4555210750147102E-002  -5.6908830489074596E-003   4.9613698118132238E-002
   3.3389956644027448E-002   0.0000000000000000        3.0169827303286535E-002
   3.4233502803655565E-002  -9.5907794735042252E-004   3.5258758485110862E-002
   3.5077048963283675E-002  -2.0222095453139586E-003   4.0169967708123484E-002
   3.5920595122911778E-002  -3.1893947938906051E-003   4.4903454972324411E-002
   3.6764141282539881E-002  -4.4606336930803677E-003   4.9459220277713614E-002
   2.6629114468102649E-002   0.0000000000000000        2.9461768578534726E-002
   2.7229765474314313E-002  -5.8369876667313352E-004   3.4938899536088919E-002
   2.7830416480525984E-002  -1.3166624117730563E-003   4.0107962145621928E-002
   2.8431067486737644E-002  -2.1988909352997719E-003   4.4968956407133755E-002
   2.9031718492949315E-002  -3.2303843372532776E-003   4.9521882320624412E-002
   6.0313289719411564E-002  -8.1513817605616424E-003   5.0574073448957715E-002
   6.0613493194810415E-002  -1.0029678577719530E-002   5.1510333639016602E-002
   6.0913696670209259E-002  -1.1715198280224094E-002   5.2235268018110591E-002
   6.1213900145608097E-002  -1.3207940868075292E-002   5.2748876586239696E-002
   6.1514103621006948E-002  -1.4507906341273170E-002   5.3051159343403965E-002
   5.2404926895771010E-002  -6.9211324047345462E-003   4.9985315841880262E-002
   5.2532420625033827E-002  -8.5848092047704112E-003   5.1209096023230601E-002
   5.2659914354296643E-002  -1.0060748622567714E-002   5.2298782523273801E-002
   5.2787408083559466E-002  -1.1348950658126430E-002   5.3254375342009802E-002
   5.2914901812822268E-002  -1.2449415311446575E-002   5.4075874479438638E-002
   4.4555210750147102E-002  -5.6908830489074596E-003   4.9613698118132238E-002
   4.4587226862931602E-002  -7.1399398318212929E-003   5.1119958558359303E-002
   4.4619242975716095E-002  -8.4062989649113257E-003   5.2569357446936894E-002
   4.4651259088500601E-002  -9.4899604481775476E-003   5.3961894783865018E-002
   4.4683275201285080E-002  -1.0390924281619991E-002   5.5297570569143695E-002
   3.6764141282539881E-002  -4.4606336930803677E-003   4.9459220277713614E-002
   3.6777911908503762E-002  -5.6950704588721746E-003   5.1242921244402620E-002
   3.6791682534467636E-002  -6.7518493072549349E-003   5.3046992789099877E-002
   3.6805453160431524E-002  -7.6309702382286937E-003   5.4871434911805357E-002
   3.6819223786395405E-002  -8.3324332517934144E-003   5.6716247612519061E-002
   2.9031718492949315E-002  -3.2303843372532776E-003   4.9521882320624412E-002
   2.9104475761750289E-002  -4.2502010859230589E-003   5.1577984081360592E-002
   2.9177233030551260E-002  -5.0973996495985562E-003   5.3731688549762693E-002
   2.9249990299352241E-002  -5.7719800282798120E-003   5.5982995725830743E-002
   2.9322747568153215E-002  -6.2739422219668106E-003   5.8331905609564777E-002
   6.1514103621006948E-002  -1.4507906341273170E-002   5.3051159343403965E-002
   6.0196352651588063E-002  -1.5515735588741347E-002   5.1654256141291328E-002
   5.8878601682169185E-002  -1.6132069499403462E-002   5.0704838017202603E-002
   5.7560850712750300E-002  -1.6356908073259582E-002   5.0202904971137663E-002
   5.6243099743331401E-002  -1.6190251310309642E-002   5.0148457003096572E-002
   5.2914901812822268E-002  -1.2449415311446575E-002   5.4075874479438638E-002
   5.1993619981722389E-002  -1.3302218660713232E-002   5.3345070815606001E-002
   5.1072338150622509E-002  -1.3847436784111473E-002   5.2959720350387519E-002
   5.0151056319522623E-002  -1.4085069681641232E-002   5.2919823083783291E-002
   4.9229774488422751E-002  -1.4015117353302589E-002   5.3225379015793203E-002
   4.4683275201285080E-002  -1.0390924281619991E-002   5.5297570569143695E-002
   4.4056430629094583E-002  -1.1088701732685105E-002   5.5148956332653362E-002
   4.3429586056904085E-002  -1.1562804068819391E-002   5.5243763415367630E-002
   4.2802741484713594E-002  -1.1813231290022867E-002   5.5581991817286389E-002
   4.2175896912523103E-002  -1.1839983396295516E-002   5.6163641538409831E-002
   3.6819223786395405E-002  -8.3324332517934144E-003   5.6716247612519061E-002
   3.6384784593704658E-002  -8.8751848046570124E-003   5.7065912692433454E-002
   3.5950345401013932E-002  -9.2781713535273549E-003   5.7556967212142790E-002
   3.5515906208323199E-002  -9.5413928984044889E-003   5.8189411171647054E-002
   3.5081467015632473E-002  -9.6648494392884247E-003   5.8963244570946330E-002
   2.9322747568153215E-002  -6.2739422219668106E-003   5.8331905609564777E-002
   2.8978681875552623E-002  -6.6616678766288663E-003   5.9095939894946284E-002
   2.8634616182952027E-002  -6.9935386382353054E-003   5.9899331740713102E-002
   2.8290550490351424E-002  -7.2695545067861557E-003   6.0742081146865218E-002
   2.7946484797750845E-002  -7.4897154822813894E-003   6.1624188113402700E-002
   5.6243099743331401E-002  -1.6190251310309642E-002   5.0148457003096572E-002
   5.4735209035679758E-002  -1.5835973696273514E-002   4.9814256965299411E-002
   5.3227318328028080E-002  -1.5497949716871125E-002   4.9655892950453674E-002
   5.1719427620376415E-002  -1.5176179372102347E-002   4.9673364958559563E-002
   5.0211536912724758E-002  -1.4870662661967460E-002   4.9866672989616917E-002
   4.9229774488422751E-002  -1.4015117353302589E-002   5.3225379015793203E-002
   4.7904512473474929E-002  -1.3783257969324045E-002   5.2857406952146122E-002
   4.6579250458527094E-002  -1.3535169699934273E-002   5.2678856250955142E-002
   4.5253988443579252E-002  -1.3270852545133289E-002   5.2689726912220382E-002
   4.3928726428631437E-002  -1.2990306504921001E-002   5.2890018935941641E-002
   4.2175896912523103E-002  -1.1839983396295516E-002   5.6163641538409831E-002
   4.1046848929783705E-002  -1.1730542242374561E-002   5.5794379968957752E-002
   3.9917800947044328E-002  -1.1572389682997506E-002   5.5628125101466461E-002
   3.8788752964304958E-002  -1.1365525718164106E-002   5.5664876935936025E-002
   3.7659704981565574E-002  -1.1109950347874514E-002   5.5904635472366182E-002
   3.5081467015632473E-002  -9.6648494392884247E-003   5.8963244570946330E-002
   3.4162218404606148E-002  -9.6778265154251406E-003   5.8625176015734318E-002
   3.3242969793579824E-002  -9.6096096660606839E-003   5.8503699501987680E-002
   3.2323721182553486E-002  -9.4601988911949993E-003   5.8598815029706389E-002
   3.1404472571527169E-002  -9.2295941908280693E-003   5.8910522598890513E-002
   2.7946484797750845E-002  -7.4897154822813894E-003   6.1624188113402700E-002
   2.7250620897942196E-002  -7.6251107884756641E-003   6.1349795092475720E-002
   2.6554756998133533E-002  -7.6468296491238735E-003   6.1305579452518730E-002
   2.5858893098324880E-002  -7.5548720642258059E-003   6.1491541193531646E-002
   2.5163029198516221E-002  -7.3492380337815688E-003   6.1907680315514579E-002
   5.0211536912724758E-002  -1.4870662661967460E-002   4.9866672989616917E-002
   4.8676588664719606E-002  -1.4535616452751698E-002   4.9574584783819597E-002
   4.7141640416714439E-002  -1.4125257610740474E-002   4.9482828235982074E-002
   4.5606692168709294E-002  -1.3639586135934110E-002   4.9591403346104609E-002
   4.4071743920704121E-002  -1.3078602028332109E-002   4.9900310114187107E-002
   4.3928726428631437E-002  -1.2990306504921001E-002   5.2890018935941641E-002
   4.2591789590300709E-002  -1.2676662478131609E-002   5.2672039379155336E-002
   4.1254852751969960E-002  -1.2313051363599323E-002   5.2649750983757973E-002
   3.9917915913639204E-002  -1.1899473161324055E-002   5.2823153749749510E-002
   3.8580979075308483E-002  -1.1435927871305984E-002   5.3192247677129906E-002
   3.7659704981565574E-002  -1.1109950347874514E-002   5.5904635472366182E-002
   3.6516139056338222E-002  -1.0817708503511603E-002   5.5735419019538560E-002
   3.5372573131110890E-002  -1.0500845116458164E-002   5.5757253231528796E-002
   3.4229007205883552E-002  -1.0159360186714221E-002   5.5970138108336898E-002
   3.3085441280656200E-002  -9.7932537142798037E-003   5.6374073649962803E-002
   3.1404472571527169E-002  -9.2295941908280693E-003   5.8910522598890513E-002
   3.0449637062832196E-002  -8.9587545288915132E-003   5.8764723704969046E-002
   2.9494801554137199E-002  -8.6886388693169538E-003   5.8805334979294618E-002
   2.8539966045442206E-002  -8.4192472121042763E-003   5.9032356421866806E-002
   2.7585130536747233E-002  -8.1505795572535955E-003   5.9445788032686006E-002
   2.5163029198516221E-002  -7.3492380337815688E-003   6.1907680315514579E-002
   2.4392283609782586E-002  -7.0998005542715348E-003   6.1759953435446963E-002
   2.3621538021048924E-002  -6.8764326221758126E-003   6.1793996227055170E-002
   2.2850792432315279E-002  -6.6791342374943920E-003   6.2009808690339188E-002
   2.2080046843581627E-002  -6.5079054002274428E-003   6.2407390825299003E-002
   4.4071743920704121E-002  -1.3078602028332109E-002   4.9900310114187107E-002
   4.2231582435096102E-002  -1.2509364707844944E-002   4.9238801941212884E-002
   4.0391420949488055E-002  -1.1998933594382311E-002   4.8776628172612968E-002
   3.8551259463880022E-002  -1.1547308687944097E-002   4.8513788808387373E-002
   3.6711097978271989E-002  -1.1154489988530525E-002   4.8450283848536446E-002
   3.8580979075308483E-002  -1.1435927871305984E-002   5.3192247677129906E-002
   3.6947702608892033E-002  -1.0965055117154704E-002   5.2486457986465590E-002
   3.5314426142475576E-002  -1.0529494522480004E-002   5.1995103929810174E-002
   3.3681149676059105E-002  -1.0129246087282072E-002   5.1718185507163443E-002
   3.2047873209642683E-002  -9.7643098115605675E-003   5.1655702718525431E-002
   3.3085441280656200E-002  -9.7932537142798037E-003   5.6374073649962803E-002
   3.1674151063065717E-002  -9.4207455264644496E-003   5.5647496489156428E-002
   3.0262860845475213E-002  -9.0600554505778086E-003   5.5150456191993158E-002
   2.8851570627884727E-002  -8.7111834866199361E-003   5.4882952758473047E-002
   2.7440280410294220E-002  -8.3741296345907767E-003   5.4844986188596151E-002
   2.7585130536747233E-002  -8.1505795572535955E-003   5.9445788032686006E-002
   2.6410927797617112E-002  -7.8764359357742300E-003   5.8721917449285364E-002
   2.5236725058486974E-002  -7.5906163786755021E-003   5.8242684959162225E-002
   2.4062522319356846E-002  -7.2931208859578558E-003   5.8008090562316594E-002
   2.2888319580226711E-002  -6.9839494576209304E-003   5.8018134258748695E-002
   2.2080046843581627E-002  -6.5079054002274428E-003   6.2407390825299003E-002
   2.1158032812546246E-002  -6.3321263450839549E-003   6.1709720866852114E-002
   2.0236018781510851E-002  -6.1211773067734732E-003   6.1271790231317153E-002
   1.9314004750475469E-002  -5.8750582852957617E-003   6.1093598918694203E-002
   1.8391990719440088E-002  -5.5937692806510286E-003   6.1175146928983015E-002
   3.6711097978271989E-002  -1.1154489988530525E-002   4.8450283848536446E-002
   3.5560959908887940E-002  -1.0732099858359934E-002   4.8838007373902981E-002
   3.4410821839503905E-002  -1.0191760659650967E-002   4.9456039302756105E-002
   3.3260683770119863E-002  -9.5334723924034234E-003   5.0304379635096291E-002
   3.2110545700735821E-002  -8.7572350566174073E-003   5.1383028370923345E-002
   3.2047873209642683E-002  -9.7643098115605675E-003   5.1655702718525431E-002
   3.1109349315915025E-002  -9.3696722630055851E-003   5.2186695872183470E-002
   3.0170825422187401E-002  -8.8803200093066914E-003   5.2910608973667533E-002
   2.9232301528459775E-002  -8.2962530504638518E-003   5.3827442022977623E-002
   2.8293777634732120E-002  -7.6174713864771149E-003   5.4937195020113627E-002
   2.7440280410294220E-002  -8.3741296345907767E-003   5.4844986188596151E-002
   2.6675982236562139E-002  -8.0072446676512088E-003   5.5496014607151312E-002
   2.5911684062830006E-002  -7.5688793589623743E-003   5.6302574517871670E-002
   2.5147385889097887E-002  -7.0590337085242282E-003   5.7264665920756942E-002
   2.4383087715365792E-002  -6.4777077163368224E-003   5.8382288815807315E-002
   2.2888319580226711E-002  -6.9839494576209304E-003   5.8018134258748695E-002
   2.2260858670829227E-002  -6.6448170722968741E-003   5.8765963578806361E-002
   2.1633397761431757E-002  -6.2574387086180225E-003   5.9631935935368183E-002
   2.1005936852034290E-002  -5.8218143665846860E-003   6.0616051328434215E-002
   2.0378475942636802E-002  -5.3379440461965300E-003   6.1718309758004533E-002
   1.8391990719440088E-002  -5.5937692806510286E-003   6.1175146928983015E-002
   1.7863978618716345E-002  -5.2823894769425395E-003   6.1996542787148556E-002
   1.7335966517992615E-002  -4.9459980582738233E-003   6.2898693226157404E-002
   1.6807954417268893E-002  -4.5845950246450155E-003   6.3881598246009516E-002
   1.6279942316545171E-002  -4.1981803760561820E-003   6.4945257846705184E-002
   3.2110545700735821E-002  -8.7572350566174073E-003   5.1383028370923345E-002
   2.9918799811016555E-002  -8.0953742171621101E-003   5.0326116869650828E-002
   2.7727053921297318E-002  -7.7802154389073341E-003   4.8977392987585189E-002
   2.5535308031578080E-002  -7.8117587218525658E-003   4.7336856724727594E-002
   2.3343562141858787E-002  -8.1900040659979023E-003   4.5404508081076322E-002
   2.8293777634732120E-002  -7.6174713864771149E-003   5.4937195020113627E-002
   2.5952765065688402E-002  -6.9832869287921595E-003   5.3663601777472841E-002
   2.3611752496644642E-002  -6.5330115888544010E-003   5.2383287556975716E-002
   2.1270739927600910E-002  -6.2666453666638151E-003   5.1096252358622390E-002
   1.8929727358557136E-002  -6.1841882622204469E-003   4.9802496182412725E-002
   2.4383087715365792E-002  -6.4777077163368224E-003   5.8382288815807315E-002
   2.2177899869934008E-002  -5.8711996404218203E-003   5.7054806775251307E-002
   1.9972712024502196E-002  -5.2858077388010793E-003   5.6005695159775368E-002
   1.7767524179070383E-002  -4.7215320114748979E-003   5.5234953969379871E-002
   1.5562336333638585E-002  -4.1783724584428805E-003   5.4742583204063999E-002
   2.0378475942636802E-002  -5.3379440461965300E-003   6.1718309758004533E-002
   1.8594204223753387E-002  -4.7591123520515088E-003   6.0499731862986211E-002
   1.6809932504869927E-002  -4.0386038887481185E-003   5.9844615795984386E-002
   1.5025660785986531E-002  -3.1764186562860085E-003   5.9752961556999412E-002
   1.3241389067103083E-002  -2.1725566546653696E-003   6.0224769146030671E-002
   1.6279942316545171E-002  -4.1981803760561820E-003   6.4945257846705184E-002
   1.5201678127146540E-002  -3.6470250636813084E-003   6.3998377040677401E-002
   1.4123413937747908E-002  -2.7914000386948107E-003   6.3900049465602821E-002
   1.3045149748349291E-002  -1.6313053010972543E-003   6.4650275121481318E-002
   1.1966885558950646E-002  -1.6674085088785873E-004   6.6249054008312491E-002
   2.6629114468102649E-002   0.0000000000000000        2.9461768578534726E-002
   2.7229765474314313E-002  -5.8369876667313352E-004   3.4938899536088919E-002
   2.7830416480525984E-002  -1.3166624117730563E-003   4.0107962145621928E-002
   2.8431067486737644E-002  -2.1988909352997719E-003   4.4968956407133755E-002
   2.9031718492949315E-002  -3.2303843372532776E-003   4.9521882320624412E-002
   2.0111374212021776E-002   0.0000000000000000        2.9016441114761621E-002
   2.0443295707311678E-002  -4.3744274754875696E-004   3.4308595927572863E-002
   2.0775217202601583E-002  -9.8659379002208076E-004   3.9371360066561750E-002
   2.1107138697891485E-002  -1.6474531274199731E-003   4.4204733531728296E-002
   2.1439060193181390E-002  -2.4200207597424332E-003   4.8808716323072501E-002
   1.3499805560774217E-002   0.0000000000000000        2.8698591378361778E-002
   1.3641675219341190E-002  -2.9118672842437954E-004   3.3843326629932287E-002
   1.3783544877908158E-002  -6.5652516827110520E-004   3.8837348881879293E-002
   1.3925414536475129E-002  -1.0960153195401752E-003   4.3680658134202771E-002
   1.4067284195042100E-002  -1.6096571822315883E-003   4.8373254386902723E-002
   6.7944085143599817E-003   0.0000000000000000        2.8508219369335206E-002
   6.8249040104028458E-003  -1.4493070930000343E-004   3.3543091643167218E-002
   6.8553995064457090E-003  -3.2645654652012877E-004   3.8505928591574541E-002
   6.8858950024885714E-003  -5.4457751166037517E-004   4.3396730214557165E-002
   6.9163904985314363E-003  -7.9929360472074545E-004   4.8215496512115118E-002
  -4.8169272209366842E-006   0.0000000000000000        2.8445325087681897E-002
  -7.0179195033525862E-006   1.3253098243744266E-006   3.3407890967277643E-002
  -9.2189117857689219E-006   3.6120752308476528E-006   3.8377099195647503E-002
  -1.1419904068184173E-005   6.8602962194196787E-006   4.3352949772791506E-002
  -1.3620896350600292E-005   1.1069972790097443E-005   4.8335442698709652E-002
   2.9031718492949315E-002  -3.2303843372532776E-003   4.9521882320624412E-002
   2.9104475761750289E-002  -4.2502010859230589E-003   5.1577984081360592E-002
   2.9177233030551260E-002  -5.0973996495985562E-003   5.3731688549762693E-002
   2.9249990299352241E-002  -5.7719800282798120E-003   5.5982995725830743E-002
   2.9322747568153215E-002  -6.2739422219668106E-003   5.8331905609564777E-002
   2.1439060193181390E-002  -2.4200207597424332E-003   4.8808716323072501E-002
   2.1580386665624507E-002  -3.1839931533120978E-003   5.1207425360125687E-002
   2.1721713138067620E-002  -3.8190667744515535E-003   5.3645670096797222E-002
   2.1863039610510736E-002  -4.3252416231608828E-003   5.6123450533087038E-002
   2.2004366082953846E-002  -4.7025176994400092E-003   5.8640766668995245E-002
   1.4067284195042100E-002  -1.6096571822315883E-003   4.8373254386902723E-002
   1.4219112863079725E-002  -2.1177852207011436E-003   5.1070851287708871E-002
   1.4370941531117355E-002  -2.5407338993045777E-003   5.3749916880085714E-002
   1.4522770199154982E-002  -2.8785032180419466E-003   5.6410451164033239E-002
   1.4674598867192612E-002  -3.1310931769132078E-003   5.9052454139551513E-002
   6.9163904985314363E-003  -7.9929360472074545E-004   4.8215496512115118E-002
   7.0206543541159539E-003  -1.0515772880901825E-003   5.1168261864110130E-002
   7.1249182097004697E-003  -1.2624010241575954E-003   5.4044428899628211E-002
   7.2291820652849864E-003  -1.4317648129230139E-003   5.6843997618669380E-002
   7.3334459208695048E-003  -1.5596686543863925E-003   5.9566968021233610E-002
  -1.3620896350600292E-005   1.1069972790097443E-005   4.8335442698709652E-002
  -1.4988861266817914E-005   1.4630644520760398E-005   5.1499657089329458E-002
  -1.6356826183033368E-005   1.5931850989405090E-005   5.4529206155424705E-002
  -1.7724791099249472E-005   1.4973592195926784E-005   5.7424089896995385E-002
  -1.9092756015467310E-005   1.1755868140402026E-005   6.0184308314041542E-002
   2.9322747568153215E-002  -6.2739422219668106E-003   5.8331905609564777E-002
   2.8978681875552623E-002  -6.6616678766288663E-003   5.9095939894946284E-002
   2.8634616182952027E-002  -6.9935386382353054E-003   5.9899331740713102E-002
   2.8290550490351424E-002  -7.2695545067861557E-003   6.0742081146865218E-002
   2.7946484797750845E-002  -7.4897154822813894E-003   6.1624188113402700E-002
   2.2004366082953846E-002  -4.7025176994400092E-003   5.8640766668995245E-002
   2.1710547502940873E-002  -4.9931307324576589E-003   5.9454445879591339E-002
   2.1416728922927904E-002  -5.2393164513825051E-003   6.0329261754977423E-002
   2.1122910342914938E-002  -5.4410748562145088E-003   6.1265214295153352E-002
   2.0829091762901968E-002  -5.5984059469537245E-003   6.2262303500119270E-002
   1.4674598867192612E-002  -3.1310931769132078E-003   5.9052454139551513E-002
   1.4452806504171845E-002  -3.3245935882864081E-003   5.9904350696399475E-002
   1.4231014141151081E-002  -3.4850942645296354E-003   6.0839163022441918E-002
   1.4009221778130311E-002  -3.6125952056428341E-003   6.1856891117678878E-002
   1.3787429415109551E-002  -3.7070964116260596E-003   6.2957534982110305E-002
   7.3334459208695048E-003  -1.5596686543863925E-003   5.9566968021233610E-002
   7.2054588792455311E-003  -1.6560564441151721E-003   6.0445654345370595E-002
   7.0774718376215564E-003  -1.7308720776767865E-003   6.1429035543106678E-002
   6.9494847959975826E-003  -1.7841155550711802E-003   6.2517111614441775E-002
   6.8214977543736089E-003  -1.8157868762984225E-003   6.3709882559376055E-002
  -1.9092756015467310E-005   1.1755868140402026E-005   6.0184308314041542E-002
  -3.1495371838067589E-005   1.2480700056060473E-005   6.1078356826504747E-002
  -4.3897987660669602E-005   2.3350109176064129E-005   6.2098879316971625E-002
  -5.6300603483269013E-005   4.4364095500494961E-005   6.3245875785442135E-002
  -6.8703219305871893E-005   7.5522659029242378E-005   6.4519346231916325E-002
   2.7946484797750845E-002  -7.4897154822813894E-003   6.1624188113402700E-002
   2.7250620897942196E-002  -7.6251107884756641E-003   6.1349795092475720E-002
   2.6554756998133533E-002  -7.6468296491238735E-003   6.1305579452518730E-002
   2.5858893098324880E-002  -7.5548720642258059E-003   6.1491541193531646E-002
   2.5163029198516221E-002  -7.3492380337815688E-003   6.1907680315514579E-002
   2.0829091762901968E-002  -5.5984059469537245E-003   6.2262303500119270E-002
   2.0348476133817444E-002  -5.6965232970399918E-003   6.2142550362382511E-002
   1.9867860504732923E-002  -5.7206404799132644E-003   6.2223116385123997E-002
   1.9387244875648399E-002  -5.6707574955734393E-003   6.2504001568343792E-002
   1.8906629246563868E-002  -5.5468743440206802E-003   6.2985205912041903E-002
   1.3787429415109551E-002  -3.7070964116260596E-003   6.2957534982110305E-002
   1.3492203836257467E-002  -3.7679358056043333E-003   6.2952745449230643E-002
   1.3196978257405382E-002  -3.7944513107027109E-003   6.3118416856337567E-002
   1.2901752678553303E-002  -3.7866429269211698E-003   6.3454549203431090E-002
   1.2606527099701215E-002  -3.7445106542597639E-003   6.3961142490511144E-002
   6.8214977543736089E-003  -1.8157868762984225E-003   6.3709882559376055E-002
   6.6818040052622710E-003  -1.8393483141686678E-003   6.3780380353020291E-002
   6.5421102561509323E-003  -1.8682621414921712E-003   6.3991480866159453E-002
   6.4024165070395980E-003  -1.9025283582688795E-003   6.4343184098793527E-002
   6.2627227579282541E-003  -1.9421469644989031E-003   6.4835490050922442E-002
  -6.8703219305871893E-005   7.5522659029242378E-005   6.4519346231916325E-002
  -8.2723359168155111E-005   8.9239177267039227E-005   6.4625455073751406E-002
  -9.6743499030434860E-005   5.7927027718465696E-005   6.4842308414589683E-002
  -1.1076363889271981E-004  -1.8413789616516379E-005   6.5169906254431115E-002
  -1.2478377875499783E-004  -1.3978327473793128E-004   6.5608248593275825E-002
   2.5163029198516221E-002  -7.3492380337815688E-003   6.1907680315514579E-002
   2.4392283609782586E-002  -7.0998005542715348E-003   6.1759953435446963E-002
   2.3621538021048924E-002  -6.8764326221758126E-003   6.1793996227055170E-002
   2.2850792432315279E-002  -6.6791342374943920E-003   6.2009808690339188E-002
   2.2080046843581627E-002  -6.5079054002274428E-003   6.2407390825299003E-002
   1.8906629246563868E-002  -5.5468743440206802E-003   6.2985205912041903E-002
   1.8321949018696777E-002  -5.3897969793084421E-003   6.2781231882100469E-002
   1.7737268790829680E-002  -5.2403313554903047E-003   6.2767618902216382E-002
   1.7152588562962579E-002  -5.0984774725662575E-003   6.2944366972389504E-002
   1.6567908335095492E-002  -4.9642353305361930E-003   6.3311476092619917E-002
   1.2606527099701215E-002  -3.7445106542597639E-003   6.3961142490511144E-002
   1.2216503611082157E-002  -3.6797934043453634E-003   6.3719379117216202E-002
   1.1826480122463090E-002  -3.6042300888047621E-003   6.3676568172360060E-002
   1.1436456633844037E-002  -3.5178207076379826E-003   6.3832709655942718E-002
   1.1046433145224965E-002  -3.4205652608450265E-003   6.4187803567964025E-002
   6.2627227579282541E-003  -1.9421469644989031E-003   6.4835490050922442E-002
   6.0759473869387145E-003  -1.9697898293822916E-003   6.4574395140794300E-002
   5.8891720159491706E-003  -1.9681288221192646E-003   6.4520844037486327E-002
   5.7023966449596293E-003  -1.9371639427097779E-003   6.4674836740998679E-002
   5.5156212739700828E-003  -1.8768951911539017E-003   6.5036373251331298E-002
  -1.2478377875499783E-004  -1.3978327473793128E-004   6.5608248593275825E-002
  -9.9719653733544578E-005  -2.5978625441920589E-004   6.5346279952834624E-002
  -7.4655528712087860E-005  -3.3202755543376011E-004   6.5300446497595213E-002
  -4.9591403690633744E-005  -3.5650717778159917E-004   6.5470748227557496E-002
  -2.4527278669177893E-005  -3.3322512146266581E-004   6.5857185142721542E-002
   2.2080046843581627E-002  -6.5079054002274428E-003   6.2407390825299003E-002
   2.1158032812546246E-002  -6.3321263450839549E-003   6.1709720866852114E-002
   2.0236018781510851E-002  -6.1211773067734732E-003   6.1271790231317153E-002
   1.9314004750475469E-002  -5.8750582852957617E-003   6.1093598918694203E-002
   1.8391990719440088E-002  -5.5937692806510286E-003   6.1175146928983015E-002
   1.6567908335095492E-002  -4.9642353305361930E-003   6.3311476092619917E-002
   1.5896521111299855E-002  -4.8255852763631618E-003   6.2621155711290191E-002
   1.5225133887504235E-002  -4.6705076570099507E-003   6.2172349621527984E-002
   1.4553746663708613E-002  -4.4990024724764384E-003   6.1965057823333336E-002
   1.3882359439912992E-002  -4.3110697227626837E-003   6.1999280316706262E-002
   1.1046433145224965E-002  -3.4205652608450265E-003   6.4187803567964025E-002
   1.0607447697324746E-002  -3.3190442076423965E-003   6.3486090345764523E-002
   1.0168462249424526E-002  -3.2198380072463173E-003   6.3007666383788144E-002
   9.7294768015243095E-003  -3.1229466596571151E-003   6.2752531682035012E-002
   9.2904913536240863E-003  -3.0283701648743944E-003   6.2720686240505100E-002
   5.5156212739700828E-003  -1.8768951911539017E-003   6.5036373251331298E-002
   5.2908125706208932E-003  -1.8125031389215340E-003   6.4304524770274984E-002
   5.0660038672717140E-003  -1.7691683574828226E-003   6.3777740518097564E-002
   4.8411951639225218E-003  -1.7468908468377085E-003   6.3456020494798926E-002
   4.6163864605733382E-003  -1.7456706069861050E-003   6.3339364700379167E-002
  -2.4527278669177893E-005  -3.3322512146266581E-004   6.5857185142721542E-002
  -5.3384268811691726E-005  -3.0596207020081034E-004   6.5076458984821589E-002
  -8.2241258954207294E-005  -3.1849870771913369E-004   6.4482572024456203E-002
  -1.1109824909671853E-004  -3.7083503401848933E-004   6.4075524261625327E-002
  -1.3995523923923670E-004  -4.6297104909781561E-004   6.3855315696328852E-002
   1.8391990719440088E-002  -5.5937692806510286E-003   6.1175146928983015E-002
   1.7863978618716345E-002  -5.2823894769425395E-003   6.1996542787148556E-002
   1.7335966517992615E-002  -4.9459980582738233E-003   6.2898693226157404E-002
   1.6807954417268893E-002  -4.5845950246450155E-003   6.3881598246009516E-002
   1.6279942316545171E-002  -4.1981803760561820E-003   6.4945257846705184E-002
   1.3882359439912992E-002  -4.3110697227626837E-003   6.1999280316706262E-002
   1.3445833650207753E-002  -4.1121135043623303E-003   6.2764486591861707E-002
   1.3009307860502521E-002  -3.9075379137689104E-003   6.3631910908211048E-002
   1.2572782070797286E-002  -3.6973429509824102E-003   6.4601553265753980E-002
   1.2136256281092050E-002  -3.4815286160028158E-003   6.5673413664490643E-002
   9.2904913536240863E-003  -3.0283701648743944E-003   6.2720686240505100E-002
   8.9669153352877132E-003  -2.9418375317821488E-003   6.3410310689883426E-002
   8.6433393169513574E-003  -2.8690777692639488E-003   6.4223616640805919E-002
   8.3197632986149930E-003  -2.8100908773197510E-003   6.5160604093272498E-002
   7.9961872802786285E-003  -2.7648768559495884E-003   6.6221273047283022E-002
   4.6163864605733382E-003  -1.7456706069861050E-003   6.3339364700379167E-002
   4.4272236739562390E-003  -1.7715615592020645E-003   6.3934015081213449E-002
   4.2380608873391372E-003  -1.8306176247590115E-003   6.4673810423942088E-002
   4.0488981007220370E-003  -1.9228388036570633E-003   6.5558750728565068E-002
   3.8597353141049361E-003  -2.0482250958964027E-003   6.6588835995082710E-002
  -1.3995523923923670E-004  -4.6297104909781561E-004   6.3855315696328852E-002
  -1.7324133378669032E-004  -6.0128558662175813E-004   6.4335599765851736E-002
  -2.0652742833414395E-004  -7.9215748025406041E-004   6.4982492257619456E-002
  -2.3981352288159931E-004  -1.0355867299943998E-003   6.5795993171631997E-002
  -2.7309961742905120E-004  -1.3315733358429949E-003   6.6776102507889346E-002
   1.6279942316545171E-002  -4.1981803760561820E-003   6.4945257846705184E-002
   1.5201678127146540E-002  -3.6470250636813084E-003   6.3998377040677401E-002
   1.4123413937747908E-002  -2.7914000386948107E-003   6.3900049465602821E-002
   1.3045149748349291E-002  -1.6313053010972543E-003   6.4650275121481318E-002
   1.1966885558950646E-002  -1.6674085088785873E-004   6.6249054008312491E-002
   1.2136256281092050E-002  -3.4815286160028158E-003   6.5673413664490643E-002
   1.1751090486721412E-002  -3.1986893885346812E-003   6.4791145119875493E-002
   1.1365924692350773E-002  -2.7874197482820745E-003   6.4446520134363278E-002
   1.0980758897980163E-002  -2.2477196952451935E-003   6.4639538707954525E-002
   1.0595593103609524E-002  -1.5795892294240277E-003   6.5370200840647930E-002
   7.9961872802786285E-003  -2.7648768559495884E-003   6.6221273047283022E-002
   7.9932102090859193E-003  -2.7503537133878320E-003   6.5227577464253381E-002
   7.9902331378932170E-003  -2.7834394578691787E-003   6.4460615768476642E-002
   7.9872560667005148E-003  -2.8641340893931343E-003   6.3920387959952751E-002
   7.9842789955077847E-003  -2.9924376079600856E-003   6.3606894038682027E-002
   3.8597353141049361E-003  -2.0482250958964027E-003   6.6588835995082710E-002
   3.9280372942400764E-003  -2.3020180382410937E-003   6.5307674073811314E-002
   3.9963392743752324E-003  -2.7794591674561407E-003   6.3942336367942540E-002
   4.0646412545103884E-003  -3.4805484835411299E-003   6.2492822877477018E-002
   4.1329432346455287E-003  -4.4052859864961436E-003   6.0959133602413701E-002
  -2.7309961742905120E-004  -1.3315733358429949E-003   6.6776102507889346E-002
  -4.4442825781612280E-004  -1.8536823630944110E-003   6.5031434948548905E-002
  -6.1575689820319440E-004  -2.7754788770433525E-003   6.2891681932761290E-002
  -7.8708553859027988E-004  -4.0969628776889935E-003   6.0356843460526249E-002
  -9.5841417897733761E-004  -5.8181343650323125E-003   5.7426919531843978E-002
  -4.8169272209366842E-006   0.0000000000000000        2.8445325087681897E-002
  -7.0179195033525862E-006   1.3253098243744266E-006   3.3407890967277643E-002
  -9.2189117857689219E-006   3.6120752308476528E-006   3.8377099195647503E-002
  -1.1419904068184173E-005   6.8602962194196787E-006   4.3352949772791506E-002
  -1.3620896350600292E-005   1.1069972790097443E-005   4.8335442698709652E-002
  -6.8039787894224723E-003   0.0000000000000000        2.8510316614080114E-002
  -6.8386141052992769E-003   1.4788301664972990E-004   3.3546986648910440E-002
  -6.8732494211760815E-003   3.3325512507270238E-004   3.8512145687777853E-002
  -6.9078847370528844E-003   5.5611632526891136E-004   4.3405793730682374E-002
  -6.9425200529296882E-003   8.1646661723836552E-004   4.8227930777623967E-002
  -1.3509185097698563E-002   0.0000000000000000        2.8703602029208117E-002
  -1.3654408081906801E-002   2.9444072347508538E-004   3.3850903855464180E-002
  -1.3799631066115035E-002   6.6289817491455450E-004   3.8848541341020296E-002
  -1.3944854050323273E-002   1.1053723543184039E-003   4.3696514485876449E-002
  -1.4090077034531506E-002   1.6218632616866371E-003   4.8394823290032654E-002
  -2.0120435852049208E-002   0.0000000000000000        2.9025181333065902E-002
  -2.0454399849325920E-002   4.4099843030044128E-004   3.4319642586938842E-002
  -2.0788363846602632E-002   9.9254122475640446E-004   3.9386286155374789E-002
  -2.1122327843879352E-002   1.6546283833678960E-003   4.4225112038373725E-002
  -2.1456291841156064E-002   2.4272599061349121E-003   4.8836120235935664E-002
  -2.6637731052474405E-002   0.0000000000000000        2.9475054525653473E-002
  -2.7238589407556638E-002   5.8755613712579719E-004   3.4953202843334440E-002
  -2.7839447762638879E-002   1.3221842745982613E-003   4.0125380130841354E-002
  -2.8440306117721120E-002   2.2038844124173864E-003   4.4991586388174222E-002
  -2.9041164472803346E-002   3.2326565505831802E-003   4.9551821615333044E-002
  -1.3620896350600292E-005   1.1069972790097443E-005   4.8335442698709652E-002
  -1.4988861266817914E-005   1.4630644520760398E-005   5.1499657089329458E-002
  -1.6356826183033368E-005   1.5931850989405090E-005   5.4529206155424705E-002
  -1.7724791099249472E-005   1.4973592195926784E-005   5.7424089896995385E-002
  -1.9092756015467310E-005   1.1755868140402026E-005   6.0184308314041542E-002
  -6.9425200529296882E-003   8.1646661723836552E-004   4.8227930777623967E-002
  -7.0495167666162640E-003   1.0736408934279231E-003   5.1179473624677667E-002
  -7.1565134803028415E-003   1.2869740462844272E-003   5.4054424298715195E-002
  -7.2635101939894191E-003   1.4564660758079060E-003   5.6852782799736538E-002
  -7.3705069076759940E-003   1.5821169819983452E-003   5.9574549127741724E-002
  -1.4090077034531506E-002   1.6218632616866371E-003   4.8394823290032654E-002
  -1.4244629345480073E-002   2.1326511423350610E-003   5.1092112935449269E-002
  -1.4399181656428636E-002   2.5580162415794702E-003   5.3770883559358093E-002
  -1.4553733967377202E-002   2.8979585594198676E-003   5.6431135161759127E-002
  -1.4708286278325764E-002   3.1524780958562711E-003   5.9072867742652316E-002
  -2.1456291841156064E-002   2.4272599061349121E-003   4.8836120235935664E-002
  -2.1600326597858238E-002   3.1916613912421976E-003   5.1237575021644242E-002
  -2.1744361354560419E-002   3.8290584368745060E-003   5.3678583937353412E-002
  -2.1888396111262594E-002   4.3394510430318379E-003   5.6159146983063173E-002
  -2.2032430867964779E-002   4.7228392097141986E-003   5.8679264158773441E-002
  -2.9041164472803346E-002   3.2326565505831802E-003   4.9551821615333044E-002
  -2.9116608523750767E-002   4.2506716401493564E-003   5.1615859883262623E-002
  -2.9192052574698184E-002   5.1001006321695361E-003   5.3777525432701138E-002
  -2.9267496625645609E-002   5.7809435266438017E-003   5.6036818263648612E-002
  -2.9342940676593023E-002   6.2932003235721262E-003   5.8393738376105037E-002
  -1.9092756015467310E-005   1.1755868140402026E-005   6.0184308314041542E-002
  -3.1495371838067589E-005   1.2480700056060473E-005   6.1078356826504747E-002
  -4.3897987660669602E-005   2.3350109176064129E-005   6.2098879316971625E-002
  -5.6300603483269013E-005   4.4364095500494961E-005   6.3245875785442135E-002
  -6.8703219305871893E-005   7.5522659029242378E-005   6.4519346231916325E-002
  -7.3705069076759940E-003   1.5821169819983452E-003   5.9574549127741724E-002
  -7.2654113631148830E-003   1.6807327945323469E-003   6.0473214360208000E-002
  -7.1603158185537695E-003   1.7691195430864729E-003   6.1480401935438016E-002
  -7.0552202739926576E-003   1.8472772276608138E-003   6.2596111853431807E-002
  -6.9501247294315414E-003   1.9152058482552886E-003   6.3820344114189381E-002
  -1.4708286278325764E-002   3.1524780958562711E-003   5.9072867742652316E-002
  -1.4503644208620846E-002   3.3489848890086212E-003   5.9955776053937447E-002
  -1.4299002138915926E-002   3.5148889769969086E-003   6.0929255072746449E-002
  -1.4094360069211005E-002   3.6501903598211601E-003   6.1993304799079267E-002
  -1.3889717999506083E-002   3.7548890374812932E-003   6.3147925232935997E-002
  -2.2032430867964779E-002   4.7228392097141986E-003   5.8679264158773441E-002
  -2.1746193908355953E-002   5.0172369834849294E-003   5.9526041907693200E-002
  -2.1459956948747125E-002   5.2606584109073651E-003   6.0445438728896926E-002
  -2.1173719989138310E-002   5.4531034919814928E-003   6.1437454622384542E-002
  -2.0887483029529481E-002   5.5945722267073048E-003   6.2502089588156173E-002
  -2.9342940676593023E-002   6.2932003235721262E-003   5.8393738376105037E-002
  -2.8993060462320211E-002   6.6854890779611750E-003   5.9184011921475189E-002
  -2.8643180248047389E-002   7.0064278448177600E-003   6.0028952903889390E-002
  -2.8293300033774567E-002   7.2560166241418343E-003   6.0928561323347612E-002
  -2.7943419819501759E-002   7.4342554159333302E-003   6.1882837179849923E-002
  -6.8703219305871893E-005   7.5522659029242378E-005   6.4519346231916325E-002
  -8.2723359168155111E-005   8.9239177267039227E-005   6.4625455073751406E-002
  -9.6743499030434860E-005   5.7927027718465696E-005   6.4842308414589683E-002
  -1.1076363889271981E-004  -1.8413789616516379E-005   6.5169906254431115E-002
  -1.2478377875499783E-004  -1.3978327473793128E-004   6.5608248593275825E-002
  -6.9501247294315414E-003   1.9152058482552886E-003   6.3820344114189381E-002
  -6.8362553147185545E-003   1.9546932964742136E-003   6.3839585277368813E-002
  -6.7223859000055597E-003   1.9475274639217909E-003   6.4003861050695554E-002
  -6.6085164852925718E-003   1.8937083505981339E-003   6.4313171434169578E-002
  -6.4946470705795779E-003   1.7932359565031586E-003   6.4767516427791064E-002
  -1.3889717999506083E-002   3.7548890374812932E-003   6.3147925232935997E-002
  -1.3613668919073691E-002   3.8201474156813395E-003   6.3078674104474847E-002
  -1.3337619838641287E-002   3.8371279001251438E-003   6.3188747697305203E-002
  -1.3061570758208895E-002   3.8058304908127980E-003   6.3478146011427053E-002
  -1.2785521677776494E-002   3.7262551877442623E-003   6.3946869046840299E-002
  -2.0887483029529481E-002   5.5945722267073048E-003   6.2502089588156173E-002
  -2.0414964172233548E-002   5.6856015348884896E-003   6.2342721555069570E-002
  -1.9942445314937614E-002   5.7267283363285383E-003   6.2396968354418596E-002
  -1.9469926457641683E-002   5.7179526310275107E-003   6.2664829986203222E-002
  -1.8997407600345746E-002   5.6592744189853314E-003   6.3146306450423420E-002
  -2.7943419819501759E-002   7.4342554159333302E-003   6.1882837179849923E-002
  -2.7240141074198154E-002   7.5510556540956258E-003   6.1631727629153019E-002
  -2.6536862328894545E-002   7.6163287725318531E-003   6.1628523022035843E-002
  -2.5833583583590940E-002   7.6300747712421480E-003   6.1873223358498416E-002
  -2.5130304838287331E-002   7.5922936502264837E-003   6.2365828638540705E-002
  -1.2478377875499783E-004  -1.3978327473793128E-004   6.5608248593275825E-002
  -9.9719653733544578E-005  -2.5978625441920589E-004   6.5346279952834624E-002
  -7.4655528712087860E-005  -3.3202755543376011E-004   6.5300446497595213E-002
  -4.9591403690633744E-005  -3.5650717778159917E-004   6.5470748227557496E-002
  -2.4527278669177893E-005  -3.3322512146266581E-004   6.5857185142721542E-002
  -6.4946470705795779E-003   1.7932359565031586E-003   6.4767516427791064E-002
  -6.2614101993750159E-003   1.6815519184371214E-003   6.4612569868706907E-002
  -6.0281733281704547E-003   1.5940978732003411E-003   6.4657833616787119E-002
  -5.7949364569658910E-003   1.5308738207926529E-003   6.4903307672031937E-002
  -5.5616995857613316E-003   1.4918797612143153E-003   6.5348992034441084E-002
  -1.2785521677776494E-002   3.7262551877442623E-003   6.3946869046840299E-002
  -1.2360036938426092E-002   3.6228900912935111E-003   6.3875412883275612E-002
  -1.1934552199075691E-002   3.5202233018343555E-003   6.3988242148838081E-002
  -1.1509067459725292E-002   3.4182548193670151E-003   6.4285356843527777E-002
  -1.1083582720374897E-002   3.3169846438913242E-003   6.4766756967344741E-002
  -1.8997407600345746E-002   5.6592744189853314E-003   6.3146306450423420E-002
  -1.8395599870886774E-002   5.5642282641498141E-003   6.3134808996540767E-002
  -1.7793792141427810E-002   5.4463487304684411E-003   6.3291672093747961E-002
  -1.7191984411968845E-002   5.3056358179412663E-003   6.3616895742045140E-002
  -1.6590176682509877E-002   5.1420895265683469E-003   6.4110479941432152E-002
  -2.5130304838287331E-002   7.5922936502264837E-003   6.2365828638540705E-002
  -2.4368098996757060E-002   7.5055664370061725E-003   6.2390758208502484E-002
  -2.3605893155226799E-002   7.3724741591024504E-003   6.2568123451516841E-002
  -2.2843687313696539E-002   7.1930168165155548E-003   6.2897924367583957E-002
  -2.2081481472166271E-002   6.9671944092453142E-003   6.3380160956703735E-002
  -2.4527278669177893E-005  -3.3322512146266581E-004   6.5857185142721542E-002
  -5.3384268811691726E-005  -3.0596207020081034E-004   6.5076458984821589E-002
  -8.2241258954207294E-005  -3.1849870771913369E-004   6.4482572024456203E-002
  -1.1109824909671853E-004  -3.7083503401848933E-004   6.4075524261625327E-002
  -1.3995523923923670E-004  -4.6297104909781561E-004   6.3855315696328852E-002
  -5.5616995857613316E-003   1.4918797612143153E-003   6.5348992034441084E-002
  -5.3904874602598929E-003   1.4539457797744515E-003   6.4565830204463076E-002
  -5.2192753347584525E-003   1.3939019617827883E-003   6.3995967408238361E-002
  -5.0480632092570052E-003   1.3117483072390534E-003   6.3639403645767118E-002
  -4.8768510837555734E-003   1.2074848161434670E-003   6.3496138917049416E-002
  -1.1083582720374897E-002   3.3169846438913242E-003   6.4766756967344741E-002
  -1.0685841643010566E-002   3.2138536297497550E-003   6.3998849317516954E-002
  -1.0288100565646247E-002   3.1063026312848768E-003   6.3470700537661573E-002
  -9.8903594882819197E-003   2.9943316484965406E-003   6.3182310627778626E-002
  -9.4926184109175946E-003   2.8779406813848885E-003   6.3133679587867933E-002
  -1.6590176682509877E-002   5.1420895265683469E-003   6.4110479941432152E-002
  -1.5939446817063736E-002   4.9737614797250931E-003   6.3375516323983416E-002
  -1.5288716951617598E-002   4.8187033007869653E-003   6.2906771412725937E-002
  -1.4637987086171448E-002   4.6769149897540000E-003   6.2704245207659742E-002
  -1.3987257220725312E-002   4.5483965466261850E-003   6.2767937708784832E-002
  -2.2081481472166271E-002   6.9671944092453142E-003   6.3380160956703735E-002
  -2.1151302982419379E-002   6.7336693297003203E-003   6.2695831223862436E-002
  -2.0221124492672490E-002   6.5311039702889151E-003   6.2304180033431356E-002
  -1.9290946002925587E-002   6.3594983310115219E-003   6.2205207385410494E-002
  -1.8360767513178701E-002   6.2188524118676480E-003   6.2398913279799850E-002
  -1.3995523923923670E-004  -4.6297104909781561E-004   6.3855315696328852E-002
  -1.7324133378669032E-004  -6.0128558662175813E-004   6.4335599765851736E-002
  -2.0652742833414395E-004  -7.9215748025406041E-004   6.4982492257619456E-002
  -2.3981352288159931E-004  -1.0355867299943998E-003   6.5795993171631997E-002
  -2.7309961742905120E-004  -1.3315733358429949E-003   6.6776102507889346E-002
  -4.8768510837555734E-003   1.2074848161434670E-003   6.3496138917049416E-002
  -4.7495480032083166E-003   1.0765979876908027E-003   6.4049685159641156E-002
  -4.6222449226610441E-003   9.1457432107593106E-004   6.4757801330177694E-002
  -4.4949418421137829E-003   7.2141381629893184E-004   6.5620487428658753E-002
  -4.3676387615665078E-003   4.9711647335992648E-004   6.6637743455084497E-002
  -9.4926184109175946E-003   2.8779406813848885E-003   6.3133679587867933E-002
  -9.2167646495758641E-003   2.7544815620034191E-003   6.3781908521474903E-002
  -8.9409108882341354E-003   2.6213061224059156E-003   6.4572668888726231E-002
  -8.6650571268924118E-003   2.4784143625924838E-003   6.5505960689621875E-002
  -8.3892033655506883E-003   2.3258062825629588E-003   6.6581783924162002E-002
  -1.3987257220725312E-002   4.5483965466261850E-003   6.2767937708784832E-002
  -1.3574891272889364E-002   4.4323651363160632E-003   6.3532269851353046E-002
  -1.3162525325053413E-002   4.3280379237360146E-003   6.4427094933265316E-002
  -1.2750159377217452E-002   4.2354149088859811E-003   6.5452412954521672E-002
  -1.2337793429381506E-002   4.1544960917658802E-003   6.6608223915122028E-002
  -1.8360767513178701E-002   6.2188524118676480E-003   6.2398913279799850E-002
  -1.7823927873148779E-002   6.1102487106286241E-003   6.3300769149275349E-002
  -1.7287088233118864E-002   6.0347697250660026E-003   6.4321079463794673E-002
  -1.6750248593088959E-002   5.9924154551793951E-003   6.5459844223357794E-002
  -1.6213408953059033E-002   5.9831859009689681E-003   6.6717063427964851E-002
  -2.7309961742905120E-004  -1.3315733358429949E-003   6.6776102507889346E-002
  -4.4442825781612280E-004  -1.8536823630944110E-003   6.5031434948548905E-002
  -6.1575689820319440E-004  -2.7754788770433525E-003   6.2891681932761290E-002
  -7.8708553859027988E-004  -4.0969628776889935E-003   6.0356843460526249E-002
  -9.5841417897733761E-004  -5.8181343650323125E-003   5.7426919531843978E-002
  -4.3676387615665078E-003   4.9711647335992648E-004   6.6637743455084497E-002
  -4.7482719470301905E-003   1.6643027103493968E-004   6.4861167163614314E-002
  -5.1289051324938679E-003  -3.4589681190028143E-004   6.3061067238438073E-002
  -5.5095383179575375E-003  -1.0398647754451956E-003   6.1237443679556261E-002
  -5.8901715034212140E-003  -1.9154736196003164E-003   5.9390296486968142E-002
  -8.3892033655506883E-003   2.3258062825629588E-003   6.6581783924162002E-002
  -8.6075792733496387E-003   2.1865429051640406E-003   6.4991345506649562E-002
  -8.8259551811485978E-003   2.0836852532426370E-003   6.3748945278172472E-002
  -9.0443310889475464E-003   2.0172333267984947E-003   6.2854583238730721E-002
  -9.2627069967465073E-003   1.9871871258316798E-003   6.2308259388324516E-002
  -1.2337793429381506E-002   4.1544960917658802E-003   6.6608223915122028E-002
  -1.2022350236774462E-002   4.2066555392933219E-003   6.5421969977654565E-002
  -1.1706907044167386E-002   4.5132673183854097E-003   6.4955316051963946E-002
  -1.1391463851560332E-002   5.0743314290422389E-003   6.5208262138049894E-002
  -1.1076020658953281E-002   5.8898478712636759E-003   6.6180808235912367E-002
  -1.6213408953059033E-002   5.9831859009689681E-003   6.6717063427964851E-002
  -1.4992584837304639E-002   6.2267681734226032E-003   6.6153040576629796E-002
  -1.3771760721550248E-002   6.9428493835285293E-003   6.6680179559812508E-002
  -1.2550936605795872E-002   8.1314295312860697E-003   6.8298480377513668E-002
  -1.1330112490041469E-002   9.7925086166956721E-003   7.1007943029732346E-002
  -2.6637731052474405E-002   0.0000000000000000        2.9475054525653473E-002
  -2.7238589407556638E-002   5.8755613712579719E-004   3.4953202843334440E-002
  -2.7839447762638879E-002   1.3221842745982613E-003   4.0125380130841354E-002
  -2.8440306117721120E-002   2.2038844124173864E-003   4.4991586388174222E-002
  -2.9041164472803346E-002   3.2326565505831802E-003   4.9551821615333044E-002
  -3.3397527058491083E-002   0.0000000000000000        3.0187132984243911E-002
  -3.4239656361800881E-002   9.6144447665106637E-004   3.5275867915358930E-002
  -3.5081785665110679E-002   2.0255043461474467E-003   4.0188031980192884E-002
  -3.5923914968420484E-002   3.1921796084891322E-003   4.4923625178745749E-002
  -3.6766044271730268E-002   4.4614702636761412E-003   4.9482647511017538E-002
  -4.0736280229616173E-002   0.0000000000000000        3.1295328086110297E-002
  -4.1690280317260568E-002   1.3353328161763369E-003   3.5950193023158029E-002
  -4.2644280404904963E-002   2.7288244176966320E-003   4.0557887257817657E-002
  -4.3598280492549359E-002   4.1804748045608823E-003   4.5118410790089158E-002
  -4.4552280580193747E-002   5.6902839767690953E-003   4.9631763619972541E-002
  -4.8653990565849667E-002   0.0000000000000000        3.2799639831252628E-002
  -4.9590461273935703E-002   1.7092211557016080E-003   3.6976178166731724E-002
  -5.0526931982021711E-002   3.4321444892458199E-003   4.1234945963715651E-002
  -5.1463402690107747E-002   5.1687700006326324E-003   4.5575943222204450E-002
  -5.2399873398193776E-002   6.9190976898620563E-003   4.9999169942198093E-002
  -5.7150658067191579E-002   0.0000000000000000        3.4700068219670907E-002
  -5.7940199231826264E-002   2.0831094952268774E-003   3.8353823346079993E-002
  -5.8729740396460950E-002   4.1354645607950043E-003   4.2219208097886901E-002
  -5.9519281561095649E-002   6.1570651967043782E-003   4.6296222475091631E-002
  -6.0308822725730314E-002   8.1479114029550104E-003   5.0584866477694168E-002
  -2.9041164472803346E-002   3.2326565505831802E-003   4.9551821615333044E-002
  -2.9116608523750767E-002   4.2506716401493564E-003   5.1615859883262623E-002
  -2.9192052574698184E-002   5.1001006321695361E-003   5.3777525432701138E-002
  -2.9267496625645609E-002   5.7809435266438017E-003   5.6036818263648612E-002
  -2.9342940676593023E-002   6.2932003235721262E-003   5.8393738376105037E-002
  -3.6766044271730268E-002   4.4614702636761412E-003   4.9482647511017538E-002
  -3.6782124479882633E-002   5.6944067039763520E-003   5.1275110870614253E-002
  -3.6798204688034984E-002   6.7520193216576508E-003   5.3088674634292163E-002
  -3.6814284896187335E-002   7.6343081167200653E-003   5.4923338802051254E-002
  -3.6830365104339707E-002   8.3412730891635548E-003   5.6779103373891505E-002
  -4.4552280580193747E-002   5.6902839767690953E-003   4.9631763619972541E-002
  -4.4585523822978805E-002   7.1381417678033606E-003   5.1145914346163460E-002
  -4.4618767065763870E-002   8.4039380111457507E-003   5.2604638599007797E-002
  -4.4652010308548921E-002   9.4876727067963081E-003   5.4007936378505539E-002
  -4.4685253551333980E-002   1.0389345854754976E-002   5.5355807684656720E-002
  -5.2399873398193776E-002   6.9190976898620563E-003   4.9999169942198093E-002
  -5.2526806553039283E-002   8.5818768316303588E-003   5.1228270309910236E-002
  -5.2653739707884818E-002   1.0055856700633862E-002   5.2325417326848055E-002
  -5.2780672862730339E-002   1.1341037296872533E-002   5.3290610993011502E-002
  -5.2907606017575853E-002   1.2437418620346429E-002   5.4123851308400604E-002
  -6.0308822725730314E-002   8.1479114029550104E-003   5.0584866477694168E-002
  -6.0605972670064082E-002   1.0025611895457368E-002   5.1522178761854602E-002
  -6.0903122614397842E-002   1.1707775390121964E-002   5.2251010817812915E-002
  -6.1200272558731603E-002   1.3194401886948808E-002   5.2771362645569156E-002
  -6.1497422503065342E-002   1.4485491385937833E-002   5.3083234245123227E-002
  -2.9342940676593023E-002   6.2932003235721262E-003   5.8393738376105037E-002
  -2.8993060462320211E-002   6.6854890779611750E-003   5.9184011921475189E-002
  -2.8643180248047389E-002   7.0064278448177600E-003   6.0028952903889390E-002
  -2.8293300033774567E-002   7.2560166241418343E-003   6.0928561323347612E-002
  -2.7943419819501759E-002   7.4342554159333302E-003   6.1882837179849923E-002
  -3.6830365104339707E-002   8.3412730891635548E-003   5.6779103373891505E-002
  -3.6378405004620654E-002   8.8854280509188845E-003   5.7138502255271242E-002
  -3.5926444904901614E-002   9.2792868139167910E-003   5.7647393470499422E-002
  -3.5474484805182595E-002   9.5228493781572207E-003   5.8305777019575990E-002
  -3.5022524705463534E-002   9.6161157436401995E-003   5.9113652902500952E-002
  -4.4685253551333980E-002   1.0389345854754976E-002   5.5355807684656720E-002
  -4.4036388669364351E-002   1.1085367023876563E-002   5.5205385690821132E-002
  -4.3387523787394723E-002   1.1552145783015767E-002   5.5299280927638320E-002
  -4.2738658905425109E-002   1.1789682132172605E-002   5.5637493395108248E-002
  -4.2089794023455487E-002   1.1797976071347048E-002   5.6220023093230931E-002
  -5.2907606017575853E-002   1.2437418620346429E-002   5.4123851308400604E-002
  -5.1967011456551304E-002   1.3285305996834229E-002   5.3384662228124775E-002
  -5.1026416895526741E-002   1.3825004752114742E-002   5.2984615275306034E-002
  -5.0085822334502171E-002   1.4056514886187964E-002   5.2923710449944483E-002
  -4.9145227773477601E-002   1.3979836399053907E-002   5.3201947752039999E-002
  -6.1497422503065342E-002   1.4485491385937833E-002   5.3083234245123227E-002
  -6.0170273366181470E-002   1.5485244969791940E-002   5.1676331867182200E-002
  -5.8843124229297619E-002   1.6097863721213745E-002   5.0703396513502696E-002
  -5.7515975092413761E-002   1.6323347640203399E-002   5.0164428184084564E-002
  -5.6188825955529889E-002   1.6161696726760752E-002   5.0059426878928046E-002
  -2.7943419819501759E-002   7.4342554159333302E-003   6.1882837179849923E-002
  -2.7240141074198154E-002   7.5510556540956258E-003   6.1631727629153019E-002
  -2.6536862328894545E-002   7.6163287725318531E-003   6.1628523022035843E-002
  -2.5833583583590940E-002   7.6300747712421480E-003   6.1873223358498416E-002
  -2.5130304838287331E-002   7.5922936502264837E-003   6.2365828638540705E-002
  -3.5022524705463534E-002   9.6161157436401995E-003   5.9113652902500952E-002
  -3.4082064854502957E-002   9.6145211063528996E-003   5.8818178618596548E-002
  -3.3141605003542393E-002   9.5735006622825157E-003   5.8749161602426332E-002
  -3.2201145152581816E-002   9.4930544114289125E-003   5.8906601853990367E-002
  -3.1260685301621252E-002   9.3731823537923364E-003   5.9290499373288535E-002
  -4.2089794023455487E-002   1.1797976071347048E-002   5.6220023093230931E-002
  -4.0933600742683471E-002   1.1677986558610180E-002   5.5892285389061935E-002
  -3.9777407461911475E-002   1.1530672552033121E-002   5.5769557276781553E-002
  -3.8621214181139472E-002   1.1356034051615716E-002   5.5851838756389875E-002
  -3.7465020900367484E-002   1.1154071057358120E-002   5.6139129827886873E-002
  -4.9145227773477601E-002   1.3979836399053907E-002   5.3201947752039999E-002
  -4.7794748738739692E-002   1.3741452010867499E-002   5.2854047940549223E-002
  -4.6444269704001791E-002   1.3487844441783726E-002   5.2689710045101576E-002
  -4.5093790669263882E-002   1.3219013691802542E-002   5.2708934065697093E-002
  -4.3743311634525987E-002   1.2934959760923938E-002   5.2911720002335620E-002
  -5.6188825955529889E-002   1.6161696726760752E-002   5.0059426878928046E-002
  -5.4665508842671601E-002   1.5804917463124762E-002   4.9703466273058342E-002
  -5.3142191729813354E-002   1.5445016331534302E-002   4.9509619907386247E-002
  -5.1618874616955079E-002   1.5081993331989264E-002   4.9477887781911797E-002
  -5.0095557504096791E-002   1.4715848464489756E-002   4.9608269896634916E-002
  -2.5130304838287331E-002   7.5922936502264837E-003   6.2365828638540705E-002
  -2.4368098996757060E-002   7.5055664370061725E-003   6.2390758208502484E-002
  -2.3605893155226799E-002   7.3724741591024504E-003   6.2568123451516841E-002
  -2.2843687313696539E-002   7.1930168165155548E-003   6.2897924367583957E-002
  -2.2081481472166271E-002   6.9671944092453142E-003   6.3380160956703735E-002
  -3.1260685301621252E-002   9.3731823537923364E-003   5.9290499373288535E-002
  -3.0336980544283999E-002   9.2117161439174006E-003   5.9205473269403883E-002
  -2.9413275786946788E-002   9.0064874363488534E-003   5.9291009324080476E-002
  -2.8489571029609573E-002   8.7574962310867782E-003   5.9547107537318289E-002
  -2.7565866272272324E-002   8.4647425281312583E-003   5.9973767909117404E-002
  -3.7465020900367484E-002   1.1154071057358120E-002   5.6139129827886873E-002
  -3.6361690741714692E-002   1.0917865850828490E-002   5.5946750617145560E-002
  -3.5258360583061921E-002   1.0640500713595114E-002   5.5943060050474072E-002
  -3.4155030424409143E-002   1.0321975645658028E-002   5.6128058127872464E-002
  -3.3051700265756385E-002   9.9622906470172023E-003   5.6501744849340688E-002
  -4.3743311634525987E-002   1.2934959760923938E-002   5.2911720002335620E-002
  -4.2442229589049071E-002   1.2624015557739732E-002   5.2614590251727454E-002
  -4.1141147543572162E-002   1.2274513990841418E-002   5.2524275630697746E-002
  -3.9840065498095260E-002   1.1886455060229182E-002   5.2640776139246399E-002
  -3.8538983452618365E-002   1.1459838765903091E-002   5.2964091777373525E-002
  -5.0095557504096791E-002   1.4715848464489756E-002   4.9608269896634916E-002
  -4.8578597086287173E-002   1.4330165264650835E-002   4.9208992173149613E-002
  -4.7061636668477548E-002   1.3908527268087736E-002   4.9034656064751436E-002
  -4.5544676250667923E-002   1.3450934474800506E-002   4.9085261571440136E-002
  -4.4027715832858291E-002   1.2957386884789091E-002   4.9360808693215963E-002
  -2.2081481472166271E-002   6.9671944092453142E-003   6.3380160956703735E-002
  -2.1151302982419379E-002   6.7336693297003203E-003   6.2695831223862436E-002
  -2.0221124492672490E-002   6.5311039702889151E-003   6.2304180033431356E-002
  -1.9290946002925587E-002   6.3594983310115219E-003   6.2205207385410494E-002
  -1.8360767513178701E-002   6.2188524118676480E-003   6.2398913279799850E-002
  -2.7565866272272324E-002   8.4647425281312583E-003   5.9973767909117404E-002
  -2.6358031444959136E-002   8.1627116973501668E-003   5.9301050759142299E-002
  -2.5150196617645941E-002   7.8858891086113977E-003   5.8890967741889622E-002
  -2.3942361790332732E-002   7.6342747619149356E-003   5.8743518857359345E-002
  -2.2734526963019554E-002   7.4078686572611185E-003   5.8858704105551579E-002
  -3.3051700265756385E-002   9.9622906470172023E-003   5.6501744849340688E-002
  -3.1596253510564665E-002   9.5917540650000133E-003   5.5834888804140455E-002
  -3.0140806755372961E-002   9.2406742469337694E-003   5.5400622481974804E-002
  -2.8685360000181261E-002   8.9090511928186823E-003   5.5198945882843790E-002
  -2.7229913244989565E-002   8.5968849026545613E-003   5.5229859006747317E-002
  -3.8538983452618365E-002   1.1459838765903091E-002   5.2964091777373525E-002
  -3.6865969179235951E-002   1.1020796432649832E-002   5.2297345358856821E-002
  -3.5192954905853571E-002   1.0595459385256169E-002   5.1833144253686889E-002
  -3.3519940632471171E-002   1.0183827623722318E-002   5.1571488461863726E-002
  -3.1846926359088784E-002   9.7859011480480179E-003   5.1512377983387467E-002
  -4.4027715832858291E-002   1.2957386884789091E-002   4.9360808693215963E-002
  -4.2167178450973009E-002   1.2449838800299706E-002   4.8688420423291440E-002
  -4.0306641069087733E-002   1.1950244523578596E-002   4.8188533057025806E-002
  -3.8446103687202471E-002   1.1458604054625891E-002   4.7861146594419229E-002
  -3.6585566305317174E-002   1.0974917393441530E-002   4.7706261035471598E-002
  -1.8360767513178701E-002   6.2188524118676480E-003   6.2398913279799850E-002
  -1.7823927873148779E-002   6.1102487106286241E-003   6.3300769149275349E-002
  -1.7287088233118864E-002   6.0347697250660026E-003   6.4321079463794673E-002
  -1.6750248593088959E-002   5.9924154551793951E-003   6.5459844223357794E-002
  -1.6213408953059033E-002   5.9831859009689681E-003   6.6717063427964851E-002
  -2.2734526963019554E-002   7.4078686572611185E-003   5.8858704105551579E-002
  -2.2067916089029270E-002   7.1965663883286068E-003   5.9669312004352548E-002
  -2.1401305215039045E-002   6.9902635487963660E-003   6.0621007926030437E-002
  -2.0734694341048781E-002   6.7889601386645834E-003   6.1713791870585073E-002
  -2.0068083467058521E-002   6.5926561579332521E-003   6.2947663838016643E-002
  -2.7229913244989565E-002   8.5968849026545613E-003   5.5229859006747317E-002
  -2.6410897559205979E-002   8.2828840660282982E-003   5.5921093648598222E-002
  -2.5591881873422397E-002   7.9457573725267849E-003   5.6776049891158947E-002
  -2.4772866187638815E-002   7.5855048221498272E-003   5.7794727734429507E-002
  -2.3953850501855257E-002   7.2021264148975084E-003   5.8977127178409902E-002
  -3.1846926359088784E-002   9.7859011480480179E-003   5.1512377983387467E-002
  -3.0852872283678869E-002   9.3692017437282185E-003   5.2056114082012390E-002
  -2.9858818208268988E-002   8.9012511962572316E-003   5.2786205359180188E-002
  -2.8864764132859072E-002   8.3820495056351543E-003   5.3702651814890680E-002
  -2.7870710057449215E-002   7.8115966718618896E-003   5.4805453449144143E-002
  -3.6585566305317174E-002   1.0974917393441530E-002   4.7706261035471598E-002
  -3.5393840262447990E-002   1.0455519421427917E-002   4.8074373304594908E-002
  -3.4202114219578791E-002   9.8567450199876783E-003   4.8651474330094063E-002
  -3.3010388176709600E-002   9.1785941891202039E-003   4.9437564111968979E-002
  -3.1818662133840395E-002   8.4210669288261042E-003   5.0432642650219572E-002
  -1.6213408953059033E-002   5.9831859009689681E-003   6.6717063427964851E-002
  -1.4992584837304639E-002   6.2267681734226032E-003   6.6153040576629796E-002
  -1.3771760721550248E-002   6.9428493835285293E-003   6.6680179559812508E-002
  -1.2550936605795872E-002   8.1314295312860697E-003   6.8298480377513668E-002
  -1.1330112490041469E-002   9.7925086166956721E-003   7.1007943029732346E-002
  -2.0068083467058521E-002   6.5926561579332521E-003   6.2947663838016643E-002
  -1.7967353369192189E-002   6.5258532065583241E-003   6.2504543396960627E-002
  -1.5866623271325854E-002   6.7130528844961262E-003   6.2730073085610433E-002
  -1.3765893173459522E-002   7.1542551917462387E-003   6.3624252903966200E-002
  -1.1665163075593163E-002   7.8494601283091159E-003   6.5187082852027678E-002
  -2.3953850501855257E-002   7.2021264148975084E-003   5.8977127178409902E-002
  -2.1395726126689059E-002   6.8249382396941560E-003   5.8436412839293309E-002
  -1.8837601751522881E-002   6.4832563854639383E-003   5.8141836925070682E-002
  -1.6279477376356748E-002   6.1770808522067389E-003   5.8093399435741808E-002
  -1.3721353001190501E-002   5.9064116399226707E-003   5.8291100371306470E-002
  -2.7870710057449215E-002   7.8115966718618896E-003   5.4805453449144143E-002
  -2.5277703109795279E-002   7.1240232728299879E-003   5.3948648903627744E-002
  -2.2684696162141339E-002   6.2534598864316983E-003   5.2915471078193027E-002
  -2.0091689214487438E-002   5.1999065126671845E-003   5.1705919972839909E-002
  -1.7498682266833491E-002   3.9633631515361700E-003   5.0319995587568528E-002
  -3.1818662133840395E-002   8.4210669288261042E-003   5.0432642650219572E-002
  -2.9613284318510819E-002   7.4231083059658198E-003   4.9041251589963808E-002
  -2.7407906503181222E-002   6.0236633873995277E-003   4.7050975544977586E-002
  -2.5202528687851684E-002   4.2227321731274810E-003   4.4461814515261003E-002
  -2.2997150872522076E-002   2.0203146631496693E-003   4.1273768500813990E-002
  -5.7150658067191579E-002   0.0000000000000000        3.4700068219670907E-002
  -5.7940199231826264E-002   2.0831094952268774E-003   3.8353823346079993E-002
  -5.8729740396460950E-002   4.1354645607950043E-003   4.2219208097886901E-002
  -5.9519281561095649E-002   6.1570651967043782E-003   4.6296222475091631E-002
  -6.0308822725730314E-002   8.1479114029550104E-003   5.0584866477694168E-002
  -6.5815715832743482E-002   0.0000000000000000        3.7220170406989182E-002
  -6.6622194940507140E-002   2.9130768252300767E-003   4.0843516547380297E-002
  -6.7428674048270812E-002   5.7688719717597283E-003   4.4221357176115660E-002
  -6.8235153156034470E-002   8.5673854395889593E-003   4.7353692293195228E-002
  -6.9041632263798128E-002   1.1308617228717767E-002   5.0240521898619050E-002
  -7.4238596961606979E-002   0.0000000000000000        4.0583503548831487E-002
  -7.5519149149553211E-002   3.7430441552332755E-003   4.4149913454162963E-002
  -7.6799701337499429E-002   7.4022793827244558E-003   4.7013682710785085E-002
  -7.8080253525445634E-002   1.0977705682473539E-002   4.9174811318697852E-002
  -7.9360805713391880E-002   1.4469323054480523E-002   5.0633299277901264E-002
  -8.2419301453782068E-002   0.0000000000000000        4.4790067645197829E-002
  -8.4631061858964421E-002   4.5730114852364744E-003   4.8273014066427991E-002
  -8.6842822264146802E-002   9.0356867936891815E-003   5.0596184701895218E-002
  -8.9054582669329155E-002   1.3388025925358114E-002   5.1759579551599481E-002
  -9.1266343074511536E-002   1.7630028880243277E-002   5.1763198615540837E-002
  -9.0357829309268736E-002   0.0000000000000000        4.9839862696088207E-002
  -9.3957933068740840E-002   5.4029788152396736E-003   5.3212818384175381E-002
  -9.7558036828212930E-002   1.0669094204653905E-002   5.4968863149446032E-002
 -0.10115814058768505        1.5798346168242699E-002   5.5107996991900152E-002
 -0.10475824434715714        2.0790734706006037E-002   5.3630219911537741E-002
  -6.0308822725730314E-002   8.1479114029550104E-003   5.0584866477694168E-002
  -6.0605972670064082E-002   1.0025611895457368E-002   5.1522178761854602E-002
  -6.0903122614397842E-002   1.1707775390121964E-002   5.2251010817812915E-002
  -6.1200272558731603E-002   1.3194401886948808E-002   5.2771362645569156E-002
  -6.1497422503065342E-002   1.4485491385937833E-002   5.3083234245123227E-002
  -6.9041632263798128E-002   1.1308617228717767E-002   5.0240521898619050E-002
  -6.9310638943259478E-002   1.3752308921560067E-002   4.9461426008472878E-002
  -6.9579645622720857E-002   1.5658202100529789E-002   4.8947096876273563E-002
  -6.9848652302182249E-002   1.7026296765626933E-002   4.8697534502021161E-002
  -7.0117658981643599E-002   1.7856592916851467E-002   4.8712738885715604E-002
  -7.9360805713391880E-002   1.4469323054480523E-002   5.0633299277901264E-002
  -7.9128422141831856E-002   1.7479005947662760E-002   4.7795533697413670E-002
  -7.8896038570271831E-002   1.9608628810937619E-002   4.5695781861021932E-002
  -7.8663654998711835E-002   2.0858191644305062E-002   4.4334043768726100E-002
  -7.8431271427151825E-002   2.1227694447765125E-002   4.3710319420526111E-002
  -9.1266343074511536E-002   1.7630028880243277E-002   5.1763198615540837E-002
  -9.0059322265781130E-002   2.1205702973765454E-002   4.6524501828677005E-002
  -8.8852301457050767E-002   2.3559055521345438E-002   4.2497065772058022E-002
  -8.7645280648320389E-002   2.4690086522983188E-002   3.9680890445683917E-002
  -8.6438259839589984E-002   2.4598795978678784E-002   3.8075975849554682E-002
 -0.10475824434715714        2.0790734706006037E-002   5.3630219911537741E-002
 -0.10210333931510737        2.4932399999868151E-002   4.5648330402262849E-002
  -9.9448434283057635E-002   2.7509482231753268E-002   3.9350948609381819E-002
  -9.6793529251007884E-002   2.8521981401661321E-002   3.4738074532894667E-002
  -9.4138624218958120E-002   2.7969897509592404E-002   3.1809708172801376E-002
  -6.1497422503065342E-002   1.4485491385937833E-002   5.3083234245123227E-002
  -6.0170273366181470E-002   1.5485244969791940E-002   5.1676331867182200E-002
  -5.8843124229297619E-002   1.6097863721213745E-002   5.0703396513502696E-002
  -5.7515975092413761E-002   1.6323347640203399E-002   5.0164428184084564E-002
  -5.6188825955529889E-002   1.6161696726760752E-002   5.0059426878928046E-002
  -7.0117658981643599E-002   1.7856592916851467E-002   4.8712738885715604E-002
  -6.8398744975090783E-002   1.8307633286135605E-002   4.7266334445031893E-002
  -6.6679830968537954E-002   1.8537960605411470E-002   4.6169492719424624E-002
  -6.4960916961985138E-002   1.8547574874679104E-002   4.5422213708893808E-002
  -6.3242002955432294E-002   1.8336476093938417E-002   4.5024497413439418E-002
  -7.8431271427151825E-002   2.1227694447765125E-002   4.3710319420526111E-002
  -7.6404996860115038E-002   2.1130021602479336E-002   4.2390834699523643E-002
  -7.4378722293078292E-002   2.0978057489609209E-002   4.1336508384412572E-002
  -7.2352447726041505E-002   2.0771802109154813E-002   4.0547340475192969E-002
  -7.0326173159004760E-002   2.0511255461116089E-002   4.0023330971864751E-002
  -8.6438259839589984E-002   2.4598795978678784E-002   3.8075975849554682E-002
  -8.4189029021254302E-002   2.3952409918823022E-002   3.7049832630657399E-002
  -8.1939798202918634E-002   2.3418154373806954E-002   3.6204443508466508E-002
  -7.9690567384582925E-002   2.2996029343630518E-002   3.5539808482982042E-002
  -7.7441336566247271E-002   2.2686034828293743E-002   3.5055927554203933E-002
  -9.4138624218958120E-002   2.7969897509592404E-002   3.1809708172801376E-002
  -9.1750841458508550E-002   2.6774798235166746E-002   3.1243328238433246E-002
  -8.9363058698058967E-002   2.5858251258004686E-002   3.0773298091586493E-002
  -8.6975275937609398E-002   2.5220256578106236E-002   3.0399617732261124E-002
  -8.4587493177159828E-002   2.4860814195471412E-002   3.0122287160457131E-002
  -5.6188825955529889E-002   1.6161696726760752E-002   5.0059426878928046E-002
  -5.4665508842671601E-002   1.5804917463124762E-002   4.9703466273058342E-002
  -5.3142191729813354E-002   1.5445016331534302E-002   4.9509619907386247E-002
  -5.1618874616955079E-002   1.5081993331989264E-002   4.9477887781911797E-002
  -5.0095557504096791E-002   1.4715848464489756E-002   4.9608269896634916E-002
  -6.3242002955432294E-002   1.8336476093938417E-002   4.5024497413439418E-002
  -6.1543882398786415E-002   1.7994363165531407E-002   4.4628014250850209E-002
  -5.9845761842140584E-002   1.7610934991799988E-002   4.4419023735638566E-002
  -5.8147641285494725E-002   1.7186191572744109E-002   4.4397525867804502E-002
  -5.6449520728848866E-002   1.6720132908363911E-002   4.4563520647348004E-002
  -7.0326173159004760E-002   2.0511255461116089E-002   4.0023330971864751E-002
  -6.8427870751391326E-002   2.0183808867938066E-002   3.9548131875186091E-002
  -6.6529568343777906E-002   1.9776853652065676E-002   3.9285803833064986E-002
  -6.4631265936164486E-002   1.9290389813498999E-002   3.9236346845501389E-002
  -6.2732963528551025E-002   1.8724417352237982E-002   3.9399760912495349E-002
  -7.7441336566247271E-002   2.2686034828293743E-002   3.5055927554203933E-002
  -7.5317473900486334E-002   2.2373254570344704E-002   3.4463819146065978E-002
  -7.3193611234725370E-002   2.1942772312331389E-002   3.4109960199665473E-002
  -7.1069748568964405E-002   2.1394588054253878E-002   3.3994350715002508E-002
  -6.8945885903203483E-002   2.0728701796112067E-002   3.4116990692077076E-002
  -8.4587493177159828E-002   2.4860814195471412E-002   3.0122287160457131E-002
  -8.2212691846071370E-002   2.4562700272751314E-002   2.9375076063489811E-002
  -7.9837890514982912E-002   2.4108690972597043E-002   2.8891492835440159E-002
  -7.7463089183894440E-002   2.3498786295008692E-002   2.8671537476307820E-002
  -7.5088287852805996E-002   2.2732986239986208E-002   2.8715209986093060E-002
  -5.0095557504096791E-002   1.4715848464489756E-002   4.9608269896634916E-002
  -4.8578597086287173E-002   1.4330165264650835E-002   4.9208992173149613E-002
  -4.7061636668477548E-002   1.3908527268087736E-002   4.9034656064751436E-002
  -4.5544676250667923E-002   1.3450934474800506E-002   4.9085261571440136E-002
  -4.4027715832858291E-002   1.2957386884789091E-002   4.9360808693215963E-002
  -5.6449520728848866E-002   1.6720132908363911E-002   4.4563520647348004E-002
  -5.4714571798522273E-002   1.6224031499667779E-002   4.4200447726326864E-002
  -5.2979622868195644E-002   1.5709159847664592E-002   4.4048410215252701E-002
  -5.1244673937868981E-002   1.5175517952354143E-002   4.4107408114125481E-002
  -4.9509725007542388E-002   1.4623105813736520E-002   4.4377441422945252E-002
  -6.2732963528551025E-002   1.8724417352237982E-002   3.9399760912495349E-002
  -6.0793932290847529E-002   1.8117897734684682E-002   3.9090077347355368E-002
  -5.8854901053143956E-002   1.7509792427241301E-002   3.8977522987022298E-002
  -5.6915869815440417E-002   1.6900101429907666E-002   3.9062097831496154E-002
  -5.4976838577736886E-002   1.6288824742683949E-002   3.9343801880776880E-002
  -6.8945885903203483E-002   2.0728701796112067E-002   3.4116990692077076E-002
  -6.6816678563263024E-002   2.0011763969701633E-002   3.3877881036235249E-002
  -6.4687471223322565E-002   1.9310425006818056E-002   3.3821994380060241E-002
  -6.2558263883382093E-002   1.8624684907461331E-002   3.3949330723552204E-002
  -6.0429056543441696E-002   1.7954543671631379E-002   3.4259890066710923E-002
  -7.5088287852805996E-002   2.2732986239986208E-002   2.8715209986093060E-002
  -7.2782810615768689E-002   2.1905630204718543E-002   2.8563858792966412E-002
  -7.0477333378731452E-002   2.1111057586394810E-002   2.8581824394366517E-002
  -6.8171856141694159E-002   2.0349268385014843E-002   2.8769106790293569E-002
  -6.5866378904656880E-002   1.9620262600578864E-002   2.9125705980747318E-002
  -4.4027715832858291E-002   1.2957386884789091E-002   4.9360808693215963E-002
  -4.2167178450973009E-002   1.2449838800299706E-002   4.8688420423291440E-002
  -4.0306641069087733E-002   1.1950244523578596E-002   4.8188533057025806E-002
  -3.8446103687202471E-002   1.1458604054625891E-002   4.7861146594419229E-002
  -3.6585566305317174E-002   1.0974917393441530E-002   4.7706261035471598E-002
  -4.9509725007542388E-002   1.4623105813736520E-002   4.4377441422945252E-002
  -4.7468021614980052E-002   1.4067709330895461E-002   4.3738991545842792E-002
  -4.5426318222417716E-002   1.3525114402914741E-002   4.3290372786435383E-002
  -4.3384614829855339E-002   1.2995321029794263E-002   4.3031585144723133E-002
  -4.1342911437293066E-002   1.2478329211534134E-002   4.2962628620706100E-002
  -5.4976838577736886E-002   1.6288824742683949E-002   3.9343801880776880E-002
  -5.2736638960461282E-002   1.5685579861491328E-002   3.8744138143588368E-002
  -5.0496439343185727E-002   1.5099984282250775E-002   3.8351635738131218E-002
  -4.8256239725910109E-002   1.4532038004962580E-002   3.8166294664405263E-002
  -4.6016040108634568E-002   1.3981741029626599E-002   3.8188114922410754E-002
  -6.0429056543441696E-002   1.7954543671631379E-002   3.4259890066710923E-002
  -5.7973030487416734E-002   1.7303450392087083E-002   3.3703860216528311E-002
  -5.5517004431391730E-002   1.6674854161586782E-002   3.3372321912113187E-002
  -5.3060978375366732E-002   1.6068754980130814E-002   3.3265275153465626E-002
  -5.0604952319341832E-002   1.5485152847719050E-002   3.3382719940585469E-002
  -6.5866378904656880E-002   1.9620262600578864E-002   2.9125705980747318E-002
  -6.3177196195846358E-002   1.8921320922682922E-002   2.8618157764662561E-002
  -6.0488013487035766E-002   1.8249724040922954E-002   2.8352431308381554E-002
  -5.7798830778225223E-002   1.7605471955299240E-002   2.8328526611904090E-002
  -5.5109648069414680E-002   1.6988564665811612E-002   2.8546443675230349E-002
  -3.6585566305317174E-002   1.0974917393441530E-002   4.7706261035471598E-002
  -3.5393840262447990E-002   1.0455519421427917E-002   4.8074373304594908E-002
  -3.4202114219578791E-002   9.8567450199876783E-003   4.8651474330094063E-002
  -3.3010388176709600E-002   9.1785941891202039E-003   4.9437564111968979E-002
  -3.1818662133840395E-002   8.4210669288261042E-003   5.0432642650219572E-002
  -4.1342911437293066E-002   1.2478329211534134E-002   4.2962628620706100E-002
  -3.9974570036507714E-002   1.1927077939349939E-002   4.3302235505936426E-002
  -3.8606228635722328E-002   1.1294506204457322E-002   4.3786084350623450E-002
  -3.7237887234936956E-002   1.0580614006856656E-002   4.4414175154766797E-002
  -3.5869545834151598E-002   9.7854013465472622E-003   4.5186507918366869E-002
  -4.6016040108634568E-002   1.3981741029626599E-002   3.8188114922410754E-002
  -4.4535830146852314E-002   1.3398636457271768E-002   3.8497272390466700E-002
  -4.3055620185070059E-002   1.2732267388927188E-002   3.8885925021060003E-002
  -4.1575410223287868E-002   1.1982633824592831E-002   3.9354072814190469E-002
  -4.0095200261505606E-002   1.1149735764268504E-002   3.9901715769858057E-002
  -5.0604952319341832E-002   1.5485152847719050E-002   3.3382719940585469E-002
  -4.9077620593481967E-002   1.4870194975193554E-002   3.3659483958185556E-002
  -4.7550288867622109E-002   1.4170028573396998E-002   3.3950996341403625E-002
  -4.6022957141762223E-002   1.3384653642328811E-002   3.4257257090239648E-002
  -4.4495625415902428E-002   1.2514070181989703E-002   3.4578266204693786E-002
  -5.5109648069414680E-002   1.6988564665811612E-002   2.8546443675230349E-002
  -5.3599941376396509E-002   1.6341753493115563E-002   2.8788870209093209E-002
  -5.2090234683378353E-002   1.5607789757866711E-002   2.8981298311654580E-002
  -5.0580527990360134E-002   1.4786673460065378E-002   2.9123727982914613E-002
  -4.9070821297341971E-002   1.3878404599710792E-002   2.9216159222873461E-002
  -3.1818662133840395E-002   8.4210669288261042E-003   5.0432642650219572E-002
  -2.9613284318510819E-002   7.4231083059658198E-003   4.9041251589963808E-002
  -2.7407906503181222E-002   6.0236633873995277E-003   4.7050975544977586E-002
  -2.5202528687851684E-002   4.2227321731274810E-003   4.4461814515261003E-002
  -2.2997150872522076E-002   2.0203146631496693E-003   4.1273768500813990E-002
  -3.5869545834151598E-002   9.7854013465472622E-003   4.5186507918366869E-002
  -3.4044184481593083E-002   8.8593168296888791E-003   4.3548259879979623E-002
  -3.2218823129034506E-002   7.7528090624404689E-003   4.1748863900780725E-002
  -3.0393461776475974E-002   6.4658780448014763E-003   3.9788319980770148E-002
  -2.8568100423917414E-002   4.9985237767725677E-003   3.7666628119947476E-002
  -4.0095200261505606E-002   1.1149735764268504E-002   3.9901715769858057E-002
  -3.8212118327799451E-002   1.0295525353412105E-002   3.8237673798655086E-002
  -3.6329036394093371E-002   9.4819547374811256E-003   3.6850220930558959E-002
  -3.4445954460387174E-002   8.7090239164755810E-003   3.5739357165569627E-002
  -3.2562872526681122E-002   7.9767328903954660E-003   3.4905082503687457E-002
  -4.4495625415902428E-002   1.2514070181989703E-002   3.4578266204693786E-002
  -4.2117085857130018E-002   1.1731733877135248E-002   3.3109493345990448E-002
  -3.9738546298357560E-002   1.1211100412522091E-002   3.2355046634312837E-002
  -3.7360006739585117E-002   1.0952169788149575E-002   3.2314926069660847E-002
  -3.4981467180812686E-002   1.0954942004018364E-002   3.2989131652034265E-002
  -4.9070821297341971E-002   1.3878404599710792E-002   2.9216159222873461E-002
  -4.5759087069584647E-002   1.3167942400858224E-002   2.8163718521985459E-002
  -4.2447352841827324E-002   1.2940246087562696E-002   2.8263341012041865E-002
  -3.9135618614069889E-002   1.3195315659823702E-002   2.9515026693042817E-002
  -3.5823884386312621E-002   1.3933151117641263E-002   3.1918775564987678E-002
  -9.0357829309268736E-002   0.0000000000000000        4.9839862696088207E-002
  -9.3957933068740840E-002   5.4029788152396736E-003   5.3212818384175381E-002
  -9.7558036828212930E-002   1.0669094204653905E-002   5.4968863149446032E-002
 -0.10115814058768505        1.5798346168242699E-002   5.5107996991900152E-002
 -0.10475824434715714        2.0790734706006037E-002   5.3630219911537741E-002
 -0.10329110588459704        0.0000000000000000        5.8666036694540936E-002
 -0.10682705358086195        1.0883003584987248E-002   5.2122019695601603E-002
 -0.11036300127712684        1.9170139402442860E-002   4.7323225745893212E-002
 -0.11389894897339173        2.4861407452366834E-002   4.4269654845415771E-002
 -0.11743489666965663        2.7956807734759160E-002   4.2961306994169279E-002
 -0.12645605653629710        0.0000000000000000        7.4201737633594333E-002
 -0.12656571419730728        1.6363028354734823E-002   5.5281743605922293E-002
 -0.12667537185831748        2.7671184600231817E-002   4.1469106599528668E-002
 -0.12678502951932771        3.3924468736490951E-002   3.2763826614413460E-002
 -0.12689468718033786        3.5122880763512269E-002   2.9165903650576707E-002
 -0.15985268126436883        0.0000000000000000        9.6446965513248439E-002
 -0.15317391491807689        2.1843053124482398E-002   6.2691990115137472E-002
 -0.14649514857178494        3.6172229798020775E-002   3.7406505710352395E-002
 -0.13981638222549292        4.2987530020615103E-002   2.0590512298893263E-002
 -0.13313761587920098        4.2288953792265410E-002   1.2244009880760007E-002
 -0.20348098006881232        0.0000000000000000       0.12540172033350319     
 -0.18665165574317069        2.7323077894229979E-002   7.4352759223247106E-002
 -0.16982233141752906        4.4673274995809725E-002   3.5135423078364411E-002
 -0.15299300709188746        5.2050591304739213E-002   7.7497118988550939E-003
 -0.13616368276624582        4.9455026821018509E-002  -7.8043743152808112E-003
 -0.10475824434715714        2.0790734706006037E-002   5.3630219911537741E-002
 -0.10210333931510737        2.4932399999868151E-002   4.5648330402262849E-002
  -9.9448434283057635E-002   2.7509482231753268E-002   3.9350948609381819E-002
  -9.6793529251007884E-002   2.8521981401661321E-002   3.4738074532894667E-002
  -9.4138624218958120E-002   2.7969897509592404E-002   3.1809708172801376E-002
 -0.11743489666965663        2.7956807734759160E-002   4.2961306994169279E-002
 -0.11348185015203699        2.9429696423830202E-002   3.6703043825344644E-002
 -0.10952880363441735        3.0253429693790260E-002   3.1356555911265863E-002
 -0.10557575711679770        3.0428007544639372E-002   2.6921843251933020E-002
 -0.10162271059917805        2.9953429976377510E-002   2.3398905847346035E-002
 -0.12689468718033786        3.5122880763512269E-002   2.9165903650576707E-002
 -0.12241623163879632        3.3926992847792242E-002   2.5546694465068315E-002
 -0.11793777609725474        3.2997377155827269E-002   2.2066528072657909E-002
 -0.11345932055571321        3.2334033687617406E-002   1.8725404473345416E-002
 -0.10898086501417163        3.1936962443162679E-002   1.5523323667130867E-002
 -0.13313761587920098        4.2288953792265410E-002   1.2244009880760007E-002
 -0.12890648377538547        3.8424289271754238E-002   1.2179282321433968E-002
 -0.12467535167156994        3.5741324617864272E-002   1.1480865093557944E-002
 -0.12044421956775438        3.4240059830595519E-002   1.0148758197131822E-002
 -0.11621308746393887        3.3920494909947779E-002   8.1829616321557608E-003
 -0.13616368276624582        4.9455026821018509E-002  -7.8043743152808112E-003
 -0.13295260656180430        4.2921585695716344E-002  -3.3991926055584216E-003
 -0.12974153035736280        3.8485272079901274E-002  -4.0043302603393234E-004
 -0.12653045415292130        3.6146085973573494E-002   1.1919044232924360E-003
 -0.12331937794847977        3.5904027376732928E-002   1.3778197424208494E-003
  -9.4138624218958120E-002   2.7969897509592404E-002   3.1809708172801376E-002
  -9.1750841458508550E-002   2.6774798235166746E-002   3.1243328238433246E-002
  -8.9363058698058967E-002   2.5858251258004686E-002   3.0773298091586493E-002
  -8.6975275937609398E-002   2.5220256578106236E-002   3.0399617732261124E-002
  -8.4587493177159828E-002   2.4860814195471412E-002   3.0122287160457131E-002
 -0.10162271059917805        2.9953429976377510E-002   2.3398905847346035E-002
  -9.9130078318672002E-002   2.9181357681969819E-002   2.3133316742780782E-002
  -9.6637446038165958E-002   2.8463451354381251E-002   2.2981076890807063E-002
  -9.4144813757659873E-002   2.7799710993611872E-002   2.2942186291424957E-002
  -9.1652181477153816E-002   2.7190136599661782E-002   2.3016644944634401E-002
 -0.10898086501417163        3.1936962443162679E-002   1.5523323667130867E-002
 -0.10636638374853892        3.1587917128772840E-002   1.5334139061924091E-002
 -0.10375190248290618        3.1068651450757802E-002   1.5275303174378967E-002
 -0.10113742121727344        3.0379165409117594E-002   1.5346816004495643E-002
  -9.8522939951640728E-002   2.9519459003852160E-002   1.5548677552274275E-002
 -0.11621308746393887        3.3920494909947779E-002   8.1829616321557608E-003
 -0.11345975774810925        3.3994476575575881E-002   7.8457951958629882E-003
 -0.11070642803227961        3.3673851547134384E-002   7.6559769423020767E-003
 -0.10795309831644999        3.2958619824623295E-002   7.6135068714733431E-003
 -0.10519976860062034        3.1848781408042509E-002   7.7183849833765755E-003
 -0.12331937794847977        3.5904027376732928E-002   1.3778197424208494E-003
 -0.12041020031738309        3.6401036022378902E-002   6.6828514459765787E-004
 -0.11750102268628633        3.6279051643510946E-002   1.2309819457673177E-004
 -0.11459184505518960        3.5538074240128871E-002  -2.5774110764215097E-004
 -0.11168266742409289        3.4178103812232963E-002  -4.7423276205860176E-004
  -8.4587493177159828E-002   2.4860814195471412E-002   3.0122287160457131E-002
  -8.2212691846071370E-002   2.4562700272751314E-002   2.9375076063489811E-002
  -7.9837890514982912E-002   2.4108690972597043E-002   2.8891492835440159E-002
  -7.7463089183894440E-002   2.3498786295008692E-002   2.8671537476307820E-002
  -7.5088287852805996E-002   2.2732986239986208E-002   2.8715209986093060E-002
  -9.1652181477153816E-002   2.7190136599661782E-002   2.3016644944634401E-002
  -8.9030480308554788E-002   2.6582605585741971E-002   2.2343648349671098E-002
  -8.6408779139955746E-002   2.5924995365063607E-002   2.1900823560811494E-002
  -8.3787077971356649E-002   2.5217305937626788E-002   2.1688170578055582E-002
  -8.1165376802757663E-002   2.4459537303431311E-002   2.1705689401403341E-002
  -9.8522939951640728E-002   2.9519459003852160E-002   1.5548677552274275E-002
  -9.5687795008344831E-002   2.8602510898732725E-002   1.5055711629990431E-002
  -9.2852650065048975E-002   2.7741299757530202E-002   1.4759461450996483E-002
  -9.0017505121753091E-002   2.6935825580244828E-002   1.4659927015292562E-002
  -8.7182360178457291E-002   2.6186088366876470E-002   1.4757108322878493E-002
 -0.10519976860062034        3.1848781408042509E-002   7.7183849833765755E-003
 -0.10218463594544148        3.0622416211723374E-002   7.5112659044478348E-003
  -9.9169503290262626E-002   2.9557604149996877E-002   7.4674065059954532E-003
  -9.6154370635083766E-002   2.8654345222862868E-002   7.5868067880188843E-003
  -9.3139237979904879E-002   2.7912639430321629E-002   7.8694667505185695E-003
 -0.11168266742409289        3.4178103812232963E-002  -4.7423276205860176E-004
 -0.10852100311984481        3.2642321524714024E-002  -2.8968882695651343E-004
 -0.10535933881559670        3.1373908542463372E-002   2.4658725807730209E-005
 -0.10219767451134858        3.0372864865480940E-002   4.6880989623444141E-004
  -9.9036010207100511E-002   2.9639190493766787E-002   1.0427646843234606E-003
  -7.5088287852805996E-002   2.2732986239986208E-002   2.8715209986093060E-002
  -7.2782810615768689E-002   2.1905630204718543E-002   2.8563858792966412E-002
  -7.0477333378731452E-002   2.1111057586394810E-002   2.8581824394366517E-002
  -6.8171856141694159E-002   2.0349268385014843E-002   2.8769106790293569E-002
  -6.5866378904656880E-002   1.9620262600578864E-002   2.9125705980747318E-002
  -8.1165376802757663E-002   2.4459537303431311E-002   2.1705689401403341E-002
  -7.8701772354472302E-002   2.3674102526286392E-002   2.1617019368151594E-002
  -7.6238167906186927E-002   2.2883414670000865E-002   2.1675286962869293E-002
  -7.3774563457901537E-002   2.2087473734574908E-002   2.1880492185556214E-002
  -7.1310959009616204E-002   2.1286279720008350E-002   2.2232635036212478E-002
  -8.7182360178457291E-002   2.6186088366876470E-002   1.4757108322878493E-002
  -8.4583007685481285E-002   2.5442574847854206E-002   1.4693082953417404E-002
  -8.1983655192505306E-002   2.4655771753607031E-002   1.4753616045367998E-002
  -7.9384302699529313E-002   2.3825679084134861E-002   1.4938707598730543E-002
  -7.6784950206553376E-002   2.2952296839437808E-002   1.5248357613505001E-002
  -9.3139237979904879E-002   2.7912639430321629E-002   7.8694667505185695E-003
  -9.0426516608795762E-002   2.7211047169422093E-002   7.7920495487633704E-003
  -8.7713795237686673E-002   2.6428128837213113E-002   7.8168116418627104E-003
  -8.5001073866577528E-002   2.5563884433695037E-002   7.9437530298166279E-003
  -8.2288352495468439E-002   2.4618313958867280E-002   8.1728737126248417E-003
  -9.9036010207100511E-002   2.9639190493766787E-002   1.0427646843234606E-003
  -9.6232299124415721E-002   2.8979519490989980E-002   9.1391915419014591E-004
  -9.3428588041730931E-002   2.8200485920819210E-002   8.6487375235386188E-004
  -9.0624876959046141E-002   2.7302089783254952E-002   8.9562847881424074E-004
  -8.7821165876361351E-002   2.6284331078296752E-002   1.0061833335717751E-003
  -6.5866378904656880E-002   1.9620262600578864E-002   2.9125705980747318E-002
  -6.3177196195846358E-002   1.8921320922682922E-002   2.8618157764662561E-002
  -6.0488013487035766E-002   1.8249724040922954E-002   2.8352431308381554E-002
  -5.7798830778225223E-002   1.7605471955299240E-002   2.8328526611904090E-002
  -5.5109648069414680E-002   1.6988564665811612E-002   2.8546443675230349E-002
  -7.1310959009616204E-002   2.1286279720008350E-002   2.2232635036212478E-002
  -6.8390930598304575E-002   2.0502135426994472E-002   2.1718048330038375E-002
  -6.5470902186992835E-002   1.9757343656226362E-002   2.1423331269062887E-002
  -6.2550873775681207E-002   1.9051904407703997E-002   2.1348483853285791E-002
  -5.9630845364369481E-002   1.8385817681427497E-002   2.1493506082707503E-002
  -7.6784950206553376E-002   2.2952296839437808E-002   1.5248357613505001E-002
  -7.3656028207345681E-002   2.2082949931306037E-002   1.4738740143351026E-002
  -7.0527106208137930E-002   2.1264963271529658E-002   1.4427040203790667E-002
  -6.7398184208930206E-002   2.0498336860108865E-002   1.4313257794823744E-002
  -6.4269262209722483E-002   1.9783070697043520E-002   1.4397392916450480E-002
  -8.2288352495468439E-002   2.4618313958867280E-002   8.1728737126248417E-003
  -7.8972489022969758E-002   2.3663764435617539E-002   7.6802332046007546E-003
  -7.5656625550471035E-002   2.2772582886832954E-002   7.3635581125651856E-003
  -7.2340762077972340E-002   2.1944769312513733E-002   7.2228484365180739E-003
  -6.9024898605473603E-002   2.1180323712659530E-002   7.2581041764593797E-003
  -8.7821165876361351E-002   2.6284331078296752E-002   1.0061833335717751E-003
  -8.4340313045176751E-002   2.5244578939929263E-002   5.4252751378752739E-004
  -8.0859460213992151E-002   2.4280202502136472E-002   2.3288499538633156E-004
  -7.7378607382807579E-002   2.3391201764918379E-002   7.7255778368482547E-005
  -7.3897754551622952E-002   2.2577576728275539E-002   7.5639862734289132E-005
  -5.5109648069414680E-002   1.6988564665811612E-002   2.8546443675230349E-002
  -5.3599941376396509E-002   1.6341753493115563E-002   2.8788870209093209E-002
  -5.2090234683378353E-002   1.5607789757866711E-002   2.8981298311654580E-002
  -5.0580527990360134E-002   1.4786673460065378E-002   2.9123727982914613E-002
  -4.9070821297341971E-002   1.3878404599710792E-002   2.9216159222873461E-002
  -5.9630845364369481E-002   1.8385817681427497E-002   2.1493506082707503E-002
  -5.8087197162059387E-002   1.7706760348945028E-002   2.1626429858160046E-002
  -5.6543548959749411E-002   1.6962409281805133E-002   2.1877235083497565E-002
  -5.4999900757439379E-002   1.6152764480007711E-002   2.2245921758720366E-002
  -5.3456252555129272E-002   1.5277825943552648E-002   2.2732489883828089E-002
  -6.4269262209722483E-002   1.9783070697043520E-002   1.4397392916450480E-002
  -6.2523792616934193E-002   1.9071767204774687E-002   1.4442672761388040E-002
  -6.0778323024145917E-002   1.8317028805743547E-002   1.4773713937397147E-002
  -5.9032853431357592E-002   1.7518855499950095E-002   1.5390516444477784E-002
  -5.7287383838569295E-002   1.6677247287394670E-002   1.6293080282629741E-002
  -6.9024898605473603E-002   2.1180323712659530E-002   7.2581041764593797E-003
  -6.6909727741020733E-002   2.0436774060604165E-002   7.2375989187774790E-003
  -6.4794556876567766E-002   1.9671648329682077E-002   7.6707348733533413E-003
  -6.2679386012114896E-002   1.8884946519892788E-002   8.5575120401868120E-003
  -6.0564215147661943E-002   1.8076668631236553E-002   9.8979304192782919E-003
  -7.3897754551622952E-002   2.2577576728275539E-002   7.5639862734289132E-005
  -7.1245002534319035E-002   2.1801780916433644E-002   1.1208330327971971E-005
  -6.8592250517015119E-002   2.1026267853620384E-002   5.6829789136547681E-004
  -6.5939498499711258E-002   2.0251037539834982E-002   1.7469085458479139E-003
  -6.3286746482407286E-002   1.9476089975078437E-002   3.5470402937739509E-003
  -4.9070821297341971E-002   1.3878404599710792E-002   2.9216159222873461E-002
  -4.5759087069584647E-002   1.3167942400858224E-002   2.8163718521985459E-002
  -4.2447352841827324E-002   1.2940246087562696E-002   2.8263341012041865E-002
  -3.9135618614069889E-002   1.3195315659823702E-002   2.9515026693042817E-002
  -3.5823884386312621E-002   1.3933151117641263E-002   3.1918775564987678E-002
  -5.3456252555129272E-002   1.5277825943552648E-002   2.2732489883828089E-002
  -4.9365351551979367E-002   1.4470094411629247E-002   2.2202689556374527E-002
  -4.5274450548829455E-002   1.3862070623425982E-002   2.2079159588761693E-002
  -4.1183549545679515E-002   1.3453754578943336E-002   2.2361899980989974E-002
  -3.7092648542529694E-002   1.3245146278181408E-002   2.3050910733058982E-002
  -5.7287383838569295E-002   1.6677247287394670E-002   1.6293080282629741E-002
  -5.3163108891130170E-002   1.5772246422399744E-002   1.6002862186774075E-002
  -4.9038833943691018E-002   1.4783895159289448E-002   1.5373121619656135E-002
  -4.4914558996252005E-002   1.3712193498063085E-002   1.4403858581275547E-002
  -4.0790284048812755E-002   1.2557141438721553E-002   1.3095073071632601E-002
  -6.0564215147661943E-002   1.8076668631236553E-002   9.8979304192782919E-003
  -5.7152359087036989E-002   1.7074398433170448E-002   9.5642364131845181E-003
  -5.3740503026412062E-002   1.5705719695152991E-002   8.1452271047250217E-003
  -5.0328646965787135E-002   1.3970632417183109E-002   5.6409024938992944E-003
  -4.6916790905162167E-002   1.1869136599261698E-002   2.0512625807081741E-003
  -6.3286746482407286E-002   1.9476089975078437E-002   3.5470402937739509E-003
  -6.1333102139699780E-002   1.8376550443941153E-002   2.8868122356056625E-003
  -5.9379457796992441E-002   1.6627544231016117E-002   3.9547604396858449E-004
  -5.7425813454285074E-002   1.4229071336302503E-002  -3.9269682811377063E-003
  -5.5472169111577596E-002   1.1181131759801843E-002  -1.0080520739713883E-002
 </DataArray>
 </PointData>
 </Piece>
 <Piece  NumberOfPoints="          1600 "  NumberOfCells="         1024 ">
 <Points>
 <DataArray  type="Float64" NumberOfComponents="3"  format="ascii" >
  0.50000000000000000        0.0000000000000000        0.0000000000000000     
  0.53125000000000000        0.0000000000000000        0.0000000000000000     
  0.56250000000000000        0.0000000000000000        0.0000000000000000     
  0.59375000000000000        0.0000000000000000        0.0000000000000000     
  0.62500000000000000        0.0000000000000000        0.0000000000000000     
  0.50000000000000000        3.1250000000000000E-002   0.0000000000000000     
  0.53125000000000000        3.1250000000000000E-002   0.0000000000000000     
  0.56250000000000000        3.1250000000000000E-002   0.0000000000000000     
  0.59375000000000000        3.1250000000000000E-002   0.0000000000000000     
  0.62500000000000000        3.1250000000000000E-002   0.0000000000000000     
  0.50000000000000000        6.2500000000000000E-002   0.0000000000000000     
  0.53125000000000000        6.2500000000000000E-002   0.0000000000000000     
  0.56250000000000000        6.2500000000000000E-002   0.0000000000000000     
  0.59375000000000000        6.2500000000000000E-002   0.0000000000000000     
  0.62500000000000000        6.2500000000000000E-002   0.0000000000000000     
  0.50000000000000000        9.3750000000000000E-002   0.0000000000000000     
  0.53125000000000000        9.3750000000000000E-002   0.0000000000000000     
  0.56250000000000000        9.3750000000000000E-002   0.0000000000000000     
  0.59375000000000000        9.3750000000000000E-002   0.0000000000000000     
  0.62500000000000000        9.3750000000000000E-002   0.0000000000000000     
  0.50000000000000000       0.12500000000000000        0.0000000000000000     
  0.53125000000000000       0.12500000000000000        0.0000000000000000     
  0.56250000000000000       0.12500000000000000        0.0000000000000000     
  0.59375000000000000       0.12500000000000000        0.0000000000000000     
  0.62500000000000000       0.12500000000000000        0.0000000000000000     
  0.62500000000000000        0.0000000000000000        0.0000000000000000     
  0.65625000000000000        0.0000000000000000        0.0000000000000000     
  0.68750000000000000        0.0000000000000000        0.0000000000000000     
  0.71875000000000000        0.0000000000000000        0.0000000000000000     
  0.75000000000000000        0.0000000000000000        0.0000000000000000     
  0.62500000000000000        3.1250000000000000E-002   0.0000000000000000     
  0.65625000000000000        3.1250000000000000E-002   0.0000000000000000     
  0.68750000000000000        3.1250000000000000E-002   0.0000000000000000     
  0.71875000000000000        3.1250000000000000E-002   0.0000000000000000     
  0.75000000000000000        3.1250000000000000E-002   0.0000000000000000     
  0.62500000000000000        6.2500000000000000E-002   0.0000000000000000     
  0.65625000000000000        6.2500000000000000E-002   0.0000000000000000     
  0.68750000000000000        6.2500000000000000E-002   0.0000000000000000     
  0.71875000000000000        6.2500000000000000E-002   0.0000000000000000     
  0.75000000000000000        6.2500000000000000E-002   0.0000000000000000     
  0.62500000000000000        9.3750000000000000E-002   0.0000000000000000     
  0.65625000000000000        9.3750000000000000E-002   0.0000000000000000     
  0.68750000000000000        9.3750000000000000E-002   0.0000000000000000     
  0.71875000000000000        9.3750000000000000E-002   0.0000000000000000     
  0.75000000000000000        9.3750000000000000E-002   0.0000000000000000     
  0.62500000000000000       0.12500000000000000        0.0000000000000000     
  0.65625000000000000       0.12500000000000000        0.0000000000000000     
  0.68750000000000000       0.12500000000000000        0.0000000000000000     
  0.71875000000000000       0.12500000000000000        0.0000000000000000     
  0.75000000000000000       0.12500000000000000        0.0000000000000000     
  0.75000000000000000        0.0000000000000000        0.0000000000000000     
  0.78125000000000000        0.0000000000000000        0.0000000000000000     
  0.81250000000000000        0.0000000000000000        0.0000000000000000     
  0.84375000000000000        0.0000000000000000        0.0000000000000000     
  0.87500000000000000        0.0000000000000000        0.0000000000000000     
  0.75000000000000000        3.1250000000000000E-002   0.0000000000000000     
  0.78125000000000000        3.1250000000000000E-002   0.0000000000000000     
  0.81250000000000000        3.1250000000000000E-002   0.0000000000000000     
  0.84375000000000000        3.1250000000000000E-002   0.0000000000000000     
  0.87500000000000000        3.1250000000000000E-002   0.0000000000000000     
  0.75000000000000000        6.2500000000000000E-002   0.0000000000000000     
  0.78125000000000000        6.2500000000000000E-002   0.0000000000000000     
  0.81250000000000000        6.2500000000000000E-002   0.0000000000000000     
  0.84375000000000000        6.2500000000000000E-002   0.0000000000000000     
  0.87500000000000000        6.2500000000000000E-002   0.0000000000000000     
  0.75000000000000000        9.3750000000000000E-002   0.0000000000000000     
  0.78125000000000000        9.3750000000000000E-002   0.0000000000000000     
  0.81250000000000000        9.3750000000000000E-002   0.0000000000000000     
  0.84375000000000000        9.3750000000000000E-002   0.0000000000000000     
  0.87500000000000000        9.3750000000000000E-002   0.0000000000000000     
  0.75000000000000000       0.12500000000000000        0.0000000000000000     
  0.78125000000000000       0.12500000000000000        0.0000000000000000     
  0.81250000000000000       0.12500000000000000        0.0000000000000000     
  0.84375000000000000       0.12500000000000000        0.0000000000000000     
  0.87500000000000000       0.12500000000000000        0.0000000000000000     
  0.87500000000000000        0.0000000000000000        0.0000000000000000     
  0.90625000000000000        0.0000000000000000        0.0000000000000000     
  0.93750000000000000        0.0000000000000000        0.0000000000000000     
  0.96875000000000000        0.0000000000000000        0.0000000000000000     
   1.0000000000000000        0.0000000000000000        0.0000000000000000     
  0.87500000000000000        3.1250000000000000E-002   0.0000000000000000     
  0.90625000000000000        3.1250000000000000E-002   0.0000000000000000     
  0.93750000000000000        3.1250000000000000E-002   0.0000000000000000     
  0.96875000000000000        3.1250000000000000E-002   0.0000000000000000     
   1.0000000000000000        3.1250000000000000E-002   0.0000000000000000     
  0.87500000000000000        6.2500000000000000E-002   0.0000000000000000     
  0.90625000000000000        6.2500000000000000E-002   0.0000000000000000     
  0.93750000000000000        6.2500000000000000E-002   0.0000000000000000     
  0.96875000000000000        6.2500000000000000E-002   0.0000000000000000     
   1.0000000000000000        6.2500000000000000E-002   0.0000000000000000     
  0.87500000000000000        9.3750000000000000E-002   0.0000000000000000     
  0.90625000000000000        9.3750000000000000E-002   0.0000000000000000     
  0.93750000000000000        9.3750000000000000E-002   0.0000000000000000     
  0.96875000000000000        9.3750000000000000E-002   0.0000000000000000     
   1.0000000000000000        9.3750000000000000E-002   0.0000000000000000     
  0.87500000000000000       0.12500000000000000        0.0000000000000000     
  0.90625000000000000       0.12500000000000000        0.0000000000000000     
  0.93750000000000000       0.12500000000000000        0.0000000000000000     
  0.96875000000000000       0.12500000000000000        0.0000000000000000     
   1.0000000000000000       0.12500000000000000        0.0000000000000000     
   1.0000000000000000        0.0000000000000000        0.0000000000000000     
   1.0312500000000000        0.0000000000000000        0.0000000000000000     
   1.0625000000000000        0.0000000000000000        0.0000000000000000     
   1.0937500000000000        0.0000000000000000        0.0000000000000000     
   1.1250000000000000        0.0000000000000000        0.0000000000000000     
   1.0000000000000000        3.1250000000000000E-002   0.0000000000000000     
   1.0312500000000000        3.1250000000000000E-002   0.0000000000000000     
   1.0625000000000000        3.1250000000000000E-002   0.0000000000000000     
   1.0937500000000000        3.1250000000000000E-002   0.0000000000000000     
   1.1250000000000000        3.1250000000000000E-002   0.0000000000000000     
   1.0000000000000000        6.2500000000000000E-002   0.0000000000000000     
   1.0312500000000000        6.2500000000000000E-002   0.0000000000000000     
   1.0625000000000000        6.2500000000000000E-002   0.0000000000000000     
   1.0937500000000000        6.2500000000000000E-002   0.0000000000000000     
   1.1250000000000000        6.2500000000000000E-002   0.0000000000000000     
   1.0000000000000000        9.3750000000000000E-002   0.0000000000000000     
   1.0312500000000000        9.3750000000000000E-002   0.0000000000000000     
   1.0625000000000000        9.3750000000000000E-002   0.0000000000000000     
   1.0937500000000000        9.3750000000000000E-002   0.0000000000000000     
   1.1250000000000000        9.3750000000000000E-002   0.0000000000000000     
   1.0000000000000000       0.12500000000000000        0.0000000000000000     
   1.0312500000000000       0.12500000000000000        0.0000000000000000     
   1.0625000000000000       0.12500000000000000        0.0000000000000000     
   1.0937500000000000       0.12500000000000000        0.0000000000000000     
   1.1250000000000000       0.12500000000000000        0.0000000000000000     
   1.1250000000000000        0.0000000000000000        0.0000000000000000     
   1.1562500000000000        0.0000000000000000        0.0000000000000000     
   1.1875000000000000        0.0000000000000000        0.0000000000000000     
   1.2187500000000000        0.0000000000000000        0.0000000000000000     
   1.2500000000000000        0.0000000000000000        0.0000000000000000     
   1.1250000000000000        3.1250000000000000E-002   0.0000000000000000     
   1.1562500000000000        3.1250000000000000E-002   0.0000000000000000     
   1.1875000000000000        3.1250000000000000E-002   0.0000000000000000     
   1.2187500000000000        3.1250000000000000E-002   0.0000000000000000     
   1.2500000000000000        3.1250000000000000E-002   0.0000000000000000     
   1.1250000000000000        6.2500000000000000E-002   0.0000000000000000     
   1.1562500000000000        6.2500000000000000E-002   0.0000000000000000     
   1.1875000000000000        6.2500000000000000E-002   0.0000000000000000     
   1.2187500000000000        6.2500000000000000E-002   0.0000000000000000     
   1.2500000000000000        6.2500000000000000E-002   0.0000000000000000     
   1.1250000000000000        9.3750000000000000E-002   0.0000000000000000     
   1.1562500000000000        9.3750000000000000E-002   0.0000000000000000     
   1.1875000000000000        9.3750000000000000E-002   0.0000000000000000     
   1.2187500000000000        9.3750000000000000E-002   0.0000000000000000     
   1.2500000000000000        9.3750000000000000E-002   0.0000000000000000     
   1.1250000000000000       0.12500000000000000        0.0000000000000000     
   1.1562500000000000       0.12500000000000000        0.0000000000000000     
   1.1875000000000000       0.12500000000000000        0.0000000000000000     
   1.2187500000000000       0.12500000000000000        0.0000000000000000     
   1.2500000000000000       0.12500000000000000        0.0000000000000000     
   1.2500000000000000        0.0000000000000000        0.0000000000000000     
   1.2812500000000000        0.0000000000000000        0.0000000000000000     
   1.3125000000000000        0.0000000000000000        0.0000000000000000     
   1.3437500000000000        0.0000000000000000        0.0000000000000000     
   1.3750000000000000        0.0000000000000000        0.0000000000000000     
   1.2500000000000000        3.1250000000000000E-002   0.0000000000000000     
   1.2812500000000000        3.1250000000000000E-002   0.0000000000000000     
   1.3125000000000000        3.1250000000000000E-002   0.0000000000000000     
   1.3437500000000000        3.1250000000000000E-002   0.0000000000000000     
   1.3750000000000000        3.1250000000000000E-002   0.0000000000000000     
   1.2500000000000000        6.2500000000000000E-002   0.0000000000000000     
   1.2812500000000000        6.2500000000000000E-002   0.0000000000000000     
   1.3125000000000000        6.2500000000000000E-002   0.0000000000000000     
   1.3437500000000000        6.2500000000000000E-002   0.0000000000000000     
   1.3750000000000000        6.2500000000000000E-002   0.0000000000000000     
   1.2500000000000000        9.3750000000000000E-002   0.0000000000000000     
   1.2812500000000000        9.3750000000000000E-002   0.0000000000000000     
   1.3125000000000000        9.3750000000000000E-002   0.0000000000000000     
   1.3437500000000000        9.3750000000000000E-002   0.0000000000000000     
   1.3750000000000000        9.3750000000000000E-002   0.0000000000000000     
   1.2500000000000000       0.12500000000000000        0.0000000000000000     
   1.2812500000000000       0.12500000000000000        0.0000000000000000     
   1.3125000000000000       0.12500000000000000        0.0000000000000000     
   1.3437500000000000       0.12500000000000000        0.0000000000000000     
   1.3750000000000000       0.12500000000000000        0.0000000000000000     
   1.3750000000000000        0.0000000000000000        0.0000000000000000     
   1.4062500000000000        0.0000000000000000        0.0000000000000000     
   1.4375000000000000        0.0000000000000000        0.0000000000000000     
   1.4687500000000000        0.0000000000000000        0.0000000000000000     
   1.5000000000000000        0.0000000000000000        0.0000000000000000     
   1.3750000000000000        3.1250000000000000E-002   0.0000000000000000     
   1.4062500000000000        3.1250000000000000E-002   0.0000000000000000     
   1.4375000000000000        3.1250000000000000E-002   0.0000000000000000     
   1.4687500000000000        3.1250000000000000E-002   0.0000000000000000     
   1.5000000000000000        3.1250000000000000E-002   0.0000000000000000     
   1.3750000000000000        6.2500000000000000E-002   0.0000000000000000     
   1.4062500000000000        6.2500000000000000E-002   0.0000000000000000     
   1.4375000000000000        6.2500000000000000E-002   0.0000000000000000     
   1.4687500000000000        6.2500000000000000E-002   0.0000000000000000     
   1.5000000000000000        6.2500000000000000E-002   0.0000000000000000     
   1.3750000000000000        9.3750000000000000E-002   0.0000000000000000     
   1.4062500000000000        9.3750000000000000E-002   0.0000000000000000     
   1.4375000000000000        9.3750000000000000E-002   0.0000000000000000     
   1.4687500000000000        9.3750000000000000E-002   0.0000000000000000     
   1.5000000000000000        9.3750000000000000E-002   0.0000000000000000     
   1.3750000000000000       0.12500000000000000        0.0000000000000000     
   1.4062500000000000       0.12500000000000000        0.0000000000000000     
   1.4375000000000000       0.12500000000000000        0.0000000000000000     
   1.4687500000000000       0.12500000000000000        0.0000000000000000     
   1.5000000000000000       0.12500000000000000        0.0000000000000000     
  0.50000000000000000       0.12500000000000000        0.0000000000000000     
  0.53125000000000000       0.12500000000000000        0.0000000000000000     
  0.56250000000000000       0.12500000000000000        0.0000000000000000     
  0.59375000000000000       0.12500000000000000        0.0000000000000000     
  0.62500000000000000       0.12500000000000000        0.0000000000000000     
  0.50000000000000000       0.15625000000000000        0.0000000000000000     
  0.53125000000000000       0.15625000000000000        0.0000000000000000     
  0.56250000000000000       0.15625000000000000        0.0000000000000000     
  0.59375000000000000       0.15625000000000000        0.0000000000000000     
  0.62500000000000000       0.15625000000000000        0.0000000000000000     
  0.50000000000000000       0.18750000000000000        0.0000000000000000     
  0.53125000000000000       0.18750000000000000        0.0000000000000000     
  0.56250000000000000       0.18750000000000000        0.0000000000000000     
  0.59375000000000000       0.18750000000000000        0.0000000000000000     
  0.62500000000000000       0.18750000000000000        0.0000000000000000     
  0.50000000000000000       0.21875000000000000        0.0000000000000000     
  0.53125000000000000       0.21875000000000000        0.0000000000000000     
  0.56250000000000000       0.21875000000000000        0.0000000000000000     
  0.59375000000000000       0.21875000000000000        0.0000000000000000     
  0.62500000000000000       0.21875000000000000        0.0000000000000000     
  0.50000000000000000       0.25000000000000000        0.0000000000000000     
  0.53125000000000000       0.25000000000000000        0.0000000000000000     
  0.56250000000000000       0.25000000000000000        0.0000000000000000     
  0.59375000000000000       0.25000000000000000        0.0000000000000000     
  0.62500000000000000       0.25000000000000000        0.0000000000000000     
  0.62500000000000000       0.12500000000000000        0.0000000000000000     
  0.65625000000000000       0.12500000000000000        0.0000000000000000     
  0.68750000000000000       0.12500000000000000        0.0000000000000000     
  0.71875000000000000       0.12500000000000000        0.0000000000000000     
  0.75000000000000000       0.12500000000000000        0.0000000000000000     
  0.62500000000000000       0.15625000000000000        0.0000000000000000     
  0.65625000000000000       0.15625000000000000        0.0000000000000000     
  0.68750000000000000       0.15625000000000000        0.0000000000000000     
  0.71875000000000000       0.15625000000000000        0.0000000000000000     
  0.75000000000000000       0.15625000000000000        0.0000000000000000     
  0.62500000000000000       0.18750000000000000        0.0000000000000000     
  0.65625000000000000       0.18750000000000000        0.0000000000000000     
  0.68750000000000000       0.18750000000000000        0.0000000000000000     
  0.71875000000000000       0.18750000000000000        0.0000000000000000     
  0.75000000000000000       0.18750000000000000        0.0000000000000000     
  0.62500000000000000       0.21875000000000000        0.0000000000000000     
  0.65625000000000000       0.21875000000000000        0.0000000000000000     
  0.68750000000000000       0.21875000000000000        0.0000000000000000     
  0.71875000000000000       0.21875000000000000        0.0000000000000000     
  0.75000000000000000       0.21875000000000000        0.0000000000000000     
  0.62500000000000000       0.25000000000000000        0.0000000000000000     
  0.65625000000000000       0.25000000000000000        0.0000000000000000     
  0.68750000000000000       0.25000000000000000        0.0000000000000000     
  0.71875000000000000       0.25000000000000000        0.0000000000000000     
  0.75000000000000000       0.25000000000000000        0.0000000000000000     
  0.75000000000000000       0.12500000000000000        0.0000000000000000     
  0.78125000000000000       0.12500000000000000        0.0000000000000000     
  0.81250000000000000       0.12500000000000000        0.0000000000000000     
  0.84375000000000000       0.12500000000000000        0.0000000000000000     
  0.87500000000000000       0.12500000000000000        0.0000000000000000     
  0.75000000000000000       0.15625000000000000        0.0000000000000000     
  0.78125000000000000       0.15625000000000000        0.0000000000000000     
  0.81250000000000000       0.15625000000000000        0.0000000000000000     
  0.84375000000000000       0.15625000000000000        0.0000000000000000     
  0.87500000000000000       0.15625000000000000        0.0000000000000000     
  0.75000000000000000       0.18750000000000000        0.0000000000000000     
  0.78125000000000000       0.18750000000000000        0.0000000000000000     
  0.81250000000000000       0.18750000000000000        0.0000000000000000     
  0.84375000000000000       0.18750000000000000        0.0000000000000000     
  0.87500000000000000       0.18750000000000000        0.0000000000000000     
  0.75000000000000000       0.21875000000000000        0.0000000000000000     
  0.78125000000000000       0.21875000000000000        0.0000000000000000     
  0.81250000000000000       0.21875000000000000        0.0000000000000000     
  0.84375000000000000       0.21875000000000000        0.0000000000000000     
  0.87500000000000000       0.21875000000000000        0.0000000000000000     
  0.75000000000000000       0.25000000000000000        0.0000000000000000     
  0.78125000000000000       0.25000000000000000        0.0000000000000000     
  0.81250000000000000       0.25000000000000000        0.0000000000000000     
  0.84375000000000000       0.25000000000000000        0.0000000000000000     
  0.87500000000000000       0.25000000000000000        0.0000000000000000     
  0.87500000000000000       0.12500000000000000        0.0000000000000000     
  0.90625000000000000       0.12500000000000000        0.0000000000000000     
  0.93750000000000000       0.12500000000000000        0.0000000000000000     
  0.96875000000000000       0.12500000000000000        0.0000000000000000     
   1.0000000000000000       0.12500000000000000        0.0000000000000000     
  0.87500000000000000       0.15625000000000000        0.0000000000000000     
  0.90625000000000000       0.15625000000000000        0.0000000000000000     
  0.93750000000000000       0.15625000000000000        0.0000000000000000     
  0.96875000000000000       0.15625000000000000        0.0000000000000000     
   1.0000000000000000       0.15625000000000000        0.0000000000000000     
  0.87500000000000000       0.18750000000000000        0.0000000000000000     
  0.90625000000000000       0.18750000000000000        0.0000000000000000     
  0.93750000000000000       0.18750000000000000        0.0000000000000000     
  0.96875000000000000       0.18750000000000000        0.0000000000000000     
   1.0000000000000000       0.18750000000000000        0.0000000000000000     
  0.87500000000000000       0.21875000000000000        0.0000000000000000     
  0.90625000000000000       0.21875000000000000        0.0000000000000000     
  0.93750000000000000       0.21875000000000000        0.0000000000000000     
  0.96875000000000000       0.21875000000000000        0.0000000000000000     
   1.0000000000000000       0.21875000000000000        0.0000000000000000     
  0.87500000000000000       0.25000000000000000        0.0000000000000000     
  0.90625000000000000       0.25000000000000000        0.0000000000000000     
  0.93750000000000000       0.25000000000000000        0.0000000000000000     
  0.96875000000000000       0.25000000000000000        0.0000000000000000     
   1.0000000000000000       0.25000000000000000        0.0000000000000000     
   1.0000000000000000       0.12500000000000000        0.0000000000000000     
   1.0312500000000000       0.12500000000000000        0.0000000000000000     
   1.0625000000000000       0.12500000000000000        0.0000000000000000     
   1.0937500000000000       0.12500000000000000        0.0000000000000000     
   1.1250000000000000       0.12500000000000000        0.0000000000000000     
   1.0000000000000000       0.15625000000000000        0.0000000000000000     
   1.0312500000000000       0.15625000000000000        0.0000000000000000     
   1.0625000000000000       0.15625000000000000        0.0000000000000000     
   1.0937500000000000       0.15625000000000000        0.0000000000000000     
   1.1250000000000000       0.15625000000000000        0.0000000000000000     
   1.0000000000000000       0.18750000000000000        0.0000000000000000     
   1.0312500000000000       0.18750000000000000        0.0000000000000000     
   1.0625000000000000       0.18750000000000000        0.0000000000000000     
   1.0937500000000000       0.18750000000000000        0.0000000000000000     
   1.1250000000000000       0.18750000000000000        0.0000000000000000     
   1.0000000000000000       0.21875000000000000        0.0000000000000000     
   1.0312500000000000       0.21875000000000000        0.0000000000000000     
   1.0625000000000000       0.21875000000000000        0.0000000000000000     
   1.0937500000000000       0.21875000000000000        0.0000000000000000     
   1.1250000000000000       0.21875000000000000        0.0000000000000000     
   1.0000000000000000       0.25000000000000000        0.0000000000000000     
   1.0312500000000000       0.25000000000000000        0.0000000000000000     
   1.0625000000000000       0.25000000000000000        0.0000000000000000     
   1.0937500000000000       0.25000000000000000        0.0000000000000000     
   1.1250000000000000       0.25000000000000000        0.0000000000000000     
   1.1250000000000000       0.12500000000000000        0.0000000000000000     
   1.1562500000000000       0.12500000000000000        0.0000000000000000     
   1.1875000000000000       0.12500000000000000        0.0000000000000000     
   1.2187500000000000       0.12500000000000000        0.0000000000000000     
   1.2500000000000000       0.12500000000000000        0.0000000000000000     
   1.1250000000000000       0.15625000000000000        0.0000000000000000     
   1.1562500000000000       0.15625000000000000        0.0000000000000000     
   1.1875000000000000       0.15625000000000000        0.0000000000000000     
   1.2187500000000000       0.15625000000000000        0.0000000000000000     
   1.2500000000000000       0.15625000000000000        0.0000000000000000     
   1.1250000000000000       0.18750000000000000        0.0000000000000000     
   1.1562500000000000       0.18750000000000000        0.0000000000000000     
   1.1875000000000000       0.18750000000000000        0.0000000000000000     
   1.2187500000000000       0.18750000000000000        0.0000000000000000     
   1.2500000000000000       0.18750000000000000        0.0000000000000000     
   1.1250000000000000       0.21875000000000000        0.0000000000000000     
   1.1562500000000000       0.21875000000000000        0.0000000000000000     
   1.1875000000000000       0.21875000000000000        0.0000000000000000     
   1.2187500000000000       0.21875000000000000        0.0000000000000000     
   1.2500000000000000       0.21875000000000000        0.0000000000000000     
   1.1250000000000000       0.25000000000000000        0.0000000000000000     
   1.1562500000000000       0.25000000000000000        0.0000000000000000     
   1.1875000000000000       0.25000000000000000        0.0000000000000000     
   1.2187500000000000       0.25000000000000000        0.0000000000000000     
   1.2500000000000000       0.25000000000000000        0.0000000000000000     
   1.2500000000000000       0.12500000000000000        0.0000000000000000     
   1.2812500000000000       0.12500000000000000        0.0000000000000000     
   1.3125000000000000       0.12500000000000000        0.0000000000000000     
   1.3437500000000000       0.12500000000000000        0.0000000000000000     
   1.3750000000000000       0.12500000000000000        0.0000000000000000     
   1.2500000000000000       0.15625000000000000        0.0000000000000000     
   1.2812500000000000       0.15625000000000000        0.0000000000000000     
   1.3125000000000000       0.15625000000000000        0.0000000000000000     
   1.3437500000000000       0.15625000000000000        0.0000000000000000     
   1.3750000000000000       0.15625000000000000        0.0000000000000000     
   1.2500000000000000       0.18750000000000000        0.0000000000000000     
   1.2812500000000000       0.18750000000000000        0.0000000000000000     
   1.3125000000000000       0.18750000000000000        0.0000000000000000     
   1.3437500000000000       0.18750000000000000        0.0000000000000000     
   1.3750000000000000       0.18750000000000000        0.0000000000000000     
   1.2500000000000000       0.21875000000000000        0.0000000000000000     
   1.2812500000000000       0.21875000000000000        0.0000000000000000     
   1.3125000000000000       0.21875000000000000        0.0000000000000000     
   1.3437500000000000       0.21875000000000000        0.0000000000000000     
   1.3750000000000000       0.21875000000000000        0.0000000000000000     
   1.2500000000000000       0.25000000000000000        0.0000000000000000     
   1.2812500000000000       0.25000000000000000        0.0000000000000000     
   1.3125000000000000       0.25000000000000000        0.0000000000000000     
   1.3437500000000000       0.25000000000000000        0.0000000000000000     
   1.3750000000000000       0.25000000000000000        0.0000000000000000     
   1.3750000000000000       0.12500000000000000        0.0000000000000000     
   1.4062500000000000       0.12500000000000000        0.0000000000000000     
   1.4375000000000000       0.12500000000000000        0.0000000000000000     
   1.4687500000000000       0.12500000000000000        0.0000000000000000     
   1.5000000000000000       0.12500000000000000        0.0000000000000000     
   1.3750000000000000       0.15625000000000000        0.0000000000000000     
   1.4062500000000000       0.15625000000000000        0.0000000000000000     
   1.4375000000000000       0.15625000000000000        0.0000000000000000     
   1.4687500000000000       0.15625000000000000        0.0000000000000000     
   1.5000000000000000       0.15625000000000000        0.0000000000000000     
   1.3750000000000000       0.18750000000000000        0.0000000000000000     
   1.4062500000000000       0.18750000000000000        0.0000000000000000     
   1.4375000000000000       0.18750000000000000        0.0000000000000000     
   1.4687500000000000       0.18750000000000000        0.0000000000000000     
   1.5000000000000000       0.18750000000000000        0.0000000000000000     
   1.3750000000000000       0.21875000000000000        0.0000000000000000     
   1.4062500000000000       0.21875000000000000        0.0000000000000000     
   1.4375000000000000       0.21875000000000000        0.0000000000000000     
   1.4687500000000000       0.21875000000000000        0.0000000000000000     
   1.5000000000000000       0.21875000000000000        0.0000000000000000     
   1.3750000000000000       0.25000000000000000        0.0000000000000000     
   1.4062500000000000       0.25000000000000000        0.0000000000000000     
   1.4375000000000000       0.25000000000000000        0.0000000000000000     
   1.4687500000000000       0.25000000000000000        0.0000000000000000     
   1.5000000000000000       0.25000000000000000        0.0000000000000000     
  0.50000000000000000       0.25000000000000000        0.0000000000000000     
  0.53125000000000000       0.25000000000000000        0.0000000000000000     
  0.56250000000000000       0.25000000000000000        0.0000000000000000     
  0.59375000000000000       0.25000000000000000        0.0000000000000000     
  0.62500000000000000       0.25000000000000000        0.0000000000000000     
  0.50000000000000000       0.28125000000000000        0.0000000000000000     
  0.53125000000000000       0.28125000000000000        0.0000000000000000     
  0.56250000000000000       0.28125000000000000        0.0000000000000000     
  0.59375000000000000       0.28125000000000000        0.0000000000000000     
  0.62500000000000000       0.28125000000000000        0.0000000000000000     
  0.50000000000000000       0.31250000000000000        0.0000000000000000     
  0.53125000000000000       0.31250000000000000        0.0000000000000000     
  0.56250000000000000       0.31250000000000000        0.0000000000000000     
  0.59375000000000000       0.31250000000000000        0.0000000000000000     
  0.62500000000000000       0.31250000000000000        0.0000000000000000     
  0.50000000000000000       0.34375000000000000        0.0000000000000000     
  0.53125000000000000       0.34375000000000000        0.0000000000000000     
  0.56250000000000000       0.34375000000000000        0.0000000000000000     
  0.59375000000000000       0.34375000000000000        0.0000000000000000     
  0.62500000000000000       0.34375000000000000        0.0000000000000000     
  0.50000000000000000       0.37500000000000000        0.0000000000000000     
  0.53125000000000000       0.37500000000000000        0.0000000000000000     
  0.56250000000000000       0.37500000000000000        0.0000000000000000     
  0.59375000000000000       0.37500000000000000        0.0000000000000000     
  0.62500000000000000       0.37500000000000000        0.0000000000000000     
  0.62500000000000000       0.25000000000000000        0.0000000000000000     
  0.65625000000000000       0.25000000000000000        0.0000000000000000     
  0.68750000000000000       0.25000000000000000        0.0000000000000000     
  0.71875000000000000       0.25000000000000000        0.0000000000000000     
  0.75000000000000000       0.25000000000000000        0.0000000000000000     
  0.62500000000000000       0.28125000000000000        0.0000000000000000     
  0.65625000000000000       0.28125000000000000        0.0000000000000000     
  0.68750000000000000       0.28125000000000000        0.0000000000000000     
  0.71875000000000000       0.28125000000000000        0.0000000000000000     
  0.75000000000000000       0.28125000000000000        0.0000000000000000     
  0.62500000000000000       0.31250000000000000        0.0000000000000000     
  0.65625000000000000       0.31250000000000000        0.0000000000000000     
  0.68750000000000000       0.31250000000000000        0.0000000000000000     
  0.71875000000000000       0.31250000000000000        0.0000000000000000     
  0.75000000000000000       0.31250000000000000        0.0000000000000000     
  0.62500000000000000       0.34375000000000000        0.0000000000000000     
  0.65625000000000000       0.34375000000000000        0.0000000000000000     
  0.68750000000000000       0.34375000000000000        0.0000000000000000     
  0.71875000000000000       0.34375000000000000        0.0000000000000000     
  0.75000000000000000       0.34375000000000000        0.0000000000000000     
  0.62500000000000000       0.37500000000000000        0.0000000000000000     
  0.65625000000000000       0.37500000000000000        0.0000000000000000     
  0.68750000000000000       0.37500000000000000        0.0000000000000000     
  0.71875000000000000       0.37500000000000000        0.0000000000000000     
  0.75000000000000000       0.37500000000000000        0.0000000000000000     
  0.75000000000000000       0.25000000000000000        0.0000000000000000     
  0.78125000000000000       0.25000000000000000        0.0000000000000000     
  0.81250000000000000       0.25000000000000000        0.0000000000000000     
  0.84375000000000000       0.25000000000000000        0.0000000000000000     
  0.87500000000000000       0.25000000000000000        0.0000000000000000     
  0.75000000000000000       0.28125000000000000        0.0000000000000000     
  0.78125000000000000       0.28125000000000000        0.0000000000000000     
  0.81250000000000000       0.28125000000000000        0.0000000000000000     
  0.84375000000000000       0.28125000000000000        0.0000000000000000     
  0.87500000000000000       0.28125000000000000        0.0000000000000000     
  0.75000000000000000       0.31250000000000000        0.0000000000000000     
  0.78125000000000000       0.31250000000000000        0.0000000000000000     
  0.81250000000000000       0.31250000000000000        0.0000000000000000     
  0.84375000000000000       0.31250000000000000        0.0000000000000000     
  0.87500000000000000       0.31250000000000000        0.0000000000000000     
  0.75000000000000000       0.34375000000000000        0.0000000000000000     
  0.78125000000000000       0.34375000000000000        0.0000000000000000     
  0.81250000000000000       0.34375000000000000        0.0000000000000000     
  0.84375000000000000       0.34375000000000000        0.0000000000000000     
  0.87500000000000000       0.34375000000000000        0.0000000000000000     
  0.75000000000000000       0.37500000000000000        0.0000000000000000     
  0.78125000000000000       0.37500000000000000        0.0000000000000000     
  0.81250000000000000       0.37500000000000000        0.0000000000000000     
  0.84375000000000000       0.37500000000000000        0.0000000000000000     
  0.87500000000000000       0.37500000000000000        0.0000000000000000     
  0.87500000000000000       0.25000000000000000        0.0000000000000000     
  0.90625000000000000       0.25000000000000000        0.0000000000000000     
  0.93750000000000000       0.25000000000000000        0.0000000000000000     
  0.96875000000000000       0.25000000000000000        0.0000000000000000     
   1.0000000000000000       0.25000000000000000        0.0000000000000000     
  0.87500000000000000       0.28125000000000000        0.0000000000000000     
  0.90625000000000000       0.28125000000000000        0.0000000000000000     
  0.93750000000000000       0.28125000000000000        0.0000000000000000     
  0.96875000000000000       0.28125000000000000        0.0000000000000000     
   1.0000000000000000       0.28125000000000000        0.0000000000000000     
  0.87500000000000000       0.31250000000000000        0.0000000000000000     
  0.90625000000000000       0.31250000000000000        0.0000000000000000     
  0.93750000000000000       0.31250000000000000        0.0000000000000000     
  0.96875000000000000       0.31250000000000000        0.0000000000000000     
   1.0000000000000000       0.31250000000000000        0.0000000000000000     
  0.87500000000000000       0.34375000000000000        0.0000000000000000     
  0.90625000000000000       0.34375000000000000        0.0000000000000000     
  0.93750000000000000       0.34375000000000000        0.0000000000000000     
  0.96875000000000000       0.34375000000000000        0.0000000000000000     
   1.0000000000000000       0.34375000000000000        0.0000000000000000     
  0.87500000000000000       0.37500000000000000        0.0000000000000000     
  0.90625000000000000       0.37500000000000000        0.0000000000000000     
  0.93750000000000000       0.37500000000000000        0.0000000000000000     
  0.96875000000000000       0.37500000000000000        0.0000000000000000     
   1.0000000000000000       0.37500000000000000        0.0000000000000000     
   1.0000000000000000       0.25000000000000000        0.0000000000000000     
   1.0312500000000000       0.25000000000000000        0.0000000000000000     
   1.0625000000000000       0.25000000000000000        0.0000000000000000     
   1.0937500000000000       0.25000000000000000        0.0000000000000000     
   1.1250000000000000       0.25000000000000000        0.0000000000000000     
   1.0000000000000000       0.28125000000000000        0.0000000000000000     
   1.0312500000000000       0.28125000000000000        0.0000000000000000     
   1.0625000000000000       0.28125000000000000        0.0000000000000000     
   1.0937500000000000       0.28125000000000000        0.0000000000000000     
   1.1250000000000000       0.28125000000000000        0.0000000000000000     
   1.0000000000000000       0.31250000000000000        0.0000000000000000     
   1.0312500000000000       0.31250000000000000        0.0000000000000000     
   1.0625000000000000       0.31250000000000000        0.0000000000000000     
   1.0937500000000000       0.31250000000000000        0.0000000000000000     
   1.1250000000000000       0.31250000000000000        0.0000000000000000     
   1.0000000000000000       0.34375000000000000        0.0000000000000000     
   1.0312500000000000       0.34375000000000000        0.0000000000000000     
   1.0625000000000000       0.34375000000000000        0.0000000000000000     
   1.0937500000000000       0.34375000000000000        0.0000000000000000     
   1.1250000000000000       0.34375000000000000        0.0000000000000000     
   1.0000000000000000       0.37500000000000000        0.0000000000000000     
   1.0312500000000000       0.37500000000000000        0.0000000000000000     
   1.0625000000000000       0.37500000000000000        0.0000000000000000     
   1.0937500000000000       0.37500000000000000        0.0000000000000000     
   1.1250000000000000       0.37500000000000000        0.0000000000000000     
   1.1250000000000000       0.25000000000000000        0.0000000000000000     
   1.1562500000000000       0.25000000000000000        0.0000000000000000     
   1.1875000000000000       0.25000000000000000        0.0000000000000000     
   1.2187500000000000       0.25000000000000000        0.0000000000000000     
   1.2500000000000000       0.25000000000000000        0.0000000000000000     
   1.1250000000000000       0.28125000000000000        0.0000000000000000     
   1.1562500000000000       0.28125000000000000        0.0000000000000000     
   1.1875000000000000       0.28125000000000000        0.0000000000000000     
   1.2187500000000000       0.28125000000000000        0.0000000000000000     
   1.2500000000000000       0.28125000000000000        0.0000000000000000     
   1.1250000000000000       0.31250000000000000        0.0000000000000000     
   1.1562500000000000       0.31250000000000000        0.0000000000000000     
   1.1875000000000000       0.31250000000000000        0.0000000000000000     
   1.2187500000000000       0.31250000000000000        0.0000000000000000     
   1.2500000000000000       0.31250000000000000        0.0000000000000000     
   1.1250000000000000       0.34375000000000000        0.0000000000000000     
   1.1562500000000000       0.34375000000000000        0.0000000000000000     
   1.1875000000000000       0.34375000000000000        0.0000000000000000     
   1.2187500000000000       0.34375000000000000        0.0000000000000000     
   1.2500000000000000       0.34375000000000000        0.0000000000000000     
   1.1250000000000000       0.37500000000000000        0.0000000000000000     
   1.1562500000000000       0.37500000000000000        0.0000000000000000     
   1.1875000000000000       0.37500000000000000        0.0000000000000000     
   1.2187500000000000       0.37500000000000000        0.0000000000000000     
   1.2500000000000000       0.37500000000000000        0.0000000000000000     
   1.2500000000000000       0.25000000000000000        0.0000000000000000     
   1.2812500000000000       0.25000000000000000        0.0000000000000000     
   1.3125000000000000       0.25000000000000000        0.0000000000000000     
   1.3437500000000000       0.25000000000000000        0.0000000000000000     
   1.3750000000000000       0.25000000000000000        0.0000000000000000     
   1.2500000000000000       0.28125000000000000        0.0000000000000000     
   1.2812500000000000       0.28125000000000000        0.0000000000000000     
   1.3125000000000000       0.28125000000000000        0.0000000000000000     
   1.3437500000000000       0.28125000000000000        0.0000000000000000     
   1.3750000000000000       0.28125000000000000        0.0000000000000000     
   1.2500000000000000       0.31250000000000000        0.0000000000000000     
   1.2812500000000000       0.31250000000000000        0.0000000000000000     
   1.3125000000000000       0.31250000000000000        0.0000000000000000     
   1.3437500000000000       0.31250000000000000        0.0000000000000000     
   1.3750000000000000       0.31250000000000000        0.0000000000000000     
   1.2500000000000000       0.34375000000000000        0.0000000000000000     
   1.2812500000000000       0.34375000000000000        0.0000000000000000     
   1.3125000000000000       0.34375000000000000        0.0000000000000000     
   1.3437500000000000       0.34375000000000000        0.0000000000000000     
   1.3750000000000000       0.34375000000000000        0.0000000000000000     
   1.2500000000000000       0.37500000000000000        0.0000000000000000     
   1.2812500000000000       0.37500000000000000        0.0000000000000000     
   1.3125000000000000       0.37500000000000000        0.0000000000000000     
   1.3437500000000000       0.37500000000000000        0.0000000000000000     
   1.3750000000000000       0.37500000000000000        0.0000000000000000     
   1.3750000000000000       0.25000000000000000        0.0000000000000000     
   1.4062500000000000       0.25000000000000000        0.0000000000000000     
   1.4375000000000000       0.25000000000000000        0.0000000000000000     
   1.4687500000000000       0.25000000000000000        0.0000000000000000     
   1.5000000000000000       0.25000000000000000        0.0000000000000000     
   1.3750000000000000       0.28125000000000000        0.0000000000000000     
   1.4062500000000000       0.28125000000000000        0.0000000000000000     
   1.4375000000000000       0.28125000000000000        0.0000000000000000     
   1.4687500000000000       0.28125000000000000        0.0000000000000000     
   1.5000000000000000       0.28125000000000000        0.0000000000000000     
   1.3750000000000000       0.31250000000000000        0.0000000000000000     
   1.4062500000000000       0.31250000000000000        0.0000000000000000     
   1.4375000000000000       0.31250000000000000        0.0000000000000000     
   1.4687500000000000       0.31250000000000000        0.0000000000000000     
   1.5000000000000000       0.31250000000000000        0.0000000000000000     
   1.3750000000000000       0.34375000000000000        0.0000000000000000     
   1.4062500000000000       0.34375000000000000        0.0000000000000000     
   1.4375000000000000       0.34375000000000000        0.0000000000000000     
   1.4687500000000000       0.34375000000000000        0.0000000000000000     
   1.5000000000000000       0.34375000000000000        0.0000000000000000     
   1.3750000000000000       0.37500000000000000        0.0000000000000000     
   1.4062500000000000       0.37500000000000000        0.0000000000000000     
   1.4375000000000000       0.37500000000000000        0.0000000000000000     
   1.4687500000000000       0.37500000000000000        0.0000000000000000     
   1.5000000000000000       0.37500000000000000        0.0000000000000000     
  0.50000000000000000       0.37500000000000000        0.0000000000000000     
  0.53125000000000000       0.37500000000000000        0.0000000000000000     
  0.56250000000000000       0.37500000000000000        0.0000000000000000     
  0.59375000000000000       0.37500000000000000        0.0000000000000000     
  0.62500000000000000       0.37500000000000000        0.0000000000000000     
  0.50000000000000000       0.40625000000000000        0.0000000000000000     
  0.53125000000000000       0.40625000000000000        0.0000000000000000     
  0.56250000000000000       0.40625000000000000        0.0000000000000000     
  0.59375000000000000       0.40625000000000000        0.0000000000000000     
  0.62500000000000000       0.40625000000000000        0.0000000000000000     
  0.50000000000000000       0.43750000000000000        0.0000000000000000     
  0.53125000000000000       0.43750000000000000        0.0000000000000000     
  0.56250000000000000       0.43750000000000000        0.0000000000000000     
  0.59375000000000000       0.43750000000000000        0.0000000000000000     
  0.62500000000000000       0.43750000000000000        0.0000000000000000     
  0.50000000000000000       0.46875000000000000        0.0000000000000000     
  0.53125000000000000       0.46875000000000000        0.0000000000000000     
  0.56250000000000000       0.46875000000000000        0.0000000000000000     
  0.59375000000000000       0.46875000000000000        0.0000000000000000     
  0.62500000000000000       0.46875000000000000        0.0000000000000000     
  0.50000000000000000       0.50000000000000000        0.0000000000000000     
  0.53125000000000000       0.50000000000000000        0.0000000000000000     
  0.56250000000000000       0.50000000000000000        0.0000000000000000     
  0.59375000000000000       0.50000000000000000        0.0000000000000000     
  0.62500000000000000       0.50000000000000000        0.0000000000000000     
  0.62500000000000000       0.37500000000000000        0.0000000000000000     
  0.65625000000000000       0.37500000000000000        0.0000000000000000     
  0.68750000000000000       0.37500000000000000        0.0000000000000000     
  0.71875000000000000       0.37500000000000000        0.0000000000000000     
  0.75000000000000000       0.37500000000000000        0.0000000000000000     
  0.62500000000000000       0.40625000000000000        0.0000000000000000     
  0.65625000000000000       0.40625000000000000        0.0000000000000000     
  0.68750000000000000       0.40625000000000000        0.0000000000000000     
  0.71875000000000000       0.40625000000000000        0.0000000000000000     
  0.75000000000000000       0.40625000000000000        0.0000000000000000     
  0.62500000000000000       0.43750000000000000        0.0000000000000000     
  0.65625000000000000       0.43750000000000000        0.0000000000000000     
  0.68750000000000000       0.43750000000000000        0.0000000000000000     
  0.71875000000000000       0.43750000000000000        0.0000000000000000     
  0.75000000000000000       0.43750000000000000        0.0000000000000000     
  0.62500000000000000       0.46875000000000000        0.0000000000000000     
  0.65625000000000000       0.46875000000000000        0.0000000000000000     
  0.68750000000000000       0.46875000000000000        0.0000000000000000     
  0.71875000000000000       0.46875000000000000        0.0000000000000000     
  0.75000000000000000       0.46875000000000000        0.0000000000000000     
  0.62500000000000000       0.50000000000000000        0.0000000000000000     
  0.65625000000000000       0.50000000000000000        0.0000000000000000     
  0.68750000000000000       0.50000000000000000        0.0000000000000000     
  0.71875000000000000       0.50000000000000000        0.0000000000000000     
  0.75000000000000000       0.50000000000000000        0.0000000000000000     
  0.75000000000000000       0.37500000000000000        0.0000000000000000     
  0.78125000000000000       0.37500000000000000        0.0000000000000000     
  0.81250000000000000       0.37500000000000000        0.0000000000000000     
  0.84375000000000000       0.37500000000000000        0.0000000000000000     
  0.87500000000000000       0.37500000000000000        0.0000000000000000     
  0.75000000000000000       0.40625000000000000        0.0000000000000000     
  0.78125000000000000       0.40625000000000000        0.0000000000000000     
  0.81250000000000000       0.40625000000000000        0.0000000000000000     
  0.84375000000000000       0.40625000000000000        0.0000000000000000     
  0.87500000000000000       0.40625000000000000        0.0000000000000000     
  0.75000000000000000       0.43750000000000000        0.0000000000000000     
  0.78125000000000000       0.43750000000000000        0.0000000000000000     
  0.81250000000000000       0.43750000000000000        0.0000000000000000     
  0.84375000000000000       0.43750000000000000        0.0000000000000000     
  0.87500000000000000       0.43750000000000000        0.0000000000000000     
  0.75000000000000000       0.46875000000000000        0.0000000000000000     
  0.78125000000000000       0.46875000000000000        0.0000000000000000     
  0.81250000000000000       0.46875000000000000        0.0000000000000000     
  0.84375000000000000       0.46875000000000000        0.0000000000000000     
  0.87500000000000000       0.46875000000000000        0.0000000000000000     
  0.75000000000000000       0.50000000000000000        0.0000000000000000     
  0.78125000000000000       0.50000000000000000        0.0000000000000000     
  0.81250000000000000       0.50000000000000000        0.0000000000000000     
  0.84375000000000000       0.50000000000000000        0.0000000000000000     
  0.87500000000000000       0.50000000000000000        0.0000000000000000     
  0.87500000000000000       0.37500000000000000        0.0000000000000000     
  0.90625000000000000       0.37500000000000000        0.0000000000000000     
  0.93750000000000000       0.37500000000000000        0.0000000000000000     
  0.96875000000000000       0.37500000000000000        0.0000000000000000     
   1.0000000000000000       0.37500000000000000        0.0000000000000000     
  0.87500000000000000       0.40625000000000000        0.0000000000000000     
  0.90625000000000000       0.40625000000000000        0.0000000000000000     
  0.93750000000000000       0.40625000000000000        0.0000000000000000     
  0.96875000000000000       0.40625000000000000        0.0000000000000000     
   1.0000000000000000       0.40625000000000000        0.0000000000000000     
  0.87500000000000000       0.43750000000000000        0.0000000000000000     
  0.90625000000000000       0.43750000000000000        0.0000000000000000     
  0.93750000000000000       0.43750000000000000        0.0000000000000000     
  0.96875000000000000       0.43750000000000000        0.0000000000000000     
   1.0000000000000000       0.43750000000000000        0.0000000000000000     
  0.87500000000000000       0.46875000000000000        0.0000000000000000     
  0.90625000000000000       0.46875000000000000        0.0000000000000000     
  0.93750000000000000       0.46875000000000000        0.0000000000000000     
  0.96875000000000000       0.46875000000000000        0.0000000000000000     
   1.0000000000000000       0.46875000000000000        0.0000000000000000     
  0.87500000000000000       0.50000000000000000        0.0000000000000000     
  0.90625000000000000       0.50000000000000000        0.0000000000000000     
  0.93750000000000000       0.50000000000000000        0.0000000000000000     
  0.96875000000000000       0.50000000000000000        0.0000000000000000     
   1.0000000000000000       0.50000000000000000        0.0000000000000000     
   1.0000000000000000       0.37500000000000000        0.0000000000000000     
   1.0312500000000000       0.37500000000000000        0.0000000000000000     
   1.0625000000000000       0.37500000000000000        0.0000000000000000     
   1.0937500000000000       0.37500000000000000        0.0000000000000000     
   1.1250000000000000       0.37500000000000000        0.0000000000000000     
   1.0000000000000000       0.40625000000000000        0.0000000000000000     
   1.0312500000000000       0.40625000000000000        0.0000000000000000     
   1.0625000000000000       0.40625000000000000        0.0000000000000000     
   1.0937500000000000       0.40625000000000000        0.0000000000000000     
   1.1250000000000000       0.40625000000000000        0.0000000000000000     
   1.0000000000000000       0.43750000000000000        0.0000000000000000     
   1.0312500000000000       0.43750000000000000        0.0000000000000000     
   1.0625000000000000       0.43750000000000000        0.0000000000000000     
   1.0937500000000000       0.43750000000000000        0.0000000000000000     
   1.1250000000000000       0.43750000000000000        0.0000000000000000     
   1.0000000000000000       0.46875000000000000        0.0000000000000000     
   1.0312500000000000       0.46875000000000000        0.0000000000000000     
   1.0625000000000000       0.46875000000000000        0.0000000000000000     
   1.0937500000000000       0.46875000000000000        0.0000000000000000     
   1.1250000000000000       0.46875000000000000        0.0000000000000000     
   1.0000000000000000       0.50000000000000000        0.0000000000000000     
   1.0312500000000000       0.50000000000000000        0.0000000000000000     
   1.0625000000000000       0.50000000000000000        0.0000000000000000     
   1.0937500000000000       0.50000000000000000        0.0000000000000000     
   1.1250000000000000       0.50000000000000000        0.0000000000000000     
   1.1250000000000000       0.37500000000000000        0.0000000000000000     
   1.1562500000000000       0.37500000000000000        0.0000000000000000     
   1.1875000000000000       0.37500000000000000        0.0000000000000000     
   1.2187500000000000       0.37500000000000000        0.0000000000000000     
   1.2500000000000000       0.37500000000000000        0.0000000000000000     
   1.1250000000000000       0.40625000000000000        0.0000000000000000     
   1.1562500000000000       0.40625000000000000        0.0000000000000000     
   1.1875000000000000       0.40625000000000000        0.0000000000000000     
   1.2187500000000000       0.40625000000000000        0.0000000000000000     
   1.2500000000000000       0.40625000000000000        0.0000000000000000     
   1.1250000000000000       0.43750000000000000        0.0000000000000000     
   1.1562500000000000       0.43750000000000000        0.0000000000000000     
   1.1875000000000000       0.43750000000000000        0.0000000000000000     
   1.2187500000000000       0.43750000000000000        0.0000000000000000     
   1.2500000000000000       0.43750000000000000        0.0000000000000000     
   1.1250000000000000       0.46875000000000000        0.0000000000000000     
   1.1562500000000000       0.46875000000000000        0.0000000000000000     
   1.1875000000000000       0.46875000000000000        0.0000000000000000     
   1.2187500000000000       0.46875000000000000        0.0000000000000000     
   1.2500000000000000       0.46875000000000000        0.0000000000000000     
   1.1250000000000000       0.50000000000000000        0.0000000000000000     
   1.1562500000000000       0.50000000000000000        0.0000000000000000     
   1.1875000000000000       0.50000000000000000        0.0000000000000000     
   1.2187500000000000       0.50000000000000000        0.0000000000000000     
   1.2500000000000000       0.50000000000000000        0.0000000000000000     
   1.2500000000000000       0.37500000000000000        0.0000000000000000     
   1.2812500000000000       0.37500000000000000        0.0000000000000000     
   1.3125000000000000       0.37500000000000000        0.0000000000000000     
   1.3437500000000000       0.37500000000000000        0.0000000000000000     
   1.3750000000000000       0.37500000000000000        0.0000000000000000     
   1.2500000000000000       0.40625000000000000        0.0000000000000000     
   1.2812500000000000       0.40625000000000000        0.0000000000000000     
   1.3125000000000000       0.40625000000000000        0.0000000000000000     
   1.3437500000000000       0.40625000000000000        0.0000000000000000     
   1.3750000000000000       0.40625000000000000        0.0000000000000000     
   1.2500000000000000       0.43750000000000000        0.0000000000000000     
   1.2812500000000000       0.43750000000000000        0.0000000000000000     
   1.3125000000000000       0.43750000000000000        0.0000000000000000     
   1.3437500000000000       0.43750000000000000        0.0000000000000000     
   1.3750000000000000       0.43750000000000000        0.0000000000000000     
   1.2500000000000000       0.46875000000000000        0.0000000000000000     
   1.2812500000000000       0.46875000000000000        0.0000000000000000     
   1.3125000000000000       0.46875000000000000        0.0000000000000000     
   1.3437500000000000       0.46875000000000000        0.0000000000000000     
   1.3750000000000000       0.46875000000000000        0.0000000000000000     
   1.2500000000000000       0.50000000000000000        0.0000000000000000     
   1.2812500000000000       0.50000000000000000        0.0000000000000000     
   1.3125000000000000       0.50000000000000000        0.0000000000000000     
   1.3437500000000000       0.50000000000000000        0.0000000000000000     
   1.3750000000000000       0.50000000000000000        0.0000000000000000     
   1.3750000000000000       0.37500000000000000        0.0000000000000000     
   1.4062500000000000       0.37500000000000000        0.0000000000000000     
   1.4375000000000000       0.37500000000000000        0.0000000000000000     
   1.4687500000000000       0.37500000000000000        0.0000000000000000     
   1.5000000000000000       0.37500000000000000        0.0000000000000000     
   1.3750000000000000       0.40625000000000000        0.0000000000000000     
   1.4062500000000000       0.40625000000000000        0.0000000000000000     
   1.4375000000000000       0.40625000000000000        0.0000000000000000     
   1.4687500000000000       0.40625000000000000        0.0000000000000000     
   1.5000000000000000       0.40625000000000000        0.0000000000000000     
   1.3750000000000000       0.43750000000000000        0.0000000000000000     
   1.4062500000000000       0.43750000000000000        0.0000000000000000     
   1.4375000000000000       0.43750000000000000        0.0000000000000000     
   1.4687500000000000       0.43750000000000000        0.0000000000000000     
   1.5000000000000000       0.43750000000000000        0.0000000000000000     
   1.3750000000000000       0.46875000000000000        0.0000000000000000     
   1.4062500000000000       0.46875000000000000        0.0000000000000000     
   1.4375000000000000       0.46875000000000000        0.0000000000000000     
   1.4687500000000000       0.46875000000000000        0.0000000000000000     
   1.5000000000000000       0.46875000000000000        0.0000000000000000     
   1.3750000000000000       0.50000000000000000        0.0000000000000000     
   1.4062500000000000       0.50000000000000000        0.0000000000000000     
   1.4375000000000000       0.50000000000000000        0.0000000000000000     
   1.4687500000000000       0.50000000000000000        0.0000000000000000     
   1.5000000000000000       0.50000000000000000        0.0000000000000000     
  0.50000000000000000       0.50000000000000000        0.0000000000000000     
  0.53125000000000000       0.50000000000000000        0.0000000000000000     
  0.56250000000000000       0.50000000000000000        0.0000000000000000     
  0.59375000000000000       0.50000000000000000        0.0000000000000000     
  0.62500000000000000       0.50000000000000000        0.0000000000000000     
  0.50000000000000000       0.53125000000000000        0.0000000000000000     
  0.53125000000000000       0.53125000000000000        0.0000000000000000     
  0.56250000000000000       0.53125000000000000        0.0000000000000000     
  0.59375000000000000       0.53125000000000000        0.0000000000000000     
  0.62500000000000000       0.53125000000000000        0.0000000000000000     
  0.50000000000000000       0.56250000000000000        0.0000000000000000     
  0.53125000000000000       0.56250000000000000        0.0000000000000000     
  0.56250000000000000       0.56250000000000000        0.0000000000000000     
  0.59375000000000000       0.56250000000000000        0.0000000000000000     
  0.62500000000000000       0.56250000000000000        0.0000000000000000     
  0.50000000000000000       0.59375000000000000        0.0000000000000000     
  0.53125000000000000       0.59375000000000000        0.0000000000000000     
  0.56250000000000000       0.59375000000000000        0.0000000000000000     
  0.59375000000000000       0.59375000000000000        0.0000000000000000     
  0.62500000000000000       0.59375000000000000        0.0000000000000000     
  0.50000000000000000       0.62500000000000000        0.0000000000000000     
  0.53125000000000000       0.62500000000000000        0.0000000000000000     
  0.56250000000000000       0.62500000000000000        0.0000000000000000     
  0.59375000000000000       0.62500000000000000        0.0000000000000000     
  0.62500000000000000       0.62500000000000000        0.0000000000000000     
  0.62500000000000000       0.50000000000000000        0.0000000000000000     
  0.65625000000000000       0.50000000000000000        0.0000000000000000     
  0.68750000000000000       0.50000000000000000        0.0000000000000000     
  0.71875000000000000       0.50000000000000000        0.0000000000000000     
  0.75000000000000000       0.50000000000000000        0.0000000000000000     
  0.62500000000000000       0.53125000000000000        0.0000000000000000     
  0.65625000000000000       0.53125000000000000        0.0000000000000000     
  0.68750000000000000       0.53125000000000000        0.0000000000000000     
  0.71875000000000000       0.53125000000000000        0.0000000000000000     
  0.75000000000000000       0.53125000000000000        0.0000000000000000     
  0.62500000000000000       0.56250000000000000        0.0000000000000000     
  0.65625000000000000       0.56250000000000000        0.0000000000000000     
  0.68750000000000000       0.56250000000000000        0.0000000000000000     
  0.71875000000000000       0.56250000000000000        0.0000000000000000     
  0.75000000000000000       0.56250000000000000        0.0000000000000000     
  0.62500000000000000       0.59375000000000000        0.0000000000000000     
  0.65625000000000000       0.59375000000000000        0.0000000000000000     
  0.68750000000000000       0.59375000000000000        0.0000000000000000     
  0.71875000000000000       0.59375000000000000        0.0000000000000000     
  0.75000000000000000       0.59375000000000000        0.0000000000000000     
  0.62500000000000000       0.62500000000000000        0.0000000000000000     
  0.65625000000000000       0.62500000000000000        0.0000000000000000     
  0.68750000000000000       0.62500000000000000        0.0000000000000000     
  0.71875000000000000       0.62500000000000000        0.0000000000000000     
  0.75000000000000000       0.62500000000000000        0.0000000000000000     
  0.75000000000000000       0.50000000000000000        0.0000000000000000     
  0.78125000000000000       0.50000000000000000        0.0000000000000000     
  0.81250000000000000       0.50000000000000000        0.0000000000000000     
  0.84375000000000000       0.50000000000000000        0.0000000000000000     
  0.87500000000000000       0.50000000000000000        0.0000000000000000     
  0.75000000000000000       0.53125000000000000        0.0000000000000000     
  0.78125000000000000       0.53125000000000000        0.0000000000000000     
  0.81250000000000000       0.53125000000000000        0.0000000000000000     
  0.84375000000000000       0.53125000000000000        0.0000000000000000     
  0.87500000000000000       0.53125000000000000        0.0000000000000000     
  0.75000000000000000       0.56250000000000000        0.0000000000000000     
  0.78125000000000000       0.56250000000000000        0.0000000000000000     
  0.81250000000000000       0.56250000000000000        0.0000000000000000     
  0.84375000000000000       0.56250000000000000        0.0000000000000000     
  0.87500000000000000       0.56250000000000000        0.0000000000000000     
  0.75000000000000000       0.59375000000000000        0.0000000000000000     
  0.78125000000000000       0.59375000000000000        0.0000000000000000     
  0.81250000000000000       0.59375000000000000        0.0000000000000000     
  0.84375000000000000       0.59375000000000000        0.0000000000000000     
  0.87500000000000000       0.59375000000000000        0.0000000000000000     
  0.75000000000000000       0.62500000000000000        0.0000000000000000     
  0.78125000000000000       0.62500000000000000        0.0000000000000000     
  0.81250000000000000       0.62500000000000000        0.0000000000000000     
  0.84375000000000000       0.62500000000000000        0.0000000000000000     
  0.87500000000000000       0.62500000000000000        0.0000000000000000     
  0.87500000000000000       0.50000000000000000        0.0000000000000000     
  0.90625000000000000       0.50000000000000000        0.0000000000000000     
  0.93750000000000000       0.50000000000000000        0.0000000000000000     
  0.96875000000000000       0.50000000000000000        0.0000000000000000     
   1.0000000000000000       0.50000000000000000        0.0000000000000000     
  0.87500000000000000       0.53125000000000000        0.0000000000000000     
  0.90625000000000000       0.53125000000000000        0.0000000000000000     
  0.93750000000000000       0.53125000000000000        0.0000000000000000     
  0.96875000000000000       0.53125000000000000        0.0000000000000000     
   1.0000000000000000       0.53125000000000000        0.0000000000000000     
  0.87500000000000000       0.56250000000000000        0.0000000000000000     
  0.90625000000000000       0.56250000000000000        0.0000000000000000     
  0.93750000000000000       0.56250000000000000        0.0000000000000000     
  0.96875000000000000       0.56250000000000000        0.0000000000000000     
   1.0000000000000000       0.56250000000000000        0.0000000000000000     
  0.87500000000000000       0.59375000000000000        0.0000000000000000     
  0.90625000000000000       0.59375000000000000        0.0000000000000000     
  0.93750000000000000       0.59375000000000000        0.0000000000000000     
  0.96875000000000000       0.59375000000000000        0.0000000000000000     
   1.0000000000000000       0.59375000000000000        0.0000000000000000     
  0.87500000000000000       0.62500000000000000        0.0000000000000000     
  0.90625000000000000       0.62500000000000000        0.0000000000000000     
  0.93750000000000000       0.62500000000000000        0.0000000000000000     
  0.96875000000000000       0.62500000000000000        0.0000000000000000     
   1.0000000000000000       0.62500000000000000        0.0000000000000000     
   1.0000000000000000       0.50000000000000000        0.0000000000000000     
   1.0312500000000000       0.50000000000000000        0.0000000000000000     
   1.0625000000000000       0.50000000000000000        0.0000000000000000     
   1.0937500000000000       0.50000000000000000        0.0000000000000000     
   1.1250000000000000       0.50000000000000000        0.0000000000000000     
   1.0000000000000000       0.53125000000000000        0.0000000000000000     
   1.0312500000000000       0.53125000000000000        0.0000000000000000     
   1.0625000000000000       0.53125000000000000        0.0000000000000000     
   1.0937500000000000       0.53125000000000000        0.0000000000000000     
   1.1250000000000000       0.53125000000000000        0.0000000000000000     
   1.0000000000000000       0.56250000000000000        0.0000000000000000     
   1.0312500000000000       0.56250000000000000        0.0000000000000000     
   1.0625000000000000       0.56250000000000000        0.0000000000000000     
   1.0937500000000000       0.56250000000000000        0.0000000000000000     
   1.1250000000000000       0.56250000000000000        0.0000000000000000     
   1.0000000000000000       0.59375000000000000        0.0000000000000000     
   1.0312500000000000       0.59375000000000000        0.0000000000000000     
   1.0625000000000000       0.59375000000000000        0.0000000000000000     
   1.0937500000000000       0.59375000000000000        0.0000000000000000     
   1.1250000000000000       0.59375000000000000        0.0000000000000000     
   1.0000000000000000       0.62500000000000000        0.0000000000000000     
   1.0312500000000000       0.62500000000000000        0.0000000000000000     
   1.0625000000000000       0.62500000000000000        0.0000000000000000     
   1.0937500000000000       0.62500000000000000        0.0000000000000000     
   1.1250000000000000       0.62500000000000000        0.0000000000000000     
   1.1250000000000000       0.50000000000000000        0.0000000000000000     
   1.1562500000000000       0.50000000000000000        0.0000000000000000     
   1.1875000000000000       0.50000000000000000        0.0000000000000000     
   1.2187500000000000       0.50000000000000000        0.0000000000000000     
   1.2500000000000000       0.50000000000000000        0.0000000000000000     
   1.1250000000000000       0.53125000000000000        0.0000000000000000     
   1.1562500000000000       0.53125000000000000        0.0000000000000000     
   1.1875000000000000       0.53125000000000000        0.0000000000000000     
   1.2187500000000000       0.53125000000000000        0.0000000000000000     
   1.2500000000000000       0.53125000000000000        0.0000000000000000     
   1.1250000000000000       0.56250000000000000        0.0000000000000000     
   1.1562500000000000       0.56250000000000000        0.0000000000000000     
   1.1875000000000000       0.56250000000000000        0.0000000000000000     
   1.2187500000000000       0.56250000000000000        0.0000000000000000     
   1.2500000000000000       0.56250000000000000        0.0000000000000000     
   1.1250000000000000       0.59375000000000000        0.0000000000000000     
   1.1562500000000000       0.59375000000000000        0.0000000000000000     
   1.1875000000000000       0.59375000000000000        0.0000000000000000     
   1.2187500000000000       0.59375000000000000        0.0000000000000000     
   1.2500000000000000       0.59375000000000000        0.0000000000000000     
   1.1250000000000000       0.62500000000000000        0.0000000000000000     
   1.1562500000000000       0.62500000000000000        0.0000000000000000     
   1.1875000000000000       0.62500000000000000        0.0000000000000000     
   1.2187500000000000       0.62500000000000000        0.0000000000000000     
   1.2500000000000000       0.62500000000000000        0.0000000000000000     
   1.2500000000000000       0.50000000000000000        0.0000000000000000     
   1.2812500000000000       0.50000000000000000        0.0000000000000000     
   1.3125000000000000       0.50000000000000000        0.0000000000000000     
   1.3437500000000000       0.50000000000000000        0.0000000000000000     
   1.3750000000000000       0.50000000000000000        0.0000000000000000     
   1.2500000000000000       0.53125000000000000        0.0000000000000000     
   1.2812500000000000       0.53125000000000000        0.0000000000000000     
   1.3125000000000000       0.53125000000000000        0.0000000000000000     
   1.3437500000000000       0.53125000000000000        0.0000000000000000     
   1.3750000000000000       0.53125000000000000        0.0000000000000000     
   1.2500000000000000       0.56250000000000000        0.0000000000000000     
   1.2812500000000000       0.56250000000000000        0.0000000000000000     
   1.3125000000000000       0.56250000000000000        0.0000000000000000     
   1.3437500000000000       0.56250000000000000        0.0000000000000000     
   1.3750000000000000       0.56250000000000000        0.0000000000000000     
   1.2500000000000000       0.59375000000000000        0.0000000000000000     
   1.2812500000000000       0.59375000000000000        0.0000000000000000     
   1.3125000000000000       0.59375000000000000        0.0000000000000000     
   1.3437500000000000       0.59375000000000000        0.0000000000000000     
   1.3750000000000000       0.59375000000000000        0.0000000000000000     
   1.2500000000000000       0.62500000000000000        0.0000000000000000     
   1.2812500000000000       0.62500000000000000        0.0000000000000000     
   1.3125000000000000       0.62500000000000000        0.0000000000000000     
   1.3437500000000000       0.62500000000000000        0.0000000000000000     
   1.3750000000000000       0.62500000000000000        0.0000000000000000     
   1.3750000000000000       0.50000000000000000        0.0000000000000000     
   1.4062500000000000       0.50000000000000000        0.0000000000000000     
   1.4375000000000000       0.50000000000000000        0.0000000000000000     
   1.4687500000000000       0.50000000000000000        0.0000000000000000     
   1.5000000000000000       0.50000000000000000        0.0000000000000000     
   1.3750000000000000       0.53125000000000000        0.0000000000000000     
   1.4062500000000000       0.53125000000000000        0.0000000000000000     
   1.4375000000000000       0.53125000000000000        0.0000000000000000     
   1.4687500000000000       0.53125000000000000        0.0000000000000000     
   1.5000000000000000       0.53125000000000000        0.0000000000000000     
   1.3750000000000000       0.56250000000000000        0.0000000000000000     
   1.4062500000000000       0.56250000000000000        0.0000000000000000     
   1.4375000000000000       0.56250000000000000        0.0000000000000000     
   1.4687500000000000       0.56250000000000000        0.0000000000000000     
   1.5000000000000000       0.56250000000000000        0.0000000000000000     
   1.3750000000000000       0.59375000000000000        0.0000000000000000     
   1.4062500000000000       0.59375000000000000        0.0000000000000000     
   1.4375000000000000       0.59375000000000000        0.0000000000000000     
   1.4687500000000000       0.59375000000000000        0.0000000000000000     
   1.5000000000000000       0.59375000000000000        0.0000000000000000     
   1.3750000000000000       0.62500000000000000        0.0000000000000000     
   1.4062500000000000       0.62500000000000000        0.0000000000000000     
   1.4375000000000000       0.62500000000000000        0.0000000000000000     
   1.4687500000000000       0.62500000000000000        0.0000000000000000     
   1.5000000000000000       0.62500000000000000        0.0000000000000000     
  0.50000000000000000       0.62500000000000000        0.0000000000000000     
  0.53125000000000000       0.62500000000000000        0.0000000000000000     
  0.56250000000000000       0.62500000000000000        0.0000000000000000     
  0.59375000000000000       0.62500000000000000        0.0000000000000000     
  0.62500000000000000       0.62500000000000000        0.0000000000000000     
  0.50000000000000000       0.65625000000000000        0.0000000000000000     
  0.53125000000000000       0.65625000000000000        0.0000000000000000     
  0.56250000000000000       0.65625000000000000        0.0000000000000000     
  0.59375000000000000       0.65625000000000000        0.0000000000000000     
  0.62500000000000000       0.65625000000000000        0.0000000000000000     
  0.50000000000000000       0.68750000000000000        0.0000000000000000     
  0.53125000000000000       0.68750000000000000        0.0000000000000000     
  0.56250000000000000       0.68750000000000000        0.0000000000000000     
  0.59375000000000000       0.68750000000000000        0.0000000000000000     
  0.62500000000000000       0.68750000000000000        0.0000000000000000     
  0.50000000000000000       0.71875000000000000        0.0000000000000000     
  0.53125000000000000       0.71875000000000000        0.0000000000000000     
  0.56250000000000000       0.71875000000000000        0.0000000000000000     
  0.59375000000000000       0.71875000000000000        0.0000000000000000     
  0.62500000000000000       0.71875000000000000        0.0000000000000000     
  0.50000000000000000       0.75000000000000000        0.0000000000000000     
  0.53125000000000000       0.75000000000000000        0.0000000000000000     
  0.56250000000000000       0.75000000000000000        0.0000000000000000     
  0.59375000000000000       0.75000000000000000        0.0000000000000000     
  0.62500000000000000       0.75000000000000000        0.0000000000000000     
  0.62500000000000000       0.62500000000000000        0.0000000000000000     
  0.65625000000000000       0.62500000000000000        0.0000000000000000     
  0.68750000000000000       0.62500000000000000        0.0000000000000000     
  0.71875000000000000       0.62500000000000000        0.0000000000000000     
  0.75000000000000000       0.62500000000000000        0.0000000000000000     
  0.62500000000000000       0.65625000000000000        0.0000000000000000     
  0.65625000000000000       0.65625000000000000        0.0000000000000000     
  0.68750000000000000       0.65625000000000000        0.0000000000000000     
  0.71875000000000000       0.65625000000000000        0.0000000000000000     
  0.75000000000000000       0.65625000000000000        0.0000000000000000     
  0.62500000000000000       0.68750000000000000        0.0000000000000000     
  0.65625000000000000       0.68750000000000000        0.0000000000000000     
  0.68750000000000000       0.68750000000000000        0.0000000000000000     
  0.71875000000000000       0.68750000000000000        0.0000000000000000     
  0.75000000000000000       0.68750000000000000        0.0000000000000000     
  0.62500000000000000       0.71875000000000000        0.0000000000000000     
  0.65625000000000000       0.71875000000000000        0.0000000000000000     
  0.68750000000000000       0.71875000000000000        0.0000000000000000     
  0.71875000000000000       0.71875000000000000        0.0000000000000000     
  0.75000000000000000       0.71875000000000000        0.0000000000000000     
  0.62500000000000000       0.75000000000000000        0.0000000000000000     
  0.65625000000000000       0.75000000000000000        0.0000000000000000     
  0.68750000000000000       0.75000000000000000        0.0000000000000000     
  0.71875000000000000       0.75000000000000000        0.0000000000000000     
  0.75000000000000000       0.75000000000000000        0.0000000000000000     
  0.75000000000000000       0.62500000000000000        0.0000000000000000     
  0.78125000000000000       0.62500000000000000        0.0000000000000000     
  0.81250000000000000       0.62500000000000000        0.0000000000000000     
  0.84375000000000000       0.62500000000000000        0.0000000000000000     
  0.87500000000000000       0.62500000000000000        0.0000000000000000     
  0.75000000000000000       0.65625000000000000        0.0000000000000000     
  0.78125000000000000       0.65625000000000000        0.0000000000000000     
  0.81250000000000000       0.65625000000000000        0.0000000000000000     
  0.84375000000000000       0.65625000000000000        0.0000000000000000     
  0.87500000000000000       0.65625000000000000        0.0000000000000000     
  0.75000000000000000       0.68750000000000000        0.0000000000000000     
  0.78125000000000000       0.68750000000000000        0.0000000000000000     
  0.81250000000000000       0.68750000000000000        0.0000000000000000     
  0.84375000000000000       0.68750000000000000        0.0000000000000000     
  0.87500000000000000       0.68750000000000000        0.0000000000000000     
  0.75000000000000000       0.71875000000000000        0.0000000000000000     
  0.78125000000000000       0.71875000000000000        0.0000000000000000     
  0.81250000000000000       0.71875000000000000        0.0000000000000000     
  0.84375000000000000       0.71875000000000000        0.0000000000000000     
  0.87500000000000000       0.71875000000000000        0.0000000000000000     
  0.75000000000000000       0.75000000000000000        0.0000000000000000     
  0.78125000000000000       0.75000000000000000        0.0000000000000000     
  0.81250000000000000       0.75000000000000000        0.0000000000000000     
  0.84375000000000000       0.75000000000000000        0.0000000000000000     
  0.87500000000000000       0.75000000000000000        0.0000000000000000     
  0.87500000000000000       0.62500000000000000        0.0000000000000000     
  0.90625000000000000       0.62500000000000000        0.0000000000000000     
  0.93750000000000000       0.62500000000000000        0.0000000000000000     
  0.96875000000000000       0.62500000000000000        0.0000000000000000     
   1.0000000000000000       0.62500000000000000        0.0000000000000000     
  0.87500000000000000       0.65625000000000000        0.0000000000000000     
  0.90625000000000000       0.65625000000000000        0.0000000000000000     
  0.93750000000000000       0.65625000000000000        0.0000000000000000     
  0.96875000000000000       0.65625000000000000        0.0000000000000000     
   1.0000000000000000       0.65625000000000000        0.0000000000000000     
  0.87500000000000000       0.68750000000000000        0.0000000000000000     
  0.90625000000000000       0.68750000000000000        0.0000000000000000     
  0.93750000000000000       0.68750000000000000        0.0000000000000000     
  0.96875000000000000       0.68750000000000000        0.0000000000000000     
   1.0000000000000000       0.68750000000000000        0.0000000000000000     
  0.87500000000000000       0.71875000000000000        0.0000000000000000     
  0.90625000000000000       0.71875000000000000        0.0000000000000000     
  0.93750000000000000       0.71875000000000000        0.0000000000000000     
  0.96875000000000000       0.71875000000000000        0.0000000000000000     
   1.0000000000000000       0.71875000000000000        0.0000000000000000     
  0.87500000000000000       0.75000000000000000        0.0000000000000000     
  0.90625000000000000       0.75000000000000000        0.0000000000000000     
  0.93750000000000000       0.75000000000000000        0.0000000000000000     
  0.96875000000000000       0.75000000000000000        0.0000000000000000     
   1.0000000000000000       0.75000000000000000        0.0000000000000000     
   1.0000000000000000       0.62500000000000000        0.0000000000000000     
   1.0312500000000000       0.62500000000000000        0.0000000000000000     
   1.0625000000000000       0.62500000000000000        0.0000000000000000     
   1.0937500000000000       0.62500000000000000        0.0000000000000000     
   1.1250000000000000       0.62500000000000000        0.0000000000000000     
   1.0000000000000000       0.65625000000000000        0.0000000000000000     
   1.0312500000000000       0.65625000000000000        0.0000000000000000     
   1.0625000000000000       0.65625000000000000        0.0000000000000000     
   1.0937500000000000       0.65625000000000000        0.0000000000000000     
   1.1250000000000000       0.65625000000000000        0.0000000000000000     
   1.0000000000000000       0.68750000000000000        0.0000000000000000     
   1.0312500000000000       0.68750000000000000        0.0000000000000000     
   1.0625000000000000       0.68750000000000000        0.0000000000000000     
   1.0937500000000000       0.68750000000000000        0.0000000000000000     
   1.1250000000000000       0.68750000000000000        0.0000000000000000     
   1.0000000000000000       0.71875000000000000        0.0000000000000000     
   1.0312500000000000       0.71875000000000000        0.0000000000000000     
   1.0625000000000000       0.71875000000000000        0.0000000000000000     
   1.0937500000000000       0.71875000000000000        0.0000000000000000     
   1.1250000000000000       0.71875000000000000        0.0000000000000000     
   1.0000000000000000       0.75000000000000000        0.0000000000000000     
   1.0312500000000000       0.75000000000000000        0.0000000000000000     
   1.0625000000000000       0.75000000000000000        0.0000000000000000     
   1.0937500000000000       0.75000000000000000        0.0000000000000000     
   1.1250000000000000       0.75000000000000000        0.0000000000000000     
   1.1250000000000000       0.62500000000000000        0.0000000000000000     
   1.1562500000000000       0.62500000000000000        0.0000000000000000     
   1.1875000000000000       0.62500000000000000        0.0000000000000000     
   1.2187500000000000       0.62500000000000000        0.0000000000000000     
   1.2500000000000000       0.62500000000000000        0.0000000000000000     
   1.1250000000000000       0.65625000000000000        0.0000000000000000     
   1.1562500000000000       0.65625000000000000        0.0000000000000000     
   1.1875000000000000       0.65625000000000000        0.0000000000000000     
   1.2187500000000000       0.65625000000000000        0.0000000000000000     
   1.2500000000000000       0.65625000000000000        0.0000000000000000     
   1.1250000000000000       0.68750000000000000        0.0000000000000000     
   1.1562500000000000       0.68750000000000000        0.0000000000000000     
   1.1875000000000000       0.68750000000000000        0.0000000000000000     
   1.2187500000000000       0.68750000000000000        0.0000000000000000     
   1.2500000000000000       0.68750000000000000        0.0000000000000000     
   1.1250000000000000       0.71875000000000000        0.0000000000000000     
   1.1562500000000000       0.71875000000000000        0.0000000000000000     
   1.1875000000000000       0.71875000000000000        0.0000000000000000     
   1.2187500000000000       0.71875000000000000        0.0000000000000000     
   1.2500000000000000       0.71875000000000000        0.0000000000000000     
   1.1250000000000000       0.75000000000000000        0.0000000000000000     
   1.1562500000000000       0.75000000000000000        0.0000000000000000     
   1.1875000000000000       0.75000000000000000        0.0000000000000000     
   1.2187500000000000       0.75000000000000000        0.0000000000000000     
   1.2500000000000000       0.75000000000000000        0.0000000000000000     
   1.2500000000000000       0.62500000000000000        0.0000000000000000     
   1.2812500000000000       0.62500000000000000        0.0000000000000000     
   1.3125000000000000       0.62500000000000000        0.0000000000000000     
   1.3437500000000000       0.62500000000000000        0.0000000000000000     
   1.3750000000000000       0.62500000000000000        0.0000000000000000     
   1.2500000000000000       0.65625000000000000        0.0000000000000000     
   1.2812500000000000       0.65625000000000000        0.0000000000000000     
   1.3125000000000000       0.65625000000000000        0.0000000000000000     
   1.3437500000000000       0.65625000000000000        0.0000000000000000     
   1.3750000000000000       0.65625000000000000        0.0000000000000000     
   1.2500000000000000       0.68750000000000000        0.0000000000000000     
   1.2812500000000000       0.68750000000000000        0.0000000000000000     
   1.3125000000000000       0.68750000000000000        0.0000000000000000     
   1.3437500000000000       0.68750000000000000        0.0000000000000000     
   1.3750000000000000       0.68750000000000000        0.0000000000000000     
   1.2500000000000000       0.71875000000000000        0.0000000000000000     
   1.2812500000000000       0.71875000000000000        0.0000000000000000     
   1.3125000000000000       0.71875000000000000        0.0000000000000000     
   1.3437500000000000       0.71875000000000000        0.0000000000000000     
   1.3750000000000000       0.71875000000000000        0.0000000000000000     
   1.2500000000000000       0.75000000000000000        0.0000000000000000     
   1.2812500000000000       0.75000000000000000        0.0000000000000000     
   1.3125000000000000       0.75000000000000000        0.0000000000000000     
   1.3437500000000000       0.75000000000000000        0.0000000000000000     
   1.3750000000000000       0.75000000000000000        0.0000000000000000     
   1.3750000000000000       0.62500000000000000        0.0000000000000000     
   1.4062500000000000       0.62500000000000000        0.0000000000000000     
   1.4375000000000000       0.62500000000000000        0.0000000000000000     
   1.4687500000000000       0.62500000000000000        0.0000000000000000     
   1.5000000000000000       0.62500000000000000        0.0000000000000000     
   1.3750000000000000       0.65625000000000000        0.0000000000000000     
   1.4062500000000000       0.65625000000000000        0.0000000000000000     
   1.4375000000000000       0.65625000000000000        0.0000000000000000     
   1.4687500000000000       0.65625000000000000        0.0000000000000000     
   1.5000000000000000       0.65625000000000000        0.0000000000000000     
   1.3750000000000000       0.68750000000000000        0.0000000000000000     
   1.4062500000000000       0.68750000000000000        0.0000000000000000     
   1.4375000000000000       0.68750000000000000        0.0000000000000000     
   1.4687500000000000       0.68750000000000000        0.0000000000000000     
   1.5000000000000000       0.68750000000000000        0.0000000000000000     
   1.3750000000000000       0.71875000000000000        0.0000000000000000     
   1.4062500000000000       0.71875000000000000        0.0000000000000000     
   1.4375000000000000       0.71875000000000000        0.0000000000000000     
   1.4687500000000000       0.71875000000000000        0.0000000000000000     
   1.5000000000000000       0.71875000000000000        0.0000000000000000     
   1.3750000000000000       0.75000000000000000        0.0000000000000000     
   1.4062500000000000       0.75000000000000000        0.0000000000000000     
   1.4375000000000000       0.75000000000000000        0.0000000000000000     
   1.4687500000000000       0.75000000000000000        0.0000000000000000     
   1.5000000000000000       0.75000000000000000        0.0000000000000000     
  0.50000000000000000       0.75000000000000000        0.0000000000000000     
  0.53125000000000000       0.75000000000000000        0.0000000000000000     
  0.56250000000000000       0.75000000000000000        0.0000000000000000     
  0.59375000000000000       0.75000000000000000        0.0000000000000000     
  0.62500000000000000       0.75000000000000000        0.0000000000000000     
  0.50000000000000000       0.78125000000000000        0.0000000000000000     
  0.53125000000000000       0.78125000000000000        0.0000000000000000     
  0.56250000000000000       0.78125000000000000        0.0000000000000000     
  0.59375000000000000       0.78125000000000000        0.0000000000000000     
  0.62500000000000000       0.78125000000000000        0.0000000000000000     
  0.50000000000000000       0.81250000000000000        0.0000000000000000     
  0.53125000000000000       0.81250000000000000        0.0000000000000000     
  0.56250000000000000       0.81250000000000000        0.0000000000000000     
  0.59375000000000000       0.81250000000000000        0.0000000000000000     
  0.62500000000000000       0.81250000000000000        0.0000000000000000     
  0.50000000000000000       0.84375000000000000        0.0000000000000000     
  0.53125000000000000       0.84375000000000000        0.0000000000000000     
  0.56250000000000000       0.84375000000000000        0.0000000000000000     
  0.59375000000000000       0.84375000000000000        0.0000000000000000     
  0.62500000000000000       0.84375000000000000        0.0000000000000000     
  0.50000000000000000       0.87500000000000000        0.0000000000000000     
  0.53125000000000000       0.87500000000000000        0.0000000000000000     
  0.56250000000000000       0.87500000000000000        0.0000000000000000     
  0.59375000000000000       0.87500000000000000        0.0000000000000000     
  0.62500000000000000       0.87500000000000000        0.0000000000000000     
  0.62500000000000000       0.75000000000000000        0.0000000000000000     
  0.65625000000000000       0.75000000000000000        0.0000000000000000     
  0.68750000000000000       0.75000000000000000        0.0000000000000000     
  0.71875000000000000       0.75000000000000000        0.0000000000000000     
  0.75000000000000000       0.75000000000000000        0.0000000000000000     
  0.62500000000000000       0.78125000000000000        0.0000000000000000     
  0.65625000000000000       0.78125000000000000        0.0000000000000000     
  0.68750000000000000       0.78125000000000000        0.0000000000000000     
  0.71875000000000000       0.78125000000000000        0.0000000000000000     
  0.75000000000000000       0.78125000000000000        0.0000000000000000     
  0.62500000000000000       0.81250000000000000        0.0000000000000000     
  0.65625000000000000       0.81250000000000000        0.0000000000000000     
  0.68750000000000000       0.81250000000000000        0.0000000000000000     
  0.71875000000000000       0.81250000000000000        0.0000000000000000     
  0.75000000000000000       0.81250000000000000        0.0000000000000000     
  0.62500000000000000       0.84375000000000000        0.0000000000000000     
  0.65625000000000000       0.84375000000000000        0.0000000000000000     
  0.68750000000000000       0.84375000000000000        0.0000000000000000     
  0.71875000000000000       0.84375000000000000        0.0000000000000000     
  0.75000000000000000       0.84375000000000000        0.0000000000000000     
  0.62500000000000000       0.87500000000000000        0.0000000000000000     
  0.65625000000000000       0.87500000000000000        0.0000000000000000     
  0.68750000000000000       0.87500000000000000        0.0000000000000000     
  0.71875000000000000       0.87500000000000000        0.0000000000000000     
  0.75000000000000000       0.87500000000000000        0.0000000000000000     
  0.75000000000000000       0.75000000000000000        0.0000000000000000     
  0.78125000000000000       0.75000000000000000        0.0000000000000000     
  0.81250000000000000       0.75000000000000000        0.0000000000000000     
  0.84375000000000000       0.75000000000000000        0.0000000000000000     
  0.87500000000000000       0.75000000000000000        0.0000000000000000     
  0.75000000000000000       0.78125000000000000        0.0000000000000000     
  0.78125000000000000       0.78125000000000000        0.0000000000000000     
  0.81250000000000000       0.78125000000000000        0.0000000000000000     
  0.84375000000000000       0.78125000000000000        0.0000000000000000     
  0.87500000000000000       0.78125000000000000        0.0000000000000000     
  0.75000000000000000       0.81250000000000000        0.0000000000000000     
  0.78125000000000000       0.81250000000000000        0.0000000000000000     
  0.81250000000000000       0.81250000000000000        0.0000000000000000     
  0.84375000000000000       0.81250000000000000        0.0000000000000000     
  0.87500000000000000       0.81250000000000000        0.0000000000000000     
  0.75000000000000000       0.84375000000000000        0.0000000000000000     
  0.78125000000000000       0.84375000000000000        0.0000000000000000     
  0.81250000000000000       0.84375000000000000        0.0000000000000000     
  0.84375000000000000       0.84375000000000000        0.0000000000000000     
  0.87500000000000000       0.84375000000000000        0.0000000000000000     
  0.75000000000000000       0.87500000000000000        0.0000000000000000     
  0.78125000000000000       0.87500000000000000        0.0000000000000000     
  0.81250000000000000       0.87500000000000000        0.0000000000000000     
  0.84375000000000000       0.87500000000000000        0.0000000000000000     
  0.87500000000000000       0.87500000000000000        0.0000000000000000     
  0.87500000000000000       0.75000000000000000        0.0000000000000000     
  0.90625000000000000       0.75000000000000000        0.0000000000000000     
  0.93750000000000000       0.75000000000000000        0.0000000000000000     
  0.96875000000000000       0.75000000000000000        0.0000000000000000     
   1.0000000000000000       0.75000000000000000        0.0000000000000000     
  0.87500000000000000       0.78125000000000000        0.0000000000000000     
  0.90625000000000000       0.78125000000000000        0.0000000000000000     
  0.93750000000000000       0.78125000000000000        0.0000000000000000     
  0.96875000000000000       0.78125000000000000        0.0000000000000000     
   1.0000000000000000       0.78125000000000000        0.0000000000000000     
  0.87500000000000000       0.81250000000000000        0.0000000000000000     
  0.90625000000000000       0.81250000000000000        0.0000000000000000     
  0.93750000000000000       0.81250000000000000        0.0000000000000000     
  0.96875000000000000       0.81250000000000000        0.0000000000000000     
   1.0000000000000000       0.81250000000000000        0.0000000000000000     
  0.87500000000000000       0.84375000000000000        0.0000000000000000     
  0.90625000000000000       0.84375000000000000        0.0000000000000000     
  0.93750000000000000       0.84375000000000000        0.0000000000000000     
  0.96875000000000000       0.84375000000000000        0.0000000000000000     
   1.0000000000000000       0.84375000000000000        0.0000000000000000     
  0.87500000000000000       0.87500000000000000        0.0000000000000000     
  0.90625000000000000       0.87500000000000000        0.0000000000000000     
  0.93750000000000000       0.87500000000000000        0.0000000000000000     
  0.96875000000000000       0.87500000000000000        0.0000000000000000     
   1.0000000000000000       0.87500000000000000        0.0000000000000000     
   1.0000000000000000       0.75000000000000000        0.0000000000000000     
   1.0312500000000000       0.75000000000000000        0.0000000000000000     
   1.0625000000000000       0.75000000000000000        0.0000000000000000     
   1.0937500000000000       0.75000000000000000        0.0000000000000000     
   1.1250000000000000       0.75000000000000000        0.0000000000000000     
   1.0000000000000000       0.78125000000000000        0.0000000000000000     
   1.0312500000000000       0.78125000000000000        0.0000000000000000     
   1.0625000000000000       0.78125000000000000        0.0000000000000000     
   1.0937500000000000       0.78125000000000000        0.0000000000000000     
   1.1250000000000000       0.78125000000000000        0.0000000000000000     
   1.0000000000000000       0.81250000000000000        0.0000000000000000     
   1.0312500000000000       0.81250000000000000        0.0000000000000000     
   1.0625000000000000       0.81250000000000000        0.0000000000000000     
   1.0937500000000000       0.81250000000000000        0.0000000000000000     
   1.1250000000000000       0.81250000000000000        0.0000000000000000     
   1.0000000000000000       0.84375000000000000        0.0000000000000000     
   1.0312500000000000       0.84375000000000000        0.0000000000000000     
   1.0625000000000000       0.84375000000000000        0.0000000000000000     
   1.0937500000000000       0.84375000000000000        0.0000000000000000     
   1.1250000000000000       0.84375000000000000        0.0000000000000000     
   1.0000000000000000       0.87500000000000000        0.0000000000000000     
   1.0312500000000000       0.87500000000000000        0.0000000000000000     
   1.0625000000000000       0.87500000000000000        0.0000000000000000     
   1.0937500000000000       0.87500000000000000        0.0000000000000000     
   1.1250000000000000       0.87500000000000000        0.0000000000000000     
   1.1250000000000000       0.75000000000000000        0.0000000000000000     
   1.1562500000000000       0.75000000000000000        0.0000000000000000     
   1.1875000000000000       0.75000000000000000        0.0000000000000000     
   1.2187500000000000       0.75000000000000000        0.0000000000000000     
   1.2500000000000000       0.75000000000000000        0.0000000000000000     
   1.1250000000000000       0.78125000000000000        0.0000000000000000     
   1.1562500000000000       0.78125000000000000        0.0000000000000000     
   1.1875000000000000       0.78125000000000000        0.0000000000000000     
   1.2187500000000000       0.78125000000000000        0.0000000000000000     
   1.2500000000000000       0.78125000000000000        0.0000000000000000     
   1.1250000000000000       0.81250000000000000        0.0000000000000000     
   1.1562500000000000       0.81250000000000000        0.0000000000000000     
   1.1875000000000000       0.81250000000000000        0.0000000000000000     
   1.2187500000000000       0.81250000000000000        0.0000000000000000     
   1.2500000000000000       0.81250000000000000        0.0000000000000000     
   1.1250000000000000       0.84375000000000000        0.0000000000000000     
   1.1562500000000000       0.84375000000000000        0.0000000000000000     
   1.1875000000000000       0.84375000000000000        0.0000000000000000     
   1.2187500000000000       0.84375000000000000        0.0000000000000000     
   1.2500000000000000       0.84375000000000000        0.0000000000000000     
   1.1250000000000000       0.87500000000000000        0.0000000000000000     
   1.1562500000000000       0.87500000000000000        0.0000000000000000     
   1.1875000000000000       0.87500000000000000        0.0000000000000000     
   1.2187500000000000       0.87500000000000000        0.0000000000000000     
   1.2500000000000000       0.87500000000000000        0.0000000000000000     
   1.2500000000000000       0.75000000000000000        0.0000000000000000     
   1.2812500000000000       0.75000000000000000        0.0000000000000000     
   1.3125000000000000       0.75000000000000000        0.0000000000000000     
   1.3437500000000000       0.75000000000000000        0.0000000000000000     
   1.3750000000000000       0.75000000000000000        0.0000000000000000     
   1.2500000000000000       0.78125000000000000        0.0000000000000000     
   1.2812500000000000       0.78125000000000000        0.0000000000000000     
   1.3125000000000000       0.78125000000000000        0.0000000000000000     
   1.3437500000000000       0.78125000000000000        0.0000000000000000     
   1.3750000000000000       0.78125000000000000        0.0000000000000000     
   1.2500000000000000       0.81250000000000000        0.0000000000000000     
   1.2812500000000000       0.81250000000000000        0.0000000000000000     
   1.3125000000000000       0.81250000000000000        0.0000000000000000     
   1.3437500000000000       0.81250000000000000        0.0000000000000000     
   1.3750000000000000       0.81250000000000000        0.0000000000000000     
   1.2500000000000000       0.84375000000000000        0.0000000000000000     
   1.2812500000000000       0.84375000000000000        0.0000000000000000     
   1.3125000000000000       0.84375000000000000        0.0000000000000000     
   1.3437500000000000       0.84375000000000000        0.0000000000000000     
   1.3750000000000000       0.84375000000000000        0.0000000000000000     
   1.2500000000000000       0.87500000000000000        0.0000000000000000     
   1.2812500000000000       0.87500000000000000        0.0000000000000000     
   1.3125000000000000       0.87500000000000000        0.0000000000000000     
   1.3437500000000000       0.87500000000000000        0.0000000000000000     
   1.3750000000000000       0.87500000000000000        0.0000000000000000     
   1.3750000000000000       0.75000000000000000        0.0000000000000000     
   1.4062500000000000       0.75000000000000000        0.0000000000000000     
   1.4375000000000000       0.75000000000000000        0.0000000000000000     
   1.4687500000000000       0.75000000000000000        0.0000000000000000     
   1.5000000000000000       0.75000000000000000        0.0000000000000000     
   1.3750000000000000       0.78125000000000000        0.0000000000000000     
   1.4062500000000000       0.78125000000000000        0.0000000000000000     
   1.4375000000000000       0.78125000000000000        0.0000000000000000     
   1.4687500000000000       0.78125000000000000        0.0000000000000000     
   1.5000000000000000       0.78125000000000000        0.0000000000000000     
   1.3750000000000000       0.81250000000000000        0.0000000000000000     
   1.4062500000000000       0.81250000000000000        0.0000000000000000     
   1.4375000000000000       0.81250000000000000        0.0000000000000000     
   1.4687500000000000       0.81250000000000000        0.0000000000000000     
   1.5000000000000000       0.81250000000000000        0.0000000000000000     
   1.3750000000000000       0.84375000000000000        0.0000000000000000     
   1.4062500000000000       0.84375000000000000        0.0000000000000000     
   1.4375000000000000       0.84375000000000000        0.0000000000000000     
   1.4687500000000000       0.84375000000000000        0.0000000000000000     
   1.5000000000000000       0.84375000000000000        0.0000000000000000     
   1.3750000000000000       0.87500000000000000        0.0000000000000000     
   1.4062500000000000       0.87500000000000000        0.0000000000000000     
   1.4375000000000000       0.87500000000000000        0.0000000000000000     
   1.4687500000000000       0.87500000000000000        0.0000000000000000     
   1.5000000000000000       0.87500000000000000        0.0000000000000000     
  0.50000000000000000       0.87500000000000000        0.0000000000000000     
  0.53125000000000000       0.87500000000000000        0.0000000000000000     
  0.56250000000000000       0.87500000000000000        0.0000000000000000     
  0.59375000000000000       0.87500000000000000        0.0000000000000000     
  0.62500000000000000       0.87500000000000000        0.0000000000000000     
  0.50000000000000000       0.90625000000000000        0.0000000000000000     
  0.53125000000000000       0.90625000000000000        0.0000000000000000     
  0.56250000000000000       0.90625000000000000        0.0000000000000000     
  0.59375000000000000       0.90625000000000000        0.0000000000000000     
  0.62500000000000000       0.90625000000000000        0.0000000000000000     
  0.50000000000000000       0.93750000000000000        0.0000000000000000     
  0.53125000000000000       0.93750000000000000        0.0000000000000000     
  0.56250000000000000       0.93750000000000000        0.0000000000000000     
  0.59375000000000000       0.93750000000000000        0.0000000000000000     
  0.62500000000000000       0.93750000000000000        0.0000000000000000     
  0.50000000000000000       0.96875000000000000        0.0000000000000000     
  0.53125000000000000       0.96875000000000000        0.0000000000000000     
  0.56250000000000000       0.96875000000000000        0.0000000000000000     
  0.59375000000000000       0.96875000000000000        0.0000000000000000     
  0.62500000000000000       0.96875000000000000        0.0000000000000000     
  0.50000000000000000        1.0000000000000000        0.0000000000000000     
  0.53125000000000000        1.0000000000000000        0.0000000000000000     
  0.56250000000000000        1.0000000000000000        0.0000000000000000     
  0.59375000000000000        1.0000000000000000        0.0000000000000000     
  0.62500000000000000        1.0000000000000000        0.0000000000000000     
  0.62500000000000000       0.87500000000000000        0.0000000000000000     
  0.65625000000000000       0.87500000000000000        0.0000000000000000     
  0.68750000000000000       0.87500000000000000        0.0000000000000000     
  0.71875000000000000       0.87500000000000000        0.0000000000000000     
  0.75000000000000000       0.87500000000000000        0.0000000000000000     
  0.62500000000000000       0.90625000000000000        0.0000000000000000     
  0.65625000000000000       0.90625000000000000        0.0000000000000000     
  0.68750000000000000       0.90625000000000000        0.0000000000000000     
  0.71875000000000000       0.90625000000000000        0.0000000000000000     
  0.75000000000000000       0.90625000000000000        0.0000000000000000     
  0.62500000000000000       0.93750000000000000        0.0000000000000000     
  0.65625000000000000       0.93750000000000000        0.0000000000000000     
  0.68750000000000000       0.93750000000000000        0.0000000000000000     
  0.71875000000000000       0.93750000000000000        0.0000000000000000     
  0.75000000000000000       0.93750000000000000        0.0000000000000000     
  0.62500000000000000       0.96875000000000000        0.0000000000000000     
  0.65625000000000000       0.96875000000000000        0.0000000000000000     
  0.68750000000000000       0.96875000000000000        0.0000000000000000     
  0.71875000000000000       0.96875000000000000        0.0000000000000000     
  0.75000000000000000       0.96875000000000000        0.0000000000000000     
  0.62500000000000000        1.0000000000000000        0.0000000000000000     
  0.65625000000000000        1.0000000000000000        0.0000000000000000     
  0.68750000000000000        1.0000000000000000        0.0000000000000000     
  0.71875000000000000        1.0000000000000000        0.0000000000000000     
  0.75000000000000000        1.0000000000000000        0.0000000000000000     
  0.75000000000000000       0.87500000000000000        0.0000000000000000     
  0.78125000000000000       0.87500000000000000        0.0000000000000000     
  0.81250000000000000       0.87500000000000000        0.0000000000000000     
  0.84375000000000000       0.87500000000000000        0.0000000000000000     
  0.87500000000000000       0.87500000000000000        0.0000000000000000     
  0.75000000000000000       0.90625000000000000        0.0000000000000000     
  0.78125000000000000       0.90625000000000000        0.0000000000000000     
  0.81250000000000000       0.90625000000000000        0.0000000000000000     
  0.84375000000000000       0.90625000000000000        0.0000000000000000     
  0.87500000000000000       0.90625000000000000        0.0000000000000000     
  0.75000000000000000       0.93750000000000000        0.0000000000000000     
  0.78125000000000000       0.93750000000000000        0.0000000000000000     
  0.81250000000000000       0.93750000000000000        0.0000000000000000     
  0.84375000000000000       0.93750000000000000        0.0000000000000000     
  0.87500000000000000       0.93750000000000000        0.0000000000000000     
  0.75000000000000000       0.96875000000000000        0.0000000000000000     
  0.78125000000000000       0.96875000000000000        0.0000000000000000     
  0.81250000000000000       0.96875000000000000        0.0000000000000000     
  0.84375000000000000       0.96875000000000000        0.0000000000000000     
  0.87500000000000000       0.96875000000000000        0.0000000000000000     
  0.75000000000000000        1.0000000000000000        0.0000000000000000     
  0.78125000000000000        1.0000000000000000        0.0000000000000000     
  0.81250000000000000        1.0000000000000000        0.0000000000000000     
  0.84375000000000000        1.0000000000000000        0.0000000000000000     
  0.87500000000000000        1.0000000000000000        0.0000000000000000     
  0.87500000000000000       0.87500000000000000        0.0000000000000000     
  0.90625000000000000       0.87500000000000000        0.0000000000000000     
  0.93750000000000000       0.87500000000000000        0.0000000000000000     
  0.96875000000000000       0.87500000000000000        0.0000000000000000     
   1.0000000000000000       0.87500000000000000        0.0000000000000000     
  0.87500000000000000       0.90625000000000000        0.0000000000000000     
  0.90625000000000000       0.90625000000000000        0.0000000000000000     
  0.93750000000000000       0.90625000000000000        0.0000000000000000     
  0.96875000000000000       0.90625000000000000        0.0000000000000000     
   1.0000000000000000       0.90625000000000000        0.0000000000000000     
  0.87500000000000000       0.93750000000000000        0.0000000000000000     
  0.90625000000000000       0.93750000000000000        0.0000000000000000     
  0.93750000000000000       0.93750000000000000        0.0000000000000000     
  0.96875000000000000       0.93750000000000000        0.0000000000000000     
   1.0000000000000000       0.93750000000000000        0.0000000000000000     
  0.87500000000000000       0.96875000000000000        0.0000000000000000     
  0.90625000000000000       0.96875000000000000        0.0000000000000000     
  0.93750000000000000       0.96875000000000000        0.0000000000000000     
  0.96875000000000000       0.96875000000000000        0.0000000000000000     
   1.0000000000000000       0.96875000000000000        0.0000000000000000     
  0.87500000000000000        1.0000000000000000        0.0000000000000000     
  0.90625000000000000        1.0000000000000000        0.0000000000000000     
  0.93750000000000000        1.0000000000000000        0.0000000000000000     
  0.96875000000000000        1.0000000000000000        0.0000000000000000     
   1.0000000000000000        1.0000000000000000        0.0000000000000000     
   1.0000000000000000       0.87500000000000000        0.0000000000000000     
   1.0312500000000000       0.87500000000000000        0.0000000000000000     
   1.0625000000000000       0.87500000000000000        0.0000000000000000     
   1.0937500000000000       0.87500000000000000        0.0000000000000000     
   1.1250000000000000       0.87500000000000000        0.0000000000000000     
   1.0000000000000000       0.90625000000000000        0.0000000000000000     
   1.0312500000000000       0.90625000000000000        0.0000000000000000     
   1.0625000000000000       0.90625000000000000        0.0000000000000000     
   1.0937500000000000       0.90625000000000000        0.0000000000000000     
   1.1250000000000000       0.90625000000000000        0.0000000000000000     
   1.0000000000000000       0.93750000000000000        0.0000000000000000     
   1.0312500000000000       0.93750000000000000        0.0000000000000000     
   1.0625000000000000       0.93750000000000000        0.0000000000000000     
   1.0937500000000000       0.93750000000000000        0.0000000000000000     
   1.1250000000000000       0.93750000000000000        0.0000000000000000     
   1.0000000000000000       0.96875000000000000        0.0000000000000000     
   1.0312500000000000       0.96875000000000000        0.0000000000000000     
   1.0625000000000000       0.96875000000000000        0.0000000000000000     
   1.0937500000000000       0.96875000000000000        0.0000000000000000     
   1.1250000000000000       0.96875000000000000        0.0000000000000000     
   1.0000000000000000        1.0000000000000000        0.0000000000000000     
   1.0312500000000000        1.0000000000000000        0.0000000000000000     
   1.0625000000000000        1.0000000000000000        0.0000000000000000     
   1.0937500000000000        1.0000000000000000        0.0000000000000000     
   1.1250000000000000        1.0000000000000000        0.0000000000000000     
   1.1250000000000000       0.87500000000000000        0.0000000000000000     
   1.1562500000000000       0.87500000000000000        0.0000000000000000     
   1.1875000000000000       0.87500000000000000        0.0000000000000000     
   1.2187500000000000       0.87500000000000000        0.0000000000000000     
   1.2500000000000000       0.87500000000000000        0.0000000000000000     
   1.1250000000000000       0.90625000000000000        0.0000000000000000     
   1.1562500000000000       0.90625000000000000        0.0000000000000000     
   1.1875000000000000       0.90625000000000000        0.0000000000000000     
   1.2187500000000000       0.90625000000000000        0.0000000000000000     
   1.2500000000000000       0.90625000000000000        0.0000000000000000     
   1.1250000000000000       0.93750000000000000        0.0000000000000000     
   1.1562500000000000       0.93750000000000000        0.0000000000000000     
   1.1875000000000000       0.93750000000000000        0.0000000000000000     
   1.2187500000000000       0.93750000000000000        0.0000000000000000     
   1.2500000000000000       0.93750000000000000        0.0000000000000000     
   1.1250000000000000       0.96875000000000000        0.0000000000000000     
   1.1562500000000000       0.96875000000000000        0.0000000000000000     
   1.1875000000000000       0.96875000000000000        0.0000000000000000     
   1.2187500000000000       0.96875000000000000        0.0000000000000000     
   1.2500000000000000       0.96875000000000000        0.0000000000000000     
   1.1250000000000000        1.0000000000000000        0.0000000000000000     
   1.1562500000000000        1.0000000000000000        0.0000000000000000     
   1.1875000000000000        1.0000000000000000        0.0000000000000000     
   1.2187500000000000        1.0000000000000000        0.0000000000000000     
   1.2500000000000000        1.0000000000000000        0.0000000000000000     
   1.2500000000000000       0.87500000000000000        0.0000000000000000     
   1.2812500000000000       0.87500000000000000        0.0000000000000000     
   1.3125000000000000       0.87500000000000000        0.0000000000000000     
   1.3437500000000000       0.87500000000000000        0.0000000000000000     
   1.3750000000000000       0.87500000000000000        0.0000000000000000     
   1.2500000000000000       0.90625000000000000        0.0000000000000000     
   1.2812500000000000       0.90625000000000000        0.0000000000000000     
   1.3125000000000000       0.90625000000000000        0.0000000000000000     
   1.3437500000000000       0.90625000000000000        0.0000000000000000     
   1.3750000000000000       0.90625000000000000        0.0000000000000000     
   1.2500000000000000       0.93750000000000000        0.0000000000000000     
   1.2812500000000000       0.93750000000000000        0.0000000000000000     
   1.3125000000000000       0.93750000000000000        0.0000000000000000     
   1.3437500000000000       0.93750000000000000        0.0000000000000000     
   1.3750000000000000       0.93750000000000000        0.0000000000000000     
   1.2500000000000000       0.96875000000000000        0.0000000000000000     
   1.2812500000000000       0.96875000000000000        0.0000000000000000     
   1.3125000000000000       0.96875000000000000        0.0000000000000000     
   1.3437500000000000       0.96875000000000000        0.0000000000000000     
   1.3750000000000000       0.96875000000000000        0.0000000000000000     
   1.2500000000000000        1.0000000000000000        0.0000000000000000     
   1.2812500000000000        1.0000000000000000        0.0000000000000000     
   1.3125000000000000        1.0000000000000000        0.0000000000000000     
   1.3437500000000000        1.0000000000000000        0.0000000000000000     
   1.3750000000000000        1.0000000000000000        0.0000000000000000     
   1.3750000000000000       0.87500000000000000        0.0000000000000000     
   1.4062500000000000       0.87500000000000000        0.0000000000000000     
   1.4375000000000000       0.87500000000000000        0.0000000000000000     
   1.4687500000000000       0.87500000000000000        0.0000000000000000     
   1.5000000000000000       0.87500000000000000        0.0000000000000000     
   1.3750000000000000       0.90625000000000000        0.0000000000000000     
   1.4062500000000000       0.90625000000000000        0.0000000000000000     
   1.4375000000000000       0.90625000000000000        0.0000000000000000     
   1.4687500000000000       0.90625000000000000        0.0000000000000000     
   1.5000000000000000       0.90625000000000000        0.0000000000000000     
   1.3750000000000000       0.93750000000000000        0.0000000000000000     
   1.4062500000000000       0.93750000000000000        0.0000000000000000     
   1.4375000000000000       0.93750000000000000        0.0000000000000000     
   1.4687500000000000       0.93750000000000000        0.0000000000000000     
   1.5000000000000000       0.93750000000000000        0.0000000000000000     
   1.3750000000000000       0.96875000000000000        0.0000000000000000     
   1.4062500000000000       0.96875000000000000        0.0000000000000000     
   1.4375000000000000       0.96875000000000000        0.0000000000000000     
   1.4687500000000000       0.96875000000000000        0.0000000000000000     
   1.5000000000000000       0.96875000000000000        0.0000000000000000     
   1.3750000000000000        1.0000000000000000        0.0000000000000000     
   1.4062500000000000        1.0000000000000000        0.0000000000000000     
   1.4375000000000000        1.0000000000000000        0.0000000000000000     
   1.4687500000000000        1.0000000000000000        0.0000000000000000     
   1.5000000000000000        1.0000000000000000        0.0000000000000000     
 </DataArray>
 </Points>
 <Cells>
 <DataArray  type="Int32"  Name="connectivity"  format="ascii">
           0           1           6           5
           1           2           7           6
           2           3           8           7
           3           4           9           8
           5           6          11          10
           6           7          12          11
           7           8          13          12
           8           9          14          13
          10          11          16          15
          11          12          17          16
          12          13          18          17
          13          14          19          18
          15          16          21          20
          16          17          22          21
          17          18          23          22
          18          19          24          23
          25          26          31          30
          26          27          32          31
          27          28          33          32
          28          29          34          33
          30          31          36          35
          31          32          37          36
          32          33          38          37
          33          34          39          38
          35          36          41          40
          36          37          42          41
          37          38          43          42
          38          39          44          43
          40          41          46          45
          41          42          47          46
          42          43          48          47
          43          44          49          48
          50          51          56          55
          51          52          57          56
          52          53          58          57
          53          54          59          58
          55          56          61          60
          56          57          62          61
          57          58          63          62
          58          59          64          63
          60          61          66          65
          61          62          67          66
          62          63          68          67
          63          64          69          68
          65          66          71          70
          66          67          72          71
          67          68          73          72
          68          69          74          73
          75          76          81          80
          76          77          82          81
          77          78          83          82
          78          79          84          83
          80          81          86          85
          81          82          87          86
          82          83          88          87
          83          84          89          88
          85          86          91          90
          86          87          92          91
          87          88          93          92
          88          89          94          93
          90          91          96          95
          91          92          97          96
          92          93          98          97
          93          94          99          98
         100         101         106         105
         101         102         107         106
         102         103         108         107
         103         104         109         108
         105         106         111         110
         106         107         112         111
         107         108         113         112
         108         109         114         113
         110         111         116         115
         111         112         117         116
         112         113         118         117
         113         114         119         118
         115         116         121         120
         116         117         122         121
         117         118         123         122
         118         119         124         123
         125         126         131         130
         126         127         132         131
         127         128         133         132
         128         129         134         133
         130         131         136         135
         131         132         137         136
         132         133         138         137
         133         134         139         138
         135         136         141         140
         136         137         142         141
         137         138         143         142
         138         139         144         143
         140         141         146         145
         141         142         147         146
         142         143         148         147
         143         144         149         148
         150         151         156         155
         151         152         157         156
         152         153         158         157
         153         154         159         158
         155         156         161         160
         156         157         162         161
         157         158         163         162
         158         159         164         163
         160         161         166         165
         161         162         167         166
         162         163         168         167
         163         164         169         168
         165         166         171         170
         166         167         172         171
         167         168         173         172
         168         169         174         173
         175         176         181         180
         176         177         182         181
         177         178         183         182
         178         179         184         183
         180         181         186         185
         181         182         187         186
         182         183         188         187
         183         184         189         188
         185         186         191         190
         186         187         192         191
         187         188         193         192
         188         189         194         193
         190         191         196         195
         191         192         197         196
         192         193         198         197
         193         194         199         198
         200         201         206         205
         201         202         207         206
         202         203         208         207
         203         204         209         208
         205         206         211         210
         206         207         212         211
         207         208         213         212
         208         209         214         213
         210         211         216         215
         211         212         217         216
         212         213         218         217
         213         214         219         218
         215         216         221         220
         216         217         222         221
         217         218         223         222
         218         219         224         223
         225         226         231         230
         226         227         232         231
         227         228         233         232
         228         229         234         233
         230         231         236         235
         231         232         237         236
         232         233         238         237
         233         234         239         238
         235         236         241         240
         236         237         242         241
         237         238         243         242
         238         239         244         243
         240         241         246         245
         241         242         247         246
         242         243         248         247
         243         244         249         248
         250         251         256         255
         251         252         257         256
         252         253         258         257
         253         254         259         258
         255         256         261         260
         256         257         262         261
         257         258         263         262
         258         259         264         263
         260         261         266         265
         261         262         267         266
         262         263         268         267
         263         264         269         268
         265         266         271         270
         266         267         272         271
         267         268         273         272
         268         269         274         273
         275         276         281         280
         276         277         282         281
         277         278         283         282
         278         279         284         283
         280         281         286         285
         281         282         287         286
         282         283         288         287
         283         284         289         288
         285         286         291         290
         286         287         292         291
         287         288         293         292
         288         289         294         293
         290         291         296         295
         291         292         297         296
         292         293         298         297
         293         294         299         298
         300         301         306         305
         301         302         307         306
         302         303         308         307
         303         304         309         308
         305         306         311         310
         306         307         312         311
         307         308         313         312
         308         309         314         313
         310         311         316         315
         311         312         317         316
         312         313         318         317
         313         314         319         318
         315         316         321         320
         316         317         322         321
         317         318         323         322
         318         319         324         323
         325         326         331         330
         326         327         332         331
         327         328         333         332
         328         329         334         333
         330         331         336         335
         331         332         337         336
         332         333         338         337
         333         334         339         338
         335         336         341         340
         336         337         342         341
         337         338         343         342
         338         339         344         343
         340         341         346         345
         341         342         347         346
         342         343         348         347
         343         344         349         348
         350         351         356         355
         351         352         357         356
         352         353         358         357
         353         354         359         358
         355         356         361         360
         356         357         362         361
         357         358         363         362
         358         359         364         363
         360         361         366         365
         361         362         367         366
         362         363         368         367
         363         364         369         368
         365         366         371         370
         366         367         372         371
         367         368         373         372
         368         369         374         373
         375         376         381         380
         376         377         382         381
         377         378         383         382
         378         379         384         383
         380         381         386         385
         381         382         387         386
         382         383         388         387
         383         384         389         388
         385         386         391         390
         386         387         392         391
         387         388         393         392
         388         389         394         393
         390         391         396         395
         391         392         397         396
         392         393         398         397
         393         394         399         398
         400         401         406         405
         401         402         407         406
         402         403         408         407
         403         404         409         408
         405         406         411         410
         406         407         412         411
         407         408         413         412
         408         409         414         413
         410         411         416         415
         411         412         417         416
         412         413         418         417
         413         414         419         418
         415         416         421         420
         416         417         422         421
         417         418         423         422
         418         419         424         423
         425         426         431         430
         426         427         432         431
         427         428         433         432
         428         429         434         433
         430         431         436         435
         431         432         437         436
         432         433         438         437
         433         434         439         438
         435         436         441         440
         436         437         442         441
         437         438         443         442
         438         439         444         443
         440         441         446         445
         441         442         447         446
         442         443         448         447
         443         444         449         448
         450         451         456         455
         451         452         457         456
         452         453         458         457
         453         454         459         458
         455         456         461         460
         456         457         462         461
         457         458         463         462
         458         459         464         463
         460         461         466         465
         461         462         467         466
         462         463         468         467
         463         464         469         468
         465         466         471         470
         466         467         472         471
         467         468         473         472
         468         469         474         473
         475         476         481         480
         476         477         482         481
         477         478         483         482
         478         479         484         483
         480         481         486         485
         481         482         487         486
         482         483         488         487
         483         484         489         488
         485         486         491         490
         486         487         492         491
         487         488         493         492
         488         489         494         493
         490         491         496         495
         491         492         497         496
         492         493         498         497
         493         494         499         498
         500         501         506         505
         501         502         507         506
         502         503         508         507
         503         504         509         508
         505         506         511         510
         506         507         512         511
         507         508         513         512
         508         509         514         513
         510         511         516         515
         511         512         517         516
         512         513         518         517
         513         514         519         518
         515         516         521         520
         516         517         522         521
         517         518         523         522
         518         519         524         523
         525         526         531         530
         526         527         532         531
         527         528         533         532
         528         529         534         533
         530         531         536         535
         531         532         537         536
         532         533         538         537
         533         534         539         538
         535         536         541         540
         536         537         542         541
         537         538         543         542
         538         539         544         543
         540         541         546         545
         541         542         547         546
         542         543         548         547
         543         544         549         548
         550         551         556         555
         551         552         557         556
         552         553         558         557
         553         554         559         558
         555         556         561         560
         556         557         562         561
         557         558         563         562
         558         559         564         563
         560         561         566         565
         561         562         567         566
         562         563         568         567
         563         564         569         568
         565         566         571         570
         566         567         572         571
         567         568         573         572
         568         569         574         573
         575         576         581         580
         576         577         582         581
         577         578         583         582
         578         579         584         583
         580         581         586         585
         581         582         587         586
         582         583         588         587
         583         584         589         588
         585         586         591         590
         586         587         592         591
         587         588         593         592
         588         589         594         593
         590         591         596         595
         591         592         597         596
         592         593         598         597
         593         594         599         598
         600         601         606         605
         601         602         607         606
         602         603         608         607
         603         604         609         608
         605         606         611         610
         606         607         612         611
         607         608         613         612
         608         609         614         613
         610         611         616         615
         611         612         617         616
         612         613         618         617
         613         614         619         618
         615         616         621         620
         616         617         622         621
         617         618         623         622
         618         619         624         623
         625         626         631         630
         626         627         632         631
         627         628         633         632
         628         629         634         633
         630         631         636         635
         631         632         637         636
         632         633         638         637
         633         634         639         638
         635         636         641         640
         636         637         642         641
         637         638         643         642
         638         639         644         643
         640         641         646         645
         641         642         647         646
         642         643         648         647
         643         644         649         648
         650         651         656         655
         651         652         657         656
         652         653         658         657
         653         654         659         658
         655         656         661         660
         656         657         662         661
         657         658         663         662
         658         659         664         663
         660         661         666         665
         661         662         667         666
         662         663         668         667
         663         664         669         668
         665         666         671         670
         666         667         672         671
         667         668         673         672
         668         669         674         673
         675         676         681         680
         676         677         682         681
         677         678         683         682
         678         679         684         683
         680         681         686         685
         681         682         687         686
         682         683         688         687
         683         684         689         688
         685         686         691         690
         686         687         692         691
         687         688         693         692
         688         689         694         693
         690         691         696         695
         691         692         697         696
         692         693         698         697
         693         694         699         698
         700         701         706         705
         701         702         707         706
         702         703         708         707
         703         704         709         708
         705         706         711         710
         706         707         712         711
         707         708         713         712
         708         709         714         713
         710         711         716         715
         711         712         717         716
         712         713         718         717
         713         714         719         718
         715         716         721         720
         716         717         722         721
         717         718         723         722
         718         719         724         723
         725         726         731         730
         726         727         732         731
         727         728         733         732
         728         729         734         733
         730         731         736         735
         731         732         737         736
         732         733         738         737
         733         734         739         738
         735         736         741         740
         736         737         742         741
         737         738         743         742
         738         739         744         743
         740         741         746         745
         741         742         747         746
         742         743         748         747
         743         744         749         748
         750         751         756         755
         751         752         757         756
         752         753         758         757
         753         754         759         758
         755         756         761         760
         756         757         762         761
         757         758         763         762
         758         759         764         763
         760         761         766         765
         761         762         767         766
         762         763         768         767
         763         764         769         768
         765         766         771         770
         766         767         772         771
         767         768         773         772
         768         769         774         773
         775         776         781         780
         776         777         782         781
         777         778         783         782
         778         779         784         783
         780         781         786         785
         781         782         787         786
         782         783         788         787
         783         784         789         788
         785         786         791         790
         786         787         792         791
         787         788         793         792
         788         789         794         793
         790         791         796         795
         791         792         797         796
         792         793         798         797
         793         794         799         798
         800         801         806         805
         801         802         807         806
         802         803         808         807
         803         804         809         808
         805         806         811         810
         806         807         812         811
         807         808         813         812
         808         809         814         813
         810         811         816         815
         811         812         817         816
         812         813         818         817
         813         814         819         818
         815         816         821         820
         816         817         822         821
         817         818         823         822
         818         819         824         823
         825         826         831         830
         826         827         832         831
         827         828         833         832
         828         829         834         833
         830         831         836         835
         831         832         837         836
         832         833         838         837
         833         834         839         838
         835         836         841         840
         836         837         842         841
         837         838         843         842
         838         839         844         843
         840         841         846         845
         841         842         847         846
         842         843         848         847
         843         844         849         848
         850         851         856         855
         851         852         857         856
         852         853         858         857
         853         854         859         858
         855         856         861         860
         856         857         862         861
         857         858         863         862
         858         859         864         863
         860         861         866         865
         861         862         867         866
         862         863         868         867
         863         864         869         868
         865         866         871         870
         866         867         872         871
         867         868         873         872
         868         869         874         873
         875         876         881         880
         876         877         882         881
         877         878         883         882
         878         879         884         883
         880         881         886         885
         881         882         887         886
         882         883         888         887
         883         884         889         888
         885         886         891         890
         886         887         892         891
         887         888         893         892
         888         889         894         893
         890         891         896         895
         891         892         897         896
         892         893         898         897
         893         894         899         898
         900         901         906         905
         901         902         907         906
         902         903         908         907
         903         904         909         908
         905         906         911         910
         906         907         912         911
         907         908         913         912
         908         909         914         913
         910         911         916         915
         911         912         917         916
         912         913         918         917
         913         914         919         918
         915         916         921         920
         916         917         922         921
         917         918         923         922
         918         919         924         923
         925         926         931         930
         926         927         932         931
         927         928         933         932
         928         929         934         933
         930         931         936         935
         931         932         937         936
         932         933         938         937
         933         934         939         938
         935         936         941         940
         936         937         942         941
         937         938         943         942
         938         939         944         943
         940         941         946         945
         941         942         947         946
         942         943         948         947
         943         944         949         948
         950         951         956         955
         951         952         957         956
         952         953         958         957
         953         954         959         958
         955         956         961         960
         956         957         962         961
         957         958         963         962
         958         959         964         963
         960         961         966         965
         961         962         967         966
         962         963         968         967
         963         964         969         968
         965         966         971         970
         966         967         972         971
         967         968         973         972
         968         969         974         973
         975         976         981         980
         976         977         982         981
         977         978         983         982
         978         979         984         983
         980         981         986         985
         981         982         987         986
         982         983         988         987
         983         984         989         988
         985         986         991         990
         986         987         992         991
         987         988         993         992
         988         989         994         993
         990         991         996         995
         991         992         997         996
         992         993         998         997
         993         994         999         998
        1000        1001        1006        1005
        1001        1002        1007        1006
        1002        1003        1008        1007
        1003        1004        1009        1008
        1005        1006        1011        1010
        1006        1007        1012        1011
        1007        1008        1013        1012
        1008        1009        1014        1013
        1010        1011        1016        1015
        1011        1012        1017        1016
        1012        1013        1018        1017
        1013        1014        1019        1018
        1015        1016        1021        1020
        1016        1017        1022        1021
        1017        1018        1023        1022
        1018        1019        1024        1023
        1025        1026        1031        1030
        1026        1027        1032        1031
        1027        1028        1033        1032
        1028        1029        1034        1033
        1030        1031        1036        1035
        1031        1032        1037        1036
        1032        1033        1038        1037
        1033        1034        1039        1038
        1035        1036        1041        1040
        1036        1037        1042        1041
        1037        1038        1043        1042
        1038        1039        1044        1043
        1040        1041        1046        1045
        1041        1042        1047        1046
        1042        1043        1048        1047
        1043        1044        1049        1048
        1050        1051        1056        1055
        1051        1052        1057        1056
        1052        1053        1058        1057
        1053        1054        1059        1058
        1055        1056        1061        1060
        1056        1057        1062        1061
        1057        1058        1063        1062
        1058        1059        1064        1063
        1060        1061        1066        1065
        1061        1062        1067        1066
        1062        1063        1068        1067
        1063        1064        1069        1068
        1065        1066        1071        1070
        1066        1067        1072        1071
        1067        1068        1073        1072
        1068        1069        1074        1073
        1075        1076        1081        1080
        1076        1077        1082        1081
        1077        1078        1083        1082
        1078        1079        1084        1083
        1080        1081        1086        1085
        1081        1082        1087        1086
        1082        1083        1088        1087
        1083        1084        1089        1088
        1085        1086        1091        1090
        1086        1087        1092        1091
        1087        1088        1093        1092
        1088        1089        1094        1093
        1090        1091        1096        1095
        1091        1092        1097        1096
        1092        1093        1098        1097
        1093        1094        1099        1098
        1100        1101        1106        1105
        1101        1102        1107        1106
        1102        1103        1108        1107
        1103        1104        1109        1108
        1105        1106        1111        1110
        1106        1107        1112        1111
        1107        1108        1113        1112
        1108        1109        1114        1113
        1110        1111        1116        1115
        1111        1112        1117        1116
        1112        1113        1118        1117
        1113        1114        1119        1118
        1115        1116        1121        1120
        1116        1117        1122        1121
        1117        1118        1123        1122
        1118        1119        1124        1123
        1125        1126        1131        1130
        1126        1127        1132        1131
        1127        1128        1133        1132
        1128        1129        1134        1133
        1130        1131        1136        1135
        1131        1132        1137        1136
        1132        1133        1138        1137
        1133        1134        1139        1138
        1135        1136        1141        1140
        1136        1137        1142        1141
        1137        1138        1143        1142
        1138        1139        1144        1143
        1140        1141        1146        1145
        1141        1142        1147        1146
        1142        1143        1148        1147
        1143        1144        1149        1148
        1150        1151        1156        1155
        1151        1152        1157        1156
        1152        1153        1158        1157
        1153        1154        1159        1158
        1155        1156        1161        1160
        1156        1157        1162        1161
        1157        1158        1163        1162
        1158        1159        1164        1163
        1160        1161        1166        1165
        1161        1162        1167        1166
        1162        1163        1168        1167
        1163        1164        1169        1168
        1165        1166        1171        1170
        1166        1167        1172        1171
        1167        1168        1173        1172
        1168        1169        1174        1173
        1175        1176        1181        1180
        1176        1177        1182        1181
        1177        1178        1183        1182
        1178        1179        1184        1183
        1180        1181        1186        1185
        1181        1182        1187        1186
        1182        1183        1188        1187
        1183        1184        1189        1188
        1185        1186        1191        1190
        1186        1187        1192        1191
        1187        1188        1193        1192
        1188        1189        1194        1193
        1190        1191        1196        1195
        1191        1192        1197        1196
        1192        1193        1198        1197
        1193        1194        1199        1198
        1200        1201        1206        1205
        1201        1202        1207        1206
        1202        1203        1208        1207
        1203        1204        1209        1208
        1205        1206        1211        1210
        1206        1207        1212        1211
        1207        1208        1213        1212
        1208        1209        1214        1213
        1210        1211        1216        1215
        1211        1212        1217        1216
        1212        1213        1218        1217
        1213        1214        1219        1218
        1215        1216        1221        1220
        1216        1217        1222        1221
        1217        1218        1223        1222
        1218        1219        1224        1223
        1225        1226        1231        1230
        1226        1227        1232        1231
        1227        1228        1233        1232
        1228        1229        1234        1233
        1230        1231        1236        1235
        1231        1232        1237        1236
        1232        1233        1238        1237
        1233        1234        1239        1238
        1235        1236        1241        1240
        1236        1237        1242        1241
        1237        1238        1243        1242
        1238        1239        1244        1243
        1240        1241        1246        1245
        1241        1242        1247        1246
        1242        1243        1248        1247
        1243        1244        1249        1248
        1250        1251        1256        1255
        1251        1252        1257        1256
        1252        1253        1258        1257
        1253        1254        1259        1258
        1255        1256        1261        1260
        1256        1257        1262        1261
        1257        1258        1263        1262
        1258        1259        1264        1263
        1260        1261        1266        1265
        1261        1262        1267        1266
        1262        1263        1268        1267
        1263        1264        1269        1268
        1265        1266        1271        1270
        1266        1267        1272        1271
        1267        1268        1273        1272
        1268        1269        1274        1273
        1275        1276        1281        1280
        1276        1277        1282        1281
        1277        1278        1283        1282
        1278        1279        1284        1283
        1280        1281        1286        1285
        1281        1282        1287        1286
        1282        1283        1288        1287
        1283        1284        1289        1288
        1285        1286        1291        1290
        1286        1287        1292        1291
        1287        1288        1293        1292
        1288        1289        1294        1293
        1290        1291        1296        1295
        1291        1292        1297        1296
        1292        1293        1298        1297
        1293        1294        1299        1298
        1300        1301        1306        1305
        1301        1302        1307        1306
        1302        1303        1308        1307
        1303        1304        1309        1308
        1305        1306        1311        1310
        1306        1307        1312        1311
        1307        1308        1313        1312
        1308        1309        1314        1313
        1310        1311        1316        1315
        1311        1312        1317        1316
        1312        1313        1318        1317
        1313        1314        1319        1318
        1315        1316        1321        1320
        1316        1317        1322        1321
        1317        1318        1323        1322
        1318        1319        1324        1323
        1325        1326        1331        1330
        1326        1327        1332        1331
        1327        1328        1333        1332
        1328        1329        1334        1333
        1330        1331        1336        1335
        1331        1332        1337        1336
        1332        1333        1338        1337
        1333        1334        1339        1338
        1335        1336        1341        1340
        1336        1337        1342        1341
        1337        1338        1343        1342
        1338        1339        1344        1343
        1340        1341        1346        1345
        1341        1342        1347        1346
        1342        1343        1348        1347
        1343        1344        1349        1348
        1350        1351        1356        1355
        1351        1352        1357        1356
        1352        1353        1358        1357
        1353        1354        1359        1358
        1355        1356        1361        1360
        1356        1357        1362        1361
        1357        1358        1363        1362
        1358        1359        1364        1363
        1360        1361        1366        1365
        1361        1362        1367        1366
        1362        1363        1368        1367
        1363        1364        1369        1368
        1365        1366        1371        1370
        1366        1367        1372        1371
        1367        1368        1373        1372
        1368        1369        1374        1373
        1375        1376        1381        1380
        1376        1377        1382        1381
        1377        1378        1383        1382
        1378        1379        1384        1383
        1380        1381        1386        1385
        1381        1382        1387        1386
        1382        1383        1388        1387
        1383        1384        1389        1388
        1385        1386        1391        1390
        1386        1387        1392        1391
        1387        1388        1393        1392
        1388        1389        1394        1393
        1390        1391        1396        1395
        1391        1392        1397        1396
        1392        1393        1398        1397
        1393        1394        1399        1398
        1400        1401        1406        1405
        1401        1402        1407        1406
        1402        1403        1408        1407
        1403        1404        1409        1408
        1405        1406        1411        1410
        1406        1407        1412        1411
        1407        1408        1413        1412
        1408        1409        1414        1413
        1410        1411        1416        1415
        1411        1412        1417        1416
        1412        1413        1418        1417
        1413        1414        1419        1418
        1415        1416        1421        1420
        1416        1417        1422        1421
        1417        1418        1423        1422
        1418        1419        1424        1423
        1425        1426        1431        1430
        1426        1427        1432        1431
        1427        1428        1433        1432
        1428        1429        1434        1433
        1430        1431        1436        1435
        1431        1432        1437        1436
        1432        1433        1438        1437
        1433        1434        1439        1438
        1435        1436        1441        1440
        1436        1437        1442        1441
        1437        1438        1443        1442
        1438        1439        1444        1443
        1440        1441        1446        1445
        1441        1442        1447        1446
        1442        1443        1448        1447
        1443        1444        1449        1448
        1450        1451        1456        1455
        1451        1452        1457        1456
        1452        1453        1458        1457
        1453        1454        1459        1458
        1455        1456        1461        1460
        1456        1457        1462        1461
        1457        1458        1463        1462
        1458        1459        1464        1463
        1460        1461        1466        1465
        1461        1462        1467        1466
        1462        1463        1468        1467
        1463        1464        1469        1468
        1465        1466        1471        1470
        1466        1467        1472        1471
        1467        1468        1473        1472
        1468        1469        1474        1473
        1475        1476        1481        1480
        1476        1477        1482        1481
        1477        1478        1483        1482
        1478        1479        1484        1483
        1480        1481        1486        1485
        1481        1482        1487        1486
        1482        1483        1488        1487
        1483        1484        1489        1488
        1485        1486        1491        1490
        1486        1487        1492        1491
        1487        1488        1493        1492
        1488        1489        1494        1493
        1490        1491        1496        1495
        1491        1492        1497        1496
        1492        1493        1498        1497
        1493        1494        1499        1498
        1500        1501        1506        1505
        1501        1502        1507        1506
        1502        1503        1508        1507
        1503        1504        1509        1508
        1505        1506        1511        1510
        1506        1507        1512        1511
        1507        1508        1513        1512
        1508        1509        1514        1513
        1510        1511        1516        1515
        1511        1512        1517        1516
        1512        1513        1518        1517
        1513        1514        1519        1518
        1515        1516        1521        1520
        1516        1517        1522        1521
        1517        1518        1523        1522
        1518        1519        1524        1523
        1525        1526        1531        1530
        1526        1527        1532        1531
        1527        1528        1533        1532
        1528        1529        1534        1533
        1530        1531        1536        1535
        1531        1532        1537        1536
        1532        1533        1538        1537
        1533        1534        1539        1538
        1535        1536        1541        1540
        1536        1537        1542        1541
        1537        1538        1543        1542
        1538        1539        1544        1543
        1540        1541        1546        1545
        1541        1542        1547        1546
        1542        1543        1548        1547
        1543        1544        1549        1548
        1550        1551        1556        1555
        1551        1552        1557        1556
        1552        1553        1558        1557
        1553        1554        1559        1558
        1555        1556        1561        1560
        1556        1557        1562        1561
        1557        1558        1563        1562
        1558        1559        1564        1563
        1560        1561        1566        1565
        1561        1562        1567        1566
        1562        1563        1568        1567
        1563        1564        1569        1568
        1565        1566        1571        1570
        1566        1567        1572        1571
        1567        1568        1573        1572
        1568        1569        1574        1573
        1575        1576        1581        1580
        1576        1577        1582        1581
        1577        1578        1583        1582
        1578        1579        1584        1583
        1580        1581        1586        1585
        1581        1582        1587        1586
        1582        1583        1588        1587
        1583        1584        1589        1588
        1585        1586        1591        1590
        1586        1587        1592        1591
        1587        1588        1593        1592
        1588        1589        1594        1593
        1590        1591        1596        1595
        1591        1592        1597        1596
        1592        1593        1598        1597
        1593        1594        1599        1598
 </DataArray>
 <DataArray  type="Int32"  Name="offsets"  format="ascii"> 
           4
           8
          12
          16
          20
          24
          28
          32
          36
          40
          44
          48
          52
          56
          60
          64
          68
          72
          76
          80
          84
          88
          92
          96
         100
         104
         108
         112
         116
         120
         124
         128
         132
         136
         140
         144
         148
         152
         156
         160
         164
         168
         172
         176
         180
         184
         188
         192
         196
         200
         204
         208
         212
         216
         220
         224
         228
         232
         236
         240
         244
         248
         252
         256
         260
         264
         268
         272
         276
         280
         284
         288
         292
         296
         300
         304
         308
         312
         316
         320
         324
         328
         332
         336
         340
         344
         348
         352
         356
         360
         364
         368
         372
         376
         380
         384
         388
         392
         396
         400
         404
         408
         412
         416
         420
         424
         428
         432
         436
         440
         444
         448
         452
         456
         460
         464
         468
         472
         476
         480
         484
         488
         492
         496
         500
         504
         508
         512
         516
         520
         524
         528
         532
         536
         540
         544
         548
         552
         556
         560
         564
         568
         572
         576
         580
         584
         588
         592
         596
         600
         604
         608
         612
         616
         620
         624
         628
         632
         636
         640
         644
         648
         652
         656
         660
         664
         668
         672
         676
         680
         684
         688
         692
         696
         700
         704
         708
         712
         716
         720
         724
         728
         732
         736
         740
         744
         748
         752
         756
         760
         764
         768
         772
         776
         780
         784
         788
         792
         796
         800
         804
         808
         812
         816
         820
         824
         828
         832
         836
         840
         844
         848
         852
         856
         860
         864
         868
         872
         876
         880
         884
         888
         892
         896
         900
         904
         908
         912
         916
         920
         924
         928
         932
         936
         940
         944
         948
         952
         956
         960
         964
         968
         972
         976
         980
         984
         988
         992
         996
        1000
        1004
        1008
        1012
        1016
        1020
        1024
        1028
        1032
        1036
        1040
        1044
        1048
        1052
        1056
        1060
        1064
        1068
        1072
        1076
        1080
        1084
        1088
        1092
        1096
        1100
        1104
        1108
        1112
        1116
        1120
        1124
        1128
        1132
        1136
        1140
        1144
        1148
        1152
        1156
        1160
        1164
        1168
        1172
        1176
        1180
        1184
        1188
        1192
        1196
        1200
        1204
        1208
        1212
        1216
        1220
        1224
        1228
        1232
        1236
        1240
        1244
        1248
        1252
        1256
        1260
        1264
        1268
        1272
        1276
        1280
        1284
        1288
        1292
        1296
        1300
        1304
        1308
        1312
        1316
        1320
        1324
        1328
        1332
        1336
        1340
        1344
        1348
        1352
        1356
        1360
        1364
        1368
        1372
        1376
        1380
        1384
        1388
        1392
        1396
        1400
        1404
        1408
        1412
        1416
        1420
        1424
        1428
        1432
        1436
        1440
        1444
        1448
        1452
        1456
        1460
        1464
        1468
        1472
        1476
        1480
        1484
        1488
        1492
        1496
        1500
        1504
        1508
        1512
        1516
        1520
        1524
        1528
        1532
        1536
        1540
        1544
        1548
        1552
        1556
        1560
        1564
        1568
        1572
        1576
        1580
        1584
        1588
        1592
        1596
        1600
        1604
        1608
        1612
        1616
        1620
        1624
        1628
        1632
        1636
        1640
        1644
        1648
        1652
        1656
        1660
        1664
        1668
        1672
        1676
        1680
        1684
        1688
        1692
        1696
        1700
        1704
        1708
        1712
        1716
        1720
        1724
        1728
        1732
        1736
        1740
        1744
        1748
        1752
        1756
        1760
        1764
        1768
        1772
        1776
        1780
        1784
        1788
        1792
        1796
        1800
        1804
        1808
        1812
        1816
        1820
        1824
        1828
        1832
        1836
        1840
        1844
        1848
        1852
        1856
        1860
        1864
        1868
        1872
        1876
        1880
        1884
        1888
        1892
        1896
        1900
        1904
        1908
        1912
        1916
        1920
        1924
        1928
        1932
        1936
        1940
        1944
        1948
        1952
        1956
        1960
        1964
        1968
        1972
        1976
        1980
        1984
        1988
        1992
        1996
        2000
        2004
        2008
        2012
        2016
        2020
        2024
        2028
        2032
        2036
        2040
        2044
        2048
        2052
        2056
        2060
        2064
        2068
        2072
        2076
        2080
        2084
        2088
        2092
        2096
        2100
        2104
        2108
        2112
        2116
        2120
        2124
        2128
        2132
        2136
        2140
        2144
        2148
        2152
        2156
        2160
        2164
        2168
        2172
        2176
        2180
        2184
        2188
        2192
        2196
        2200
        2204
        2208
        2212
        2216
        2220
        2224
        2228
        2232
        2236
        2240
        2244
        2248
        2252
        2256
        2260
        2264
        2268
        2272
        2276
        2280
        2284
        2288
        2292
        2296
        2300
        2304
        2308
        2312
        2316
        2320
        2324
        2328
        2332
        2336
        2340
        2344
        2348
        2352
        2356
        2360
        2364
        2368
        2372
        2376
        2380
        2384
        2388
        2392
        2396
        2400
        2404
        2408
        2412
        2416
        2420
        2424
        2428
        2432
        2436
        2440
        2444
        2448
        2452
        2456
        2460
        2464
        2468
        2472
        2476
        2480
        2484
        2488
        2492
        2496
        2500
        2504
        2508
        2512
        2516
        2520
        2524
        2528
        2532
        2536
        2540
        2544
        2548
        2552
        2556
        2560
        2564
        2568
        2572
        2576
        2580
        2584
        2588
        2592
        2596
        2600
        2604
        2608
        2612
        2616
        2620
        2624
        2628
        2632
        2636
        2640
        2644
        2648
        2652
        2656
        2660
        2664
        2668
        2672
        2676
        2680
        2684
        2688
        2692
        2696
        2700
        2704
        2708
        2712
        2716
        2720
        2724
        2728
        2732
        2736
        2740
        2744
        2748
        2752
        2756
        2760
        2764
        2768
        2772
        2776
        2780
        2784
        2788
        2792
        2796
        2800
        2804
        2808
        2812
        2816
        2820
        2824
        2828
        2832
        2836
        2840
        2844
        2848
        2852
        2856
        2860
        2864
        2868
        2872
        2876
        2880
        2884
        2888
        2892
        2896
        2900
        2904
        2908
        2912
        2916
        2920
        2924
        2928
        2932
        2936
        2940
        2944
        2948
        2952
        2956
        2960
        2964
        2968
        2972
        2976
        2980
        2984
        2988
        2992
        2996
        3000
        3004
        3008
        3012
        3016
        3020
        3024
        3028
        3032
        3036
        3040
        3044
        3048
        3052
        3056
        3060
        3064
        3068
        3072
        3076
        3080
        3084
        3088
        3092
        3096
        3100
        3104
        3108
        3112
        3116
        3120
        3124
        3128
        3132
        3136
        3140
        3144
        3148
        3152
        3156
        3160
        3164
        3168
        3172
        3176
        3180
        3184
        3188
        3192
        3196
        3200
        3204
        3208
        3212
        3216
        3220
        3224
        3228
        3232
        3236
        3240
        3244
        3248
        3252
        3256
        3260
        3264
        3268
        3272
        3276
        3280
        3284
        3288
        3292
        3296
        3300
        3304
        3308
        3312
        3316
        3320
        3324
        3328
        3332
        3336
        3340
        3344
        3348
        3352
        3356
        3360
        3364
        3368
        3372
        3376
        3380
        3384
        3388
        3392
        3396
        3400
        3404
        3408
        3412
        3416
        3420
        3424
        3428
        3432
        3436
        3440
        3444
        3448
        3452
        3456
        3460
        3464
        3468
        3472
        3476
        3480
        3484
        3488
        3492
        3496
        3500
        3504
        3508
        3512
        3516
        3520
        3524
        3528
        3532
        3536
        3540
        3544
        3548
        3552
        3556
        3560
        3564
        3568
        3572
        3576
        3580
        3584
        3588
        3592
        3596
        3600
        3604
        3608
        3612
        3616
        3620
        3624
        3628
        3632
        3636
        3640
        3644
        3648
        3652
        3656
        3660
        3664
        3668
        3672
        3676
        3680
        3684
        3688
        3692
        3696
        3700
        3704
        3708
        3712
        3716
        3720
        3724
        3728
        3732
        3736
        3740
        3744
        3748
        3752
        3756
        3760
        3764
        3768
        3772
        3776
        3780
        3784
        3788
        3792
        3796
        3800
        3804
        3808
        3812
        3816
        3820
        3824
        3828
        3832
        3836
        3840
        3844
        3848
        3852
        3856
        3860
        3864
        3868
        3872
        3876
        3880
        3884
        3888
        3892
        3896
        3900
        3904
        3908
        3912
        3916
        3920
        3924
        3928
        3932
        3936
        3940
        3944
        3948
        3952
        3956
        3960
        3964
        3968
        3972
        3976
        3980
        3984
        3988
        3992
        3996
        4000
        4004
        4008
        4012
        4016
        4020
        4024
        4028
        4032
        4036
        4040
        4044
        4048
        4052
        4056
        4060
        4064
        4068
        4072
        4076
        4080
        4084
        4088
        4092
        4096
 </DataArray>
 <DataArray  type="UInt8"  Name="types"  format="ascii">
 9
 9
 9
 9
 9
 9
 9
 9
 9
 9
 9
 9
 9
 9
 9
 9
 9
 9
 9
 9
 9
 9
 9
 9
 9
 9
 9
 9
 9
 9
 9
 9
 9
 9
 9
 9
 9
 9
 9
 9
 9
 9
 9
 9
 9
 9
 9
 9
 9
 9
 9
 9
 9
 9
 9
 9
 9
 9
 9
 9
 9
 9
 9
 9
 9
 9
 9
 9
 9
 9
 9
 9
 9
 9
 9
 9
 9
 9
 9
 9
 9
 9
 9
 9
 9
 9
 9
 9
 9
 9
 9
 9
 9
 9
 9
 9
 9
 9
 9
 9
 9
 9
 9
 9
 9
 9
 9
 9
 9
 9
 9
 9
 9
 9
 9
 9
 9
 9
 9
 9
 9
 9
 9
 9
 9
 9
 9
 9
 9
 9
 9
 9
 9
 9
 9
 9
 9
 9
 9
 9
 9
 9
 9
 9
 9
 9
 9
 9
 9
 9
 9
 9
 9
 9
 9
 9
 9
 9
 9
 9
 9
 9
 9
 9
 9
 9
 9
 9
 9
 9
 9
 9
 9
 9
 9
 9
 9
 9
 9
 9
 9
 9
 9
 9
 9
 9
 9
 9
 9
 9
 9
 9
 9
 9
 9
 9
 9
 9
 9
 9
 9
 9
 9
 9
 9
 9
 9
 9
 9
 9
 9
 9
 9
 9
 9
 9
 9
 9
 9
 9
 9
 9
 9
 9
 9
 9
 9
 9
 9
 9
 9
 9
 9
 9
 9
 9
 9
 9
 9
 9
 9
 9
 9
 9
 9
 9
 9
 9
 9
 9
 9
 9
 9
 9
 9
 9
 9
 9
 9
 9
 9
 9
 9
 9
 9
 9
 9
 9
 9
 9
 9
 9
 9
 9
 9
 9
 9
 9
 9
 9
 9
 9
 9
 9
 9
 9
 9
 9
 9
 9
 9
 9
 9
 9
 9
 9
 9
 9
 9
 9
 9
 9
 9
 9
 9
 9
 9
 9
 9
 9
 9
 9
 9
 9
 9
 9
 9
 9
 9
 9
 9
 9
 9
 9
 9
 9
 9
 9
 9
 9
 9
 9
 9
 9
 9
 9
 9
 9
 9
 9
 9
 9
 9
 9
 9
 9
 9
 9
 9
 9
 9
 9
 9
 9
 9
 9
 9
 9
 9
 9
 9
 9
 9
 9
 9
 9
 9
 9
 9
 9
 9
 9
 9
 9
 9
 9
 9
 9
 9
 9
 9
 9
 9
 9
 9
 9
 9
 9
 9
 9
 9
 9
 9
 9
 9
 9
 9
 9
 9
 9
 9
 9
 9
 9
 9
 9
 9
 9
 9
 9
 9
 9
 9
 9
 9
 9
 9
 9
 9
 9
 9
 9
 9
 9
 9
 9
 9
 9
 9
 9
 9
 9
 9
 9
 9
 9
 9
 9
 9
 9
 9
 9
 9
 9
 9
 9
 9
 9
 9
 9
 9
 9
 9
 9
 9
 9
 9
 9
 9
 9
 9
 9
 9
 9
 9
 9
 9
 9
 9
 9
 9
 9
 9
 9
 9
 9
 9
 9
 9
 9
 9
 9
 9
 9
 9
 9
 9
 9
 9
 9
 9
 9
 9
 9
 9
 9
 9
 9
 9
 9
 9
 9
 9
 9
 9
 9
 9
 9
 9
 9
 9
 9
 9
 9
 9
 9
 9
 9
 9
 9
 9
 9
 9
 9
 9
 9
 9
 9
 9
 9
 9
 9
 9
 9
 9
 9
 9
 9
 9
 9
 9
 9
 9
 9
 9
 9
 9
 9
 9
 9
 9
 9
 9
 9
 9
 9
 9
 9
 9
 9
 9
 9
 9
 9
 9
 9
 9
 9
 9
 9
 9
 9
 9
 9
 9
 9
 9
 9
 9
 9
 9
 9
 9
 9
 9
 9
 9
 9
 9
 9
 9
 9
 9
 9
 9
 9
 9
 9
 9
 9
 9
 9
 9
 9
 9
 9
 9
 9
 9
 9
 9
 9
 9
 9
 9
 9
 9
 9
 9
 9
 9
 9
 9
 9
 9
 9
 9
 9
 9
 9
 9
 9
 9
 9
 9
 9
 9
 9
 9
 9
 9
 9
 9
 9
 9
 9
 9
 9
 9
 9
 9
 9
 9
 9
 9
 9
 9
 9
 9
 9
 9
 9
 9
 9
 9
 9
 9
 9
 9
 9
 9
 9
 9
 9
 9
 9
 9
 9
 9
 9
 9
 9
 9
 9
 9
 9
 9
 9
 9
 9
 9
 9
 9
 9
 9
 9
 9
 9
 9
 9
 9
 9
 9
 9
 9
 9
 9
 9
 9
 9
 9
 9
 9
 9
 9
 9
 9
 9
 9
 9
 9
 9
 9
 9
 9
 9
 9
 9
 9
 9
 9
 9
 9
 9
 9
 9
 9
 9
 9
 9
 9
 9
 9
 9
 9
 9
 9
 9
 9
 9
 9
 9
 9
 9
 9
 9
 9
 9
 9
 9
 9
 9
 9
 9
 9
 9
 9
 9
 9
 9
 9
 9
 9
 9
 9
 9
 9
 9
 9
 9
 9
 9
 9
 9
 9
 9
 9
 9
 9
 9
 9
 9
 9
 9
 9
 9
 9
 9
 9
 9
 9
 9
 9
 9
 9
 9
 9
 9
 9
 9
 9
 9
 9
 9
 9
 9
 9
 9
 9
 9
 9
 9
 9
 9
 9
 9
 9
 9
 9
 9
 9
 9
 9
 9
 9
 9
 9
 9
 9
 9
 9
 9
 9
 9
 9
 9
 9
 9
 9
 9
 9
 9
 9
 9
 9
 9
 9
 9
 9
 9
 9
 9
 9
 9
 9
 9
 9
 9
 9
 9
 9
 9
 9
 9
 9
 9
 9
 9
 9
 9
 9
 9
 9
 9
 9
 9
 9
 9
 9
 9
 9
 9
 9
 9
 9
 9
 9
 9
 9
 9
 9
 9
 9
 9
 9
 9
 9
 9
 9
 9
 9
 9
 9
 9
 9
 9
 9
 9
 9
 9
 9
 9
 9
 9
 9
 9
 9
 9
 9
 9
 9
 9
 9
 9
 9
 9
 9
 9
 9
 9
 9
 9
 9
 9
 9
 9
 9
 9
 9
 9
 9
 9
 9
 9
 9
 9
 9
 9
 9
 9
 9
 9
 9
 9
 9
 9
 9
 9
 9
 9
 9
 9
 9
 9
 9
 9
 9
 9
 9
 9
 9
 9
 9
 9
 9
 9
 9
 9
 9
 9
 9
 9
 9
 9
 9
 9
 9
 9
 9
 9
 9
 9
 9
 9
 9
 9
 9
 9
 9
 9
 9
 9
 9
 9
 9
 9
 9
 9
 9
 9
 9
 9
 9
 9
 </DataArray>
 </Cells> 
 <PointData>
 <DataArray  type="Float64" Name="disp" NumberOfComponents="3" format="ascii">
   6.5124876811456567E-002   6.2732862850558777E-002   0.0000000000000000     
   6.8334737981400467E-002   6.8158422682957423E-002   0.0000000000000000     
   7.1388288462522556E-002   7.3747678772208711E-002   0.0000000000000000     
   7.4285528254822819E-002   7.9500631118312667E-002   0.0000000000000000     
   7.7026457358301298E-002   8.5417279721269251E-002   0.0000000000000000     
   6.0116477253605305E-002   6.1884355980310807E-002   0.0000000000000000     
   6.3010039776247875E-002   6.7298757399390313E-002   0.0000000000000000     
   6.5800638232957023E-002   7.2890807969209520E-002   0.0000000000000000     
   6.8488272623732777E-002   7.8660507689768441E-002   0.0000000000000000     
   7.1072942948575135E-002   8.4607856561067063E-002   0.0000000000000000     
   5.5223050784335516E-002   6.1064387451518473E-002   0.0000000000000000     
   5.7859378112752310E-002   6.6484993777346055E-002   0.0000000000000000     
   6.0424328191485341E-002   7.2090490972480159E-002   0.0000000000000000     
   6.2917901020534614E-002   7.7880879036920772E-002   0.0000000000000000     
   6.5340096599900116E-002   8.3856157970667894E-002   0.0000000000000000     
   5.0444597403647165E-002   6.0272957264181755E-002   0.0000000000000000     
   5.2882752990913780E-002   6.5717131816824648E-002   0.0000000000000000     
   5.5259358338107495E-002   7.1346727782020600E-002   0.0000000000000000     
   5.7574413445228324E-002   7.7161745159769632E-002   0.0000000000000000     
   5.9827918312276275E-002   8.3162183950071758E-002   0.0000000000000000     
   4.5781117111540280E-002   5.9510065418300659E-002   0.0000000000000000     
   4.8080164410732276E-002   6.4995171517826078E-002   0.0000000000000000     
   5.0305728672823506E-002   7.0659518397830870E-002   0.0000000000000000     
   5.2457809897813935E-002   7.6503106058315049E-002   0.0000000000000000     
   5.4536408085703598E-002   8.2525934499278614E-002   0.0000000000000000     
   7.7026457358301298E-002   8.5417279721269251E-002   0.0000000000000000     
   7.9654599573893342E-002   9.1499238098811123E-002   0.0000000000000000     
   8.2213478702534384E-002   9.7748119768670941E-002   0.0000000000000000     
   8.4703094744224397E-002  0.10416392473084866        0.0000000000000000     
   8.7123447698963380E-002  0.11074665298534432        0.0000000000000000     
   7.1072942948575135E-002   8.4607856561067063E-002   0.0000000000000000     
   7.3568791603514747E-002   9.0726093901381477E-002   0.0000000000000000     
   7.5989960984582314E-002   9.7008459028987734E-002   0.0000000000000000     
   7.8336451091777851E-002  0.10345495194388582        0.0000000000000000     
   8.0608261925101343E-002  0.11006557264607575        0.0000000000000000     
   6.5340096599900116E-002   8.3856157970667894E-002   0.0000000000000000     
   6.7688881746263779E-002   9.0005238170605573E-002   0.0000000000000000     
   6.9962223276307536E-002   9.6317030033617801E-002   0.0000000000000000     
   7.2160121190031387E-002  0.10279153355970459        0.0000000000000000     
   7.4282575487435332E-002  0.10942874874886598        0.0000000000000000     
   5.9827918312276275E-002   8.3162183950071758E-002   0.0000000000000000     
   6.2014870002140468E-002   8.9336670906483437E-002   0.0000000000000000     
   6.4130265577710024E-002   9.5673832782561197E-002   0.0000000000000000     
   6.6174105038985007E-002  0.10217366957830504        0.0000000000000000     
   6.8146388385965317E-002  0.10883618129371495        0.0000000000000000     
   5.4536408085703598E-002   8.2525934499278614E-002   0.0000000000000000     
   5.6546756371144792E-002   8.8720392109015056E-002   0.0000000000000000     
   5.8494087888789806E-002   9.5078867275817894E-002   0.0000000000000000     
   6.0378402638638667E-002  0.10160135999968710        0.0000000000000000     
   6.2199700620691342E-002  0.10828787028062270        0.0000000000000000     
   8.7123447698963380E-002  0.11074665298534432        0.0000000000000000     
   8.9453273669102995E-002  0.11747579698803620        0.0000000000000000     
   9.1671308756994821E-002  0.12433084919480260        0.0000000000000000     
   9.3777552962638913E-002  0.13131180960564351        0.0000000000000000     
   9.5772006286035244E-002  0.13841867822055898        0.0000000000000000     
   8.0608261925101343E-002  0.11006557264607575        0.0000000000000000     
   8.2790228436952940E-002  0.11682139504395832        0.0000000000000000     
   8.4867185579732829E-002  0.12370349304593431        0.0000000000000000     
   8.6839133353440956E-002  0.13071186665200363        0.0000000000000000     
   8.8706071758077376E-002  0.13784651586216640        0.0000000000000000     
   7.4282575487435332E-002  0.10942874874886598        0.0000000000000000     
   7.6318048259850432E-002  0.11621048823645105        0.0000000000000000     
   7.8255001598607779E-002  0.12311856465780896        0.0000000000000000     
   8.0093435503707386E-002  0.13015297801293974        0.0000000000000000     
   8.1833349975149225E-002  0.13731372830184330        0.0000000000000000     
   6.8146388385965317E-002  0.10883618129371495        0.0000000000000000     
   7.0036733137795432E-002  0.11564307656551434        0.0000000000000000     
   7.1834756813619727E-002  0.12257606403042658        0.0000000000000000     
   7.3540459413438161E-002  0.12963514368845167        0.0000000000000000     
   7.5153840937250749E-002  0.13682031553958965        0.0000000000000000     
   6.2199700620691342E-002  0.10828787028062270        0.0000000000000000     
   6.3946283070787965E-002  0.11511916003114822        0.0000000000000000     
   6.5606451224768617E-002  0.12207599116378717        0.0000000000000000     
   6.7180205082633282E-002  0.12915836367853956        0.0000000000000000     
   6.8667544644381989E-002  0.13636627757540543        0.0000000000000000     
   9.5772006286035244E-002  0.13841867822055898        0.0000000000000000     
   9.7666922287580532E-002  0.14564520338905335        0.0000000000000000     
   9.9474554527671552E-002  0.15298513346063114        0.0000000000000000     
  0.10119490300630825       0.16043846843529228        0.0000000000000000     
  0.10282796772349068       0.16800520831303681        0.0000000000000000     
   8.8706071758077376E-002  0.13784651586216640        0.0000000000000000     
   9.0480262151246105E-002  0.14510073246601771        0.0000000000000000     
   9.2173965890551185E-002  0.15246780825315268        0.0000000000000000     
   9.3787182975992617E-002  0.15994774322357133        0.0000000000000000     
   9.5319913407570386E-002  0.16754053737727365        0.0000000000000000     
   8.1833349975149225E-002  0.13731372830184330        0.0000000000000000     
   8.3486649764438217E-002  0.14459397123497536        0.0000000000000000     
   8.5065239623079256E-002  0.15198686252279153        0.0000000000000000     
   8.6569119551072396E-002  0.15949240216529184        0.0000000000000000     
   8.7998289548417569E-002  0.16711059016247620        0.0000000000000000     
   7.5153840937250749E-002  0.13682031553958965        0.0000000000000000     
   7.6686085127156856E-002  0.14412491969592636        0.0000000000000000     
   7.8148375725255806E-002  0.15154229626954774        0.0000000000000000     
   7.9540712731547572E-002  0.15907244526045378        0.0000000000000000     
   8.0863096146032196E-002  0.16671536666864445        0.0000000000000000     
   6.8667544644381989E-002  0.13636627757540543        0.0000000000000000     
   7.0078568239402061E-002  0.14369357784887066        0.0000000000000000     
   7.1423374197080794E-002  0.15113410949342124        0.0000000000000000     
   7.2701962517418200E-002  0.15868787250905714        0.0000000000000000     
   7.3914333200414295E-002  0.16635486689577841        0.0000000000000000     
  0.10282796772349068       0.16800520831303681        0.0000000000000000     
  0.10437442453298650       0.17567294893507124        0.0000000000000000     
  0.10583494928856338       0.18342928614260204        0.0000000000000000     
  0.10720954199022134       0.19127421993562935        0.0000000000000000     
  0.10849820263796038       0.19920775031415300        0.0000000000000000     
   9.5319913407570386E-002  0.16754053737727365        0.0000000000000000     
   9.6769942916952983E-002  0.17523426941413761        0.0000000000000000     
   9.8135057235808842E-002  0.18301701803404116        0.0000000000000000     
   9.9415256364138005E-002  0.19088878323698427        0.0000000000000000     
  0.10061054030194040       0.19884956502296702        0.0000000000000000     
   8.7998289548417569E-002  0.16711059016247620        0.0000000000000000     
   8.9348655408823641E-002  0.17482968222982459        0.0000000000000000     
   9.0616122925999409E-002  0.18263793408281684        0.0000000000000000     
   9.1800692099944861E-002  0.19053534572145303        0.0000000000000000     
   9.2902362930660037E-002  0.19852191714573311        0.0000000000000000     
   8.0863096146032196E-002  0.16671536666864445        0.0000000000000000     
   8.2110562008598426E-002  0.17445918738213217        0.0000000000000000     
   8.3278146359135011E-002  0.18229203428892912        0.0000000000000000     
   8.4365849197641937E-002  0.19021390738903554        0.0000000000000000     
   8.5373670524119247E-002  0.19822480668245115        0.0000000000000000     
   7.3914333200414295E-002  0.16635486689577841        0.0000000000000000     
   7.5055662716277352E-002  0.17412278487106031        0.0000000000000000     
   7.6121127535215660E-002  0.18197931865237804        0.0000000000000000     
   7.7110727657229233E-002  0.18992446823973172        0.0000000000000000     
   7.8024463082318044E-002  0.19795823363312129        0.0000000000000000     
  0.10849820263796038       0.19920775031415300        0.0000000000000000     
  0.10970623780289725       0.20722662920278534        0.0000000000000000     
  0.11083895405614871       0.21532760852613869        0.0000000000000000     
  0.11189635139771474       0.22351068828421303        0.0000000000000000     
  0.11287842982759536       0.23177586847700837        0.0000000000000000     
  0.10061054030194040       0.19884956502296702        0.0000000000000000     
  0.10172692206358917       0.20689383611887535        0.0000000000000000     
  0.10277041466345742       0.21501606925159528        0.0000000000000000     
  0.10374101810154508       0.22321626442112674        0.0000000000000000     
  0.10463873237785221       0.23149442162746986        0.0000000000000000     
   9.2902362930660037E-002  0.19852191714573311        0.0000000000000000     
   9.3926739309018112E-002  0.20659081488464426        0.0000000000000000     
   9.4879425125892355E-002  0.21473520546717373        0.0000000000000000     
   9.5760420381282740E-002  0.22295508889332147        0.0000000000000000     
   9.6569725075189294E-002  0.23125046516308750        0.0000000000000000     
   8.5373670524119247E-002  0.19822480668245115        0.0000000000000000     
   8.6305689539184063E-002  0.20631756550009206        0.0000000000000000     
   8.7165985443453553E-002  0.21448501717287408        0.0000000000000000     
   8.7954558236927743E-002  0.22272716170079718        0.0000000000000000     
   8.8671407919606579E-002  0.23104399908386139        0.0000000000000000     
   7.8024463082318044E-002  0.19795823363312129        0.0000000000000000     
   7.8863772754086986E-002  0.20607408796521878        0.0000000000000000     
   7.9630095616140997E-002  0.21426550436869635        0.0000000000000000     
   8.0323431668480022E-002  0.22253248284355387        0.0000000000000000     
   8.0943780911104102E-002  0.23087502338979146        0.0000000000000000     
  0.11287842982759536       0.23177586847700837        0.0000000000000000     
  0.11381329558122627       0.24013945585479901        0.0000000000000000     
  0.11472905489404313       0.24861775716785928        0.0000000000000000     
  0.11562570776604600       0.25721077241618923        0.0000000000000000     
  0.11650325419723481       0.26591850159978880        0.0000000000000000     
  0.10463873237785221       0.23149442162746986        0.0000000000000000     
  0.10546838244450316       0.23987373117255717        0.0000000000000000     
  0.10623479325362231       0.24837738335832141        0.0000000000000000     
  0.10693796480520963       0.25700537818476255        0.0000000000000000     
  0.10757789709926516       0.26575771565188056        0.0000000000000000     
   9.6569725075189294E-002  0.23125046516308750        0.0000000000000000     
   9.7297924834127275E-002  0.23964750933090501        0.0000000000000000     
   9.7935605284611954E-002  0.24817239645120703        0.0000000000000000     
   9.8482766426643359E-002  0.25682512652399359        0.0000000000000000     
   9.8939408260221448E-002  0.26560569954926477        0.0000000000000000     
   8.8671407919606579E-002  0.23104399908386139        0.0000000000000000     
   8.9301922750098545E-002  0.23946079032984249        0.0000000000000000     
   8.9831490987012055E-002  0.24800279644651613        0.0000000000000000     
   9.0260112630347097E-002  0.25667001743388240        0.0000000000000000     
   9.0587787680103699E-002  0.26546245329194135        0.0000000000000000     
   8.0943780911104102E-002  0.23087502338979146        0.0000000000000000     
   8.1480376192417020E-002  0.23931357416936958        0.0000000000000000     
   8.1922450360822616E-002  0.24786858334424874        0.0000000000000000     
   8.2270003416320917E-002  0.25654005091442900        0.0000000000000000     
   8.2523035358911881E-002  0.26532797687991033        0.0000000000000000     
  0.11650325419723481       0.26591850159978880        0.0000000000000000     
  0.11730211284759606       0.27490564240553578        0.0000000000000000     
  0.11796270237711615       0.28433689252030775        0.0000000000000000     
  0.11848502278579508       0.29421225194410483        0.0000000000000000     
  0.11886907407363288       0.30453172067692691        0.0000000000000000     
  0.10757789709926516       0.26575771565188056        0.0000000000000000     
  0.10813568917668293       0.27476663784564120        0.0000000000000000     
  0.10859244007835692       0.28416438685201023        0.0000000000000000     
  0.10894814980428719       0.29395096267098753        0.0000000000000000     
  0.10920281835447371       0.30412636530257320        0.0000000000000000     
   9.8939408260221448E-002  0.26560569954926477        0.0000000000000000     
   9.9316621267014751E-002  0.27461249622984146        0.0000000000000000     
   9.9625495928691687E-002  0.28394389726854474        0.0000000000000000     
   9.9866032245252284E-002  0.29359990266537456        0.0000000000000000     
  0.10003823021669650       0.30358051242033102        0.0000000000000000     
   9.0587787680103699E-002  0.26546245329194135        0.0000000000000000     
   9.0844909118591569E-002  0.27444321755813639        0.0000000000000000     
   9.1061869928120445E-002  0.28367542376991134        0.0000000000000000     
   9.1238670108690356E-002  0.29315907192726592        0.0000000000000000     
   9.1375309660301288E-002  0.30289416203020048        0.0000000000000000     
   8.2523035358911881E-002  0.26532797687991033        0.0000000000000000     
   8.2720552731413363E-002  0.27425880183052620        0.0000000000000000     
   8.2901562076643218E-002  0.28335896635610996        0.0000000000000000     
   8.3066063394601444E-002  0.29262847045666179        0.0000000000000000     
   8.3214056685288029E-002  0.30206731413218157        0.0000000000000000     
   4.5781117111540280E-002   5.9510065418300659E-002   0.0000000000000000     
   4.8080164410732276E-002   6.4995171517826078E-002   0.0000000000000000     
   5.0305728672823506E-002   7.0659518397830870E-002   0.0000000000000000     
   5.2457809897813935E-002   7.6503106058315049E-002   0.0000000000000000     
   5.4536408085703598E-002   8.2525934499278614E-002   0.0000000000000000     
   4.1276513379891057E-002   5.8802859676652122E-002   0.0000000000000000     
   4.3446253636013600E-002   6.4329603151337691E-002   0.0000000000000000     
   4.5526626767267125E-002   7.0028357717595899E-002   0.0000000000000000     
   4.7517632773651612E-002   7.5899123375426772E-002   0.0000000000000000     
   4.9419271655167081E-002   8.1941900124830297E-002   0.0000000000000000     
   3.6974689680575712E-002   5.8178487802013075E-002   0.0000000000000000     
   3.8975661930563545E-002   6.3730916988346833E-002   0.0000000000000000     
   4.0885240193072145E-002   6.9452740639000685E-002   0.0000000000000000     
   4.2703424468101540E-002   7.5343958753974566E-002   0.0000000000000000     
   4.4430214755651697E-002   8.1404571333268561E-002   0.0000000000000000     
   3.2875646013594252E-002   5.7636949794383510E-002   0.0000000000000000     
   3.4668389294382110E-002   6.3199113028853518E-002   0.0000000000000000     
   3.6381568950238592E-002   6.8932667162045186E-002   0.0000000000000000     
   3.8015184981163713E-002   7.4837612193958486E-002   0.0000000000000000     
   3.9569237387157452E-002   8.0913948124593432E-002   0.0000000000000000     
   2.8979382378946671E-002   5.7178245653763428E-002   0.0000000000000000     
   3.0524435727469292E-002   6.2734191272857745E-002   0.0000000000000000     
   3.2015613038766447E-002   6.8468137286729430E-002   0.0000000000000000     
   3.3452914312838124E-002   7.4380083695378477E-002   0.0000000000000000     
   3.4836339549684348E-002   8.0470030498804912E-002   0.0000000000000000     
   5.4536408085703598E-002   8.2525934499278614E-002   0.0000000000000000     
   5.6546756371144792E-002   8.8720392109015056E-002   0.0000000000000000     
   5.8494087888789806E-002   9.5078867275817894E-002   0.0000000000000000     
   6.0378402638638667E-002  0.10160135999968710        0.0000000000000000     
   6.2199700620691342E-002  0.10828787028062270        0.0000000000000000     
   4.9419271655167081E-002   8.1941900124830297E-002   0.0000000000000000     
   5.1249494527325599E-002   8.8153599068602595E-002   0.0000000000000000     
   5.3026252505639256E-002   9.4531131309539884E-002   0.0000000000000000     
   5.4749545590108022E-002  0.10107449684764214        0.0000000000000000     
   5.6419373780731946E-002  0.10778369568290935        0.0000000000000000     
   4.4430214755651697E-002   8.1404571333268561E-002   0.0000000000000000     
   4.6088038144731731E-002   8.7633489075648219E-002   0.0000000000000000     
   4.7699321724350742E-002   9.4029622679879188E-002   0.0000000000000000     
   4.9264065494508735E-002  0.10059297214596147        0.0000000000000000     
   5.0782269455205691E-002  0.10732353747389510        0.0000000000000000     
   3.9569237387157452E-002   8.0913948124593432E-002   0.0000000000000000     
   4.1062387223363195E-002   8.7160062130151914E-002   0.0000000000000000     
   4.2513295544924293E-002   9.3574341386835805E-002   0.0000000000000000     
   4.3921962351840760E-002  0.10015678589464511        0.0000000000000000     
   4.5288387644112575E-002  0.10690739565357985        0.0000000000000000     
   3.4836339549684348E-002   8.0470030498804912E-002   0.0000000000000000     
   3.6172541763219976E-002   8.6733318232113665E-002   0.0000000000000000     
   3.7468173967359901E-002   9.3165287430409721E-002   0.0000000000000000     
   3.8723236162104116E-002   9.9765938093693052E-002   0.0000000000000000     
   3.9937728347452628E-002  0.10653527022196368        0.0000000000000000     
   6.2199700620691342E-002  0.10828787028062270        0.0000000000000000     
   6.3946283070787965E-002  0.11511916003114822        0.0000000000000000     
   6.5606451224768617E-002  0.12207599116378717        0.0000000000000000     
   6.7180205082633282E-002  0.12915836367853956        0.0000000000000000     
   6.8667544644381989E-002  0.13636627757540543        0.0000000000000000     
   5.6419373780731946E-002  0.10778369568290935        0.0000000000000000     
   5.8022241628006344E-002  0.11463824827714512        0.0000000000000000     
   5.9544653682426577E-002  0.12161767509215288        0.0000000000000000     
   6.0986609943992638E-002  0.12872197612793274        0.0000000000000000     
   6.2348110412704529E-002  0.13595115138448463        0.0000000000000000     
   5.0782269455205691E-002  0.10732353747389510        0.0000000000000000     
   5.2240152378628925E-002  0.11419985094729743        0.0000000000000000     
   5.3623933036965707E-002  0.12120044484978588        0.0000000000000000     
   5.4933611430216064E-002  0.12832531918136053        0.0000000000000000     
   5.6169187558379956E-002  0.13557447394202127        0.0000000000000000     
   4.5288387644112575E-002  0.10690739565357985        0.0000000000000000     
   4.6600015322655702E-002  0.11380396804160518        0.0000000000000000     
   4.7844289288386015E-002  0.12082430043668617        0.0000000000000000     
   4.9021209541303547E-002  0.12796839283882291        0.0000000000000000     
   5.0130776081408292E-002  0.13523624524801539        0.0000000000000000     
   3.9937728347452628E-002  0.10653527022196368        0.0000000000000000     
   4.1101830460086676E-002  0.11345059956006832        0.0000000000000000     
   4.2205722436687500E-002  0.12048924185285377        0.0000000000000000     
   4.3249404277255120E-002  0.12765119710031994        0.0000000000000000     
   4.4232875981789523E-002  0.13493646530246692        0.0000000000000000     
   6.8667544644381989E-002  0.13636627757540543        0.0000000000000000     
   7.0078568239402061E-002  0.14369357784887066        0.0000000000000000     
   7.1423374197080794E-002  0.15113410949342124        0.0000000000000000     
   7.2701962517418200E-002  0.15868787250905714        0.0000000000000000     
   7.3914333200414295E-002  0.16635486689577841        0.0000000000000000     
   6.2348110412704529E-002  0.13595115138448463        0.0000000000000000     
   6.3638032956222348E-002  0.14329969245426269        0.0000000000000000     
   6.4865255442206185E-002  0.15076209092972090        0.0000000000000000     
   6.6029777870656059E-002  0.15833834681085937        0.0000000000000000     
   6.7131600241571943E-002  0.16602846009767802        0.0000000000000000     
   5.6169187558379956E-002  0.13557447394202127        0.0000000000000000     
   5.7338413132666313E-002  0.14294301027255682        0.0000000000000000     
   5.8449039864283951E-002  0.15042602931375559        0.0000000000000000     
   5.9501067753232911E-002  0.15802353106561778        0.0000000000000000     
   6.0494496799513187E-002  0.16573551552814325        0.0000000000000000     
   5.0130776081408292E-002  0.13523624524801539        0.0000000000000000     
   5.1179708768733914E-002  0.14262353130375305        0.0000000000000000     
   5.2174727463314086E-002  0.15012592464552538        0.0000000000000000     
   5.3115832165148799E-002  0.15774342527333240        0.0000000000000000     
   5.4003022874238062E-002  0.16547603318717410        0.0000000000000000     
   4.4232875981789523E-002  0.13493646530246692        0.0000000000000000     
   4.5161919864425179E-002  0.14234125554785140        0.0000000000000000     
   4.6042318239296567E-002  0.14986177692503017        0.0000000000000000     
   4.6874071106403695E-002  0.15749802943400323        0.0000000000000000     
   4.7657178465746554E-002  0.16525001307477058        0.0000000000000000     
   7.3914333200414295E-002  0.16635486689577841        0.0000000000000000     
   7.5055662716277352E-002  0.17412278487106031        0.0000000000000000     
   7.6121127535215660E-002  0.18197931865237804        0.0000000000000000     
   7.7110727657229233E-002  0.18992446823973172        0.0000000000000000     
   7.8024463082318044E-002  0.19795823363312129        0.0000000000000000     
   6.7131600241571943E-002  0.16602846009767802        0.0000000000000000     
   6.8166437134473915E-002  0.17381957087986258        0.0000000000000000     
   6.9130003128882039E-002  0.18169881924709869        0.0000000000000000     
   7.0022298224796331E-002  0.18966620519938640        0.0000000000000000     
   7.0843322422216803E-002  0.19772172873672569        0.0000000000000000     
   6.0494496799513187E-002  0.16573551552814325        0.0000000000000000     
   6.1425364865801559E-002  0.17354864159179259        0.0000000000000000     
   6.2289709814774788E-002  0.18144956814702623        0.0000000000000000     
   6.3087531646432868E-002  0.18943829519384425        0.0000000000000000     
   6.3818830360775861E-002  0.19751482273224658        0.0000000000000000     
   5.4003022874238062E-002  0.16547603318717410        0.0000000000000000     
   5.4832445910260284E-002  0.17330999700685024        0.0000000000000000     
   5.5600247592893899E-002  0.18123156535216065        0.0000000000000000     
   5.6306427922138871E-002  0.18924073822310525        0.0000000000000000     
   5.6950986897995236E-002  0.19733751561968402        0.0000000000000000     
   4.7657178465746554E-002  0.16525001307477058        0.0000000000000000     
   4.8387680267850106E-002  0.17310363712503565        0.0000000000000000     
   4.9061616463239366E-002  0.18104481086250196        0.0000000000000000     
   4.9678987051914307E-002  0.18907353428716939        0.0000000000000000     
   5.0239792033874936E-002  0.19718980739903802        0.0000000000000000     
   7.8024463082318044E-002  0.19795823363312129        0.0000000000000000     
   7.8863772754086986E-002  0.20607408796521878        0.0000000000000000     
   7.9630095616140997E-002  0.21426550436869635        0.0000000000000000     
   8.0323431668480022E-002  0.22253248284355387        0.0000000000000000     
   8.0943780911104102E-002  0.23087502338979146        0.0000000000000000     
   7.0843322422216803E-002  0.19772172873672569        0.0000000000000000     
   7.1591904734786216E-002  0.20585962554719900        0.0000000000000000     
   7.2266874176147397E-002  0.21407413131888894        0.0000000000000000     
   7.2868230746300347E-002  0.22236524605179545        0.0000000000000000     
   7.3395974445245024E-002  0.23073296974591853        0.0000000000000000     
   6.3818830360775861E-002  0.19751482273224658        0.0000000000000000     
   6.4481001262340965E-002  0.20567342151320728        0.0000000000000000     
   6.5071439655665447E-002  0.21390836228770030        0.0000000000000000     
   6.5590145540749337E-002  0.22221964505572570        0.0000000000000000     
   6.6037118917592619E-002  0.23060726981728336        0.0000000000000000     
   5.6950986897995236E-002  0.19733751561968402        0.0000000000000000     
   5.7531062336751260E-002  0.20551547586324362        0.0000000000000000     
   5.8043792054695204E-002  0.21376819727513041        0.0000000000000000     
   5.8489176051827067E-002  0.22209567985534459        0.0000000000000000     
   5.8867214328146851E-002  0.23049792360388599        0.0000000000000000     
   5.0239792033874936E-002  0.19718980739903802        0.0000000000000000     
   5.0742087958017087E-002  0.20538578859730799        0.0000000000000000     
   5.1183931373236617E-002  0.21365363628117937        0.0000000000000000     
   5.1565322279533497E-002  0.22199335045065213        0.0000000000000000     
   5.1886260676907735E-002  0.23040493110572643        0.0000000000000000     
   8.0943780911104102E-002  0.23087502338979146        0.0000000000000000     
   8.1480376192417020E-002  0.23931357416936958        0.0000000000000000     
   8.1922450360822616E-002  0.24786858334424874        0.0000000000000000     
   8.2270003416320917E-002  0.25654005091442900        0.0000000000000000     
   8.2523035358911881E-002  0.26532797687991033        0.0000000000000000     
   7.3395974445245024E-002  0.23073296974591853        0.0000000000000000     
   7.3846782723592033E-002  0.23919086917272125        0.0000000000000000     
   7.4217333031951882E-002  0.24775251110366686        0.0000000000000000     
   7.4507625370324543E-002  0.25641789553875521        0.0000000000000000     
   7.4717659738710057E-002  0.26518702247798648        0.0000000000000000     
   6.6037118917592619E-002  0.23060726981728336        0.0000000000000000     
   6.6414639906132958E-002  0.23907768366313253        0.0000000000000000     
   6.6724988626308018E-002  0.24763733368403246        0.0000000000000000     
   6.6968165078117814E-002  0.25628621987998312        0.0000000000000000     
   6.7144169261562331E-002  0.26502434225098453        0.0000000000000000     
   5.8867214328146851E-002  0.23049792360388599        0.0000000000000000     
   5.9183947740039787E-002  0.23897401764060347        0.0000000000000000     
   5.9445417143891052E-002  0.24752305108534570        0.0000000000000000     
   5.9651622539700688E-002  0.25614502393811267        0.0000000000000000     
   5.9802563927468667E-002  0.26483993619890450        0.0000000000000000     
   5.1886260676907735E-002  0.23040493110572643        0.0000000000000000     
   5.2154706225312514E-002  0.23887987110513392        0.0000000000000000     
   5.2378618584700998E-002  0.24740966330760639        0.0000000000000000     
   5.2557997755073180E-002  0.25599430771314391        0.0000000000000000     
   5.2692843736429074E-002  0.26463380432174632        0.0000000000000000     
   8.2523035358911881E-002  0.26532797687991033        0.0000000000000000     
   8.2720552731413363E-002  0.27425880183052620        0.0000000000000000     
   8.2901562076643218E-002  0.28335896635610996        0.0000000000000000     
   8.3066063394601444E-002  0.29262847045666179        0.0000000000000000     
   8.3214056685288029E-002  0.30206731413218157        0.0000000000000000     
   7.4717659738710057E-002  0.26518702247798648        0.0000000000000000     
   7.4888387222539543E-002  0.27405357214240933        0.0000000000000000     
   7.5060758907244091E-002  0.28301122475307267        0.0000000000000000     
   7.5234774792823714E-002  0.29205998030997660        0.0000000000000000     
   7.5410434879278426E-002  0.30119983881312101        0.0000000000000000     
   6.7144169261562331E-002  0.26502434225098453        0.0000000000000000     
   6.7293247709029488E-002  0.27382185158918465        0.0000000000000000     
   6.7455646952907164E-002  0.28264889868673160        0.0000000000000000     
   6.7631366993195371E-002  0.29150548354362521        0.0000000000000000     
   6.7820407829894125E-002  0.30039160615986565        0.0000000000000000     
   5.9802563927468667E-002  0.26483993619890450        0.0000000000000000     
   5.9935134190883192E-002  0.27356364017085205        0.0000000000000000     
   6.0086226213632431E-002  0.28227198815708643        0.0000000000000000     
   6.0255839995716418E-002  0.29096498015760763        0.0000000000000000     
   6.0443975537135132E-002  0.29964261617241550        0.0000000000000000     
   5.2692843736429074E-002  0.26463380432174632        0.0000000000000000     
   5.2814046668100648E-002  0.27327893788741159        0.0000000000000000     
   5.2952496689419912E-002  0.28188049316413732        0.0000000000000000     
   5.3108193800386845E-002  0.29043847015192364        0.0000000000000000     
   5.3281138001001441E-002  0.29895286885077044        0.0000000000000000     
   2.8979382378946671E-002   5.7178245653763428E-002   0.0000000000000000     
   3.0524435727469292E-002   6.2734191272857745E-002   0.0000000000000000     
   3.2015613038766447E-002   6.8468137286729430E-002   0.0000000000000000     
   3.3452914312838124E-002   7.4380083695378477E-002   0.0000000000000000     
   3.4836339549684348E-002   8.0470030498804912E-002   0.0000000000000000     
   2.5189171306510376E-002   5.6772533466817515E-002   0.0000000000000000     
   2.6487092381681926E-002   6.2321345551003077E-002   0.0000000000000000     
   2.7757065170817944E-002   6.8054785660193629E-002   0.0000000000000000     
   2.8999089673918444E-002   7.3972853794389240E-002   0.0000000000000000     
   3.0213165890983412E-002   8.0075549953589814E-002   0.0000000000000000     
   2.1408285326162783E-002   5.6389971320210439E-002   0.0000000000000000     
   2.2499650408876849E-002   6.1945769693933103E-002   0.0000000000000000     
   2.3575618058555351E-002   6.7688246929578103E-002   0.0000000000000000     
   2.4636188275198298E-002   7.3617403027145367E-002   0.0000000000000000     
   2.5681361058805682E-002   7.9733237986635008E-002   0.0000000000000000     
   1.7636724437903876E-002   5.6030559213942226E-002   0.0000000000000000     
   1.8562109809054057E-002   6.1607463701647838E-002   0.0000000000000000     
   1.9471271701978661E-002   6.7368521094882741E-002   0.0000000000000000     
   2.0364210116677703E-002   7.3313731393646983E-002   0.0000000000000000     
   2.1240925053151165E-002   7.9443094597940467E-002   0.0000000000000000     
   1.3874488641733670E-002   5.5694297148012842E-002   0.0000000000000000     
   1.4674470582213550E-002   6.1306427574147289E-002   0.0000000000000000     
   1.5444026101087874E-002   6.7095608156107669E-002   0.0000000000000000     
   1.6183155198356645E-002   7.3061838893893963E-002   0.0000000000000000     
   1.6891857874019860E-002   7.9205119787506190E-002   0.0000000000000000     
   3.4836339549684348E-002   8.0470030498804912E-002   0.0000000000000000     
   3.6172541763219976E-002   8.6733318232113665E-002   0.0000000000000000     
   3.7468173967359901E-002   9.3165287430409721E-002   0.0000000000000000     
   3.8723236162104116E-002   9.9765938093693052E-002   0.0000000000000000     
   3.9937728347452628E-002  0.10653527022196368        0.0000000000000000     
   3.0213165890983412E-002   8.0075549953589814E-002   0.0000000000000000     
   3.1393651336537501E-002   8.6355019144536166E-002   0.0000000000000000     
   3.2534903525105345E-002   9.2803406373968930E-002   0.0000000000000000     
   3.3636922456686966E-002   9.9420711641888176E-002   0.0000000000000000     
   3.4699708131282335E-002  0.10620693494829385        0.0000000000000000     
   2.5681361058805682E-002   7.9733237986635008E-002   0.0000000000000000     
   2.6700865515551175E-002   8.6026926630421996E-002   0.0000000000000000     
   2.7684430751608431E-002   9.2489643780881453E-002   0.0000000000000000     
   2.8632056766977457E-002   9.9121389438013296E-002   0.0000000000000000     
   2.9543743561658259E-002  0.10592216360181762        0.0000000000000000     
   2.1240925053151165E-002   7.9443094597940467E-002   0.0000000000000000     
   2.2094184300261006E-002   8.5749040689771239E-002   0.0000000000000000     
   2.2916755646869152E-002   9.2223999651147248E-002   0.0000000000000000     
   2.3708639092975610E-002   9.8867971482068523E-002   0.0000000000000000     
   2.4469834638580375E-002  0.10568095618253504        0.0000000000000000     
   1.6891857874019860E-002   7.9205119787506190E-002   0.0000000000000000     
   1.7573607690666990E-002   8.5521361322583839E-002   0.0000000000000000     
   1.8231878210887505E-002   9.2006473984766357E-002   0.0000000000000000     
   1.8866669434681415E-002   9.8660457774053759E-002   0.0000000000000000     
   1.9477981362048702E-002  0.10548331269044606        0.0000000000000000     
   3.9937728347452628E-002  0.10653527022196368        0.0000000000000000     
   4.1101830460086676E-002  0.11345059956006832        0.0000000000000000     
   4.2205722436687500E-002  0.12048924185285377        0.0000000000000000     
   4.3249404277255120E-002  0.12765119710031994        0.0000000000000000     
   4.4232875981789523E-002  0.13493646530246692        0.0000000000000000     
   3.4699708131282335E-002  0.10620693494829385        0.0000000000000000     
   3.5716416176614342E-002  0.11313910144720921        0.0000000000000000     
   3.6680202220405835E-002  0.12019423629265746        0.0000000000000000     
   3.7591066262656812E-002  0.12737233948463866        0.0000000000000000     
   3.8449008303367282E-002  0.13467341102315275        0.0000000000000000     
   2.9543743561658259E-002  0.10592216360181762        0.0000000000000000     
   3.0414590857931197E-002  0.11286882964755002        0.0000000000000000     
   3.1239698378076681E-002  0.11993825095046617        0.0000000000000000     
   3.2019066122094687E-002  0.12713042751056608        0.0000000000000000     
   3.2752694089985233E-002  0.13444535932784973        0.0000000000000000     
   2.4469834638580375E-002  0.10568095618253504        0.0000000000000000     
   2.5196354504037257E-002  0.11263978416109083        0.0000000000000000     
   2.5884210909700046E-002  0.11972128582627986        0.0000000000000000     
   2.6533403855568752E-002  0.12692546117810224        0.0000000000000000     
   2.7143933341643368E-002  0.13425231021655792        0.0000000000000000     
   1.9477981362048702E-002  0.10548331269044606        0.0000000000000000     
   2.0061707114932503E-002  0.11245196498783154        0.0000000000000000     
   2.0613739815275933E-002  0.11954334092009858        0.0000000000000000     
   2.1134079463078992E-002  0.12675744048724713        0.0000000000000000     
   2.1622726058341684E-002  0.13409426368927727        0.0000000000000000     
   4.4232875981789523E-002  0.13493646530246692        0.0000000000000000     
   4.5161919864425179E-002  0.14234125554785140        0.0000000000000000     
   4.6042318239296567E-002  0.14986177692503017        0.0000000000000000     
   4.6874071106403695E-002  0.15749802943400323        0.0000000000000000     
   4.7657178465746554E-002  0.16525001307477058        0.0000000000000000     
   3.8449008303367282E-002  0.13467341102315275        0.0000000000000000     
   3.9258983596005999E-002  0.14209414182286617        0.0000000000000000     
   4.0025947394041708E-002  0.14963122279844540        0.0000000000000000     
   4.0749899697474397E-002  0.15728465394989044        0.0000000000000000     
   4.1430840506304072E-002  0.16505443527720123        0.0000000000000000     
   3.2752694089985233E-002  0.13444535932784973        0.0000000000000000     
   3.3444837139742278E-002  0.14188014894681170        0.0000000000000000     
   3.4099750129359757E-002  0.14943189891194647        0.0000000000000000     
   3.4717433058837684E-002  0.15710060922325414        0.0000000000000000     
   3.5297885928176065E-002  0.16488627988073457        0.0000000000000000     
   2.7143933341643368E-002  0.13425231021655792        0.0000000000000000     
   2.7719480495633997E-002  0.14169927691968795        0.0000000000000000     
   2.8263726445250725E-002  0.14926380526553343        0.0000000000000000     
   2.8776671190493566E-002  0.15694589525409436        0.0000000000000000     
   2.9258314731362502E-002  0.16474554688537071        0.0000000000000000     
   2.1622726058341684E-002  0.13409426368927727        0.0000000000000000     
   2.2082913663681172E-002  0.14155152574149493        0.0000000000000000     
   2.2517876341714625E-002  0.14912694185920622        0.0000000000000000     
   2.2927614092442036E-002  0.15682051204241110        0.0000000000000000     
   2.3312126915863408E-002  0.16463223629110957        0.0000000000000000     
   4.7657178465746554E-002  0.16525001307477058        0.0000000000000000     
   4.8387680267850106E-002  0.17310363712503565        0.0000000000000000     
   4.9061616463239366E-002  0.18104481086250196        0.0000000000000000     
   4.9678987051914307E-002  0.18907353428716939        0.0000000000000000     
   5.0239792033874936E-002  0.19718980739903802        0.0000000000000000     
   4.1430840506304072E-002  0.16505443527720123        0.0000000000000000     
   4.2064709894144729E-002  0.17292612673856678        0.0000000000000000     
   4.2647447934610332E-002  0.18088528829217621        0.0000000000000000     
   4.3179054627700900E-002  0.18893191993802930        0.0000000000000000     
   4.3659529973416419E-002  0.19706602167612625        0.0000000000000000     
   3.5297885928176065E-002  0.16488627988073457        0.0000000000000000     
   3.5837176744717827E-002  0.17277403063966176        0.0000000000000000     
   3.6331373515805933E-002  0.18074898125530947        0.0000000000000000     
   3.6780476241440374E-002  0.18881113172767769        0.0000000000000000     
   3.7184484921621158E-002  0.19696048205676642        0.0000000000000000     
   2.9258314731362502E-002  0.16474554688537071        0.0000000000000000     
   2.9705080819569411E-002  0.17264734882832056        0.0000000000000000     
   3.0113393206826156E-002  0.18063588975190178        0.0000000000000000     
   3.0483251893132734E-002  0.18871116965611445        0.0000000000000000     
   3.0814656878489149E-002  0.19687318854095862        0.0000000000000000     
   2.3312126915863408E-002  0.16463223629110957        0.0000000000000000     
   2.3668422118699489E-002  0.17254608130454313        0.0000000000000000     
   2.3993507007671014E-002  0.18054601378195315        0.0000000000000000     
   2.4287381582777982E-002  0.18863203372333970        0.0000000000000000     
   2.4550045844020402E-002  0.19680414112870270        0.0000000000000000     
   5.0239792033874936E-002  0.19718980739903802        0.0000000000000000     
   5.0742087958017087E-002  0.20538578859730799        0.0000000000000000     
   5.1183931373236617E-002  0.21365363628117937        0.0000000000000000     
   5.1565322279533497E-002  0.22199335045065213        0.0000000000000000     
   5.1886260676907735E-002  0.23040493110572643        0.0000000000000000     
   4.3659529973416419E-002  0.19706602167612625        0.0000000000000000     
   4.4088244701862796E-002  0.20527802310082080        0.0000000000000000     
   4.4464569543145954E-002  0.21355835380646679        0.0000000000000000     
   4.4788504497265888E-002  0.22190701379306427        0.0000000000000000     
   4.5060049564222597E-002  0.23032400306061318        0.0000000000000000     
   3.7184484921621158E-002  0.19696048205676642        0.0000000000000000     
   3.7543699144012718E-002  0.20518584275920249        0.0000000000000000     
   3.7858418496279501E-002  0.21347602435161250        0.0000000000000000     
   3.8128642978421522E-002  0.22183102683399664        0.0000000000000000     
   3.8354372590438772E-002  0.23025085020635477        0.0000000000000000     
   3.0814656878489149E-002  0.19687318854095862        0.0000000000000000     
   3.1108451284466838E-002  0.20510924757245302        0.0000000000000000     
   3.1365478232637259E-002  0.21340664791661654        0.0000000000000000     
   3.1585737723000398E-002  0.22176538957344932        0.0000000000000000     
   3.1769229755556253E-002  0.23018547254295119        0.0000000000000000     
   2.4550045844020402E-002  0.19680414112870270        0.0000000000000000     
   2.4782501123225175E-002  0.20504823754057239        0.0000000000000000     
   2.4985748752219209E-002  0.21335022450147892        0.0000000000000000     
   2.5159788731002507E-002  0.22171010201142222        0.0000000000000000     
   2.5304621059575063E-002  0.23012787007040236        0.0000000000000000     
   5.1886260676907735E-002  0.23040493110572643        0.0000000000000000     
   5.2154706225312514E-002  0.23887987110513392        0.0000000000000000     
   5.2378618584700998E-002  0.24740966330760639        0.0000000000000000     
   5.2557997755073180E-002  0.25599430771314391        0.0000000000000000     
   5.2692843736429074E-002  0.26463380432174632        0.0000000000000000     
   4.5060049564222597E-002  0.23032400306061318        0.0000000000000000     
   4.5287807711774361E-002  0.23879382120316528        0.0000000000000000     
   4.5480381907679460E-002  0.24730096781477212        0.0000000000000000     
   4.5637772151937893E-002  0.25584544289543371        0.0000000000000000     
   4.5759978444549654E-002  0.26442724644515014        0.0000000000000000     
   3.8354372590438772E-002  0.23025085020635477        0.0000000000000000     
   3.8544144549248531E-002  0.23871444508113870        0.0000000000000000     
   3.8706496071768071E-002  0.24720076207080019        0.0000000000000000     
   3.8841427157997405E-002  0.25570980117533920        0.0000000000000000     
   3.8948937807936519E-002  0.26424156239475571        0.0000000000000000     
   3.1769229755556253E-002  0.23018547254295119        0.0000000000000000     
   3.1923716737735017E-002  0.23864174273905428        0.0000000000000000     
   3.2056961076966838E-002  0.24710904607569065        0.0000000000000000     
   3.2168962773251722E-002  0.25558738255286029        0.0000000000000000     
   3.2259721826589663E-002  0.26407675217056326        0.0000000000000000     
   2.5304621059575063E-002  0.23012787007040236        0.0000000000000000     
   2.5426524277233829E-002  0.23857571417691192        0.0000000000000000     
   2.5531776923275757E-002  0.24702581982944347        0.0000000000000000     
   2.5620378997700841E-002  0.25547818702799707        0.0000000000000000     
   2.5692330500509088E-002  0.26393281577257266        0.0000000000000000     
   5.2692843736429074E-002  0.26463380432174632        0.0000000000000000     
   5.2814046668100648E-002  0.27327893788741159        0.0000000000000000     
   5.2952496689419912E-002  0.28188049316413732        0.0000000000000000     
   5.3108193800386845E-002  0.29043847015192364        0.0000000000000000     
   5.3281138001001441E-002  0.29895286885077044        0.0000000000000000     
   4.5759978444549654E-002  0.26442724644515014        0.0000000000000000     
   4.5871228995724857E-002  0.27299645820569851        0.0000000000000000     
   4.5995752015673574E-002  0.28150315791885588        0.0000000000000000     
   4.6133547504395828E-002  0.28994734558462254        0.0000000000000000     
   4.6284615461891596E-002  0.29832902120299826        0.0000000000000000     
   3.8948937807936519E-002  0.26424156239475571        0.0000000000000000     
   3.9047925028798759E-002  0.27274491459254790        0.0000000000000000     
   3.9157285827797442E-002  0.28116872663221376        0.0000000000000000     
   3.9277020204932560E-002  0.28951299851375328        0.0000000000000000     
   3.9407128160204134E-002  0.29777773023716653        0.0000000000000000     
   3.2259721826589663E-002  0.26407675217056326        0.0000000000000000     
   3.2344134767322362E-002  0.27252430704795993        0.0000000000000000     
   3.2437098125791486E-002  0.28087719930421085        0.0000000000000000     
   3.2538611901997049E-002  0.28913542893931593        0.0000000000000000     
   3.2648676095939043E-002  0.29729899595327530        0.0000000000000000     
   2.5692330500509088E-002  0.26393281577257266        0.0000000000000000     
   2.5759858211295658E-002  0.27233463557193455        0.0000000000000000     
   2.5835188909655724E-002  0.28062857593484714        0.0000000000000000     
   2.5918322595589287E-002  0.28881463686131048        0.0000000000000000     
   2.6009259269096342E-002  0.29689281835132453        0.0000000000000000     
   1.3874488641733670E-002   5.5694297148012842E-002   0.0000000000000000     
   1.4674470582213550E-002   6.1306427574147289E-002   0.0000000000000000     
   1.5444026101087874E-002   6.7095608156107669E-002   0.0000000000000000     
   1.6183155198356645E-002   7.3061838893893963E-002   0.0000000000000000     
   1.6891857874019860E-002   7.9205119787506190E-002   0.0000000000000000     
   1.0200234682461758E-002   5.5433685475451196E-002   0.0000000000000000     
   1.0869197433759654E-002   6.1075936447996484E-002   0.0000000000000000     
   1.1494329205232483E-002   6.6888538035234563E-002   0.0000000000000000     
   1.2075629996880246E-002   7.2871490237165465E-002   0.0000000000000000     
   1.2613099808702935E-002   7.9024793053789136E-002   0.0000000000000000     
   6.6926193048977411E-003   5.5301224549286140E-002   0.0000000000000000     
   7.1787550690966965E-003   6.0949265459760454E-002   0.0000000000000000     
   7.6226289637619871E-003   6.6766340654245235E-002   0.0000000000000000     
   8.0242409888936096E-003   7.2752450132740509E-002   0.0000000000000000     
   8.3835911444915708E-003   7.8907593895246236E-002   0.0000000000000000     
   3.3516425090416189E-003   5.5296914369517683E-002   0.0000000000000000     
   3.6031434882246747E-003   6.0926414609439213E-002   0.0000000000000000     
   3.8289253766763845E-003   6.6729016013139700E-002   0.0000000000000000     
   4.0289881743967478E-003   7.2704718580619096E-002   0.0000000000000000     
   4.2033318813857632E-003   7.8853522311877464E-002   0.0000000000000000     
   1.7730429489339148E-004   5.5420754936145830E-002   0.0000000000000000     
   1.4236269114358859E-004   6.1007383897032759E-002   0.0000000000000000     
   1.1321844397567556E-004   6.6776564111917902E-002   0.0000000000000000     
   8.9871553389651290E-005   7.2728295580801280E-002   0.0000000000000000     
   7.2322019385518462E-005   7.8862578303682845E-002   0.0000000000000000     
   1.6891857874019860E-002   7.9205119787506190E-002   0.0000000000000000     
   1.7573607690666990E-002   8.5521361322583839E-002   0.0000000000000000     
   1.8231878210887505E-002   9.2006473984766357E-002   0.0000000000000000     
   1.8866669434681415E-002   9.8660457774053759E-002   0.0000000000000000     
   1.9477981362048702E-002  0.10548331269044606        0.0000000000000000     
   1.2613099808702935E-002   7.9024793053789136E-002   0.0000000000000000     
   1.3120798304248815E-002   8.5347822327433376E-002   0.0000000000000000     
   1.3612785147066139E-002   9.1839953900425889E-002   0.0000000000000000     
   1.4089060337154903E-002   9.8501187772766702E-002   0.0000000000000000     
   1.4549623874515118E-002  0.10533152394445583        0.0000000000000000     
   8.3835911444915708E-003   7.8907593895246236E-002   0.0000000000000000     
   8.7174187584861604E-003   8.5232357502893402E-002   0.0000000000000000     
   9.0424631588076811E-003   9.1727326516813007E-002   0.0000000000000000     
   9.3587243454561295E-003   9.8392500937005037E-002   0.0000000000000000     
   9.6662023184315091E-003  0.10522788076346951        0.0000000000000000     
   4.2033318813857632E-003   7.8853522311877464E-002   0.0000000000000000     
   4.3634690533790287E-003   8.5174966848963932E-002   0.0000000000000000     
   4.5209122461121369E-003   9.1668591833927698E-002   0.0000000000000000     
   4.6756614595850864E-003   9.8334397266768764E-002   0.0000000000000000     
   4.8277166937978786E-003  0.10517238314748710        0.0000000000000000     
   7.2322019385518462E-005   7.8862578303682845E-002   0.0000000000000000     
   5.8949188927420347E-005   8.5175650365644964E-002   0.0000000000000000     
   4.8132408979505528E-005   9.1663749851769977E-002   0.0000000000000000     
   3.9871679541773490E-005   9.8326876762057841E-002   0.0000000000000000     
   3.4167000614222526E-005  0.10516503109650860        0.0000000000000000     
   1.9477981362048702E-002  0.10548331269044606        0.0000000000000000     
   2.0061707114932503E-002  0.11245196498783154        0.0000000000000000     
   2.0613739815275933E-002  0.11954334092009858        0.0000000000000000     
   2.1134079463078992E-002  0.12675744048724713        0.0000000000000000     
   2.1622726058341684E-002  0.13409426368927727        0.0000000000000000     
   1.4549623874515118E-002  0.10533152394445583        0.0000000000000000     
   1.4990088044919136E-002  0.11230779189003656        0.0000000000000000     
   1.5406065134139316E-002  0.11940682108405226        0.0000000000000000     
   1.5797555142175658E-002  0.12662861152650290        0.0000000000000000     
   1.6164558069028168E-002  0.13397316321738847        0.0000000000000000     
   9.6662023184315091E-003  0.10522788076346951        0.0000000000000000     
   9.9609366482993501E-003  0.11220968462997019        0.0000000000000000     
   1.0238966905625178E-002  0.11931413117027090        0.0000000000000000     
   1.0500293090408992E-002  0.12654122038437160        0.0000000000000000     
   1.0744915202650796E-002  0.13389095227227232        0.0000000000000000     
   4.8277166937978786E-003  0.10517238314748710        0.0000000000000000     
   4.9742529250731450E-003  0.11215764320763247        0.0000000000000000     
   5.1124451297335158E-003  0.11926527117875452        0.0000000000000000     
   5.2422933077789927E-003  0.12649526706085329        0.0000000000000000     
   5.3637974592095740E-003  0.13384763085392881        0.0000000000000000     
   3.4167000614222526E-005  0.10516503109650860        0.0000000000000000     
   3.0036875240520896E-005  0.11215166762302332        0.0000000000000000     
   2.6499806464333172E-005  0.11926024110950309        0.0000000000000000     
   2.3555794285660058E-005  0.12649075155594794        0.0000000000000000     
   2.1204838704500743E-005  0.13384319896235786        0.0000000000000000     
   2.1622726058341684E-002  0.13409426368927727        0.0000000000000000     
   2.2082913663681172E-002  0.14155152574149493        0.0000000000000000     
   2.2517876341714625E-002  0.14912694185920622        0.0000000000000000     
   2.2927614092442036E-002  0.15682051204241110        0.0000000000000000     
   2.3312126915863408E-002  0.16463223629110957        0.0000000000000000     
   1.6164558069028168E-002  0.13397316321738847        0.0000000000000000     
   1.6509797587871352E-002  0.14143840253575271        0.0000000000000000     
   1.6835997371879730E-002  0.14902225586063936        0.0000000000000000     
   1.7143157421053302E-002  0.15672472319204830        0.0000000000000000     
   1.7431277735392072E-002  0.16454580452997963        0.0000000000000000     
   1.0744915202650796E-002  0.13389095227227232        0.0000000000000000     
   1.0974793212192080E-002  0.14136141442598144        0.0000000000000000     
   1.1191887088874341E-002  0.14895069443750730        0.0000000000000000     
   1.1396196832697580E-002  0.15665879230684993        0.0000000000000000     
   1.1587722443661793E-002  0.16448570803400930        0.0000000000000000     
   5.3637974592095740E-003  0.13384763085392881        0.0000000000000000     
   5.4779005366433616E-003  0.14132056141218102        0.0000000000000000     
   5.5855454926984549E-003  0.14891225758981014        0.0000000000000000     
   5.6867323273748572E-003  0.15662271938681596        0.0000000000000000     
   5.7814610406725668E-003  0.16445194680319863        0.0000000000000000     
   2.1204838704500743E-005  0.13384319896235786        0.0000000000000000     
   1.9119561225192355E-005  0.14131584349435156        0.0000000000000000     
   1.6972583352072783E-005  0.14890694531754772        0.0000000000000000     
   1.4763905085140374E-005  0.15661650443194644        0.0000000000000000     
   1.2493526424395968E-005  0.16444452083754763        0.0000000000000000     
   2.3312126915863408E-002  0.16463223629110957        0.0000000000000000     
   2.3668422118699489E-002  0.17254608130454313        0.0000000000000000     
   2.3993507007671014E-002  0.18054601378195315        0.0000000000000000     
   2.4287381582777982E-002  0.18863203372333970        0.0000000000000000     
   2.4550045844020402E-002  0.19680414112870270        0.0000000000000000     
   1.7431277735392072E-002  0.16454580452997963        0.0000000000000000     
   1.7698089267573124E-002  0.17246896641186596        0.0000000000000000     
   1.7941322970273545E-002  0.18047767537514012        0.0000000000000000     
   1.8160978843493332E-002  0.18857193141980191        0.0000000000000000     
   1.8357056887232489E-002  0.19675173454585149        0.0000000000000000     
   1.1587722443661793E-002  0.16448570803400930        0.0000000000000000     
   1.1764970891655391E-002  0.17241474249382566        0.0000000000000000     
   1.1926449146566792E-002  0.18042919656113920        0.0000000000000000     
   1.2072157208395988E-002  0.18852907023594981        0.0000000000000000     
   1.2202095077142981E-002  0.19671436351825769        0.0000000000000000     
   5.7814610406725668E-003  0.16445194680319863        0.0000000000000000     
   5.8690669909462955E-003  0.17238340955042214        0.0000000000000000     
   5.9488855365507571E-003  0.18040057733995035        0.0000000000000000     
   6.0209166774859530E-003  0.18850345017178344        0.0000000000000000     
   6.0851604137518826E-003  0.19669202804592131        0.0000000000000000     
   1.2493526424395968E-005  0.16444452083754763        0.0000000000000000     
   1.0377565445832734E-005  0.17237496758165538        0.0000000000000000     
   8.6321402254431901E-006  0.18039181771157373        0.0000000000000000     
   7.2572507632280418E-006  0.18849507122730272        0.0000000000000000     
   6.2528970591877765E-006  0.19668472812884233        0.0000000000000000     
   2.4550045844020402E-002  0.19680414112870270        0.0000000000000000     
   2.4782501123225175E-002  0.20504823754057239        0.0000000000000000     
   2.4985748752219209E-002  0.21335022450147892        0.0000000000000000     
   2.5159788731002507E-002  0.22171010201142222        0.0000000000000000     
   2.5304621059575063E-002  0.23012787007040236        0.0000000000000000     
   1.8357056887232489E-002  0.19675173454585149        0.0000000000000000     
   1.8530461701990252E-002  0.20500174236021518        0.0000000000000000     
   1.8682097888265855E-002  0.21330661246981927        0.0000000000000000     
   1.8811965446059290E-002  0.22166634487466386        0.0000000000000000     
   1.8920064375370568E-002  0.23008093957474890        0.0000000000000000     
   1.2202095077142981E-002  0.19671436351825769        0.0000000000000000     
   1.2316946062464602E-002  0.20496869172803583        0.0000000000000000     
   1.2417393474017671E-002  0.21327567018525750        0.0000000000000000     
   1.2503437311802194E-002  0.22163529888992259        0.0000000000000000     
   1.2575077575818164E-002  0.23004757784203117        0.0000000000000000     
   6.0851604137518826E-003  0.19669202804592131        0.0000000000000000     
   6.1419542046482261E-003  0.20494908564403450        0.0000000000000000     
   6.1916355094746708E-003  0.21325739764779353        0.0000000000000000     
   6.2342043282312149E-003  0.22161696405719847        0.0000000000000000     
   6.2696606609178585E-003  0.23002778487224923        0.0000000000000000     
   6.2528970591877765E-006  0.19668472812884233        0.0000000000000000     
   5.4861285411263866E-006  0.20494292410821105        0.0000000000000000     
   4.8239946368465632E-006  0.21325179485742740        0.0000000000000000     
   4.2664953463544862E-006  0.22161134037649141        0.0000000000000000     
   3.8136306696446264E-006  0.23002156066540308        0.0000000000000000     
   2.5304621059575063E-002  0.23012787007040236        0.0000000000000000     
   2.5426524277233829E-002  0.23857571417691192        0.0000000000000000     
   2.5531776923275757E-002  0.24702581982944347        0.0000000000000000     
   2.5620378997700841E-002  0.25547818702799707        0.0000000000000000     
   2.5692330500509088E-002  0.26393281577257266        0.0000000000000000     
   1.8920064375370568E-002  0.23008093957474890        0.0000000000000000     
   1.9010901073247086E-002  0.23852090209175897        0.0000000000000000     
   1.9088981936736252E-002  0.24695673794737877        0.0000000000000000     
   1.9154306965838062E-002  0.25538844714160819        0.0000000000000000     
   1.9206876160552520E-002  0.26381602967444739        0.0000000000000000     
   1.2575077575818164E-002  0.23004757784203117        0.0000000000000000     
   1.2635181031276909E-002  0.23848184918064264        0.0000000000000000     
   1.2686614443389744E-002  0.24690745504481648        0.0000000000000000     
   1.2729377812156672E-002  0.25532439543455260        0.0000000000000000     
   1.2763471137577687E-002  0.26373267034985109        0.0000000000000000     
   6.2696606609178585E-003  0.23002778487224923        0.0000000000000000     
   6.2993641513232994E-003  0.23845855544356290        0.0000000000000000     
   6.3246744432362374E-003  0.24687797112175655        0.0000000000000000     
   6.3455915366566699E-003  0.25528603190683014        0.0000000000000000     
   6.3621154315846003E-003  0.26368273779878371        0.0000000000000000     
   3.8136306696446264E-006  0.23002156066540308        0.0000000000000000     
   3.4504333862568973E-006  0.23845102088051981        0.0000000000000000     
   3.1619362757280686E-006  0.24686828617819911        0.0000000000000000     
   2.9481393380596311E-006  0.25527335655844091        0.0000000000000000     
   2.8090425732494977E-006  0.26366623202124528        0.0000000000000000     
   2.5692330500509088E-002  0.26393281577257266        0.0000000000000000     
   2.5759858211295658E-002  0.27233463557193455        0.0000000000000000     
   2.5835188909655724E-002  0.28062857593484714        0.0000000000000000     
   2.5918322595589287E-002  0.28881463686131048        0.0000000000000000     
   2.6009259269096342E-002  0.29689281835132453        0.0000000000000000     
   1.9206876160552520E-002  0.26381602967444739        0.0000000000000000     
   1.9256646305722439E-002  0.27218224268780794        0.0000000000000000     
   1.9313574186190650E-002  0.28042984332360160        0.0000000000000000     
   1.9377659801957142E-002  0.28855883158182827        0.0000000000000000     
   1.9448903153021925E-002  0.29656920746248794        0.0000000000000000     
   1.2763471137577687E-002  0.26373267034985109        0.0000000000000000     
   1.2796049995606488E-002  0.27207347091891643        0.0000000000000000     
   1.2834269962196755E-002  0.28028798826995277        0.0000000000000000     
   1.2878131037348492E-002  0.28837622240296035        0.0000000000000000     
   1.2927633221061698E-002  0.29633817331793916        0.0000000000000000     
   6.3621154315846003E-003  0.26368273779878371        0.0000000000000000     
   6.3780692809477998E-003  0.27200832026525978        0.0000000000000000     
   6.3972762376740457E-003  0.28020301077390097        0.0000000000000000     
   6.4197363017633353E-003  0.28826680932470705        0.0000000000000000     
   6.4454494732156722E-003  0.29619971591767819        0.0000000000000000     
   2.8090425732494977E-006  0.26366623202124528        0.0000000000000000     
   2.7041617463763497E-006  0.27198679072683823        0.0000000000000000     
   2.5930126225167001E-006  0.28017491083544593        0.0000000000000000     
   2.4755952016719584E-006  0.28823059234706816        0.0000000000000000     
   2.3519094838383298E-006  0.29615383526170508        0.0000000000000000     
   1.7730429489339148E-004   5.5420754936145830E-002   0.0000000000000000     
   1.4236269114358859E-004   6.1007383897032759E-002   0.0000000000000000     
   1.1321844397567556E-004   6.6776564111917902E-002   0.0000000000000000     
   8.9871553389651290E-005   7.2728295580801280E-002   0.0000000000000000     
   7.2322019385518462E-005   7.8862578303682845E-002   0.0000000000000000     
  -3.0228654393828227E-003   5.5587278341234315E-002   0.0000000000000000     
  -3.3385463704876375E-003   6.1132694477497564E-002   0.0000000000000000     
  -3.6179607407765208E-003   6.6869616447106373E-002   0.0000000000000000     
  -3.8611085502494730E-003   7.2798044250060742E-002   0.0000000000000000     
  -4.0679897989064932E-003   7.8917977886360652E-002   0.0000000000000000     
  -6.4413367956229059E-003   5.5711016676846879E-002   0.0000000000000000     
  -6.9745427450100808E-003   6.1242867505790097E-002   0.0000000000000000     
  -7.4580810840165872E-003   6.6968804515231545E-002   0.0000000000000000     
  -7.8919518126424251E-003   7.2888827705171216E-002   0.0000000000000000     
  -8.2761549308875935E-003   7.9002937075609153E-002   0.0000000000000000     
  -1.0078109773826859E-002   5.5791969942983514E-002   0.0000000000000000     
  -1.0765626432423743E-002   6.1337902981910358E-002   0.0000000000000000     
  -1.1407142585744523E-002   6.7074128316293433E-002   0.0000000000000000     
  -1.2002658233789204E-002   7.3000645946132758E-002   0.0000000000000000     
  -1.2552173376557785E-002   7.9117455871428335E-002   0.0000000000000000     
  -1.3933184373994677E-002   5.5830138139644242E-002   0.0000000000000000     
  -1.4711797432728617E-002   6.1417800905858341E-002   0.0000000000000000     
  -1.5465145245960332E-002   6.7185587850292036E-002   0.0000000000000000     
  -1.6193227813689811E-002   7.3133498972945341E-002   0.0000000000000000     
  -1.6896045135917064E-002   7.9261534273818213E-002   0.0000000000000000     
   7.2322019385518462E-005   7.8862578303682845E-002   0.0000000000000000     
   5.8949188927420347E-005   8.5175650365644964E-002   0.0000000000000000     
   4.8132408979505528E-005   9.1663749851769977E-002   0.0000000000000000     
   3.9871679541773490E-005   9.8326876762057841E-002   0.0000000000000000     
   3.4167000614222526E-005  0.10516503109650860        0.0000000000000000     
  -4.0679897989064932E-003   7.8917977886360652E-002   0.0000000000000000     
  -4.2530133257452475E-003   8.5222316830079303E-002   0.0000000000000000     
  -4.4305879697634021E-003   9.1703960555289829E-002   0.0000000000000000     
  -4.6007137309609560E-003   9.8362909061992257E-002   0.0000000000000000     
  -4.7633906093379110E-003  0.10519916235018655        0.0000000000000000     
  -8.2761549308875935E-003   7.9002937075609153E-002   0.0000000000000000     
  -8.6292909815155559E-003   8.5302875019409710E-002   0.0000000000000000     
  -8.9699605072897735E-003   9.1780383929437256E-002   0.0000000000000000     
  -9.2981635082102498E-003   9.8435463805691875E-002   0.0000000000000000     
  -9.6138999842769815E-003  0.10526811464817346        0.0000000000000000     
  -1.2552173376557785E-002   7.9117455871428335E-002   0.0000000000000000     
  -1.3069883778383504E-002   8.5417324933636185E-002   0.0000000000000000     
  -1.3569985203599614E-002   9.1893019974212301E-002   0.0000000000000000     
  -1.4052477652206104E-002   9.8544540993156710E-002   0.0000000000000000     
  -1.4517361124202982E-002  0.10537188799046936        0.0000000000000000     
  -1.6896045135917064E-002   7.9261534273818213E-002   0.0000000000000000     
  -1.7574791716349097E-002   8.5565666572758742E-002   0.0000000000000000     
  -1.8230662058692913E-002   9.2041868689614920E-002   0.0000000000000000     
  -1.8863656162948526E-002   9.8690140624386746E-002   0.0000000000000000     
  -1.9473774029115917E-002  0.10551048237707424        0.0000000000000000     
   3.4167000614222526E-005  0.10516503109650860        0.0000000000000000     
   3.0036875240520896E-005  0.11215166762302332        0.0000000000000000     
   2.6499806464333172E-005  0.11926024110950309        0.0000000000000000     
   2.3555794285660058E-005  0.12649075155594794        0.0000000000000000     
   2.1204838704500743E-005  0.13384319896235786        0.0000000000000000     
  -4.7633906093379110E-003  0.10519916235018655        0.0000000000000000     
  -4.9176196531908615E-003  0.11218485278861504        0.0000000000000000     
  -5.0624019108163982E-003  0.11929211274602004        0.0000000000000000     
  -5.1977373822145274E-003  0.12652094222240157        0.0000000000000000     
  -5.3236260673852438E-003  0.13387134121775959        0.0000000000000000     
  -9.6138999842769815E-003  0.10526811464817346        0.0000000000000000     
  -9.9146248122133438E-003  0.11225029361687983        0.0000000000000000     
  -1.0197792868742714E-002  0.11935395787180872        0.0000000000000000     
  -1.0463404153865093E-002  0.12657910741296013        0.0000000000000000     
  -1.0711458667580479E-002  0.13392574224033407        0.0000000000000000     
  -1.4517361124202982E-002  0.10537188799046936        0.0000000000000000     
  -1.4960978601826925E-002  0.11234799010781771        0.0000000000000000     
  -1.5379673067314610E-002  0.11944577648686912        0.0000000000000000     
  -1.5773444520666039E-002  0.12666524712762364        0.0000000000000000     
  -1.6142292961881206E-002  0.13400640203008121        0.0000000000000000     
  -1.9473774029115917E-002  0.10551048237707424        0.0000000000000000     
  -2.0056681022031606E-002  0.11247794226142867        0.0000000000000000     
  -2.0608042506532084E-002  0.11956756859120128        0.0000000000000000     
  -2.1127858482617355E-002  0.12677936136639212        0.0000000000000000     
  -2.1616128950287420E-002  0.13411332058700115        0.0000000000000000     
   2.1204838704500743E-005  0.13384319896235786        0.0000000000000000     
   1.9119561225192355E-005  0.14131584349435156        0.0000000000000000     
   1.6972583352072783E-005  0.14890694531754772        0.0000000000000000     
   1.4763905085140374E-005  0.15661650443194644        0.0000000000000000     
   1.2493526424395968E-005  0.16444452083754763        0.0000000000000000     
  -5.3236260673852438E-003  0.13387134121775959        0.0000000000000000     
  -5.4416214205178712E-003  0.14134158490484705        0.0000000000000000     
  -5.5532768958017377E-003  0.14892994845641686        0.0000000000000000     
  -5.6585924932368381E-003  0.15663643187246903        0.0000000000000000     
  -5.7575682128231751E-003  0.16446103515300359        0.0000000000000000     
  -1.0711458667580479E-002  0.13392574224033407        0.0000000000000000     
  -1.0944394115041278E-002  0.14139210987602166        0.0000000000000000     
  -1.1164648201399896E-002  0.14897645784211419        0.0000000000000000     
  -1.1372220926656337E-002  0.15667878613861155        0.0000000000000000     
  -1.1567112290810599E-002  0.16449909476551383        0.0000000000000000     
  -1.6142292961881206E-002  0.13400640203008121        0.0000000000000000     
  -1.6489198522345028E-002  0.14146741840787541        0.0000000000000000     
  -1.6817141333442410E-002  0.14904647347463967        0.0000000000000000     
  -1.7126121395173367E-002  0.15674356723037397        0.0000000000000000     
  -1.7416138707537877E-002  0.16455869967507836        0.0000000000000000     
  -2.1616128950287420E-002  0.13411332058700115        0.0000000000000000     
  -2.2076034642429118E-002  0.14156751050040825        0.0000000000000000     
  -2.2510756291929276E-002  0.14913999535399330        0.0000000000000000     
  -2.2920293898787907E-002  0.15683077514775629        0.0000000000000000     
  -2.3304647463005014E-002  0.16463984988169719        0.0000000000000000     
   1.2493526424395968E-005  0.16444452083754763        0.0000000000000000     
   1.0377565445832734E-005  0.17237496758165538        0.0000000000000000     
   8.6321402254431901E-006  0.18039181771157373        0.0000000000000000     
   7.2572507632280418E-006  0.18849507122730272        0.0000000000000000     
   6.2528970591877765E-006  0.19668472812884233        0.0000000000000000     
  -5.7575682128231751E-003  0.16446103515300359        0.0000000000000000     
  -5.8491384661193795E-003  0.17238825063901803        0.0000000000000000     
  -5.9322376646840846E-003  0.18040257067150992        0.0000000000000000     
  -6.0068658085172932E-003  0.18850399525047934        0.0000000000000000     
  -6.0730228976189999E-003  0.19669252437592616        0.0000000000000000     
  -1.1567112290810599E-002  0.16449909476551383        0.0000000000000000     
  -1.1747522185022726E-002  0.17242209277400261        0.0000000000000000     
  -1.1911650500452767E-002  0.18043248921525964        0.0000000000000000     
  -1.2059497237100715E-002  0.18853028408928485        0.0000000000000000     
  -1.2191062394966579E-002  0.19671547739607828        0.0000000000000000     
  -1.7416138707537877E-002  0.16455869967507836        0.0000000000000000     
  -1.7684773591264202E-002  0.17247649398660922        0.0000000000000000     
  -1.7929606367080592E-002  0.18048157334282286        0.0000000000000000     
  -1.8150637034987042E-002  0.18857393774371931        0.0000000000000000     
  -1.8347865594983550E-002  0.19675358718929856        0.0000000000000000     
  -2.3304647463005014E-002  0.16463984988169719        0.0000000000000000     
  -2.3660892684843820E-002  0.17255145427683777        0.0000000000000000     
  -2.3986105264567577E-002  0.18054982305419959        0.0000000000000000     
  -2.4280285202176271E-002  0.18863495621378271        0.0000000000000000     
  -2.4543432497669920E-002  0.19680685375558712        0.0000000000000000     
   6.2528970591877765E-006  0.19668472812884233        0.0000000000000000     
   5.4861285411263866E-006  0.20494292410821105        0.0000000000000000     
   4.8239946368465632E-006  0.21325179485742740        0.0000000000000000     
   4.2664953463544862E-006  0.22161134037649141        0.0000000000000000     
   3.8136306696446264E-006  0.23002156066540308        0.0000000000000000     
  -6.0730228976189999E-003  0.19669252437592616        0.0000000000000000     
  -6.1312873037121596E-003  0.20495010045407994        0.0000000000000000     
  -6.1822373985197313E-003  0.21325866589117023        0.0000000000000000     
  -6.2258731820417062E-003  0.22161822068719689        0.0000000000000000     
  -6.2621946542780913E-003  0.23002876484216001        0.0000000000000000     
  -1.2191062394966579E-002  0.19671547739607828        0.0000000000000000     
  -1.2307195229967092E-002  0.20497050801515571        0.0000000000000000     
  -1.2408744998018991E-002  0.21327781482603300        0.0000000000000000     
  -1.2495711699122284E-002  0.22163739782871025        0.0000000000000000     
  -1.2568095333276959E-002  0.23004925702318735        0.0000000000000000     
  -1.8347865594983550E-002  0.19675358718929856        0.0000000000000000     
  -1.8522237650223674E-002  0.20500414679143822        0.0000000000000000     
  -1.8674698803860940E-002  0.21330924166201587        0.0000000000000000     
  -1.8805249055895371E-002  0.22166887180103145        0.0000000000000000     
  -1.8913888406326965E-002  0.23008303720848508        0.0000000000000000     
  -2.4543432497669920E-002  0.19680685375558712        0.0000000000000000     
  -2.4776414564481892E-002  0.20505101678292759        0.0000000000000000     
  -2.4980098816045578E-002  0.21335294639911878        0.0000000000000000     
  -2.5154485252360987E-002  0.22171264260416063        0.0000000000000000     
  -2.5299573873428103E-002  0.23013010539805326        0.0000000000000000     
   3.8136306696446264E-006  0.23002156066540308        0.0000000000000000     
   3.4504333862568973E-006  0.23845102088051981        0.0000000000000000     
   3.1619362757280686E-006  0.24686828617819911        0.0000000000000000     
   2.9481393380596311E-006  0.25527335655844091        0.0000000000000000     
   2.8090425732494977E-006  0.26366623202124528        0.0000000000000000     
  -6.2621946542780913E-003  0.23002876484216001        0.0000000000000000     
  -6.2925922948495229E-003  0.23845919365997967        0.0000000000000000     
  -6.3184565833766474E-003  0.24687840244457598        0.0000000000000000     
  -6.3397875198594640E-003  0.25528639119594887        0.0000000000000000     
  -6.3565851042979710E-003  0.26368315991409841        0.0000000000000000     
  -1.2568095333276959E-002  0.23004925702318735        0.0000000000000000     
  -1.2628796205699342E-002  0.23848302195040880        0.0000000000000000     
  -1.2680714621605757E-002  0.24690832215131897        0.0000000000000000     
  -1.2723850580996199E-002  0.25532515762591795        0.0000000000000000     
  -1.2758204083870673E-002  0.26373352837420566        0.0000000000000000     
  -1.8913888406326965E-002  0.23008303720848508        0.0000000000000000     
  -1.9005161299163208E-002  0.23852250575180720        0.0000000000000000     
  -1.9083612178411605E-002  0.24695804529842819        0.0000000000000000     
  -1.9149241044072150E-002  0.25538965584834816        0.0000000000000000     
  -1.9202047896144856E-002  0.26381733740156704        0.0000000000000000     
  -2.5299573873428103E-002  0.23013010539805326        0.0000000000000000     
  -2.5421687575241110E-002  0.23857764506417484        0.0000000000000000     
  -2.5527149253794176E-002  0.24702757188590360        0.0000000000000000     
  -2.5615958909087320E-002  0.25547988586323950        0.0000000000000000     
  -2.5688116541120517E-002  0.26393458699618255        0.0000000000000000     
   2.8090425732494977E-006  0.26366623202124528        0.0000000000000000     
   2.7041617463763497E-006  0.27198679072683823        0.0000000000000000     
   2.5930126225167001E-006  0.28017491083544593        0.0000000000000000     
   2.4755952016719584E-006  0.28823059234706816        0.0000000000000000     
   2.3519094838383298E-006  0.29615383526170508        0.0000000000000000     
  -6.3565851042979710E-003  0.26368315991409841        0.0000000000000000     
  -6.3727478964885776E-003  0.27200886349851822        0.0000000000000000     
  -6.3921744562276950E-003  0.28020365684870208        0.0000000000000000     
  -6.4148647835153240E-003  0.28826753996464993        0.0000000000000000     
  -6.4408188783514637E-003  0.29620051284636179        0.0000000000000000     
  -1.2758204083870673E-002  0.26373352837420566        0.0000000000000000     
  -1.2790989428247863E-002  0.27207451977516622        0.0000000000000000     
  -1.2829420912146464E-002  0.28028921720778394        0.0000000000000000     
  -1.2873498535566475E-002  0.28837762067205858        0.0000000000000000     
  -1.2923222298507897E-002  0.29633973016799037        0.0000000000000000     
  -1.9202047896144856E-002  0.26381733740156704        0.0000000000000000     
  -1.9252020433531476E-002  0.27218375955678231        0.0000000000000000     
  -1.9309146355133790E-002  0.28043159191269129        0.0000000000000000     
  -1.9373425660951779E-002  0.28856083446929426        0.0000000000000000     
  -1.9444858350985465E-002  0.29657148722659094        0.0000000000000000     
  -2.5688116541120517E-002  0.26393458699618255        0.0000000000000000     
  -2.5755840912339425E-002  0.27233658284336637        0.0000000000000000     
  -2.5831350785189659E-002  0.28063078096342442        0.0000000000000000     
  -2.5914646159671248E-002  0.28881718135635676        0.0000000000000000     
  -2.6005727035784163E-002  0.29689578402216338        0.0000000000000000     
  -1.3933184373994677E-002   5.5830138139644242E-002   0.0000000000000000     
  -1.4711797432728617E-002   6.1417800905858341E-002   0.0000000000000000     
  -1.5465145245960332E-002   6.7185587850292036E-002   0.0000000000000000     
  -1.6193227813689811E-002   7.3133498972945341E-002   0.0000000000000000     
  -1.6896045135917064E-002   7.9261534273818213E-002   0.0000000000000000     
  -1.7854610635554859E-002   5.5921061591206085E-002   0.0000000000000000     
  -1.8724783753628522E-002   6.1549411415586688E-002   0.0000000000000000     
  -1.9589878193604058E-002   6.7347668792263768E-002   0.0000000000000000     
  -2.0449893955481458E-002   7.3315833721237317E-002   0.0000000000000000     
  -2.1304831039260716E-002   7.9453906202507321E-002   0.0000000000000000     
  -2.1690438597935884E-002   5.6160280622046109E-002   0.0000000000000000     
  -2.2716313402827273E-002   6.1799584649048056E-002   0.0000000000000000     
  -2.3739130557615756E-002   6.7604856817245040E-002   0.0000000000000000     
  -2.4758890062301350E-002   7.3576097126637069E-002   0.0000000000000000     
  -2.5775591916884031E-002   7.9713305577224142E-002   0.0000000000000000     
  -2.5440668261137760E-002   5.6547795232164307E-002   0.0000000000000000     
  -2.6686386380324865E-002   6.2168320606242423E-002   0.0000000000000000     
  -2.7912902337995441E-002   6.7957151925235867E-002   0.0000000000000000     
  -2.9120216134149491E-002   7.3914289189144625E-002   0.0000000000000000     
  -3.0308327768787006E-002   8.0039732397968674E-002   0.0000000000000000     
  -2.9105299625160490E-002   5.7083605421560671E-002   0.0000000000000000     
  -3.0635002686121293E-002   6.2655619287169811E-002   0.0000000000000000     
  -3.2111193534743086E-002   6.8404554116236221E-002   0.0000000000000000     
  -3.3533872171025866E-002   7.4330409908759956E-002   0.0000000000000000     
  -3.4903038594969640E-002   8.0433186664740947E-002   0.0000000000000000     
  -1.6896045135917064E-002   7.9261534273818213E-002   0.0000000000000000     
  -1.7574791716349097E-002   8.5565666572758742E-002   0.0000000000000000     
  -1.8230662058692913E-002   9.2041868689614920E-002   0.0000000000000000     
  -1.8863656162948526E-002   9.8690140624386746E-002   0.0000000000000000     
  -1.9473774029115917E-002  0.10551048237707424        0.0000000000000000     
  -2.1304831039260716E-002   7.9453906202507321E-002   0.0000000000000000     
  -2.2143313718397634E-002   8.5760975723101499E-002   0.0000000000000000     
  -2.2953966266347974E-002   9.2236131770047594E-002   0.0000000000000000     
  -2.3736788683111753E-002   9.8879374343345580E-002   0.0000000000000000     
  -2.4491780968688957E-002  0.10569070344299546        0.0000000000000000     
  -2.5775591916884031E-002   7.9713305577224142E-002   0.0000000000000000     
  -2.6774748707514416E-002   8.6016328170988574E-002   0.0000000000000000     
  -2.7741873020343082E-002   9.2485010909912790E-002   0.0000000000000000     
  -2.8676964855370028E-002   9.9119353793996709E-002   0.0000000000000000     
  -2.9580024212595264E-002  0.10591935682324038        0.0000000000000000     
  -3.0308327768787006E-002   8.0039732397968674E-002   0.0000000000000000     
  -3.1469096683699446E-002   8.6331723916419995E-002   0.0000000000000000     
  -3.2594382320678232E-002   9.2788506109210495E-002   0.0000000000000000     
  -3.3684184679723353E-002   9.9410078976340160E-002   0.0000000000000000     
  -3.4738503760834843E-002  0.10619644251780903        0.0000000000000000     
  -3.4903038594969640E-002   8.0433186664740947E-002   0.0000000000000000     
  -3.6226357646952714E-002   8.6707162959395706E-002   0.0000000000000000     
  -3.7511494167353422E-002   9.3146617367940721E-002   0.0000000000000000     
  -3.8758448156171736E-002   9.9751549890375935E-002   0.0000000000000000     
  -3.9967219613407691E-002  0.10652196052670140        0.0000000000000000     
  -1.9473774029115917E-002  0.10551048237707424        0.0000000000000000     
  -2.0056681022031606E-002  0.11247794226142867        0.0000000000000000     
  -2.0608042506532084E-002  0.11956756859120128        0.0000000000000000     
  -2.1127858482617355E-002  0.12677936136639212        0.0000000000000000     
  -2.1616128950287420E-002  0.13411332058700115        0.0000000000000000     
  -2.4491780968688957E-002  0.10569070344299546        0.0000000000000000     
  -2.5213866024120769E-002  0.11264744034507848        0.0000000000000000     
  -2.5897966750448351E-002  0.11972690632567588        0.0000000000000000     
  -2.6544083147671704E-002  0.12692910138478766        0.0000000000000000     
  -2.7152215215790830E-002  0.13425402552241383        0.0000000000000000     
  -2.9580024212595264E-002  0.10591935682324038        0.0000000000000000     
  -3.0444667559387791E-002  0.11286377462613299        0.0000000000000000     
  -3.1264511363116608E-002  0.11993136183116369        0.0000000000000000     
  -3.2039555623781718E-002  0.12712211843833252        0.0000000000000000     
  -3.2769800341383118E-002  0.13443604444763940        0.0000000000000000     
  -3.4738503760834843E-002  0.10619644251780903        0.0000000000000000     
  -3.5749085627832668E-002  0.11312694510459217        0.0000000000000000     
  -3.6707676344536852E-002  0.12018093510766470        0.0000000000000000     
  -3.7614275910947396E-002  0.12735841252702657        0.0000000000000000     
  -3.8468884327064280E-002  0.13465937736267783        0.0000000000000000     
  -3.9967219613407691E-002  0.10652196052670140        0.0000000000000000     
  -4.1127120229455423E-002  0.11343695178045606        0.0000000000000000     
  -4.2227461694709111E-002  0.12047562615517889        0.0000000000000000     
  -4.3268244009168740E-002  0.12763798365086992        0.0000000000000000     
  -4.4249467172834331E-002  0.13492402426752914        0.0000000000000000     
  -2.1616128950287420E-002  0.13411332058700115        0.0000000000000000     
  -2.2076034642429118E-002  0.14156751050040825        0.0000000000000000     
  -2.2510756291929276E-002  0.14913999535399330        0.0000000000000000     
  -2.2920293898787907E-002  0.15683077514775629        0.0000000000000000     
  -2.3304647463005014E-002  0.16463984988169719        0.0000000000000000     
  -2.7152215215790830E-002  0.13425402552241383        0.0000000000000000     
  -2.7725704209012159E-002  0.14169953448847328        0.0000000000000000     
  -2.8267891381542138E-002  0.14926348403288489        0.0000000000000000     
  -2.8778776733380768E-002  0.15694587415564867        0.0000000000000000     
  -2.9258360264528042E-002  0.16474670485676463        0.0000000000000000     
  -3.2769800341383118E-002  0.13443604444763940        0.0000000000000000     
  -3.3459008955812768E-002  0.14187063870692360        0.0000000000000000     
  -3.4110944906962627E-002  0.14942340006402424        0.0000000000000000     
  -3.4725608194832717E-002  0.15709432851894140        0.0000000000000000     
  -3.5302998819423011E-002  0.16488342407167497        0.0000000000000000     
  -3.8468884327064280E-002  0.13465937736267783        0.0000000000000000     
  -3.9275948882830924E-002  0.14208082315575918        0.0000000000000000     
  -4.0039916868190750E-002  0.14961974344741139        0.0000000000000000     
  -4.0760788283143751E-002  0.15727613823763434        0.0000000000000000     
  -4.1438563127689926E-002  0.16505000752642818        0.0000000000000000     
  -4.4249467172834331E-002  0.13492402426752914        0.0000000000000000     
  -4.5176523990066657E-002  0.14233008783498005        0.0000000000000000     
  -4.6054807265226504E-002  0.14985251418304624        0.0000000000000000     
  -4.6884316998313878E-002  0.15749130331172764        0.0000000000000000     
  -4.7665053189328774E-002  0.16524645522102432        0.0000000000000000     
  -2.3304647463005014E-002  0.16463984988169719        0.0000000000000000     
  -2.3660892684843820E-002  0.17255145427683777        0.0000000000000000     
  -2.3986105264567577E-002  0.18054982305419959        0.0000000000000000     
  -2.4280285202176271E-002  0.18863495621378271        0.0000000000000000     
  -2.4543432497669920E-002  0.19680685375558712        0.0000000000000000     
  -2.9258360264528042E-002  0.16474670485676463        0.0000000000000000     
  -2.9703334668465517E-002  0.17264986012300643        0.0000000000000000     
  -3.0110392638674741E-002  0.18063922394114768        0.0000000000000000     
  -3.0479534175155708E-002  0.18871479631118843        0.0000000000000000     
  -3.0810759277908436E-002  0.19687657723312862        0.0000000000000000     
  -3.5302998819423011E-002  0.16488342407167497        0.0000000000000000     
  -3.5839554744833246E-002  0.17277459800343339        0.0000000000000000     
  -3.6331713935163136E-002  0.18075176159542497        0.0000000000000000     
  -3.6779476390412673E-002  0.18881491484764981        0.0000000000000000     
  -3.7182842110581871E-002  0.19696405776010781        0.0000000000000000     
  -4.1438563127689926E-002  0.16505000752642818        0.0000000000000000     
  -4.2069552913947011E-002  0.17292566791811864        0.0000000000000000     
  -4.2650069154032758E-002  0.18088743601703150        0.0000000000000000     
  -4.3180111847947150E-002  0.18893531182316686        0.0000000000000000     
  -4.3659680995690217E-002  0.19706929533652456        0.0000000000000000     
  -4.7665053189328774E-002  0.16524645522102432        0.0000000000000000     
  -4.8393329175806819E-002  0.17310306986706220        0.0000000000000000     
  -4.9065458295283609E-002  0.18104624720596729        0.0000000000000000     
  -4.9681440547759172E-002  0.18907598723773958        0.0000000000000000     
  -5.0241275933233479E-002  0.19719228996237903        0.0000000000000000     
  -2.4543432497669920E-002  0.19680685375558712        0.0000000000000000     
  -2.4776414564481892E-002  0.20505101678292759        0.0000000000000000     
  -2.4980098816045578E-002  0.21335294639911878        0.0000000000000000     
  -2.5154485252360987E-002  0.22171264260416063        0.0000000000000000     
  -2.5299573873428103E-002  0.23013010539805326        0.0000000000000000     
  -3.0810759277908436E-002  0.19687657723312862        0.0000000000000000     
  -3.1104626630140634E-002  0.20511218601120729        0.0000000000000000     
  -3.1361694915060023E-002  0.21340924194966321        0.0000000000000000     
  -3.1581964132666611E-002  0.22176774504849650        0.0000000000000000     
  -3.1765434282960393E-002  0.23018769530770711        0.0000000000000000     
  -3.7182842110581871E-002  0.19696405776010781        0.0000000000000000     
  -3.7541774504598759E-002  0.20518872249786085        0.0000000000000000     
  -3.7856236981391372E-002  0.21347844122597093        0.0000000000000000     
  -3.8126229540959747E-002  0.22183321394443797        0.0000000000000000     
  -3.8351752183303847E-002  0.23025304065326196        0.0000000000000000     
  -4.3659680995690217E-002  0.19706929533652456        0.0000000000000000     
  -4.4087858187856280E-002  0.20528062624288837        0.0000000000000000     
  -4.4463725015039660E-002  0.21356054422804183        0.0000000000000000     
  -4.4787281477240398E-002  0.22190904929198499        0.0000000000000000     
  -4.5058527574458482E-002  0.23032614143471777        0.0000000000000000     
  -5.0241275933233479E-002  0.19719228996237903        0.0000000000000000     
  -5.0742877679913173E-002  0.20538789724628981        0.0000000000000000     
  -5.1184159016004871E-002  0.21365555095587599        0.0000000000000000     
  -5.1565119941508565E-002  0.22199525109113755        0.0000000000000000     
  -5.1885760456424262E-002  0.23040699765207456        0.0000000000000000     
  -2.5299573873428103E-002  0.23013010539805326        0.0000000000000000     
  -2.5421687575241110E-002  0.23857764506417484        0.0000000000000000     
  -2.5527149253794176E-002  0.24702757188590360        0.0000000000000000     
  -2.5615958909087320E-002  0.25547988586323950        0.0000000000000000     
  -2.5688116541120517E-002  0.26393458699618255        0.0000000000000000     
  -3.1765434282960393E-002  0.23018769530770711        0.0000000000000000     
  -3.1919912535233089E-002  0.23864390392815837        0.0000000000000000     
  -3.2053206058776429E-002  0.24711118211071365        0.0000000000000000     
  -3.2165314853590393E-002  0.25558952985537281        0.0000000000000000     
  -3.2256238919675009E-002  0.26407894716213604        0.0000000000000000     
  -3.8351752183303847E-002  0.23025304065326196        0.0000000000000000     
  -3.8541373680439195E-002  0.23871674638440440        0.0000000000000000     
  -3.8703662804381263E-002  0.24720315616982674        0.0000000000000000     
  -3.8838619555130106E-002  0.25571227000952901        0.0000000000000000     
  -3.8946243932685684E-002  0.26424408790351117        0.0000000000000000     
  -4.5058527574458482E-002  0.23032614143471777        0.0000000000000000     
  -4.5286071010859408E-002  0.23879617243291290        0.0000000000000000     
  -4.5478519490608729E-002  0.24730349406324295        0.0000000000000000     
  -4.5635873013706432E-002  0.25584810632570798        0.0000000000000000     
  -4.5758131580152517E-002  0.26443000922030802        0.0000000000000000     
  -5.1885760456424262E-002  0.23040699765207456        0.0000000000000000     
  -5.2154004526493741E-002  0.23888218207368386        0.0000000000000000     
  -5.2377776117458780E-002  0.24741219579096230        0.0000000000000000     
  -5.2557075229319378E-002  0.25599703880390989        0.0000000000000000     
  -5.2691901862075528E-002  0.26463671111252657        0.0000000000000000     
  -2.5688116541120517E-002  0.26393458699618255        0.0000000000000000     
  -2.5755840912339425E-002  0.27233658284336637        0.0000000000000000     
  -2.5831350785189659E-002  0.28063078096342442        0.0000000000000000     
  -2.5914646159671248E-002  0.28881718135635676        0.0000000000000000     
  -2.6005727035784163E-002  0.29689578402216338        0.0000000000000000     
  -3.2256238919675009E-002  0.26407894716213604        0.0000000000000000     
  -3.2340832660092113E-002  0.27252663791562826        0.0000000000000000     
  -3.2433950477903581E-002  0.28087980600047480        0.0000000000000000     
  -3.2535592373109400E-002  0.28913845141667532        0.0000000000000000     
  -3.2645758345709569E-002  0.29730257416423012        0.0000000000000000     
  -3.8946243932685684E-002  0.26424408790351117        0.0000000000000000     
  -3.9045377472209979E-002  0.27274757305427799        0.0000000000000000     
  -3.9154861708865014E-002  0.28117168866433384        0.0000000000000000     
  -3.9274696642650764E-002  0.28951643473367922        0.0000000000000000     
  -3.9404882273567240E-002  0.29778181126231357        0.0000000000000000     
  -4.5758131580152517E-002  0.26443000922030802        0.0000000000000000     
  -4.5869475348693012E-002  0.27299938825931525        0.0000000000000000     
  -4.5994084478073960E-002  0.28150642895500200        0.0000000000000000     
  -4.6131958968295361E-002  0.28995113130736822        0.0000000000000000     
  -4.6283098819357202E-002  0.29833349531641373        0.0000000000000000     
  -5.2691901862075528E-002  0.26463671111252657        0.0000000000000000     
  -5.2813126289541226E-002  0.27328208353074029        0.0000000000000000     
  -5.2951618785530438E-002  0.28188402687247888        0.0000000000000000     
  -5.3107379350043164E-002  0.29044254113774232        0.0000000000000000     
  -5.3280407983079425E-002  0.29895762632653067        0.0000000000000000     
  -2.9105299625160490E-002   5.7083605421560671E-002   0.0000000000000000     
  -3.0635002686121293E-002   6.2655619287169811E-002   0.0000000000000000     
  -3.2111193534743086E-002   6.8404554116236221E-002   0.0000000000000000     
  -3.3533872171025866E-002   7.4330409908759956E-002   0.0000000000000000     
  -3.4903038594969640E-002   8.0433186664740947E-002   0.0000000000000000     
  -3.2862988006489957E-002   5.7693438506940385E-002   0.0000000000000000     
  -3.4677618790091305E-002   6.3212884731917135E-002   0.0000000000000000     
  -3.6405128160154815E-002   6.8917910120757847E-002   0.0000000000000000     
  -3.8045516116680486E-002   7.4808514673462514E-002   0.0000000000000000     
  -3.9598782659668319E-002   8.0884698390031151E-002   0.0000000000000000     
  -3.6892388721612039E-002   5.8303021805008612E-002   0.0000000000000000     
  -3.8929691162109634E-002   6.3791520980571378E-002   0.0000000000000000     
  -4.0865830226526713E-002   6.9468066669312448E-002   0.0000000000000000     
  -4.2700805914863312E-002   7.5332658871231820E-002   0.0000000000000000     
  -4.4434618227119423E-002   8.1385297586329536E-002   0.0000000000000000     
  -4.1193501770526754E-002   5.8912355315765351E-002   0.0000000000000000     
  -4.3391219802176251E-002   6.4391528033132528E-002   0.0000000000000000     
  -4.5493299733858794E-002   7.0055023761900023E-002   0.0000000000000000     
  -4.7499741565574363E-002   7.5902842502067858E-002   0.0000000000000000     
  -4.9410545297322944E-002   8.1934984253636017E-002   0.0000000000000000     
  -4.5766327153234088E-002   5.9521439039210595E-002   0.0000000000000000     
  -4.8062204710291198E-002   6.5012905889600583E-002   0.0000000000000000     
  -5.0287536682151038E-002   7.0678781398520574E-002   0.0000000000000000     
  -5.2442323068813614E-002   7.6519065565970601E-002   0.0000000000000000     
  -5.4526563870278905E-002   8.2533758391950679E-002   0.0000000000000000     
  -3.4903038594969640E-002   8.0433186664740947E-002   0.0000000000000000     
  -3.6226357646952714E-002   8.6707162959395706E-002   0.0000000000000000     
  -3.7511494167353422E-002   9.3146617367940721E-002   0.0000000000000000     
  -3.8758448156171736E-002   9.9751549890375935E-002   0.0000000000000000     
  -3.9967219613407691E-002  0.10652196052670140        0.0000000000000000     
  -3.9598782659668319E-002   8.0884698390031151E-002   0.0000000000000000     
  -4.1087695926760454E-002   8.7137018158124455E-002   0.0000000000000000     
  -4.2535024055599051E-002   9.3556030865403109E-002   0.0000000000000000     
  -4.3940767046184090E-002  0.10014173651186709        0.0000000000000000     
  -4.5304924898515578E-002  0.10689413509751644        0.0000000000000000     
  -4.4434618227119423E-002   8.1385297586329536E-002   0.0000000000000000     
  -4.6094275852608869E-002   8.7615662370814876E-002   0.0000000000000000     
  -4.7706787480645503E-002   9.4013432780897258E-002   0.0000000000000000     
  -4.9272153111229296E-002  0.10057860881657665        0.0000000000000000     
  -5.0790372744360282E-002  0.10731119047785306        0.0000000000000000     
  -4.9410545297322944E-002   8.1934984253636017E-002   0.0000000000000000     
  -5.1246097424497955E-002   8.8143095597466969E-002   0.0000000000000000     
  -5.3026784442492772E-002   9.4518823114423181E-002   0.0000000000000000     
  -5.4752606351307374E-002  0.10106216680450464        0.0000000000000000     
  -5.6423563150941797E-002  0.10777312666771134        0.0000000000000000     
  -5.4526563870278905E-002   8.2533758391950679E-002   0.0000000000000000     
  -5.6543160642427731E-002   8.8719317838080763E-002   0.0000000000000000     
  -5.8495014941140872E-002   9.5072201865980893E-002   0.0000000000000000     
  -6.0382126766418340E-002  0.10159241047565104        0.0000000000000000     
  -6.2204496118260122E-002  0.10827994366709123        0.0000000000000000     
  -3.9967219613407691E-002  0.10652196052670140        0.0000000000000000     
  -4.1127120229455423E-002  0.11343695178045606        0.0000000000000000     
  -4.2227461694709111E-002  0.12047562615517889        0.0000000000000000     
  -4.3268244009168740E-002  0.12763798365086992        0.0000000000000000     
  -4.4249467172834331E-002  0.13492402426752914        0.0000000000000000     
  -4.5304924898515578E-002  0.10689413509751644        0.0000000000000000     
  -4.6614758696457738E-002  0.11379181623453499        0.0000000000000000     
  -4.7857529523874801E-002  0.12081336953510677        0.0000000000000000     
  -4.9033237380766773E-002  0.12795879499923171        0.0000000000000000     
  -5.0141882267133626E-002  0.13522809262690977        0.0000000000000000     
  -5.0790372744360282E-002  0.10731119047785306        0.0000000000000000     
  -5.2247988361041352E-002  0.11418956004763946        0.0000000000000000     
  -5.3631541942275408E-002  0.12119209980884878        0.0000000000000000     
  -5.4941033488062473E-002  0.12831880976148105        0.0000000000000000     
  -5.6176462998402538E-002  0.13556968990553625        0.0000000000000000     
  -5.6423563150941797E-002  0.10777312666771134        0.0000000000000000     
  -5.8026809223206237E-002  0.11463018321976939        0.0000000000000000     
  -5.9549498949910920E-002  0.12161181697640497        0.0000000000000000     
  -6.0991632331055867E-002  0.12871802793761802        0.0000000000000000     
  -6.2353209366641058E-002  0.13594881610340856        0.0000000000000000     
  -6.2204496118260122E-002  0.10827994366709123        0.0000000000000000     
  -6.3951221282952400E-002  0.11511368575092486        0.0000000000000000     
  -6.5611400546781343E-002  0.12207252103777530        0.0000000000000000     
  -6.7185033909746950E-002  0.12915644952764258        0.0000000000000000     
  -6.8672121371849207E-002  0.13636547122052670        0.0000000000000000     
  -4.4249467172834331E-002  0.13492402426752914        0.0000000000000000     
  -4.5176523990066657E-002  0.14233008783498005        0.0000000000000000     
  -4.6054807265226504E-002  0.14985251418304624        0.0000000000000000     
  -4.6884316998313878E-002  0.15749130331172764        0.0000000000000000     
  -4.7665053189328774E-002  0.16524645522102432        0.0000000000000000     
  -5.0141882267133626E-002  0.13522809262690977        0.0000000000000000     
  -5.1189968334022784E-002  0.14261690242796998        0.0000000000000000     
  -5.2183999732481633E-002  0.15012086441224123        0.0000000000000000     
  -5.3123976462510186E-002  0.15773997857972358        0.0000000000000000     
  -5.4009898524108431E-002  0.16547424493041699        0.0000000000000000     
  -5.6176462998402538E-002  0.13556968990553625        0.0000000000000000     
  -5.7345515971202167E-002  0.14293973661811271        0.0000000000000000     
  -5.8455877904367903E-002  0.15042394627630878        0.0000000000000000     
  -5.9507548797899767E-002  0.15802231888012450        0.0000000000000000     
  -6.0500528651797753E-002  0.16573485442955985        0.0000000000000000     
  -6.2353209366641058E-002  0.13594881610340856        0.0000000000000000     
  -6.3643166901604792E-002  0.14329859040540832        0.0000000000000000     
  -6.4870441780885302E-002  0.15076175977524894        0.0000000000000000     
  -6.6035034004482629E-002  0.15833832421293045        0.0000000000000000     
  -6.7136943572396746E-002  0.16602828371845288        0.0000000000000000     
  -6.8672121371849207E-002  0.13636547122052670        0.0000000000000000     
  -7.0082921125230652E-002  0.14369346378985667        0.0000000000000000     
  -7.1427691362033835E-002  0.15113430490906155        0.0000000000000000     
  -7.2706432082258757E-002  0.15868799457814139        0.0000000000000000     
  -7.3919143285905417E-002  0.16635453279709608        0.0000000000000000     
  -4.7665053189328774E-002  0.16524645522102432        0.0000000000000000     
  -4.8393329175806819E-002  0.17310306986706220        0.0000000000000000     
  -4.9065458295283609E-002  0.18104624720596729        0.0000000000000000     
  -4.9681440547759172E-002  0.18907598723773958        0.0000000000000000     
  -5.0241275933233479E-002  0.19719228996237903        0.0000000000000000     
  -5.4009898524108431E-002  0.16547424493041699        0.0000000000000000     
  -5.4838043447329413E-002  0.17330967748619355        0.0000000000000000     
  -5.5604688762226157E-002  0.18123229026892537        0.0000000000000000     
  -5.6309834468798670E-002  0.18924208327861247        0.0000000000000000     
  -5.6953480567046966E-002  0.19733905651525480        0.0000000000000000     
  -6.0500528651797753E-002  0.16573485442955985        0.0000000000000000     
  -6.1430855645431548E-002  0.17354836441144217        0.0000000000000000     
  -6.2294567958170850E-002  0.18144966031259893        0.0000000000000000     
  -6.3091665590015639E-002  0.18943874213303005        0.0000000000000000     
  -6.3822148540965948E-002  0.19751560987273561        0.0000000000000000     
  -6.7136943572396746E-002  0.16602828371845288        0.0000000000000000     
  -6.8171765770113246E-002  0.17381913064280807        0.0000000000000000     
  -6.9135095883117684E-002  0.18169835733698791        0.0000000000000000     
  -7.0026933911410086E-002  0.18966596380099238        0.0000000000000000     
  -7.0847279854990453E-002  0.19772195003482151        0.0000000000000000     
  -7.3919143285905417E-002  0.16635453279709608        0.0000000000000000     
  -7.5060773821374493E-002  0.17412197618029124        0.0000000000000000     
  -7.6126272537066705E-002  0.18197838134209232        0.0000000000000000     
  -7.7115639432982025E-002  0.18992374828249939        0.0000000000000000     
  -7.8028874509120466E-002  0.19795807700151241        0.0000000000000000     
  -5.0241275933233479E-002  0.19719228996237903        0.0000000000000000     
  -5.0742877679913173E-002  0.20538789724628981        0.0000000000000000     
  -5.1184159016004871E-002  0.21365555095587599        0.0000000000000000     
  -5.1565119941508565E-002  0.22199525109113755        0.0000000000000000     
  -5.1885760456424262E-002  0.23040699765207456        0.0000000000000000     
  -5.6953480567046966E-002  0.19733905651525480        0.0000000000000000     
  -5.7532788696768755E-002  0.20551703234415908        0.0000000000000000     
  -5.8044920497761790E-002  0.21376983313063191        0.0000000000000000     
  -5.8489875970026077E-002  0.22209745887467339        0.0000000000000000     
  -5.8867655113561596E-002  0.23049990957628344        0.0000000000000000     
  -6.3822148540965948E-002  0.19751560987273561        0.0000000000000000     
  -6.4483546954422294E-002  0.20567452837259020        0.0000000000000000     
  -6.5073390973785228E-002  0.21390976247346838        0.0000000000000000     
  -6.5591680599054736E-002  0.22222131217537017        0.0000000000000000     
  -6.6038415830230845E-002  0.23060917747829549        0.0000000000000000     
  -7.0847279854990453E-002  0.19772195003482151        0.0000000000000000     
  -7.1595152452873775E-002  0.20586038533158313        0.0000000000000000     
  -7.2269570444075157E-002  0.21407533898438524        0.0000000000000000     
  -7.2870533828594583E-002  0.22236681099322775        0.0000000000000000     
  -7.3398042606432012E-002  0.23073480135811081        0.0000000000000000     
  -7.8028874509120466E-002  0.19795807700151241        0.0000000000000000     
  -7.8867605192123255E-002  0.20607460322113796        0.0000000000000000     
  -7.9633458908631632E-002  0.21426656266338256        0.0000000000000000     
  -8.0326435658645570E-002  0.22253395532824635        0.0000000000000000     
  -8.0946535442165096E-002  0.23087678121572924        0.0000000000000000     
  -5.1885760456424262E-002  0.23040699765207456        0.0000000000000000     
  -5.2154004526493741E-002  0.23888218207368386        0.0000000000000000     
  -5.2377776117458780E-002  0.24741219579096230        0.0000000000000000     
  -5.2557075229319378E-002  0.25599703880390989        0.0000000000000000     
  -5.2691901862075528E-002  0.26463671111252657        0.0000000000000000     
  -5.8867655113561596E-002  0.23049990957628344        0.0000000000000000     
  -5.9184227477181009E-002  0.23897624564535996        0.0000000000000000     
  -5.9445562609696960E-002  0.24752552749180098        0.0000000000000000     
  -5.9651660511109449E-002  0.25614775511560622        0.0000000000000000     
  -5.9802521181418454E-002  0.26484292851677593        0.0000000000000000     
  -6.6038415830230845E-002  0.23060917747829549        0.0000000000000000     
  -6.6415793112760024E-002  0.23907983348658404        0.0000000000000000     
  -6.6726008892088781E-002  0.24763975530457513        0.0000000000000000     
  -6.6969063168217130E-002  0.25628894293226889        0.0000000000000000     
  -6.7144955941145043E-002  0.26502739636966521        0.0000000000000000     
  -7.3398042606432012E-002  0.23073480135811081        0.0000000000000000     
  -7.3848701433230801E-002  0.23919294559735590        0.0000000000000000     
  -7.4219114964634278E-002  0.24775487922928494        0.0000000000000000     
  -7.4509283200642457E-002  0.25642060225389779        0.0000000000000000     
  -7.4719206141255295E-002  0.26519011467119447        0.0000000000000000     
  -8.0946535442165096E-002  0.23087678121572924        0.0000000000000000     
  -8.1482952438593326E-002  0.23931558197767572        0.0000000000000000     
  -8.1924880827333416E-002  0.24787089926593026        0.0000000000000000     
  -8.2272320608385394E-002  0.25654273308049291        0.0000000000000000     
  -8.2525271781749232E-002  0.26533108342136369        0.0000000000000000     
  -5.2691901862075528E-002  0.26463671111252657        0.0000000000000000     
  -5.2813126289541226E-002  0.27328208353074029        0.0000000000000000     
  -5.2951618785530438E-002  0.28188402687247888        0.0000000000000000     
  -5.3107379350043164E-002  0.29044254113774232        0.0000000000000000     
  -5.3280407983079425E-002  0.29895762632653067        0.0000000000000000     
  -5.9802521181418454E-002  0.26484292851677593        0.0000000000000000     
  -5.9935047418323152E-002  0.27356695358240113        0.0000000000000000     
  -6.0086142019522684E-002  0.28227573619957297        0.0000000000000000     
  -6.0255804985017029E-002  0.29096927636829140        0.0000000000000000     
  -6.0444036314806215E-002  0.29964757408855647        0.0000000000000000     
  -6.7144955941145043E-002  0.26502739636966521        0.0000000000000000     
  -6.7293955858607368E-002  0.27382529312814591        0.0000000000000000     
  -6.7456331568338954E-002  0.28265281071909243        0.0000000000000000     
  -6.7632083070339785E-002  0.29150994914250489        0.0000000000000000     
  -6.7821210364609863E-002  0.30039670839838323        0.0000000000000000     
  -7.4719206141255295E-002  0.26519011467119447        0.0000000000000000     
  -7.4889851610393882E-002  0.27405710216797446        0.0000000000000000     
  -7.5062187431979274E-002  0.28301525043103726        0.0000000000000000     
  -7.5236213606011432E-002  0.29206455946038273        0.0000000000000000     
  -7.5411930132490368E-002  0.30120502925601095        0.0000000000000000     
  -8.2525271781749232E-002  0.26533108342136369        0.0000000000000000     
  -8.2722734673682699E-002  0.27426238070188708        0.0000000000000000     
  -8.2903709610443604E-002  0.28336305533540751        0.0000000000000000     
  -8.3068196592031948E-002  0.29263310732192505        0.0000000000000000     
  -8.3216195618447730E-002  0.30207253666143974        0.0000000000000000     
  -4.5766327153234088E-002   5.9521439039210595E-002   0.0000000000000000     
  -4.8062204710291198E-002   6.5012905889600583E-002   0.0000000000000000     
  -5.0287536682151038E-002   7.0678781398520574E-002   0.0000000000000000     
  -5.2442323068813614E-002   7.6519065565970601E-002   0.0000000000000000     
  -5.4526563870278905E-002   8.2533758391950679E-002   0.0000000000000000     
  -5.0501099002872987E-002   6.0189604730648619E-002   0.0000000000000000     
  -5.2909108739606220E-002   6.5686016918819701E-002   0.0000000000000000     
  -5.5265620670535032E-002   7.1349532162952742E-002   0.0000000000000000     
  -5.7570634795659430E-002   7.7180150463047742E-002   0.0000000000000000     
  -5.9824151114979393E-002   8.3177871819104729E-002   0.0000000000000000     
  -5.5288051452582407E-002   6.0976184145383680E-002   0.0000000000000000     
  -5.7898394743273095E-002   6.6441223489634049E-002   0.0000000000000000     
  -6.0444631298142364E-002   7.2077468638975115E-002   0.0000000000000000     
  -6.2926761117190172E-002   7.7884919593406904E-002   0.0000000000000000     
  -6.5344784200416561E-002   8.3863576352929431E-002   0.0000000000000000     
  -6.0127184502362326E-002   6.1881177283415807E-002   0.0000000000000000     
  -6.3030062721291816E-002   6.7278525602043615E-002   0.0000000000000000     
  -6.5824568564972999E-002   7.2862590826587720E-002   0.0000000000000000     
  -6.8510702033405854E-002   7.8633372957048114E-002   0.0000000000000000     
  -7.1088463126590382E-002   8.4590871993424785E-002   0.0000000000000000     
  -6.5018498152212750E-002   6.2904584144744966E-002   0.0000000000000000     
  -6.8304112673662404E-002   6.8197923256048426E-002   0.0000000000000000     
  -7.1405432471026958E-002   7.3704898725790530E-002   0.0000000000000000     
  -7.4322457544306456E-002   7.9425510553971318E-002   0.0000000000000000     
  -7.7055187893500868E-002   8.5359758740590777E-002   0.0000000000000000     
  -5.4526563870278905E-002   8.2533758391950679E-002   0.0000000000000000     
  -5.6543160642427731E-002   8.8719317838080763E-002   0.0000000000000000     
  -5.8495014941140872E-002   9.5072201865980893E-002   0.0000000000000000     
  -6.0382126766418340E-002  0.10159241047565104        0.0000000000000000     
  -6.2204496118260122E-002  0.10827994366709123        0.0000000000000000     
  -5.9824151114979393E-002   8.3177871819104729E-002   0.0000000000000000     
  -6.2015532104206031E-002   8.9342154063637991E-002   0.0000000000000000     
  -6.4134140239050383E-002   9.5672455029161829E-002   0.0000000000000000     
  -6.6179975519512449E-002  0.10216877471567629        0.0000000000000000     
  -6.8153037945592229E-002  0.10883111312318135        0.0000000000000000     
  -6.5344784200416561E-002   8.3863576352929431E-002   0.0000000000000000     
  -6.7693278407640722E-002   9.0009429245120398E-002   0.0000000000000000     
  -6.9966821598681839E-002   9.6318468597557522E-002   0.0000000000000000     
  -7.2165413773539966E-002  0.10279069441024083        0.0000000000000000     
  -7.4289054932215048E-002  0.10942610668317032        0.0000000000000000     
  -7.1088463126590382E-002   8.4590871993424785E-002   0.0000000000000000     
  -7.3576399552731805E-002   9.0721143382527986E-002   0.0000000000000000     
  -7.5993059020035308E-002   9.7010242571167929E-002   0.0000000000000000     
  -7.8338441528500904E-002  0.10345816955934466        0.0000000000000000     
  -8.0612547078128621E-002  0.11006492434705811        0.0000000000000000     
  -7.7055187893500868E-002   8.5359758740590777E-002   0.0000000000000000     
  -7.9664895539479280E-002   9.1477296475860739E-002   0.0000000000000000     
  -8.2212852503110750E-002   9.7747776949993065E-002   0.0000000000000000     
  -8.4699058784395292E-002  0.10417120016298773        0.0000000000000000     
  -8.7123514383332906E-002  0.11074756611484476        0.0000000000000000     
  -6.2204496118260122E-002  0.10827994366709123        0.0000000000000000     
  -6.3951221282952400E-002  0.11511368575092486        0.0000000000000000     
  -6.5611400546781343E-002  0.12207252103777530        0.0000000000000000     
  -6.7185033909746950E-002  0.12915644952764258        0.0000000000000000     
  -6.8672121371849207E-002  0.13636547122052670        0.0000000000000000     
  -6.8153037945592229E-002  0.10883111312318135        0.0000000000000000     
  -7.0043427437253086E-002  0.11563938735756414        0.0000000000000000     
  -7.1841243914458328E-002  0.12257351452471182        0.0000000000000000     
  -7.3546487377207967E-002  0.12963349462462440        0.0000000000000000     
  -7.5159157825502032E-002  0.13681932765730184        0.0000000000000000     
  -7.4289054932215048E-002  0.10942610668317032        0.0000000000000000     
  -7.6325630583081464E-002  0.11620660775614568        0.0000000000000000     
  -7.8263026234513561E-002  0.12311409996896659        0.0000000000000000     
  -8.0101241886511257E-002  0.13014858332163307        0.0000000000000000     
  -8.1840277539074635E-002  0.13731005781414513        0.0000000000000000     
  -8.0612547078128621E-002  0.11006492434705811        0.0000000000000000     
  -8.2797830720437574E-002  0.11681534694666942        0.0000000000000000     
  -8.4876747506946973E-002  0.12369427737053960        0.0000000000000000     
  -8.6849297437656764E-002  0.13070171561866867        0.0000000000000000     
  -8.8715480512567002E-002  0.13783766169105660        0.0000000000000000     
  -8.7123514383332906E-002  0.11074756611484476        0.0000000000000000     
  -8.9460027849321389E-002  0.11746560492913537        0.0000000000000000     
  -9.1682407731758619E-002  0.12431404672943082        0.0000000000000000     
  -9.3790654030644502E-002  0.13129289151573109        0.0000000000000000     
  -9.5784766745979119E-002  0.13840213928803621        0.0000000000000000     
  -6.8672121371849207E-002  0.13636547122052670        0.0000000000000000     
  -7.0082921125230652E-002  0.14369346378985667        0.0000000000000000     
  -7.1427691362033835E-002  0.15113430490906155        0.0000000000000000     
  -7.2706432082258757E-002  0.15868799457814139        0.0000000000000000     
  -7.3919143285905417E-002  0.16635453279709608        0.0000000000000000     
  -7.5159157825502032E-002  0.13681932765730184        0.0000000000000000     
  -7.6690729130355142E-002  0.14412434921106923        0.0000000000000000     
  -7.8152675162781945E-002  0.15154189487425163        0.0000000000000000     
  -7.9544995922782413E-002  0.15907196464684903        0.0000000000000000     
  -8.0867691410356601E-002  0.16671455852886147        0.0000000000000000     
  -8.1840277539074635E-002  0.13731005781414513        0.0000000000000000     
  -8.3492541405253570E-002  0.14459123910865726        0.0000000000000000     
  -8.5070441698097951E-002  0.15198484286732394        0.0000000000000000     
  -8.6573978417607847E-002  0.15949086909014520        0.0000000000000000     
  -8.8003151563783175E-002  0.16710931777712101        0.0000000000000000     
  -8.8715480512567002E-002  0.13783766169105660        0.0000000000000000     
  -9.0488357949925935E-002  0.14509413348262076        0.0000000000000000     
  -9.2180990967981949E-002  0.15246314888827850        0.0000000000000000     
  -9.3793379566735002E-002  0.15994470790802984        0.0000000000000000     
  -9.5325523746185123E-002  0.16753881054187475        0.0000000000000000     
  -9.5784766745979119E-002  0.13840213928803621        0.0000000000000000     
  -9.7678178764372292E-002  0.14563303233295977        0.0000000000000000     
  -9.9484322972433897E-002  0.15297681293711532        0.0000000000000000     
 -0.10120319937016395       0.16043348110050298        0.0000000000000000     
 -0.10283480795756243       0.16800303682312265        0.0000000000000000     
  -7.3919143285905417E-002  0.16635453279709608        0.0000000000000000     
  -7.5060773821374493E-002  0.17412197618029124        0.0000000000000000     
  -7.6126272537066705E-002  0.18197838134209232        0.0000000000000000     
  -7.7115639432982025E-002  0.18992374828249939        0.0000000000000000     
  -7.8028874509120466E-002  0.19795807700151241        0.0000000000000000     
  -8.0867691410356601E-002  0.16671455852886147        0.0000000000000000     
  -8.2115521607642211E-002  0.17445807190537088        0.0000000000000000     
  -8.3283246496776986E-002  0.18229090016145935        0.0000000000000000     
  -8.4370866077760925E-002  0.19021304329712682        0.0000000000000000     
  -8.5378380350593988E-002  0.19822450131237326        0.0000000000000000     
  -8.8003151563783175E-002  0.16710931777712101        0.0000000000000000     
  -8.9353650937343349E-002  0.17482858869952633        0.0000000000000000     
  -9.0621166339007686E-002  0.18263708162863612        0.0000000000000000     
  -9.1805697768776257E-002  0.19053479656445035        0.0000000000000000     
  -9.2907245226649005E-002  0.19852173350696903        0.0000000000000000     
  -9.5325523746185123E-002  0.16753881054187475        0.0000000000000000     
  -9.6775161810477864E-002  0.17523352656275756        0.0000000000000000     
  -9.8140032063758834E-002  0.18301692574362269        0.0000000000000000     
  -9.9420134506028060E-002  0.19088900808447001        0.0000000000000000     
 -0.10061546913728552       0.19884977358529971        0.0000000000000000     
 -0.10283480795756243       0.16800303682312265        0.0000000000000000     
 -0.10438005422704577       0.17567288549506457        0.0000000000000000     
 -0.10583984367103041       0.18343043250641897        0.0000000000000000     
 -0.10721417628951632       0.19127567785718591        0.0000000000000000     
 -0.10850305208250352       0.19920862154736527        0.0000000000000000     
  -7.8028874509120466E-002  0.19795807700151241        0.0000000000000000     
  -7.8867605192123255E-002  0.20607460322113796        0.0000000000000000     
  -7.9633458908631632E-002  0.21426656266338256        0.0000000000000000     
  -8.0326435658645570E-002  0.22253395532824635        0.0000000000000000     
  -8.0946535442165096E-002  0.23087678121572924        0.0000000000000000     
  -8.5378380350593988E-002  0.19822450131237326        0.0000000000000000     
  -8.6310002290596793E-002  0.20631790946911033        0.0000000000000000     
  -8.7169944873089933E-002  0.21448590302924941        0.0000000000000000     
  -8.7958208098073365E-002  0.22272848199279061        0.0000000000000000     
  -8.8674791965547117E-002  0.23104564635973393        0.0000000000000000     
  -9.2907245226649005E-002  0.19852173350696903        0.0000000000000000     
  -9.3931440866720520E-002  0.20659103150335592        0.0000000000000000     
  -9.4883916843085392E-002  0.21473582960077467        0.0000000000000000     
  -9.5764673155743552E-002  0.22295612779922538        0.0000000000000000     
  -9.6573709804695096E-002  0.23125192609870790        0.0000000000000000     
 -0.10061546913728552       0.19884977358529971        0.0000000000000000     
 -0.10173192092049442       0.20689396932387477        0.0000000000000000     
 -0.10277537481861798       0.21501634237795839        0.0000000000000000     
 -0.10374583083165619       0.22321689274755052        0.0000000000000000     
 -0.10464328895960906       0.23149562043265123        0.0000000000000000     
 -0.10850305208250352       0.19920862154736527        0.0000000000000000     
 -0.10971144245191851       0.20722672293066691        0.0000000000000000     
 -0.11084431879968773       0.21532744136080051        0.0000000000000000     
 -0.11190168112581121       0.22351077683776621        0.0000000000000000     
 -0.11288352943028895       0.23177672936156385        0.0000000000000000     
  -8.0946535442165096E-002  0.23087678121572924        0.0000000000000000     
  -8.1482952438593326E-002  0.23931558197767572        0.0000000000000000     
  -8.1924880827333416E-002  0.24787089926593026        0.0000000000000000     
  -8.2272320608385394E-002  0.25654273308049291        0.0000000000000000     
  -8.2525271781749232E-002  0.26533108342136369        0.0000000000000000     
  -8.8674791965547117E-002  0.23104564635973393        0.0000000000000000     
  -8.9305091615208415E-002  0.23946273463867418        0.0000000000000000     
  -8.9834502186754428E-002  0.24800508533820623        0.0000000000000000     
  -9.0263023680185225E-002  0.25667269845832996        0.0000000000000000     
  -9.0590656095500766E-002  0.26546557399904558        0.0000000000000000     
  -9.6573709804695096E-002  0.23125192609870790        0.0000000000000000     
  -9.7301664449436789E-002  0.23964939559148213        0.0000000000000000     
  -9.7939174749465494E-002  0.24817470736980768        0.0000000000000000     
  -9.8486240704781181E-002  0.25682786143368469        0.0000000000000000     
  -9.8942862315383878E-002  0.26560885778311294        0.0000000000000000     
 -0.10464328895960906       0.23149562043265123        0.0000000000000000     
 -0.10547267094127853       0.23987556483609962        0.0000000000000000     
 -0.10623889851546663       0.24837976536073486        0.0000000000000000     
 -0.10694197168217331       0.25700822200655693        0.0000000000000000     
 -0.10758189044139857       0.26576093477356572        0.0000000000000000     
 -0.11288352943028895       0.23177672936156385        0.0000000000000000     
 -0.11381811109073360       0.24014124237252663        0.0000000000000000     
 -0.11473367348475780       0.24862025931098755        0.0000000000000000     
 -0.11563021661236156       0.25721378017694668        0.0000000000000000     
 -0.11650774047354487       0.26592180497040396        0.0000000000000000     
  -8.2525271781749232E-002  0.26533108342136369        0.0000000000000000     
  -8.2722734673682699E-002  0.27426238070188708        0.0000000000000000     
  -8.2903709610443604E-002  0.28336305533540751        0.0000000000000000     
  -8.3068196592031948E-002  0.29263310732192505        0.0000000000000000     
  -8.3216195618447730E-002  0.30207253666143974        0.0000000000000000     
  -9.0590656095500766E-002  0.26546557399904558        0.0000000000000000     
  -9.0847760283193579E-002  0.27444681792221909        0.0000000000000000     
  -9.1064697093756197E-002  0.28367953618971664        0.0000000000000000     
  -9.1241466527188592E-002  0.29316372880153824        0.0000000000000000     
  -9.1378068583490818E-002  0.30289939575768393        0.0000000000000000     
  -9.8942862315383878E-002  0.26560885778311294        0.0000000000000000     
  -9.9320083673646309E-002  0.27461610302130623        0.0000000000000000     
  -9.9628948871941223E-002  0.28394800375147816        0.0000000000000000     
  -9.9869457910268605E-002  0.29360455997362883        0.0000000000000000     
 -0.10004161078862847       0.30358577168775808        0.0000000000000000     
 -0.10758189044139857       0.26576093477356572        0.0000000000000000     
 -0.10813970484504089       0.27477023599914840        0.0000000000000000     
 -0.10859646494499869       0.28416845802069202        0.0000000000000000     
 -0.10895217074127196       0.29395560083819666        0.0000000000000000     
 -0.10920682223386069       0.30413166445166223        0.0000000000000000     
 -0.11650774047354487       0.26592180497040396        0.0000000000000000     
 -0.11730662379737734       0.27490921685574576        0.0000000000000000     
 -0.11796724531292860       0.28434089899735843        0.0000000000000000     
 -0.11848960502019865       0.29421685139524195        0.0000000000000000     
 -0.11887370291918747       0.30453707404939634        0.0000000000000000     
 </DataArray>
 <DataArray  type="Float64" Name="stress" NumberOfComponents="3" format="ascii">
   6391244734.0210609        260843421.53281879        205163521.35163417     
   6048888245.2418890        120043534.06179857        70664481.115472019     
   5717487454.6727819        15762640.624368906       -16405739.767258240     
   5397042362.3137703       -51999258.779430389       -56047141.296539947     
   5087552968.1648407       -83242164.149621725       -48259723.472376950     
   5685675419.6111794        103966242.80466247        276674828.41781449     
   5466864852.0456820        33567706.226797819        196095552.09251443     
   5254762029.9600964       -14471678.751383781        146876314.83357295     
   5049366953.3544064       -40151912.129886866        129017116.64098050     
   4850679622.2286224       -43472993.908713102        142517957.51474667     
   5127678901.1115274       -8639097.1504380703        363486251.95957333     
   4986503453.9394751       -22409523.081199646        331870794.69326925     
   4847787799.5171423       -27980639.846219301        315546596.20622420     
   4711531937.8445330       -25352447.445493698        314513656.49845624     
   4577735868.9216499       -14524945.879010916        328771975.56994486     
   4717255178.5221291       -76972598.332456589        465597791.97690451     
   4607804050.9232559       -47888153.862203121        477990208.91771758     
   4496564763.3439283       -24764242.660134554        489605104.35070151     
   4383537315.7841463       -7600864.7262523174        500442478.27586788     
   4268721708.2439165        3601979.9394593239        510502330.69321209     
   4454404251.8429594       -101034260.74140573        583009448.46982634     
   4330766642.9970293       -42868186.116204500        634453794.76587260     
   4201092921.4404545       -4822487.1931285858        669051839.26700890     
   4065383087.1732497        13102836.027842760        686803581.97323787     
   3923637140.1954093        10907783.546687365        687709022.88455713     
   5087552968.1648407       -83242164.149621725       -48259723.472376950     
   4966099290.4923086       -44803999.904857874       -17233479.316862099     
   4842439599.0088387       -13719215.029877424        8075514.9991844464     
   4716573893.7144318        10012190.475308895        27667259.475779347     
   4588502174.6090841        26390216.610686779        41541754.112905949     
   4850679622.2286224       -43472993.908713102        142517957.51474667     
   4714357511.2568293       -19932677.700278997        160572790.26132205     
   4576702489.0519600       -835398.93542218208        176345581.39476606     
   4437714555.6140366        13818842.385906696        189836330.91508931     
   4297393710.9430513        24030046.263703823        201045038.82227799     
   4577735868.9216499       -14524945.879010916        328771975.56994486     
   4436360205.2972460       -2938013.5129380226        334874016.58177084     
   4294524733.0176506        7116223.3358311653        342129224.20679671     
   4152229452.0828662        15637764.667311430        350537598.44503409     
   4009474362.4928956        22626610.481490612        360099139.29646713     
   4268721708.2439165        3601979.9394593239        510502330.69321209     
   4132107372.6135669        6179992.6571774483        505670199.64447671     
   3995906330.9058990        10135651.783844709        505426443.43527335     
   3860118583.1209207        15468957.319470644        509771062.06561118     
   3724744129.2586269        22179909.264046907        518704055.53547883     
   3923637140.1954093        10907783.546687365        687709022.88455713     
   3801599013.2057781        7421340.8100585938        672961339.44944322     
   3680847282.7167039        8222886.4086205959        666237239.08020055     
   3561381948.7281923        13312420.342390299        667536721.77682364     
   3443203011.2402444        22689942.611372709        676859787.53930962     
   4588502174.6090841        26390216.610686779        41541754.112905949     
   4369763183.0648336        12721891.182176590        24827331.733171616     
   4151353609.8377657        151626.81092524529        13228455.487883052     
   3933273454.9278722       -11320576.503067493        6745125.3770210398     
   3715522718.3351521       -21694718.759816885        5377341.4006124800     
   4297393710.9430513        24030046.263703823        201045038.82227799     
   4092481085.7029605        13047924.189146042        185610458.06990054     
   3887704146.3454123        2518088.3897280693        175076104.48920795     
   3683062892.8704128       -7559461.1345334053        169441978.08022332     
   3478557325.2779551       -17184724.383653879        168708078.84291455     
   4009474362.4928956        22626610.481490612        360099139.29646713     
   3817772906.5205364        14146132.649926901        345718378.99770862     
   3626013403.9960942        5472166.3114225864        336022526.90789843     
   3434195854.9195662       -3395288.5340347290        331011583.02703238     
   3242320259.2909632       -12456231.886409044        330685547.35510504     
   3724744129.2586269        22179909.264046907        518704055.53547883     
   3545638645.5175810        16016516.564559698        505151094.51660740     
   3366281382.7898169        9013860.5760388374        496067722.74394053     
   3186672341.0753422        1171941.2984740734        491453940.21746421     
   3006811520.3741560       -7509241.2681256533        491309746.93719095     
   3443203011.2402444        22689942.611372709        676859787.53930962     
   3276078302.6940804        18659075.933022499        663908604.62659812     
   3108508082.7265825        13143171.183567166        655211691.99733436     
   2940492351.3377352        6142228.3629558086        650769049.65151989     
   2772031108.5275574       -2343752.5287796259        650580677.58916140     
   3715522718.3351521       -21694718.759816885        5377341.4006124800     
   3549418317.5914803       -16759981.264584303        32203.523729730401     
   3382862506.6607022       -13329944.393028259        83225.482977028907     
   3215855285.5428181       -11404608.145165205        5530407.2783889631     
   3048396654.2378292       -10983972.520984530        16373748.909930946     
   3478557325.2779551       -17184724.383653879        168708078.84291455     
   3325740117.3630672       -11460832.705942869        162838105.05007011     
   3172683474.3503857       -6535058.0208637714        161610776.47803152     
   3019387396.2398968       -2407400.3284767866        165026093.12680194     
   2865851883.0316348        922140.37132263184        173084054.99638721     
   3242320259.2909632       -12456231.886409044        330685547.35510504     
   3100637345.3038907       -6589055.6965301037        324538041.91717601     
   2958926971.3083353       -813412.86824607849        322279667.08470678     
   2817189137.3042936        4870696.5984202623        323910422.85770643     
   2675423843.2917843        10463272.703506231        329430309.23618132     
   3006811520.3741560       -7509241.2681256533        491309746.93719095     
   2874110001.4139400       -2144650.2363430262        485132014.12502527     
   2741592997.5345531        3834991.0648654699        482089897.30299091     
   2609260508.7359972        10429682.635516047        482183396.47109044     
   2477112535.0182734        17639424.475598097        485412511.62933153     
   2772031108.5275574       -2343752.5287796259        650580677.58916140     
   2646158085.6932282        1872383.6746025085        644620021.67363048     
   2520681553.0290451        7410153.7784609795        641041467.13289547     
   2395601510.5350018        14269557.782785892        639845013.96695924     
   2270917958.2110991        22450595.687591434        641030662.17581904     
   3048396654.2378292       -10983972.520984530        16373748.909930946     
   2883740995.0168090       -9871024.8432625532        11786026.927054558     
   2719438781.4301448       -7579925.0510449409        7579994.6230107415     
   2555490013.4778352       -4110673.1443109512        3755651.9977930924     
   2391894691.1598854        536730.87697839737        312999.05140033027     
   2865851883.0316348        922140.37132263184        173084054.99638721     
   2702942048.3493280        1346577.4680229425        166416565.88479799     
   2540210457.2301822        2365159.7752494812        160869216.10438848     
   2377657109.6741991        3977887.2930196524        156442005.65515158     
   2215282005.6813688        6184760.0213201046        153134934.53711870     
   2675423843.2917843        10463272.703506231        329430309.23618132     
   2516369689.2977843        10832156.064096451        320478650.57947755     
   2357318576.7957387        11211177.731184840        313385580.90630895     
   2198270505.7856674        11600337.704854488        308151100.21668375     
   2039225476.2675490        11999635.985050917        304775208.51059371     
   2477112535.0182734        17639424.475598097        485412511.62933153     
   2324023917.8621683        18585710.944938302        473972281.01110613     
   2170763140.1268229        18958128.816812515        465129089.02878451     
   2017330201.8122389        18756678.091233730        458882935.68236285     
   1863725102.9184246        17981358.768200278        455233820.97182435     
   2270917958.2110991        22450595.687591434        641030662.17581904     
   2125904734.0424769        24607242.110553980        626897457.17968869     
   1980544147.2234161        25606013.032068014        616099740.47181785     
   1834836197.7539172        25446908.452125549        608637512.05218542     
   1688780885.6339896        24129928.370743096        604510771.92081356     
   2391894691.1598854        536730.87697839737        312999.05140033027     
   2249294782.8803282        7244738.0651161671       -6611538.9664287083     
   2103547129.3765531        3460261.1725388765       -11287221.814578665     
   1954651730.6485367       -10816699.800842524       -13714049.493038014     
   1802608586.6962957       -35586144.854982376       -13892022.001800345     
   2215282005.6813688        6184760.0213201046        153134934.53711870     
   2077324025.7491093        12815462.309288025        142894425.13813093     
   1937274852.1491735        12475519.038357377        133993614.27510150     
   1795134484.8815880        5164930.2085789442        126432501.94803488     
   1650902923.9463272       -9116304.1800961494        120211088.15694070     
   2039225476.2675490        11999635.985050917        304775208.51059371     
   1903311834.3004990        17773756.258195758        292451371.21310639     
   1766363550.2223620        20099069.494384646        280558075.81785989     
   1628380624.0331159        18975575.693542778        269095322.32484841     
   1489363055.7327778        14403274.855722427        258063110.73406619     
   1863725102.9184246        17981358.768200278        455233820.97182435     
   1727258208.5345254        22119619.911931396        442059299.25850058     
   1590813223.5960886        26330912.540547431        428406162.81369150     
   1454390148.1031227        30615236.654050529        414274411.63739157     
   1317988982.0556242        34972592.252443254        399664045.72960299     
   1688780885.6339896        24129928.370743096        604510771.92081356     
   1549163148.4511669        25853053.270437956        591718209.27431762     
   1410623872.2703724        31171048.176892281        577537875.26260233     
   1273163057.0916064        40083913.090111792        561969769.88566911     
   1136780702.9148719        52591648.010097682        545013893.14352429     
   1802608586.6962957       -35586144.854982376       -13892022.001800345     
   1771610800.8008370       -16630876.630081773       -8268224.8402833082     
   1748647203.5551162        29105020.427256703       -41457375.087462246     
   1733717794.9591537        101621546.31712276       -113459472.74334356     
   1726822575.0128946        200918701.03935641       -224274517.80790803     
   1650902923.9463272       -9116304.1800961494        120211088.15694070     
   1528063562.4811158       -13849594.193896353        135725901.69326043     
   1409379318.5520525       -4732492.4205411077        124872887.17815638     
   1294850192.1591268        18235001.139942169        87652044.611638129     
   1184476183.3023570        55052886.487611413        24063373.993697356     
   1489363055.7327778        14403274.855722427        258063110.73406619     
   1310239602.5757251       -3351328.2334050536        278943357.67933774     
   1131392195.8412309       -20185776.580693126        285900895.93047237     
   952820835.52929711       -36100070.186112761        278935725.48744512     
   774525521.63990617       -51094209.049701065        258047846.35027719     
   1317988982.0556242        34972592.252443254        399664045.72960299     
   1118138921.0846591        14863921.251353681        421384143.11797291     
   914685835.42266083       -17254832.053182960        441626651.16947001     
   707629725.06963098       -61383667.661151946        460391569.88409477     
   496970590.02556092       -117522585.57259846        477678899.26184005     
   1136780702.9148719        52591648.010097682        545013893.14352429     
   951761518.00792015        40796154.260433853        563048258.00914156     
   759260237.29634047        4060341.1620104611        592050152.89515412     
   559276860.78014791       -57615791.285130739        632019577.80156648     
   351811388.45932287       -144232243.08103031        682956532.72838569     
   1726822575.0128946        200918701.03935641       -224274517.80790803     
   1456442965.1511328        184575708.21684009       -96669113.557785049     
   1153900706.9231217        61023887.506837368        60098507.799346894     
   819195800.32884943       -169736761.09070784        246028346.26352239     
   452328245.36829370       -507706237.57586473        461120401.83469403     
   1184476183.3023570        55052886.487611413        24063373.993697356     
   977511166.29463482        11833021.221842051        155512474.91014749     
   732724802.18939066       -157458001.03568894        312782169.94035441     
   450117090.98660994       -452820180.28503090        495872459.08436048     
   129688032.68626815       -874253516.52617621        704783342.34212077     
   774525521.63990617       -51094209.049701065        258047846.35027719     
   621427603.21982706       -124055195.03864232        386738828.74656725     
   424849638.97092116       -341949667.12366509        537908782.26337671     
   184791628.89321423       -704777625.30468130        711557706.90072894     
  -98746427.013300240       -1212539069.5817506        907685602.65857685     
   496970590.02556092       -117522585.57259846        477678899.26184005     
   388192275.92669201       -223088940.56465492        597009947.95147681     
   230275217.26773545       -492451110.75701535        735478344.76841187     
   23219414.048679352       -925609096.14968324        893084089.71260381     
  -232975133.73044884       -1522562896.7426257        1069827182.7840956     
   351811388.45932287       -144232243.08103031        682956532.72838569     
   277805184.41525370       -285268215.35613179        786325832.52488887     
   149001537.07980722       -608962331.93581331        905490857.45544231     
  -34599553.546990216       -1115314592.8200119        1040451607.5200148     
  -272998087.46514803       -1804324998.0087395        1191208082.7186387     
   4454404251.8429594       -101034260.74140573        583009448.46982634     
   4330766642.9970293       -42868186.116204500        634453794.76587260     
   4201092921.4404545       -4822487.1931285858        669051839.26700890     
   4065383087.1732497        13102836.027842760        686803581.97323787     
   3923637140.1954093        10907783.546687365        687709022.88455713     
   4250768547.4051948       -3083947.4145219326        766171726.83099163     
   4083520381.7483549        11371766.224451542        783136822.44001913     
   3913156019.3290091        15440157.321727991        793488644.06316292     
   3739675460.1471519        9121225.8773047924        797227191.70042074     
   3563078704.2027817       -7585028.1088213921        794352465.35179090     
   3949255936.1135507        65503293.856194258        935851030.91101730     
   3767634435.9572978        45019813.202391148        921743444.43918121     
   3585816654.9866657        23882063.167308569        911255611.79047871     
   3403802593.2016454        2090043.7509391308        904387532.96491110     
   3221592250.6022429       -20356245.046705723        901139207.96247852     
   3549866417.9680214        104727463.07074511        1092047360.7099185     
   3383108805.6238499        58075954.817610860        1050273660.7633553     
   3219074828.4134188        20503230.343614817        1022352742.4489547     
   3057764486.3367324       -7990710.3512443304        1008284605.7667060     
   2899177779.3937836       -27405867.266966581        1008069250.7166175     
   3052599992.9686160        114588560.22913671        1234760716.2276802     
   2929943490.7480168        50540191.070121646        1168727471.4125454     
   2812930539.6092825        5303658.8506641388        1126780036.0385900     
   2701561139.5524106       -21121036.429252744        1108918410.1058097     
   2595835290.5774088       -28733894.769602299        1115142593.6142101     
   3923637140.1954093        10907783.546687365        687709022.88455713     
   3801599013.2057781        7421340.8100585938        672961339.44944322     
   3680847282.7167039        8222886.4086205959        666237239.08020055     
   3561381948.7281923        13312420.342390299        667536721.77682364     
   3443203011.2402444        22689942.611372709        676859787.53930962     
   3563078704.2027817       -7585028.1088213921        794352465.35179090     
   3461179717.4105840       -5072996.8089942932        786650938.44795942     
   3360292941.3635063        813070.30790042877        785033211.54479277     
   3260418376.0615449        10073173.241859078        789499284.64229536     
   3161556021.5047088        22707311.992893577        800049157.74046826     
   3221592250.6022429       -20356245.046705723        901139207.96247852     
   3134290166.6783352       -13508410.909167886        900163954.20857751     
   3047726107.7441082       -4200493.4726961851        903332717.39014602     
   2961900073.7995687        7567507.2627255917        910645497.50718057     
   2876812064.8447070        21795591.297079921        922102294.55969131     
   2899177779.3937836       -27405867.266966581        1008069250.7166175     
   2820930361.0090289       -17884901.490461349        1013500386.7313035     
   2743146781.8585200       -6817804.9331414700        1021135756.6162574     
   2665827041.9422550        5795422.4049876928        1030975360.3714846     
   2588971141.2602315        19954780.523919821        1043019197.9969834     
   2595835290.5774088       -28733894.769602299        1115142593.6142101     
   2521100300.4026732       -18202468.552859664        1126660236.0161312     
   2446554963.7067404       -7038864.0734444857        1138442329.2231324     
   2372199280.4896145        4756918.6686615944        1150488873.2352028     
   2298033250.7512856        17184879.673425198        1162799868.0523431     
   3443203011.2402444        22689942.611372709        676859787.53930962     
   3276078302.6940804        18659075.933022499        663908604.62659812     
   3108508082.7265825        13143171.183567166        655211691.99733436     
   2940492351.3377352        6142228.3629558086        650769049.65151989     
   2772031108.5275574       -2343752.5287796259        650580677.58916140     
   3161556021.5047088        22707311.992893577        800049157.74046826     
   3006052406.0195737        19279001.309102654        785667218.61580813     
   2850149719.6862335        14520454.464644313        775831260.17897701     
   2693847962.5046940        8431671.4595150948        770541282.42997456     
   2537147134.4749560        1012652.2937216759        769797285.36880064     
   2876812064.8447070        21795591.297079921        922102294.55969131     
   2733763000.7188039        19219874.097297430        906343779.89175546     
   2590361306.3178444        15468722.647316337        895422956.31601739     
   2446606981.6418185        10542136.947124362        889339823.83248210     
   2302500026.6907368        4440116.9967372417        888094382.44114816     
   2588971141.2602315        19954780.523919821        1043019197.9969834     
   2459210086.7917809        18481694.297614455        1025938288.4544286     
   2329142842.6214113        15987975.731568456        1013986780.4084531     
   2198769408.7491193        12473624.825786352        1007164673.8590504     
   2068089785.1749060        7938641.5802628994        1005471968.8062233     
   2298033250.7512856        17184879.673425198        1162799868.0523431     
   2182393664.2385035        17064461.910064936        1144450744.3038347     
   2066494328.5969334        16078213.717412829        1131522732.4562783     
   1950335243.8265846        14226135.095492482        1124015832.5096693     
   1833916409.9274557        11508226.044309616        1121930044.4640129     
   2772031108.5275574       -2343752.5287796259        650580677.58916140     
   2646158085.6932282        1872383.6746025085        644620021.67363048     
   2520681553.0290451        7410153.7784609795        641041467.13289547     
   2395601510.5350018        14269557.782785892        639845013.96695924     
   2270917958.2110991        22450595.687591434        641030662.17581904     
   2537147134.4749560        1012652.2937216759        769797285.36880064     
   2417907435.5419850        4827357.4012930393        764597331.13865662     
   2299063764.9589658        9962157.0087038279        762210470.32610321     
   2180616122.7259121        16417051.115987182        762636702.93113256     
   2062564508.8427980        24192039.723096728        765876028.95375514     
   2302500026.6907368        4440116.9967372417        888094382.44114816     
   2191125057.4956713        8222812.7594593763        883654591.10617614     
   2080145654.8303690        13324063.621397376        882458885.23158216     
   1969561818.6948354        19743869.582568765        884507264.81736755     
   1859373549.0890741        27482230.642968535        889799729.86353576     
   2068089785.1749060        7938641.5802628994        1005471968.8062233     
   1965810951.5542889        12058749.749103308        1001791801.5762002     
   1863927222.6432483        17495873.616533995        1001786711.8493457     
   1762438598.4417901        24250013.182571650        1005456699.6256655     
   1661345078.9499087        32321168.447198033        1012801764.9051499     
   1833916409.9274557        11508226.044309616        1121930044.4640129     
   1741965117.7178369        16335168.370229721        1119008962.5487180     
   1650408468.3976033        22477586.994105101        1120193950.1793869     
   1559246461.9667745        29935481.915982902        1125485007.3560202     
   1468479098.4253273        38708853.135822654        1134882134.0786109     
   2270917958.2110991        22450595.687591434        641030662.17581904     
   2125904734.0424769        24607242.110553980        626897457.17968869     
   1980544147.2234161        25606013.032068014        616099740.47181785     
   1834836197.7539172        25446908.452125549        608637512.05218542     
   1688780885.6339896        24129928.370743096        604510771.92081356     
   2062564508.8427980        24192039.723096728        765876028.95375514     
   1926498359.7676902        26771959.833296657        753253402.68733847     
   1790174177.1079195        28491767.994631886        744079975.04601038     
   1653591960.8634760        29351464.207053423        738355746.02977169     
   1516751711.0343707        29351048.470606387        736080715.63862407     
   1859373549.0890741        27482230.642968535        889799729.86353576     
   1732579361.7841604        30582890.443424582        878791899.57022297     
   1605616469.9603541        33121201.847574234        871346978.23883724     
   1478484873.6176400        35097164.855369151        867464965.86937404     
   1351184572.7560334        36510779.466847479        867145862.46184337     
   1661345078.9499087        32321168.447198033        1012801764.9051499     
   1544147740.0918796        36040033.940932989        1003512947.8283406     
   1426871025.7807124        39494314.590890884        997900750.05029321     
   1309514936.0164132        42684010.397067904        995965171.57100832     
   1192079470.7989793        45609121.359460175        997706212.39048779     
   1468479098.4253273        38708853.135822654        1134882134.0786109     
   1361203494.6908462        43143390.325805724        1127416547.4616997     
   1253937844.5689998        47611106.224579453        1123741290.4803789     
   1146682148.0597889        52112000.832137287        1123856363.1346664     
   1039436405.1632173        56646074.148487151        1127761765.4245517     
   1688780885.6339896        24129928.370743096        604510771.92081356     
   1549163148.4511669        25853053.270437956        591718209.27431762     
   1410623872.2703724        31171048.176892281        577537875.26260233     
   1273163057.0916064        40083913.090111792        561969769.88566911     
   1136780702.9148719        52591648.010097682        545013893.14352429     
   1516751711.0343707        29351048.470606387        736080715.63862407     
   1374964555.5978594        27849572.748292506        727248402.61558700     
   1233424232.6667042        27170872.043830216        718879216.29078877     
   1092130742.2408848        27314946.357156277        710973156.66419971     
   951084084.32041919        28281795.688337445        703530223.73584318     
   1351184572.7560334        36510779.466847479        867145862.46184337     
   1212516279.2470922        33371187.176935911        861303565.81615949     
   1073263189.7468107        28282274.915892959        857775293.93212998     
   933425304.25519729        21244042.683737457        856561046.80975890     
   793002622.77224553        12256490.480467469        857660824.44905519     
   1192079470.7989793        45609121.359460175        997706212.39048779     
   1061818319.3988529        42417896.556317627        993883698.87601066     
   930140743.51070976        34505256.793117285        994226108.18663168     
   797046743.13453722        21871202.069823623        998733440.32234967     
   662536318.27035356        4515732.3864853978        1007405695.2831621     
   1039436405.1632173        56646074.148487151        1127761765.4245517     
   922870676.05314744        54989700.886472762        1124988801.7951562     
   804056893.95837605        45839817.675436825        1128231659.0542915     
   682995058.87890077        29196424.515401483        1137490337.2019629     
   559685170.81473017        5059521.4063705206        1152764836.2381728     
   1136780702.9148719        52591648.010097682        545013893.14352429     
   951761518.00792015        40796154.260433853        563048258.00914156     
   759260237.29634047        4060341.1620104611        592050152.89515412     
   559276860.78014791       -57615791.285130739        632019577.80156648     
   351811388.45932287       -144232243.08103031        682956532.72838569     
   951084084.32041919        28281795.688337445        703530223.73584318     
   791832722.46407819        11094930.751704156        721404949.46374381     
   623965976.61641300       -34809880.822681874        749377710.09946644     
   447483846.77743584       -109432639.03477293        787448505.64302862     
   262386332.94712901       -212773343.88462678        835617336.09442365     
   793002622.77224553        12256490.480467469        857660824.44905519     
   657034812.21632206       -11067027.168204695        874053741.48808873     
   511318329.48237664       -66886118.743614346        899675198.32238019     
   355853174.57042485       -155200784.24572498        934525194.95194006     
   190639347.48044822       -276011023.67457271        978603731.37677097     
   662536318.27035356        4515732.3864853978        1007405695.2831621     
   547367787.26465368       -25689719.499281466        1020994634.0821856     
   421317295.89423990       -92168372.600766599        1042942617.5639042     
   284384844.15911275       -194920226.91796389        1073249645.7283111     
   136570432.05927253       -333945282.45086539        1111915718.5754321     
   559685170.81473017        5059521.4063705206        1152764836.2381728     
   462831647.60906887       -32773146.241539776        1162227627.2460299     
   353962875.85199094       -110656642.39417249        1179179967.8240221     
   233078855.54351103       -228590967.05147809        1203621857.9721472     
   100179586.68361560       -386576120.21350241        1235553297.6903975     
   351811388.45932287       -144232243.08103031        682956532.72838569     
   277805184.41525370       -285268215.35613179        786325832.52488887     
   149001537.07980722       -608962331.93581331        905490857.45544231     
  -34599553.546990216       -1115314592.8200119        1040451607.5200148     
  -272998087.46514803       -1804324998.0087395        1191208082.7186387     
   262386332.94712901       -212773343.88462678        835617336.09442365     
   223663222.29264128       -352373265.00007504        885008216.38241529     
   140695141.41957730       -639456420.17744398        945412816.18383777     
   13482090.327938437       -1074022809.4167194        1016831135.4986488     
  -157975930.98227900       -1656072432.7179544        1099263174.3269007     
   190639347.48044822       -276011023.67457271        978603731.37677097     
   173536457.01377708       -418273755.59086716        986327410.74117517     
   122741069.40131906       -672844811.32647073        1000282803.9983665     
   38253184.643063009       -1039724190.8813989        1020469911.1483500     
  -79927197.260991931       -1518911894.2556305        1046888732.1911390     
   136570432.05927253       -333945282.45086539        1111915718.5754321     
   127424888.57865164       -482969687.12855095        1090283415.6011491     
   95139321.025025964       -709127505.38291419        1070100820.8990396     
   39713729.398379982       -1012418737.2140123        1051367934.4691060     
  -38851886.301266015       -1392843382.6217816        1034084756.3113474     
   100179586.68361560       -386576120.21350241        1235553297.6903975     
   85328516.987267554       -546461059.61311245        1196876230.9623549     
   57889896.290706187       -748304502.34677219        1154866866.8858576     
   17863724.593903124       -992106448.41455185        1109525205.4609172     
  -34749998.103115559       -1277866897.8164053        1060851246.6875348     
   3052599992.9686160        114588560.22913671        1234760716.2276802     
   2929943490.7480168        50540191.070121646        1168727471.4125454     
   2812930539.6092825        5303658.8506641388        1126780036.0385900     
   2701561139.5524106       -21121036.429252744        1108918410.1058097     
   2595835290.5774088       -28733894.769602299        1115142593.6142101     
   2518478913.0332046       -1199686.3009017706        1233931971.9072752     
   2459464500.0054607       -19045365.766014457        1202756999.9201286     
   2403196678.7774405       -27735739.232053280        1185789512.5569494     
   2349675449.3491354       -27270806.699030519        1183029509.8177292     
   2298900811.7205548       -17650568.166937709        1194476991.7024798     
   2084081219.4473183       -87070916.926084161        1245220067.7845531     
   2060485110.4204023       -67181042.254896641        1245523582.7962239     
   2036738633.9110548       -47792392.525126934        1250156257.6146452     
   2012841789.9192824       -28904967.736784816        1259118092.2398210     
   1988794578.4450858       -10518767.889855981        1272409086.6717479     
   1749406912.2109675       -143025131.64640594        1268625003.8595095     
   1733005321.9928331       -93866838.396528363        1297027220.0408285     
   1713556405.0101283       -54866301.028571367        1319880271.2116852     
   1691060161.2628527       -26023519.542505503        1337184157.3720803     
   1665516590.7510028       -7338493.9383625984        1348938878.5220208     
   1514455991.3241403       -169062330.46186894        1304146780.1321495     
   1477025134.7227604       -99102754.190921366        1357267911.6539447     
   1433649992.0746608       -48957464.742366314        1394961553.3480611     
   1384330563.3798418       -18626462.116213441        1417227705.2145076     
   1329066848.6383066       -8109746.3124464154        1424066367.2532859     
   2595835290.5774088       -28733894.769602299        1115142593.6142101     
   2521100300.4026732       -18202468.552859664        1126660236.0161312     
   2446554963.7067404       -7038864.0734444857        1138442329.2231324     
   2372199280.4896145        4756918.6686615944        1150488873.2352028     
   2298033250.7512856        17184879.673425198        1162799868.0523431     
   2298900811.7205548       -17650568.166937709        1194476991.7024798     
   2225744337.8789706       -10412636.260299802        1202281909.9238088     
   2152697697.0102673       -2808594.4440571070        1211796657.8217402     
   2079760889.1144447        5161557.2817834616        1223021235.3962791     
   2006933914.1915050        13497818.917235732        1235955642.6474230     
   1988794578.4450858       -10518767.889855981        1272409086.6717479     
   1921346274.8553219       -5335434.1177234650        1276408156.7889013     
   1853927983.7325153       -52058.789060115814        1283562435.4541943     
   1786539705.0766709        5331358.0961405039        1293871922.6676292     
   1719181438.8877847        10814816.537869215        1307336618.4292030     
   1665516590.7510028       -7338493.9383625984        1348938878.5220208     
   1607906111.3317258       -2970862.1251314878        1349038976.6114235     
   1550245823.8734889        1230742.8915628195        1353739662.1204998     
   1492535728.3762844        5266321.1117023826        1363040935.0492516     
   1434775824.8401241        9135872.5353179574        1376942795.3976777     
   1329066848.6383066       -8109746.3124464154        1424066367.2532859     
   1285423847.3081858       -3318920.2825243473        1420174369.3913667     
   1241651217.4331827        1039810.5977918506        1422328337.8206520     
   1197748959.0132952        4966446.3284948468        1430528272.5411487     
   1153717072.0485234        8460986.9095848799        1444774173.5528524     
   2298033250.7512856        17184879.673425198        1162799868.0523431     
   2182393664.2385035        17064461.910064936        1144450744.3038347     
   2066494328.5969334        16078213.717412829        1131522732.4562783     
   1950335243.8265846        14226135.095492482        1124015832.5096693     
   1833916409.9274557        11508226.044309616        1121930044.4640129     
   2006933914.1915050        13497818.917235732        1235955642.6474230     
   1905191857.9706376        13058441.373610139        1218484335.5845537     
   1803273299.6847813        12030723.613352776        1206355930.6407230     
   1701178239.3339367        10414665.636465430        1199570427.8159420     
   1598906676.9181032        8210267.4429540634        1198127827.1102066     
   1719181438.8877847        10814816.537869215        1307336618.4292030     
   1631113456.4391100        9989442.2580733299        1290840249.6263864     
   1542952218.9892364        8853217.9742816687        1279608573.1607146     
   1454697726.5381653        7406143.6864980459        1273641589.0321848     
   1366349979.0858998        5648219.3947333694        1272939297.2407932     
   1434775824.8401241        9135872.5353179574        1376942795.3976777     
   1360158459.6439118        7857464.5634272099        1361518486.4293482     
   1285531086.5102897        6545696.8001765609        1351280660.0162573     
   1210893705.4392703        5200569.2455984950        1346229316.1583979     
   1136246316.4308419        3822081.8996579647        1346364454.8557785     
   1153717072.0485234        8460986.9095848799        1444774173.5528524     
   1092326867.5850437        6662508.2896798849        1430519045.9934344     
   1031009902.2479544        5108160.0910765529        1421372191.2073450     
   969766176.03724849        3797942.3137515187        1417333609.1945887     
   908595688.95293510        2731854.9577345252        1418403299.9551620     
   1833916409.9274557        11508226.044309616        1121930044.4640129     
   1741965117.7178369        16335168.370229721        1119008962.5487180     
   1650408468.3976033        22477586.994105101        1120193950.1793869     
   1559246461.9667745        29935481.915982902        1125485007.3560202     
   1468479098.4253273        38708853.135822654        1134882134.0786109     
   1598906676.9181032        8210267.4429540634        1198127827.1102066     
   1517651457.0857205        12633100.127605855        1196576880.2251430     
   1436785263.3423696        18352686.442374945        1199240867.8476670     
   1356308095.6880591        25369026.387278438        1206119789.9777753     
   1276219954.1227882        33682119.962302506        1217213646.6154718     
   1366349979.0858998        5648219.3947333694        1272939297.2407932     
   1296101874.3782456        9760255.2623661160        1272751932.4522128     
   1226237178.9592791        15150322.092281818        1276888367.1328466     
   1156755892.8289943        21818419.884472728        1285348601.2826915     
   1087658015.9873900        29764548.638934791        1298132634.9017475     
   1136246316.4308419        3822081.8996579647        1346364454.8557785     
   1077316369.5954261        7716633.7745371461        1347534119.2299356     
   1018764215.2483313        12870493.943824589        1353136448.0349302     
   960589853.38957131        19283662.407554388        1363171441.2707603     
   902793284.01913726        26956139.165705681        1377639098.9374268     
   908595688.95293510        2731854.9577345252        1418403299.9551620     
   861294942.73724401        6502235.6640761495        1420923440.5583138     
   814366372.20953608        11513201.997027934        1427985110.5539212     
   767809977.36979580        17764753.956535697        1439588309.9419918     
   721625758.21803045        25256891.542627037        1455733038.7225261     
   1468479098.4253273        38708853.135822654        1134882134.0786109     
   1361203494.6908462        43143390.325805724        1127416547.4616997     
   1253937844.5689998        47611106.224579453        1123741290.4803789     
   1146682148.0597889        52112000.832137287        1123856363.1346664     
   1039436405.1632173        56646074.148487151        1127761765.4245517     
   1276219954.1227882        33682119.962302506        1217213646.6154718     
   1179138970.7542109        37319465.267332196        1211205966.2188342     
   1081947271.8049371        40587758.636709154        1209433939.2107360     
   984644857.27498114        43487000.070480227        1211897565.5911870     
   887231727.16432726        46017189.568579853        1218596845.3601871     
   1087658015.9873900        29764548.638934791        1298132634.9017475     
   1002044006.5645597        32986408.132942140        1293442079.9998333     
   916198612.36771286        35436985.046890348        1293432502.2394121     
   830121833.39685166        37116279.380796582        1298103901.6204846     
   743813669.65197122        38024291.134636134        1307456278.1430492     
   902793284.01913726        26956139.165705681        1377639098.9374268     
   829918602.12190175        30144218.922646016        1374124888.8046989     
   756691866.25732648        32158785.455122918        1375736979.5664039     
   683113076.42541230        32999838.763135016        1382475371.2225528     
   609182232.62615550        32667378.846666157        1394340063.7731431     
   721625758.21803045        25256891.542627037        1455733038.7225261     
   662762757.42623818        28792897.636464775        1453254392.6334312     
   603427033.47377503        30753159.861394316        1456347371.1917176     
   543618586.36065650        31137678.217472225        1465011974.3973954     
   483337416.08686280        29946452.704633176        1479248202.2504597     
   1039436405.1632173        56646074.148487151        1127761765.4245517     
   922870676.05314744        54989700.886472762        1124988801.7951562     
   804056893.95837605        45839817.675436825        1128231659.0542915     
   682995058.87890077        29196424.515401483        1137490337.2019629     
   559685170.81473017        5059521.4063705206        1152764836.2381728     
   887231727.16432726        46017189.568579853        1218596845.3601871     
   785992951.17140174        43849880.770138949        1216225224.4933589     
   682524360.29860067        34249855.705445886        1219745654.8749683     
   576825954.54591489        17217114.374464542        1229158136.5050268     
   468897733.91334486       -7248343.2227914333        1244462669.3835256     
   743813669.65197122        38024291.134636134        1307456278.1430492     
   657548219.23307478        35239958.536850721        1305507277.8277473     
   569071192.03911388        25083703.355522305        1309326559.1207888     
   478382588.07009113        7555525.5906498730        1318914122.0221839     
   385482407.32600826       -17344574.757752120        1334269966.5319271     
   609182232.62615550        32667378.846666157        1394340063.7731431     
   537536480.23815286        29159934.186564028        1392834961.7983179     
   463697389.17991805        18341360.625682324        1396974371.7917531     
   387664959.45143658        211658.16397586465        1406758293.7534475     
   309439191.05272692       -25229173.198486269        1422186727.6834009     
   483337416.08686280        29946452.704633176        1479248202.2504597     
   425957734.18665266        25609807.719330490        1478208276.4050720     
   366402951.72102010        14022827.515945032        1482689092.8878551     
   304673068.68996334       -4814487.9055171311        1492690651.6988008     
   240768085.09349462       -30902138.545018971        1508212952.8379147     
   559685170.81473017        5059521.4063705206        1152764836.2381728     
   462831647.60906887       -32773146.241539776        1162227627.2460299     
   353962875.85199094       -110656642.39417249        1179179967.8240221     
   233078855.54351103       -228590967.05147809        1203621857.9721472     
   100179586.68361560       -386576120.21350241        1235553297.6903975     
   468897733.91334486       -7248343.2227914333        1244462669.3835256     
   391072917.37138838       -41487107.823993519        1242979598.0658178     
   303079457.53493917       -109621350.07349911        1247815081.6008098     
   204917354.40400249       -211651069.97129625        1258969119.9885190     
   96586607.978568822       -347576267.51742238        1276441713.2289238     
   385482407.32600826       -17344574.757752120        1334269966.5319271     
   323340598.25512135       -48993146.070016518        1323995405.6883862     
   252876751.14665928       -108381844.17420085        1318868404.9801347     
   174090866.00062945       -195510669.07028043        1318888964.4071617     
   86982942.817021370       -310379620.75827914        1324057083.9694757     
   309439191.05272692       -25229173.198486269        1422186727.6834009     
   259634690.26026407       -55291260.979626581        1405275050.1137674     
   203354756.68715373       -106938124.69626361        1392339937.9619911     
   140599390.33338535       -180169764.34842923        1383381391.2280760     
   71368591.198961675       -274986179.93610966        1378399409.9120259     
   240768085.09349462       -30902138.545018971        1508212952.8379147     
   199955193.38682708       -60381452.552797258        1486818531.3419311     
   154513474.15642154       -105290191.63969937        1468229680.5463812     
   104442927.40227848       -165628355.80572647        1452446400.4512718     
   49743553.124403432       -241395945.05086306        1439468691.0565898     
   100179586.68361560       -386576120.21350241        1235553297.6903975     
   85328516.987267554       -546461059.61311245        1196876230.9623549     
   57889896.290706187       -748304502.34677219        1154866866.8858576     
   17863724.593903124       -992106448.41455185        1109525205.4609172     
  -34749998.103115559       -1277866897.8164053        1060851246.6875348     
   96586607.978568822       -347576267.51742238        1276441713.2289238     
   79718592.701342195       -488746785.25873029        1222076246.5491428     
   51469238.604542673       -667855099.06528962        1165172867.9267447     
   11838545.688185871       -884901208.93704534        1105731577.3617258     
  -39173486.047754705       -1139885114.8740666        1043752374.8541285     
   86982942.817021370       -310379620.75827914        1324057083.9694757     
   70367654.547016919       -432154815.06487477        1255410464.8820374     
   43577239.638098598       -587847098.16785121        1185020319.2578342     
   6611698.0902643800       -777456470.06721342        1112886647.0968587     
  -40528970.096491694       -1000982930.7629706        1039009448.3991112     
   71368591.198961675       -274986179.93610966        1378399409.9120259     
   57275702.524278075       -376685149.03156662        1296878885.9610460     
   34213899.391345441       -508280499.65452558        1214409220.8791273     
   2183181.8001509011       -669772231.80503237        1130990414.6662853     
  -38816450.249315083       -861160345.48310030        1046622467.3224951     
   49743553.124403432       -241395945.05086306        1439468691.0565898     
   40442736.633149475       -322337787.15874219        1346481509.7861605     
   23379217.864300668       -429155303.52527076        1253339572.7906375     
  -1447003.1821605265       -561848494.15050995        1160042880.0700016     
  -34035926.506230265       -720417359.03444433        1066591431.6242744     
   1514455991.3241403       -169062330.46186894        1304146780.1321495     
   1477025134.7227604       -99102754.190921366        1357267911.6539447     
   1433649992.0746608       -48957464.742366314        1394961553.3480611     
   1384330563.3798418       -18626462.116213441        1417227705.2145076     
   1329066848.6383066       -8109746.3124464154        1424066367.2532859     
   1333276169.9898207        22633156.219309568        1451919505.3151407     
   1252162695.5126238        32773178.842422664        1461835217.2307155     
   1168512329.7355902        34456897.132751405        1467380917.6035991     
   1082325072.6587191        27684311.090286672        1468556606.4338012     
   993600924.28201044        12455420.715031385        1465362283.7213089     
   1026991190.6653464        176797095.50343665        1579737364.9912701     
   933787893.41229057        136595403.00871366        1550422951.1719832     
   841455099.60627782        99295388.670799136        1527796004.0949934     
   749992809.24731064        64897052.489704192        1511856523.7603052     
   659401022.33538365        33400394.465409875        1502604510.1679094     
   595601053.35071552        293429487.39052016        1687600359.1605279     
   521900728.42175770        212363918.30794299        1623031113.4777486     
   452478301.68672228        145558009.87177601        1576206812.8222444     
   387333773.14561301        93011762.082026765        1547127457.1940238     
   326467142.79842591        54725174.938687451        1535793046.5930872     
   39105758.045930803        372530331.88055581        1775508487.8229227     
   16501200.541026965        260078724.74011385        1679659704.1480024     
   1581935.9769231603        173244760.73567402        1612613343.7853494     
  -5652035.6463691592        112028439.86727253        1574369406.7349613     
  -5200714.3288617656        76429762.134869367        1564927892.9968412     
   1329066848.6383066       -8109746.3124464154        1424066367.2532859     
   1285423847.3081858       -3318920.2825243473        1420174369.3913667     
   1241651217.4331827        1039810.5977918506        1422328337.8206520     
   1197748959.0132952        4966446.3284948468        1430528272.5411487     
   1153717072.0485234        8460986.9095848799        1444774173.5528524     
   993600924.28201044        12455420.715031385        1465362283.7213089     
   963148159.07453978        11500780.819549561        1461774245.3375728     
   933117671.22998381        11953732.133784056        1463612452.8936074     
   903509460.74834275        13814274.657737017        1470876906.3894086     
   874323527.62962103        17082408.391416907        1483567605.8249815     
   659401022.33538365        33400394.465409875        1502604510.1679094     
   640367863.67502236        26169099.771852821        1499964321.4881227     
   622308888.28537762        22185082.647354037        1502130658.3966680     
   605224096.16644597        21448343.091895849        1509103520.8935461     
   589113487.31823087        23958881.105495930        1520882908.9787531     
   326467142.79842591        54725174.938687451        1535793046.5930872     
   317082961.10963869        40686036.574404143        1534744597.8430164     
   309224868.59936446        31733862.138496928        1537882954.3298378     
   302892865.26760602        27868651.630978376        1545208116.0535524     
   298086951.11436081        29090405.051834323        1556720083.0141623     
  -5200714.3288617656        76429762.134869367        1564927892.9968412     
  -6706548.6216169447        55051591.227183871        1566115074.4022534     
  -6134387.8280525263        40600070.607230358        1570869340.6931167     
  -3484231.9481800199        33075200.274970822        1579190691.8694386     
   1243919.0180076435        32476980.230427776        1591079127.9312143     
   1153717072.0485234        8460986.9095848799        1444774173.5528524     
   1092326867.5850437        6662508.2896798849        1430519045.9934344     
   1031009902.2479544        5108160.0910765529        1421372191.2073450     
   969766176.03724849        3797942.3137515187        1417333609.1945887     
   908595688.95293510        2731854.9577345252        1418403299.9551620     
   874323527.62962103        17082408.391416907        1483567605.8249815     
   826820732.06061780        15457076.071296811        1467517540.7864411     
   779292313.64383769        13746334.258583337        1457001868.3626738     
   731738272.37927496        11950182.953264356        1452020588.5536883     
   684158608.26693630        10068622.155356407        1452573701.3594770     
   589113487.31823087        23958881.105495930        1520882908.9787531     
   556715585.90498388        22871940.663548023        1502922567.4912231     
   524193199.66978931        21370050.815109789        1490922738.4599171     
   491546328.61264759        19453211.560180843        1484883421.8848345     
   458774972.73355788        17121422.898757771        1484804617.7659793     
   298086951.11436081        29090405.051834323        1556720083.0141623     
   282011429.11814374        28907102.066438988        1536734126.1077852     
   265712560.32581186        27979309.760661289        1523134801.4990759     
   249190344.73736590        26307028.134504512        1515922109.1880414     
   232444782.35279950        23890257.187945172        1515096049.1746750     
   1243919.0180076435        32476980.230427776        1591079127.9312143     
   2708261.7000971241        33562560.279969677        1568952216.6361227     
   3850395.6119017312        33574111.095227987        1553638057.4801488     
   4670320.7534274161        32511632.676223207        1545136650.4632938     
   5168037.1246653004        30375125.022926465        1543447995.5855579     
   908595688.95293510        2731854.9577345252        1418403299.9551620     
   861294942.73724401        6502235.6640761495        1420923440.5583138     
   814366372.20953608        11513201.997027934        1427985110.5539212     
   767809977.36979580        17764753.956535697        1439588309.9419918     
   721625758.21803045        25256891.542627037        1455733038.7225261     
   684158608.26693630        10068622.155356407        1452573701.3594770     
   648164474.58199561        11942479.481643200        1455128193.8812633     
   612380420.22570431        14516601.236761659        1462276210.5065677     
   576806445.19805861        17790987.420701504        1474017751.2353821     
   541442549.49905932        21765638.033457100        1490352816.0677125     
   458774972.73355788        17121422.898757771        1484804617.7659793     
   434236007.89665675        17143323.740174800        1487204349.7871923     
   409745026.02907526        17325167.812655374        1494249600.6229696     
   385302027.13081503        17666955.116208464        1505940370.2733138     
   360907011.20187485        18168685.650826484        1522276658.7382231     
   232444782.35279950        23890257.187945172        1515096049.1746750     
   219509542.68123007        22104768.439677566        1517151908.2760992     
   206460189.61965400        19938901.724725142        1523905280.9031348     
   193296723.16806459        17392657.043060184        1535356167.0557935     
   180019143.32647815        14466034.394737229        1551504566.7340646     
   5168037.1246653004        30375125.022926465        1543447995.5855579     
   3985078.9357134309        26826813.580150001        1544970869.3479738     
   2525910.9974293867        22357802.972932264        1551243251.3470623     
   790533.30981355812        16968093.201276284        1562265141.5828168     
  -1221054.1271372330        10657684.265169036        1578036540.0552404     
   721625758.21803045        25256891.542627037        1455733038.7225261     
   662762757.42623818        28792897.636464775        1453254392.6334312     
   603427033.47377503        30753159.861394316        1456347371.1917176     
   543618586.36065650        31137678.217472225        1465011974.3973954     
   483337416.08686280        29946452.704633176        1479248202.2504597     
   541442549.49905932        21765638.033457100        1490352816.0677125     
   496503129.66987324        22865680.612206906        1487416474.3814285     
   451352344.27360147        23261171.300671399        1490181100.3686359     
   405990193.31024384        22952110.098850846        1498646694.0293245     
   360416676.77980232        21938497.006748006        1512813255.3635025     
   360907011.20187485        18168685.650826484        1522276658.7382231     
   330260723.83842480        16943630.165419012        1519187538.6472740     
   299664428.50147164        15885214.768334121        1521928729.2559073     
   269118125.19101501        14993439.459571093        1530500230.5641210     
   238621813.90705609        14268304.239133805        1544902042.5719182     
   180019143.32647815        14466034.394737229        1551504566.7340646     
   164035539.93189812        11026746.296113469        1548567585.4309568     
   148363286.15739554        8625290.2644133866        1551590257.8535314     
   133002382.00297719        7261666.2996620461        1560572584.0017817     
   117952827.46863465        6935874.4018287063        1575514563.8757126     
  -1221054.1271372330        10657684.265169036        1578036540.0552404     
  -2172422.0497099953        5115029.0042801546        1575556614.7324908     
  -2551082.7586202058        1481397.7889324198        1579165686.1615164     
  -2357036.2538780668       -243209.38090678991        1588863754.3423154     
  -1590282.5354681602       -58792.505187469244        1604650819.2748888     
   483337416.08686280        29946452.704633176        1479248202.2504597     
   425957734.18665266        25609807.719330490        1478208276.4050720     
   366402951.72102010        14022827.515945032        1482689092.8878551     
   304673068.68996334       -4814487.9055171311        1492690651.6988008     
   240768085.09349462       -30902138.545018971        1508212952.8379147     
   360416676.77980232        21938497.006748006        1512813255.3635025     
   317725458.22144550        18953657.431390107        1509903826.4149737     
   273375770.58738005        10440587.603675961        1512460517.9989481     
   227367613.87762326       -3600712.4763476551        1520483330.1154239     
   179700988.09216166       -23170242.808716424        1533972262.7644057     
   238621813.90705609        14268304.239133805        1544902042.5719182     
   210462996.41721863        12588451.391720518        1540725847.2582567     
   181162341.34139979        7102473.2577048317        1541961150.6814337     
   150719848.67960325       -2189630.1629021615        1548607952.8414478     
   119135518.43182525       -15287858.870118245        1560666253.7382903     
   117952827.46863465        6935874.4018287063        1575514563.8757126     
   104170348.77398680        6514189.6003644243        1570674338.9349239     
   89762663.983077168        4008484.4780276641        1571190990.9353108     
   74729773.095909372       -581240.96516881511        1577064519.8768637     
   59071676.112484798       -7254986.7292229459        1588294925.7595885     
  -1590282.5354681602       -58792.505187469244        1604650819.2748888     
  -1152484.7082557881        730872.05730175949        1599749301.4449825     
  -823261.48758371687        1158621.2646573442        1600150038.7605829     
  -602612.87344750972        1224455.1168926896        1605853031.2216823     
  -490538.86585846625        928373.61397151579        1616858278.8282883     
   240768085.09349462       -30902138.545018971        1508212952.8379147     
   199955193.38682708       -60381452.552797258        1486818531.3419311     
   154513474.15642154       -105290191.63969937        1468229680.5463812     
   104442927.40227848       -165628355.80572647        1452446400.4512718     
   49743553.124403432       -241395945.05086306        1439468691.0565898     
   179700988.09216166       -23170242.808716424        1533972262.7644057     
   148492021.96208435       -45562789.829908162        1508106508.3100138     
   113824833.97224861       -79482743.050291851        1485187410.4479659     
   75699424.122649968       -124930102.46988592        1465214969.1782680     
   34115792.413297869       -181904868.08865961        1448189184.5009151     
   119135518.43182525       -15287858.870118245        1560666253.7382903     
   97933580.426649868       -30472708.140219927        1531694872.9334722     
   74444026.225692958       -53282944.729593307        1505811234.6129062     
   48666855.828948207       -83718568.638260901        1483015338.7765906     
   20602069.236426204       -121779579.86618601        1463307185.4245317     
   59071676.112484798       -7254986.7292229459        1588294925.7595885     
   48279868.780515730       -15111207.483761575        1557583625.2123120     
   36371050.916751891       -26690796.677613307        1530101153.0411954     
   23345222.521167107       -41993754.310869582        1505847509.2462428     
   9202383.5937873088       -61020080.383442581        1484822693.8274450     
  -490538.86585846625        928373.61397151579        1616858278.8282883     
  -469112.97630076169        521712.13952871109        1585772765.1465237     
  -394091.95457495749        293701.10564762645        1558057165.7328341     
  -265475.80068185419        244340.51232385851        1533711480.5872133     
  -83264.514615023829        373630.35957848688        1512735709.7096543     
   49743553.124403432       -241395945.05086306        1439468691.0565898     
   40442736.633149475       -322337787.15874219        1346481509.7861605     
   23379217.864300668       -429155303.52527076        1253339572.7906375     
  -1447003.1821605265       -561848494.15050995        1160042880.0700016     
  -34035926.506230265       -720417359.03444433        1066591431.6242744     
   34115792.413297869       -181904868.08865961        1448189184.5009151     
   29906246.750955626       -241746192.87216181        1347694313.8947659     
   19872207.577729285       -321002496.02528173        1246401211.0380156     
   4013674.8936177492       -419673777.54801559        1144309875.9306760     
  -17669351.301382363       -537760037.44038355        1041420308.5727457     
   20602069.236426204       -121779579.86618601        1463307185.4245317     
   19645290.044434398       -161071938.63289627        1357565869.0438356     
   14802226.108287960       -213318579.88012198        1250382843.8870502     
   6072877.4279649407       -278519503.60793757        1141758109.9541755     
  -6542755.9965258092       -356674709.81630677        1031691667.2452048     
   9202383.5937873088       -61020080.383442581        1484822693.8274450     
   9659866.5135894902       -80315024.440926179        1376096175.2333739     
   8169273.4559549391       -106103555.08986554        1265284471.3377264     
   4730604.4208666980       -138385672.33031303        1152387582.1404850     
  -656140.59166517854       -177161376.16224208        1037405507.6416631     
  -83264.514615023829        373630.35957848688        1512735709.7096543     
  -50023.841572432400        524549.70376878988        1403285232.4633882     
  -26650.379247887526        642578.34556491021        1291106093.3900337     
  -13144.127657310601        727716.28491585865        1176198292.4896021     
  -9505.0867949369422        779963.52183876897        1058561829.7621118     
   39105758.045930803        372530331.88055581        1775508487.8229227     
   16501200.541026965        260078724.74011385        1679659704.1480024     
   1581935.9769231603        173244760.73567402        1612613343.7853494     
  -5652035.6463691592        112028439.86727253        1574369406.7349613     
  -5200714.3288617656        76429762.134869367        1564927892.9968412     
  -612448247.01388764        94916796.968840808        1580560744.1223304     
  -553266164.85256970        60084414.951270074        1538005908.8190942     
  -490433468.59014738        37420746.604048580        1511649321.0723350     
  -423950158.22661895        26925791.927180082        1501490980.8820472     
  -353816233.76198459        28599550.920661733        1507530888.2482302     
  -1112621041.1923618       -137282374.67847252        1408383191.2409205     
  -1007664250.0956609       -105299110.79241875        1414415178.9963920     
  -903091523.73755610       -74596062.701685399        1424041238.5525420     
  -798902862.11804354       -45173230.406259984        1437261369.9093711     
  -695098265.23712838       -17030613.906158894        1454075573.0668771     
  -1461412624.4894891       -324067183.06137931        1258975829.1787031     
  -1346693055.1882463       -236071852.49095586        1308887514.6798952     
  -1236392229.4653015       -162805667.18152186        1349789096.2259715     
  -1130510147.3206484       -104268627.13306159        1381680573.8169317     
  -1029046808.7542897       -60460732.345583081        1404561947.4527767     
  -1658822996.9052725       -465437628.17988634        1132338657.9356666     
  -1570352580.1303308       -332233810.14434588        1221422915.8695965     
  -1490335585.7733805       -227208066.83544919        1288892894.0926201     
  -1418772013.8344252       -150360398.25319898        1334748592.6047306     
  -1355661864.3134680       -101690804.39760906        1358990011.4059315     
  -5200714.3288617656        76429762.134869367        1564927892.9968412     
  -6706548.6216169447        55051591.227183871        1566115074.4022534     
  -6134387.8280525263        40600070.607230358        1570869340.6931167     
  -3484231.9481800199        33075200.274970822        1579190691.8694386     
   1243919.0180076435        32476980.230427776        1591079127.9312143     
  -353816233.76198459        28599550.920661733        1507530888.2482302     
  -342256641.47075808        19458675.172912821        1513012614.8256721     
  -329892060.04274738        13001096.547778890        1522153593.4684284     
  -316722489.47794992        9226815.0452664793        1534953824.1765003     
  -302747929.77637136        8135830.6653575003        1551413306.9498842     
  -695098265.23712838       -17030613.906158894        1454075573.0668771     
  -670209911.56231916       -13855194.054087549        1462366671.2085636     
  -645789574.70025659       -12239830.244503498        1474409188.5954247     
  -621837254.65094078       -12184522.477410853        1490203125.2274611     
  -598352951.41437197       -13689270.752805948        1509748481.1046717     
  -1029046808.7542897       -60460732.345583081        1404561947.4527767     
  -990566358.89630151       -44890016.453821003        1414177243.5509229     
  -953826931.80058801       -35122709.769640982        1427636126.0741026     
  -918828527.46715188       -31158812.293054163        1444938595.0223176     
  -885571145.89599252       -32998324.024055332        1466084650.3955691     
  -1355661864.3134680       -101690804.39760906        1358990011.4059315     
  -1303325983.4726961       -73645792.026262999        1368444331.8527517     
  -1254004131.3437376       -55647542.027622163        1381834405.9044669     
  -1207696307.9265795       -47696054.401654541        1399160233.5610778     
  -1164402513.2212322       -49791329.148387194        1420421814.8225811     
   1243919.0180076435        32476980.230427776        1591079127.9312143     
   2708261.7000971241        33562560.279969677        1568952216.6361227     
   3850395.6119017312        33574111.095227987        1553638057.4801488     
   4670320.7534274161        32511632.676223207        1545136650.4632938     
   5168037.1246653004        30375125.022926465        1543447995.5855579     
  -302747929.77637136        8135830.6653575003        1551413306.9498842     
  -284226992.51502448        9412856.3477462977        1531675830.7863266     
  -265849002.54802281        10213391.048986986        1518201880.0908837     
  -247613959.87536383        10537434.769084483        1510991454.8635564     
  -229521864.49704945        10384987.508032396        1510044555.1043420     
  -598352951.41437197       -13689270.752805948        1509748481.1046717     
  -564344638.63377559       -12691565.155570090        1492609578.4612410     
  -530300011.67158449       -11572812.286352664        1481184974.6149247     
  -496219070.52779466       -10333012.145139664        1475474669.5657182     
  -462101815.20240986       -8972164.7319420278        1475478663.3136287     
  -885571145.89599252       -32998324.024055332        1466084650.3955691     
  -837644676.65615392       -32750704.229977578        1451753459.6608648     
  -789502631.75878048       -31784498.910782188        1442587341.0522697     
  -741145011.20386553       -30099708.066449076        1438586294.5697882     
  -692571814.99141932       -27696331.697011173        1439750320.2134154     
  -1164402513.2212322       -49791329.148387194        1420421814.8225811     
  -1104127106.5821583       -50764560.875466228        1409107474.3852000     
  -1043456862.8096101       -50421668.824298441        1402408979.4029250     
  -982391781.90358305       -48762652.994868279        1400326329.8757589     
  -920931863.86408114       -45787513.387186021        1402859525.8036993     
   5168037.1246653004        30375125.022926465        1543447995.5855579     
   3985078.9357134309        26826813.580150001        1544970869.3479738     
   2525910.9974293867        22357802.972932264        1551243251.3470623     
   790533.30981355812        16968093.201276284        1562265141.5828168     
  -1221054.1271372330        10657684.265169036        1578036540.0552404     
  -229521864.49704945        10384987.508032396        1510044555.1043420     
  -218131953.14157796        7776140.4608511329        1512034546.1135311     
  -206892992.01655978        4664125.9788240939        1518729667.5212390     
  -195804981.12200093        1048944.0619320348        1530129919.3274715     
  -184867920.45790058       -3069405.2898190022        1546235301.5322168     
  -462101815.20240986       -8972164.7319420278        1475478663.3136287     
  -438265828.12579942       -10679585.530521736        1478081907.6749439     
  -414455531.76076406       -12472642.034354404        1485345904.5966320     
  -390670926.10731381       -14351334.243468195        1497270654.0786870     
  -366912011.16543794       -16315662.157832578        1513856156.1211202     
  -692571814.99141932       -27696331.697011173        1439750320.2134154     
  -656416546.01695240       -28540364.393976599        1443112954.0322158     
  -620161708.23518562       -29052501.066608489        1451091962.5732379     
  -583807301.64611733       -29232741.714902341        1463687345.8364825     
  -547353326.24975884       -29081086.338894516        1480899103.8219495     
  -920931863.86408114       -45787513.387186021        1402859525.8036993     
  -872584106.81503916       -45806196.129514933        1407127685.1853383     
  -824011521.43981349       -45075451.117902040        1415967841.4510543     
  -775214107.73842239       -43595278.352401406        1429379994.6008413     
  -726191865.71085119       -41365677.832967937        1447364144.6347022     
  -1221054.1271372330        10657684.265169036        1578036540.0552404     
  -2172422.0497099953        5115029.0042801546        1575556614.7324908     
  -2551082.7586202058        1481397.7889324198        1579165686.1615164     
  -2357036.2538780668       -243209.38090678991        1588863754.3423154     
  -1590282.5354681602       -58792.505187469244        1604650819.2748888     
  -184867920.45790058       -3069405.2898190022        1546235301.5322168     
  -169352327.90160948       -5565513.7171149626        1544727052.8139536     
  -153521819.38512176       -7011902.2770848125        1549093650.7506764     
  -137376394.90842757       -7408570.9697014242        1559335095.3423839     
  -120916054.47153135       -6755519.7949786261        1575451386.5890739     
  -366912011.16543794       -16315662.157832578        1513856156.1211202     
  -335541315.54969203       -15948780.977373347        1513018827.5449789     
  -304113495.22719938       -15391484.107762352        1517842195.5270276     
  -272628550.19796246       -14643771.549001873        1528326260.0672693     
  -241086480.46197745       -13705643.301081330        1544471021.1657052     
  -547353326.24975884       -29081086.338894516        1480899103.8219495     
  -500739384.99394786       -26034772.776469558        1480431938.9255576     
  -454326110.28485626       -23657347.703109980        1485411320.4905698     
  -408113502.12247699       -21948811.118791118        1495837248.5169833     
  -362101560.50680733       -20909163.023504153        1511709723.0048008     
  -726191865.71085119       -41365677.832967937        1447364144.6347022     
  -664946536.23439181       -35823489.114445478        1446966386.9556956     
  -604159664.55809891       -31809493.063148290        1451801025.6413009     
  -543831250.68197381       -29323689.679073781        1461868060.6915228     
  -483961294.60601896       -28366078.962234855        1477167492.1063502     
  -1590282.5354681602       -58792.505187469244        1604650819.2748888     
  -1152484.7082557881        730872.05730175949        1599749301.4449825     
  -823261.48758371687        1158621.2646573442        1600150038.7605829     
  -602612.87344750972        1224455.1168926896        1605853031.2216823     
  -490538.86585846625        928373.61397151579        1616858278.8282883     
  -120916054.47153135       -6755519.7949786261        1575451386.5890739     
  -106485445.78532453       -5465083.0687442943        1570508365.5639973     
  -91548013.448290333       -2485234.1730888411        1570911227.2471688     
  -76103757.460448563        2184026.8919272386        1576659971.6385846     
  -60152677.821776211        8542700.1263778843        1587754598.7382450     
  -241086480.46197745       -13705643.301081330        1544471021.1657052     
  -212538410.73751646       -11877039.357328974        1540204461.5790586     
  -182868119.10486758       -6307695.7196170390        1541327412.2633877     
  -152075605.56404644        3002387.6120025143        1547839873.2187040     
  -120160870.11503643        16053210.637584850        1559741844.4450078     
  -362101560.50680733       -20909163.023504153        1511709723.0048008     
  -319311379.56483173       -18504996.808449820        1508837589.4901547     
  -274783578.45730919       -10308763.374904126        1511398593.8092387     
  -228518157.18424889        3679537.2770998478        1519392735.9620414     
  -180515115.74564511        23459905.147582278        1532820015.9485774     
  -483961294.60601896       -28366078.962234855        1477167492.1063502     
  -426804352.26727057       -25348955.422107726        1476407749.2973013     
  -367294391.50560760       -14488437.138929948        1481124771.8847163     
  -305431412.32105714        4215475.8872050345        1491318559.8686018     
  -241215414.71359342        30762783.656384483        1506989113.2489491     
  -490538.86585846625        928373.61397151579        1616858278.8282883     
  -469112.97630076169        521712.13952871109        1585772765.1465237     
  -394091.95457495749        293701.10564762645        1558057165.7328341     
  -265475.80068185419        244340.51232385851        1533711480.5872133     
  -83264.514615023829        373630.35957848688        1512735709.7096543     
  -60152677.821776211        8542700.1263778843        1587754598.7382450     
  -49225432.754500866        15953397.267050818        1557190509.5373552     
  -37117643.682439819        27299241.090343423        1529841591.9093027     
  -23829310.605602726        42580231.596222825        1505707845.8540962     
  -9360433.5239772908        61796368.784729354        1484789271.3717303     
  -120160870.11503643        16053210.637584850        1559741844.4450078     
  -98769927.856398210        31148629.797495395        1531013953.4096990     
  -75071492.720369428        53935691.882041432        1505346491.2520044     
  -49065564.706948474        84414396.891228050        1482739457.9719236     
  -20752143.816136509        122584744.82505111        1463192853.5694542     
  -180515115.74564511        23459905.147582278        1532820015.9485774     
  -149102598.28200608        46107409.730824299        1507243096.7635612     
  -114255639.06837380        80203053.480716199        1484571863.7609341     
  -75974238.104737431        125746836.39728343        1464806316.9406931     
  -34258395.391097270        182738758.48053411        1447946456.3028433     
  -241215414.71359342        30762783.656384483        1506989113.2489491     
  -200223444.03132981        60829737.067015156        1485877939.5989435     
  -154670082.72645614        106101325.88634589        1467517709.4360943     
  -104555330.79896098        166577550.11441472        1451908422.7604034     
  -49879188.248860165        242258409.75116980        1439050079.5718806     
  -83264.514615023829        373630.35957848688        1512735709.7096543     
  -50023.841572432400        524549.70376878988        1403285232.4633882     
  -26650.379247887526        642578.34556491021        1291106093.3900337     
  -13144.127657310601        727716.28491585865        1176198292.4896021     
  -9505.0867949369422        779963.52183876897        1058561829.7621118     
  -9360433.5239772908        61796368.784729354        1484789271.3717303     
  -9780013.1143708043        81285882.460551634        1376050465.7019544     
  -8254919.0245257691        107257641.73716772        1265229246.0416245     
  -4785151.2544545680        139711646.61453801        1152325612.3907206     
   629290.19584956020        178647897.09268543        1037339564.7492921     
  -20752143.816136509        122584744.82505111        1463192853.5694542     
  -19778121.279907130        161966779.54950976        1357446017.1822915     
  -14904884.172482520        214346196.17795268        1250263014.6410968     
  -6132432.4938649684        279722994.71036935        1141643845.9458683     
   6539233.7559454143        358097175.14676744        1031588511.0965945     
  -34258395.391097270        182738758.48053411        1447946456.3028433     
  -30044348.338175654        242567240.97066322        1347471886.9044142     
  -19976545.823106855        321908241.66795117        1246207399.1884680     
  -4054987.8458822966        420761760.57242203        1144152993.1550078     
   17720325.593497008        539127797.68407965        1041308668.8040425     
  -49879188.248860165        242258409.75116980        1439050079.5718806     
  -40578694.289190605        323087266.72396612        1346128074.8682973     
  -23469903.976405948        429943778.20714545        1253062399.6837263     
   1447182.6894905269        562827944.20069468        1159853054.0181632     
   34172565.708504468        721739764.70464182        1066500037.8716162     
  -1658822996.9052725       -465437628.17988634        1132338657.9356666     
  -1570352580.1303308       -332233810.14434588        1221422915.8695965     
  -1490335585.7733805       -227208066.83544919        1288892894.0926201     
  -1418772013.8344252       -150360398.25319898        1334748592.6047306     
  -1355661864.3134680       -101690804.39760906        1358990011.4059315     
  -1736842728.2900124       -204116035.38121146        1229367829.8548481     
  -1709783667.7896669       -146422706.87477553        1263541377.5848727     
  -1687204759.6663182       -103663219.62500983        1289515197.7828374     
  -1669106003.9199734       -75837573.631922841        1307289290.4487426     
  -1655487400.5506339       -62945768.895520091        1316863655.5825868     
  -1969357891.0926194        10856927.992103338        1302122690.6680453     
  -1965382894.9272842        4537954.5513170958        1286021009.9086521     
  -1961914781.0979662       -3470626.6761813164        1275134153.7960482     
  -1958953549.6046598       -13168815.690386176        1269462122.3302372     
  -1956499200.4473636       -24556612.491300225        1269004915.5112131     
  -2356368485.3130770        179481261.94006217        1350603240.3752594     
  -2337150261.5431905        120648174.13391876        1288861812.8409357     
  -2314465650.0683274        73369712.011035442        1245749762.1322558     
  -2288314650.8884869        37645875.571407318        1221267088.2492149     
  -2258697264.0036659        13476664.815047860        1215413791.1918149     
  -2897874510.9513941        301756966.46266448        1374809478.9764884     
  -2825085767.6373844        201907951.87303615        1272063786.3817265     
  -2744857366.5774031        126857796.43662941        1201362022.7914562     
  -2657189307.7714543        76606500.153461456        1162704188.2056775     
  -2562081591.2195339        51154063.023526311        1156090282.6243889     
  -1355661864.3134680       -101690804.39760906        1358990011.4059315     
  -1303325983.4726961       -73645792.026262999        1368444331.8527517     
  -1254004131.3437376       -55647542.027622163        1381834405.9044669     
  -1207696307.9265795       -47696054.401654541        1399160233.5610778     
  -1164402513.2212322       -49791329.148387194        1420421814.8225811     
  -1655487400.5506339       -62945768.895520091        1316863655.5825868     
  -1597120085.3995316       -46500891.319219291        1322683782.0461369     
  -1540781326.0217278       -36817866.320575297        1331884673.9423664     
  -1486471122.4172266       -33896693.899609566        1344466331.2712727     
  -1434189474.5860226       -37737374.056300163        1360428754.0328569     
  -1956499200.4473636       -24556612.491300225        1269004915.5112131     
  -1893686131.4779761       -20187573.857644081        1272340566.4197533     
  -1831916145.3433795       -19295478.006630301        1278501994.5887551     
  -1771189242.0435777       -21880324.938262224        1287489200.0182166     
  -1711505421.5785680       -27942114.652534902        1299302182.7081397     
  -2258697264.0036659        13476664.815047860        1215413791.1918149     
  -2193024121.7080379        5294160.3584402800        1217414684.9736013     
  -2127408589.3086979       -3080377.0857884884        1221686367.8436327     
  -2061850666.8056400       -11646947.517631888        1228228839.8019080     
  -1996350354.1988699       -20405550.937093854        1237042100.8484278     
  -2562081591.2195339        51154063.023526311        1156090282.6243889     
  -2495134056.0897136        29944311.329039097        1157906137.7076795     
  -2427258657.9176726        11827436.441966295        1161437793.7069993     
  -2358455396.7034111       -3196561.6377123594        1166685250.6223462     
  -2288724272.4469295       -15127682.909986734        1173648508.4537234     
  -1164402513.2212322       -49791329.148387194        1420421814.8225811     
  -1104127106.5821583       -50764560.875466228        1409107474.3852000     
  -1043456862.8096101       -50421668.824298441        1402408979.4029250     
  -982391781.90358305       -48762652.994868279        1400326329.8757589     
  -920931863.86408114       -45787513.387186021        1402859525.8036993     
  -1434189474.5860226       -37737374.056300163        1360428754.0328569     
  -1361339153.2463355       -38002675.857735395        1347033727.5043368     
  -1288171412.6370573       -37209913.427202344        1338532498.3844938     
  -1214686252.7581780       -35359086.764670670        1334925066.6733303     
  -1140883673.6097174       -32450195.870186508        1336211432.3708425     
  -1711505421.5785680       -27942114.652534902        1299302182.7081397     
  -1625286037.0994942       -27261241.996697426        1283736149.2472839     
  -1538826651.2147136       -25780364.655158877        1273341865.1486773     
  -1452127263.9242187       -23499482.627910137        1268119330.4123173     
  -1365187875.2280140       -20418595.914966822        1268068545.0382054     
  -1996350354.1988699       -20405550.937093854        1237042100.8484278     
  -1895967758.1416419       -18540259.292356849        1219214739.6140416     
  -1795422578.5425866       -16133022.508188844        1206837079.6954703     
  -1694714815.4016981       -13183840.584586263        1199909121.0927219     
  -1593844468.7189879       -9692713.5215660930        1198430863.8057854     
  -2288724272.4469295       -15127682.909986734        1173648508.4537234     
  -2173384316.3727722       -11839727.744709492        1153469498.6046085     
  -2057959194.6206684       -8267886.9862730503        1139018142.0248790     
  -1942448907.1906173       -4412160.6346820593        1130294438.7145398     
  -1826853454.0826235       -272548.68994724751        1127298388.6735883     
  -920931863.86408114       -45787513.387186021        1402859525.8036993     
  -872584106.81503916       -45806196.129514933        1407127685.1853383     
  -824011521.43981349       -45075451.117902040        1415967841.4510543     
  -775214107.73842239       -43595278.352401406        1429379994.6008413     
  -726191865.71085119       -41365677.832967937        1447364144.6347022     
  -1140883673.6097174       -32450195.870186508        1336211432.3708425     
  -1081041973.2360902       -33309513.716086447        1339009549.6938117     
  -1021240732.8625793       -34303698.229050219        1346271157.7139857     
  -961479952.48918343       -35432749.409061790        1357996256.4313560     
  -901759632.11590493       -36696667.256122738        1374184845.8459294     
  -1365187875.2280140       -20418595.914966822        1268068545.0382054     
  -1294162249.2065918       -22211554.167514622        1269087117.2551682     
  -1223442371.5115716       -25023673.508059263        1274460673.9824584     
  -1153028242.1429560       -28854953.936625600        1284189215.2200806     
  -1082919861.1007462       -33705395.453207135        1298272740.9680257     
  -1593844468.7189879       -9692713.5215660930        1198430863.8057854     
  -1511944934.7265437       -12512317.483763814        1197360387.8694041     
  -1430616437.3867948       -17235376.954947650        1200536390.2564819     
  -1349858976.6997309       -23861891.935086787        1207958870.9670131     
  -1269672552.6653709       -32391862.424226642        1219627830.0010023     
  -1826853454.0826235       -272548.68994724751        1127298388.6735883     
  -1734390029.7959425       -4211803.6648471355        1123829361.5365269     
  -1642762930.4882412       -10938808.569687366        1124498306.5360479     
  -1551972156.1595197       -20453563.404458165        1129305223.6721509     
  -1462017706.8097858       -32756068.169183135        1138250112.9448395     
  -726191865.71085119       -41365677.832967937        1447364144.6347022     
  -664946536.23439181       -35823489.114445478        1446966386.9556956     
  -604159664.55809891       -31809493.063148290        1451801025.6413009     
  -543831250.68197381       -29323689.679073781        1461868060.6915228     
  -483961294.60601896       -28366078.962234855        1477167492.1063502     
  -901759632.11590493       -36696667.256122738        1374184845.8459294     
  -828226028.48493207       -34249831.013675302        1371270285.9299469     
  -754937611.59304166       -32620283.901508510        1373290160.3396075     
  -681894381.44024944       -31808025.919672668        1380244469.0749185     
  -609096338.02654934       -31813057.068135291        1392133212.1358757     
  -1082919861.1007462       -33705395.453207135        1298272740.9680257     
  -997949303.42658591       -34609307.720230937        1293090195.0529916     
  -913010661.43044078       -35619605.580631435        1292544121.4246390     
  -828103935.11230516       -36736289.034398705        1296634520.0829656     
  -743229124.47218442       -37959358.081547141        1305361391.0279765     
  -1269672552.6653709       -32391862.424226642        1219627830.0010023     
  -1174116361.0593631       -36901919.234134495        1212426114.3248353     
  -1078378814.0702815       -40807458.100470603        1209562908.8963897     
  -982459911.69813895       -44108479.023268282        1211038213.7156577     
  -886359653.94292867       -46804982.002501786        1216852028.7826369     
  -1462017706.8097858       -32756068.169183135        1138250112.9448395     
  -1356727201.3832507       -41127665.555351019        1129278043.7454758     
  -1251042069.5125754       -48183841.461054027        1124346522.7548611     
  -1144962311.1977518       -53924595.886261880        1123455549.9729936     
  -1038487926.4387820       -58349928.830982387        1126605125.3998814     
  -483961294.60601896       -28366078.962234855        1477167492.1063502     
  -426804352.26727057       -25348955.422107726        1476407749.2973013     
  -367294391.50560760       -14488437.138929948        1481124771.8847163     
  -305431412.32105714        4215475.8872050345        1491318559.8686018     
  -241215414.71359342        30762783.656384483        1506989113.2489491     
  -609096338.02654934       -31813057.068135291        1392133212.1358757     
  -537625237.10410297       -29090084.795264393        1391004840.5234675     
  -463847793.72692645       -18679304.339962736        1395478475.7945008     
  -387764007.89503801       -580715.70228537917        1405554117.9489706     
  -309373879.60842353        25205681.117804021        1421231766.9868817     
  -743229124.47218442       -37959358.081547141        1305361391.0279765     
  -657086032.14612854       -35423187.229979008        1303809935.3160005     
  -568683273.33352757       -25354794.756592721        1307985727.9744399     
  -478020848.03438491       -7754180.6613987088        1317888769.0032868     
  -385098756.24869579        17378655.055610910        1333519058.4025383     
  -886359653.94292867       -46804982.002501786        1216852028.7826369     
  -785186737.39334857       -44348262.726258606        1214823033.6748977     
  -681800830.32539988       -34514908.388797820        1218646528.4245341     
  -576201932.73908508       -17304918.990108162        1228322513.0315516     
  -468390044.63441396        7281705.4697640240        1243850987.4959474     
  -1038487926.4387820       -58349928.830982387        1126605125.3998814     
  -921927352.84575605       -55865311.284081131        1124044135.6001594     
  -803200464.70254946       -46159645.236582726        1127460877.1447804     
  -682307262.00915027       -29232930.688439578        1136855350.0337548     
  -559247744.76557040       -5085167.6396943331        1152227554.2670822     
  -241215414.71359342        30762783.656384483        1506989113.2489491     
  -200223444.03132981        60829737.067015156        1485877939.5989435     
  -154670082.72645614        106101325.88634589        1467517709.4360943     
  -104555330.79896098        166577550.11441472        1451908422.7604034     
  -49879188.248860165        242258409.75116980        1439050079.5718806     
  -309373879.60842353        25205681.117804021        1421231766.9868817     
  -259560136.87613055        55669226.357539147        1404480257.6523378     
  -203316430.60785651        107565983.38386379        1391672262.1393321     
  -140642760.80357838        180895952.19687772        1382807780.4478586     
  -71539127.463321194        275659132.79648471        1377886812.5779178     
  -385098756.24869579        17378655.055610910        1333519058.4025383     
  -323055897.65388024        49260995.268163443        1323307215.1157434     
  -252714502.60969806        108805123.64526349        1318231455.9848526     
  -174074571.11614653        196011040.18693572        1318291781.0098765     
  -87136103.173230425        310878744.89314866        1323488190.1908040     
  -468390044.63441396        7281705.4697640240        1243850987.4959474     
  -390710726.36456650        41605043.798917606        1242358811.9891601     
  -302864298.73198247        109818746.67052656        1247195290.9726608     
  -204850761.73665363        211922814.08461532        1258360424.4464433     
  -96670115.378579006        347917246.04119569        1275854212.4105120     
  -559247744.76557040       -5085167.6396943331        1152227554.2670822     
  -462524623.00820279        32701371.949773401        1161635048.2725852     
  -353765818.97471559        110606852.45964003        1178563767.1027544     
  -232971332.66510335        228631273.88992333        1203013710.7575736     
  -100141164.07937232        386774636.24060267        1234984879.2370579     
  -49879188.248860165        242258409.75116980        1439050079.5718806     
  -40578694.289190605        323087266.72396612        1346128074.8682973     
  -23469903.976405948        429943778.20714545        1253062399.6837263     
   1447182.6894905269        562827944.20069468        1159853054.0181632     
   34172565.708504468        721739764.70464182        1066500037.8716162     
  -71539127.463321194        275659132.79648471        1377886812.5779178     
  -57404302.370210797        377329311.76405334        1296488225.8959291     
  -34272424.873249590        508989665.41113085        1214142490.1064746     
  -2143494.9724236429        670640193.73774505        1130849605.2095497     
   38982487.332251906        862280896.74388361        1046609571.2051704     
  -87136103.173230425        310878744.89314866        1323488190.1908040     
  -70462600.165178716        432701549.88994300        1254999903.5895941     
  -43603288.702542394        588477049.73536909        1184760989.2544558     
  -6558168.7852997482        778205244.42948043        1112771447.1853693     
   40672759.586553872        1001886133.9722784        1039031277.3823450     
  -96670115.378579006        347917246.04119569        1275854212.4105120     
  -79753587.674099475        489203981.10164011        1221663107.9493027     
  -51462495.464282930        668405931.17988575        1164917897.1276724     
  -11796838.749115527        885523096.27595377        1105618579.9456239     
   39243382.471394539        1140555476.3898416        1043765156.4031688     
  -100141164.07937232        386774636.24060267        1234984879.2370579     
  -85277264.896956027        546836605.39918315        1196477838.9750426     
  -57850045.158476353        748776309.74464166        1154613213.7261288     
  -17859504.863891006        992593749.27711630        1109391003.4903200     
   34694355.986786366        1278288923.9965701        1060811208.2676321     
  -2897874510.9513941        301756966.46266448        1374809478.9764884     
  -2825085767.6373844        201907951.87303615        1272063786.3817265     
  -2744857366.5774031        126857796.43662941        1201362022.7914562     
  -2657189307.7714543        76606500.153461456        1162704188.2056775     
  -2562081591.2195339        51154063.023526311        1156090282.6243889     
  -3534654662.7229710        110243329.29312873        1132144316.1740201     
  -3377269076.7237487        77284902.648387909        1081766081.6599858     
  -3216362437.6260014        56063319.665375113        1048982122.9889575     
  -3051934745.4297400        46578580.344089031        1033792440.1609386     
  -2883986000.1349521        48830684.684540033        1036197033.1759269     
  -4019438995.4407020       -35671562.160248756        907730981.13615370     
  -3818741290.0747819       -14124817.855664015        905148499.28081679     
  -3618441136.2578001        6096754.6191515923        905710640.10700870     
  -3418538533.9897389        24993155.264199257        909417403.61472142     
  -3219033483.2706146        42564384.079483867        916268789.80396307     
  -4352227509.1045666       -135987707.89746904        701569473.86287940     
  -4149502407.6904850       -72321209.639113665        742211039.24422085     
  -3951093462.4727793       -23041898.702019930        771547574.14560556     
  -3757000673.4514561        11850224.913804054        789579078.56703126     
  -3567224040.6265121        32355161.208353519        796305552.50849771     
  -4533020203.7145891       -190705107.91853547        513659794.35420513     
  -4369552429.5708590       -97304272.701967955        592953701.55019855     
  -4214319416.2709584       -31352640.298153877        646492925.10475183     
  -4067321163.8148890        7149789.2928833961        674277465.01786172     
  -3928557672.2026472        18203016.071159124        676307321.28952956     
  -2562081591.2195339        51154063.023526311        1156090282.6243889     
  -2495134056.0897136        29944311.329039097        1157906137.7076795     
  -2427258657.9176726        11827436.441966295        1161437793.7069993     
  -2358455396.7034111       -3196561.6377123594        1166685250.6223462     
  -2288724272.4469295       -15127682.909986734        1173648508.4537234     
  -2883986000.1349521        48830684.684540033        1036197033.1759269     
  -2810048252.3129463        29144959.268508911        1035106807.2796757     
  -2735500478.8079157        11492652.795895934        1037326168.7817419     
  -2660342679.6198497       -4126234.7332720757        1042855117.6821274     
  -2584574854.7487612       -17711703.319021583        1051693653.9808331     
  -3219033483.2706146        42564384.079483867        916268789.80396307     
  -3133551847.0927348        25768787.641001225        911901672.67577744     
  -3047778022.5910196        9947152.2819770575        912437929.42820191     
  -2961712009.7654653       -4900521.9975912571        917877560.06123531     
  -2875353808.6160760       -18774235.197703004        928220564.57487905     
  -3567224040.6265121        32355161.208353519        796305552.50849771     
  -3465644840.4290709        19815796.446532965        788290733.89599037     
  -3364091289.2669883        7190934.9001953602        786773075.64638126     
  -3262563387.1402578       -5519423.4306588173        791752577.75967348     
  -3161061134.0488839       -18315278.546028137        803229240.23586595     
  -3928557672.2026472        18203016.071159124        676307321.28952956     
  -3806327232.3219633        11285985.685099602        664273990.94030869     
  -3684440278.8358226        3224000.6505498886        660331607.43627846     
  -3562896811.7442260       -5982939.0324823856        664480170.77743995     
  -3441696831.0471797       -16334833.364006519        676719680.96378875     
  -2288724272.4469295       -15127682.909986734        1173648508.4537234     
  -2173384316.3727722       -11839727.744709492        1153469498.6046085     
  -2057959194.6206684       -8267886.9862730503        1139018142.0248790     
  -1942448907.1906173       -4412160.6346820593        1130294438.7145398     
  -1826853454.0826235       -272548.68994724751        1127298388.6735883     
  -2584574854.7487612       -17711703.319021583        1051693653.9808331     
  -2454669515.8198175       -13896918.249867558        1033242943.7554793     
  -2324610027.1205840       -9568300.6130696535        1020147144.7865989     
  -2194396388.6510544       -4725850.4086219072        1012406257.0741946     
  -2064028600.4112344        630432.36345434189        1010020280.6182619     
  -2875353808.6160760       -18774235.197703004        928220564.57487905     
  -2731948064.0121064       -14752113.378605962        911578635.41436195     
  -2588319185.5454936       -9986212.0173717737        899918875.49740291     
  -2444467173.2162390       -4476531.1139863729        893241284.82400882     
  -2300392027.0243416        1776929.3315254450        891545863.39417458     
  -3161061134.0488839       -18315278.546028137        803229240.23586595     
  -3005219960.9496369       -14405313.130916595        788476573.58125496     
  -2849086669.8953986       -9521621.1991689205        778333334.15729403     
  -2692661260.8861661       -3664202.7507803440        772799521.96398175     
  -2535943733.9219432        3166942.2142457962        771875137.00131750     
  -3441696831.0471797       -16334833.364006519        676719680.96378875     
  -3274485206.6324048       -12856517.506793618        663936758.25616300     
  -3106912480.1702962       -8174528.1584653854        655390520.76627302     
  -2938978651.6608410       -2288865.3189836740        651080968.49411321     
  -2770683721.1040530        4800471.0116070509        651008101.43969250     
  -1826853454.0826235       -272548.68994724751        1127298388.6735883     
  -1734390029.7959425       -4211803.6648471355        1123829361.5365269     
  -1642762930.4882412       -10938808.569687366        1124498306.5360479     
  -1551972156.1595197       -20453563.404458165        1129305223.6721509     
  -1462017706.8097858       -32756068.169183135        1138250112.9448395     
  -2064028600.4112344        630432.36345434189        1010020280.6182619     
  -1961377930.9800925       -3150547.4866755009        1005703312.3185136     
  -1859423473.0640497       -9252232.3871413469        1005048189.2721996     
  -1758165226.6631055       -17674622.337938905        1008054911.4793308     
  -1657603191.7772653       -28417717.339071214        1014723478.9399025     
  -2300392027.0243416        1776929.3315254450        891545863.39417458     
  -2188914474.9719982       -2253884.1508175135        886544419.63959169     
  -2077993020.9708757       -8138357.8039069176        884728694.25530744     
  -1967627665.0209694       -15876491.627702951        886098687.24132597     
  -1857818407.1222804       -25468285.622236609        890654398.59764242     
  -2535943733.9219432        3166942.2142457962        771875137.00131750     
  -2416999661.7716641       -1521813.6572940350        766352683.49976265     
  -2298471574.2087207       -7597184.8199648857        763539821.48537195     
  -2180359471.2331152       -15059171.273758173        763436550.95813513     
  -2062663352.8448381       -23907773.018653154        766042871.91806459     
  -2770683721.1040530        4800471.0116070509        651008101.43969250     
  -2645633491.3790894       -954336.00609838963        645128103.89903033     
  -2520859132.7775855       -7628713.4353421926        641481570.96239209     
  -2396360645.2995305       -15222661.276082635        640068502.62976921     
  -2272138028.9449334       -23736179.528344393        640888898.90116644     
  -1462017706.8097858       -32756068.169183135        1138250112.9448395     
  -1356727201.3832507       -41127665.555351019        1129278043.7454758     
  -1251042069.5125754       -48183841.461054027        1124346522.7548611     
  -1144962311.1977518       -53924595.886261880        1123455549.9729936     
  -1038487926.4387820       -58349928.830982387        1126605125.3998814     
  -1657603191.7772653       -28417717.339071214        1014723478.9399025     
  -1541487692.1006384       -34963545.025406599        1004499274.6647326     
  -1424985061.4292145       -40218936.062402308        998140109.36553752     
  -1308095299.7629673       -44183890.449986875        995645983.04231155     
  -1190818407.1019156       -46858408.188240528        997016895.69506180     
  -1857818407.1222804       -25468285.622236609        890654398.59764242     
  -1731379368.1463606       -30338780.093972325        879169314.55578113     
  -1604560693.6249747       -33943822.747472703        871373760.25711215     
  -1477362383.5581081       -36283413.582719088        867267735.70164263     
  -1349784437.9457667       -37357552.599710464        866851240.88935924     
  -2062663352.8448381       -23907773.018653154        766042871.91806459     
  -1926402229.5204253       -27253370.761049271        753288163.41861761     
  -1789768966.0998666       -29358501.516296268        744047475.42958581     
  -1652763562.5831666       -30223165.284405112        738320807.95097089     
  -1515386018.9703312       -29847362.065392852        736108160.98277235     
  -2272138028.9449334       -23736179.528344393        640888898.90116644     
  -2126556276.2228038       -25707317.026590466        626855821.25324500     
  -1980609878.8538795       -26462972.368847847        616161254.88295710     
  -1834298836.8381464       -26003145.555082202        608805199.79031134     
  -1687623150.1756091       -24327836.585295796        604787655.97530031     
  -1038487926.4387820       -58349928.830982387        1126605125.3998814     
  -921927352.84575605       -55865311.284081131        1124044135.6001594     
  -803200464.70254946       -46159645.236582726        1127460877.1447804     
  -682307262.00915027       -29232930.688439578        1136855350.0337548     
  -559247744.76557040       -5085167.6396943331        1152227554.2670822     
  -1190818407.1019156       -46858408.188240528        997016895.69506180     
  -1060695130.8920020       -43042658.019223571        993270402.78203249     
  -929220731.05541182       -34723162.427959293        993671842.24023461     
  -796395207.59212613       -21899921.414376318        998221214.06966901     
  -662218560.50216794       -4572934.9785454869        1006918518.2703286     
  -1349784437.9457667       -37357552.599710464        866851240.88935924     
  -1211326456.1850162       -33779068.928383231        860968188.78560102     
  -1072332541.7210960       -28414142.913150847        857403270.07996368     
  -932802694.55399251       -21262774.553973913        856156484.77243185     
  -792736914.68370891       -12324963.850879639        857227832.86300671     
  -1515386018.9703312       -29847362.065392852        736108160.98277235     
  -1373821328.7248063       -28074544.011592150        727137493.61087346     
  -1232535896.6996064       -27232586.692199349        718655160.66396284     
  -1091529722.8947334       -27321490.107236922        710661162.14204490     
  -950802807.31018615       -28341254.256688058        703155498.04511642     
  -1687623150.1756091       -24327836.585295796        604787655.97530031     
  -1548179748.5113640       -25929083.268808186        591778317.25783634     
  -1409830795.9909515       -31178493.765108228        577427513.99223900     
  -1272576292.6143708       -40076068.074171543        561735246.17851090     
  -1136416238.3816190       -52621806.196003020        544701513.81665206     
  -559247744.76557040       -5085167.6396943331        1152227554.2670822     
  -462524623.00820279        32701371.949773401        1161635048.2725852     
  -353765818.97471559        110606852.45964003        1178563767.1027544     
  -232971332.66510335        228631273.88992333        1203013710.7575736     
  -100141164.07937232        386774636.24060267        1234984879.2370579     
  -662218560.50216794       -4572934.9785454869        1006918518.2703286     
  -547107241.07110143        25613184.062825143        1020490829.2619808     
  -421097332.58329242        92127933.293340534        1042440626.0736840     
  -284188835.03873336        194971312.71302789        1072767908.7054386     
  -136381748.43741417        334143322.32190198        1111472677.1572556     
  -792736914.68370891       -12324963.850879639        857227832.86300671     
  -656790937.59209669        10994672.638457835        873638352.08485723     
  -511083464.66310883        66852628.585703313        899282618.12216675     
  -355614495.89675337        155248903.99084908        934160630.97492540     
  -190384031.29302001        276183498.85391551        978272390.64313102     
  -950802807.31018615       -28341254.256688058        703155498.04511642     
  -791575712.57117891       -11154162.323333830        721077616.74123800     
  -623724215.21418202        34780938.336658627        749089743.24820542     
  -447248315.23918593        109464047.72332299        787191877.56602001     
  -262148012.64618456        212895165.83664972        835384019.69469213     
  -1136416238.3816190       -52621806.196003020        544701513.81665206     
  -951461566.00837231       -40833320.822568893        562808623.23110533     
  -759019584.23650515       -4087137.4537443221        591862001.45180309     
  -559090293.06601119        57616743.910503298        631861648.47873890     
  -351673692.49690020        144278323.27015191        682807564.31192172     
  -100141164.07937232        386774636.24060267        1234984879.2370579     
  -85277264.896956027        546836605.39918315        1196477838.9750426     
  -57850045.158476353        748776309.74464166        1154613213.7261288     
  -17859504.863891006        992593749.27711630        1109391003.4903200     
   34694355.986786366        1278288923.9965701        1060811208.2676321     
  -136381748.43741417        334143322.32190198        1111472677.1572556     
  -127287517.06291375        483294958.39046860        1089961149.6852365     
  -95074193.627946436        709510234.66059113        1069886770.3686430     
  -39741778.132523179        1012789151.1322228        1051249539.2074697     
   38709729.423373401        1393131707.8054428        1034049456.2017236     
  -190384031.29302001        276183498.85391551        978272390.64313102     
  -173360230.17694089        418534573.09737319        986071442.71621656     
  -122661565.49603119        673135192.55692875        1000102376.0870466     
  -38288037.250283360        1039985357.2326070        1020365190.7556049     
   79760354.560296714        1519085067.1244166        1046859886.7219181     
  -262148012.64618456        212895165.83664972        835384019.69469213     
  -223495404.23905581        352555449.51983154        884808718.06797898     
  -140612160.76273382        639651183.43366814        945260030.88132298     
  -13498282.217184365        1074182367.5782409        1016737958.1347319     
   157846231.39756072        1656149001.9534991        1099242499.8281851     
  -351673692.49690020        144278323.27015191        682807564.31192172     
  -277693039.24925655        285357587.65786409        786172975.74052548     
  -148925979.42802766        609058207.29087174        905359734.75149643     
   34627486.966775954        1115380182.1691170        1040367841.3448339     
   272967359.93517262        1804323512.2926726        1191197295.5205503     
  -4533020203.7145891       -190705107.91853547        513659794.35420513     
  -4369552429.5708590       -97304272.701967955        592953701.55019855     
  -4214319416.2709584       -31352640.298153877        646492925.10475183     
  -4067321163.8148890        7149789.2928833961        674277465.01786172     
  -3928557672.2026472        18203016.071159124        676307321.28952956     
  -4674560436.8375845       -5812829.1251041889        481475823.15022963     
  -4574269595.7647533       -1095982.6972954273        488764578.21128106     
  -4474992405.0111828        242029.33299922943        493675911.96433401     
  -4376728864.5768604       -1798793.0342137814        496209824.40938300     
  -4279478974.4617891       -7218449.7989382744        496366315.54643661     
  -5039811746.5030336        111966126.70558596        418259957.13993651     
  -4935905660.4055681        48036637.773297071        361968189.01138145     
  -4825792114.1027746        4798682.8587403297        326676261.90827268     
  -4709471107.5946550       -17747738.038052797        312384175.83060515     
  -4586942640.8812189       -19602624.917116880        319091930.77837551     
  -5628774132.7109747        162631759.57353258        324012196.32331908     
  -5454460623.4933062        50093588.709808111        212564533.95049983     
  -5266718543.5457487       -17682679.720917702        145493974.93656674     
  -5065547892.8682823       -40697045.718644381        122800519.28151903     
  -4850948671.4609232       -18949509.283376932        144484166.98535213     
  -6441447595.4613819        146184069.47873974        198732540.70038167     
  -6129934485.0279675        5074870.1122620106        40553613.028641105     
  -5797771693.3400993       -67202058.406009912       -49870948.950778365     
  -5444959220.3977451       -70646716.076005459       -72541145.237864584     
  -5071497066.2009087       -5259102.8977284431       -27456975.832634844     
  -3928557672.2026472        18203016.071159124        676307321.28952956     
  -3806327232.3219633        11285985.685099602        664273990.94030869     
  -3684440278.8358226        3224000.6505498886        660331607.43627846     
  -3562896811.7442260       -5982939.0324823856        664480170.77743995     
  -3441696831.0471797       -16334833.364006519        676719680.96378875     
  -4279478974.4617891       -7218449.7989382744        496366315.54643661     
  -4138502718.5502405       -3043864.8070330620        496418010.40398318     
  -3998836109.8902044       -3234770.6534955502        500239013.35286123     
  -3860479148.4816704       -7791167.3382990360        507829324.39306265     
  -3723431834.3246441       -16713054.861468792        519188943.52459168     
  -4586942640.8812189       -19602624.917116880        319091930.77837551     
  -4439568108.2355671       -8040686.3362860680        330101463.17624241     
  -4294469383.6983805       -4064774.7836687565        340558664.91157144     
  -4151646467.2696662       -7674890.2592940331        350463535.98436439     
  -4011099358.9494133       -18871032.763125658        359816076.39461553     
  -4850948671.4609232       -18949509.283376932        144484166.98535213     
  -4709523401.3779173       -3704478.9026331902        165324349.25708184     
  -4571340100.2603502        733988.26000785828        181290562.11241120     
  -4436398768.1082077       -5634107.7954382896        192382805.55133581     
  -4304699404.9214954       -22808767.068991423        198601079.57385471     
  -5071497066.2009087       -5259102.8977284431       -27456975.832634844     
  -4948368597.9773197        9964757.4938943386        2086668.6464982873     
  -4829448259.5761118        11161518.477555275        22434704.955378603     
  -4714736050.9973030       -1668819.9467580318        33587133.093978800     
  -4604231972.2408724       -28526257.779019356        35543953.062312245     
  -3441696831.0471797       -16334833.364006519        676719680.96378875     
  -3274485206.6324048       -12856517.506793618        663936758.25616300     
  -3106912480.1702962       -8174528.1584653854        655390520.76627302     
  -2938978651.6608410       -2288865.3189836740        651080968.49411321     
  -2770683721.1040530        4800471.0116070509        651008101.43969250     
  -3723431834.3246441       -16713054.861468792        519188943.52459168     
  -3544962849.0196252       -14283729.693902016        505104775.90205908     
  -3365893197.9929876       -9852185.4542658329        495685506.21343303     
  -3186222881.2447209       -3418422.1425410509        490931134.45871848     
  -3005951898.7748380        5017560.2412475348        490841660.63791400     
  -4011099358.9494133       -18871032.763125658        359816076.39461553     
  -3820149547.8507924       -17123658.814190626        344710154.81050318     
  -3628359507.3562622       -12575520.212230682        334697343.87646860     
  -3435729237.4658337       -5226616.9572746754        329777643.59252447     
  -3242258738.1794939        4923050.9507232904        329951053.95866609     
  -4304699404.9214954       -22808767.068991423        198601079.57385471     
  -4100045303.1259065       -21376304.867666721        182752894.98148942     
  -3894311408.2601366       -16344532.432387114        172426033.75538695     
  -3687497720.3241730       -7713449.7631466389        167620495.89553738     
  -3479604239.3180380        4516943.1400213242        168336281.40195298     
  -4604231972.2408724       -28526257.779019356        35543953.062312245     
  -4384650114.8449736       -27041667.854328871        19232996.415029768     
  -4163748900.7045918       -21159222.114699841        8871575.8501688708     
  -3941528329.8197570       -10878920.560223818        4459691.3677535718     
  -3717988402.1904449        3799236.8091733456        5997342.9677656190     
  -2770683721.1040530        4800471.0116070509        651008101.43969250     
  -2645633491.3790894       -954336.00609838963        645128103.89903033     
  -2520859132.7775855       -7628713.4353421926        641481570.96239209     
  -2396360645.2995305       -15222661.276082635        640068502.62976921     
  -2272138028.9449334       -23736179.528344393        640888898.90116644     
  -3005951898.7748380        5017560.2412475348        490841660.63791400     
  -2873865221.9496012       -295260.53632557392        484780407.48069876     
  -2741913394.2314634       -6057578.3375614882        481796344.51041096     
  -2610096415.6204224       -12269393.162460923        481889471.72705364     
  -2478414286.1164761       -18930705.010996222        485059789.13062245     
  -3242258738.1794939        4923050.9507232904        329951053.95866609     
  -3100724969.7313824        775409.77006983757        323873070.87064219     
  -2959185028.3740249       -3351655.0464191437        321716003.55246079     
  -2817638914.1073847       -7458143.4986402988        323479852.00411469     
  -2676086626.9314966       -11544055.586701155        329164616.22561175     
  -3479604239.3180380        4516943.1400213242        168336281.40195298     
  -3326212734.7244453        2257674.9130859375        162406094.06886947     
  -3172674035.2052488        489056.43816113472        161240548.08853865     
  -3018988140.7604165       -788912.28464388847        164839643.46096948     
  -2865155051.3899803       -1576231.2554335594        173203380.18613699     
  -3717988402.1904449        3799236.8091733456        5997342.9677656190     
  -3550328516.9287701        4151534.8927230835        379477.07538339595     
  -3382380414.7251573        5464556.1161093712        369978.11866411858     
  -3214144095.5795379        7738300.4795093536        5968846.0976005811     
  -3045619559.4919467        10972767.982789159        17176081.012197748     
  -2272138028.9449334       -23736179.528344393        640888898.90116644     
  -2126556276.2228038       -25707317.026590466        626855821.25324500     
  -1980609878.8538795       -26462972.368847847        616161254.88295710     
  -1834298836.8381464       -26003145.555082202        608805199.79031134     
  -1687623150.1756091       -24327836.585295796        604787655.97530031     
  -2478414286.1164761       -18930705.010996222        485059789.13062245     
  -2324646678.4877458       -19045985.080606222        473894590.75533646     
  -2170796712.9553080       -18886738.804547071        465259417.77780992     
  -2016864389.5191655       -18452966.182800293        459154270.19804192     
  -1862849708.1793327       -17744667.215407729        455579148.01602888     
  -2676086626.9314966       -11544055.586701155        329164616.22561175     
  -2516443124.0529475       -10496466.124668121        320537962.58934587     
  -2356999550.0138073       -10115306.127354980        313632848.47094637     
  -2197755904.8140631       -10400575.594682217        308449273.87043613     
  -2038712188.4537427       -11352274.526745677        304987238.78780055     
  -2865155051.3899803       -1576231.2554335594        173203380.18613699     
  -2701945612.9184237       -58760.158835053444        166785936.75525990     
  -2539218390.0293674       -148674.33725059032        161281546.96237597     
  -2376973382.7228456       -1845973.7907561064        156690210.80749038     
  -2215210590.9988174       -5150658.5192762613        153011928.29060614     
  -3045619559.4919467        10972767.982789159        17176081.012197748     
  -2881154145.0841823        12267132.816913247        12638513.253086472     
  -2717453233.0020323        11013156.565645695        8205513.2520891372     
  -2554516823.2454724        7210839.2290759087        3877081.0092083095     
  -2392344915.8145685        860180.80699694157       -346783.47554576525     
  -1687623150.1756091       -24327836.585295796        604787655.97530031     
  -1548179748.5113640       -25929083.268808186        591778317.25783634     
  -1409830795.9909515       -31178493.765108228        577427513.99223900     
  -1272576292.6143708       -40076068.074171543        561735246.17851090     
  -1136416238.3816190       -52621806.196003020        544701513.81665206     
  -1862849708.1793327       -17744667.215407729        455579148.01602888     
  -1726561094.8542128       -22197177.527022123        442178230.99527836     
  -1590251315.6138310       -26579134.787769079        428350002.17596775     
  -1453920370.4581749       -30890538.997616768        414094461.55810207     
  -1317568259.3872747       -35131390.156625748        399411609.14167249     
  -2038712188.4537427       -11352274.526745677        304987238.78780055     
  -1902966498.4689524       -17872488.966771722        292496294.36603987     
  -1766084027.5098314       -20603433.492354631        280492190.89528710     
  -1628064775.5763376       -19545108.103363276        268974928.37554646     
  -1488908742.6685145       -14697512.799933553        257944506.80682334     
  -2215210590.9988174       -5150658.5192762613        153011928.29060614     
  -2077395959.3556113       -12955017.588162780        142732507.37010479     
  -1937328931.6789491       -13251389.878851175        133854080.15018979     
  -1795009507.9688699       -6039775.3914804459        126376646.63085134     
  -1650437688.2253253        8679825.8740923405        120300206.81210403     
  -2392344915.8145685        860180.80699694157       -346783.47554576525     
  -2249849477.5141454       -7444763.3910363913       -7113129.9925146606     
  -2103986028.1212111       -4523003.9473443031       -11564330.059328604     
  -1954754567.6357143        9625459.1382002831       -13700383.675985517     
  -1802155096.0577192        35000625.865429997       -13521290.842498047     
  -1136416238.3816190       -52621806.196003020        544701513.81665206     
  -951461566.00837231       -40833320.822568893        562808623.23110533     
  -759019584.23650515       -4087137.4537443221        591862001.45180309     
  -559090293.06601119        57616743.910503298        631861648.47873890     
  -351673692.49690020        144278323.27015191        682807564.31192172     
  -1317568259.3872747       -35131390.156625748        399411609.14167249     
  -1117784056.6843572       -14874147.751129508        421191495.73986137     
  -914415437.86927652        17331148.361576617        441478116.00877744     
  -707462402.94205344        61484498.181421608        460271469.94840819     
  -496924951.90266299        117585901.70847455        477571557.55876297     
  -1488908742.6685145       -14697512.799933553        257944506.80682334     
  -1309836538.5945497        3366027.9500858188        278843795.08787030     
  -1131082811.6949093        20367978.119017422        285810281.90411729     
  -952647561.96957242        36308337.706929743        278843967.25555426     
  -774530789.41856301        51187106.713772595        257944851.14218870     
  -1650437688.2253253        8679825.8740923405        120300206.81210403     
  -1527619011.7389452        13887206.281041086        135765521.27511418     
  -1409021705.7133832        5023351.8186368346        124858499.13781966     
  -1294645770.1485972       -17911737.513036966        87579140.400179878     
  -1184491205.0445924       -54918061.713989794        23927445.062221829     
  -1802155096.0577192        35000625.865429997       -13521290.842498047     
  -1771131476.1175900        16689387.241668344       -8043325.6983801173     
  -1748232119.9247215       -28702730.539629698       -41377232.290120818     
  -1733457027.4791026       -101175727.47842115       -113523010.61770943     
  -1726806198.7807498       -200729603.57477736       -224480660.68114352     
  -351673692.49690020        144278323.27015191        682807564.31192172     
  -277693039.24925655        285357587.65786409        786172975.74052548     
  -148925979.42802766        609058207.29087174        905359734.75149643     
   34627486.966775954        1115380182.1691170        1040367841.3448339     
   272967359.93517262        1804323512.2926726        1191197295.5205503     
  -496924951.90266299        117585901.70847455        477571557.55876297     
  -388139923.44230705        223131449.60971341        596903331.95352101     
  -230211923.52403522        492486902.37064695        735386443.50334716     
  -23140952.147858202        925652259.99125493        893020892.20823312     
   233072990.68620521        1522627522.4715061        1069806678.0681731     
  -774530789.41856301        51187106.713772595        257944851.14218870     
  -621427129.82350206        124053214.90514603        386658980.86815995     
  -424823933.88623101        341917777.57056493        537854437.32187951     
  -184721201.60672405        704780794.71010292        711531220.50334799     
   98881067.014998198        1212642266.3236809        907689330.41257203     
  -1184491205.0445924       -54918061.713989794        23927445.062221829     
  -977554658.39288485       -11877116.455950975        155439922.48444706     
  -732762010.51462889        157350832.89062268        312763716.20709795     
  -450113261.40983319        452765786.32562816        495898826.23018825     
  -129608411.07848394        874367743.84917307        704845252.55372608     
  -1726806198.7807498       -200729603.57477736       -224480660.68114352     
  -1456522509.1504147       -184659544.47342539       -96753843.197648302     
  -1154026153.4091892       -61213931.669118404        60114280.158990875     
  -819317131.55712914        169607234.83798313        246123709.38876119     
  -452395443.59419614        507803955.04798305        461274444.49164730     
 </DataArray>
 <DataArray  type="Float64" Name="VM" NumberOfComponents="1" format="ascii">
   6274966980.6233587     
   5991019106.8019295     
   5709693161.6374702     
   5424097734.3800745     
   5130361623.1022120     
   5654753975.8746319     
   5460731488.0655060     
   5268158748.9924841     
   5074484879.5771322     
   4878810343.6202755     
   5170476847.3688869     
   5030693661.9348640     
   4892461817.2199001     
   4755563198.4166288     
   4620242532.7215919     
   4824092090.7417679     
   4705341071.1452370     
   4588049850.8861055     
   4472147567.8207560     
   4357575017.7893353     
   4617539675.2300673     
   4488944682.3315773     
   4360316020.5024490     
   4229579265.4161816     
   4095250945.1182857     
   5130361623.1022120     
   4988741489.7950468     
   4849333933.5279255     
   4711819471.7489529     
   4575929876.6068125     
   4878810343.6202755     
   4732534700.0668344     
   4587300190.2867937     
   4443004710.4546051     
   4299553570.2203045     
   4620242532.7215919     
   4475573305.2028847     
   4331695943.1823606     
   4188669502.2623415     
   4046565208.0153375     
   4357575017.7893353     
   4220890923.7648716     
   4085735758.8139362     
   3952295834.3150539     
   3820832105.9279327     
   4095250945.1182857     
   3972735589.5890112     
   3853576692.0696154     
   3738050804.4330759     
   3626631115.4222074     
   4575929876.6068125     
   4363628038.6944408     
   4151341028.6916490     
   3938963269.6809516     
   3726429081.4542966     
   4299553570.2203045     
   4098600618.3385468     
   3898257971.7992225     
   3698510935.6190271     
   3499403045.7329869     
   4046565208.0153375     
   3857479351.8045802     
   3669726749.7646298     
   3483400463.3454051     
   3298672719.1720295     
   3820832105.9279327     
   3644249447.8516030     
   3469846965.4151468     
   3297836914.7011514     
   3128531058.3754635     
   3626631115.4222074     
   3463269050.8501959     
   3303035978.2264724     
   3146263321.4142408     
   2993396827.8358984     
   3726429081.4542966     
   3557827915.7148862     
   3389547140.2933373     
   3221586970.4600239     
   3054035136.2196274     
   3499403045.7329869     
   3343402933.4499688     
   3188267701.3085938     
   3034085653.4706268     
   2881030964.4953895     
   3298672719.1720295     
   3154425535.1593547     
   3011519361.3689027     
   2870123790.2902484     
   2730491076.3432941     
   3128531058.3754635     
   2995452565.7791834     
   2864099316.3441005     
   2734709839.3077831     
   2607600187.9698434     
   2993396827.8358984     
   2871202955.9276614     
   2751002408.5734911     
   2633083927.4646993     
   2517806559.4484444     
   3054035136.2196274     
   2888761287.0861297     
   2723268303.4011998     
   2557556100.1771569     
   2391626432.3361349     
   2881030964.4953895     
   2717598430.4802518     
   2554271612.7065158     
   2391073693.1696754     
   2228040069.8583865     
   2730491076.3432941     
   2571594006.8494320     
   2413561644.6320324     
   2256523522.1248112     
   2100661408.7195873     
   2607600187.9698434     
   2456051329.3049998     
   2306610851.9475985     
   2159596070.7732134     
   2015439350.1319723     
   2517806559.4484444     
   2376292294.2157230     
   2238578481.6236086     
   2105207679.1186552     
   1976894734.5335727     
   2391626432.3361349     
   2245710375.8792253     
   2101910055.3040338     
   1960226388.8561485     
   1820821502.9611666     
   2228040069.8583865     
   2085683083.9030151     
   1944963713.8116159     
   1805884349.4621232     
   1668522047.1035345     
   2100661408.7195873     
   1961037036.3526890     
   1822383165.5610409     
   1684731713.6272721     
   1548143329.2889254     
   2015439350.1319723     
   1879349135.6464739     
   1743584809.0858085     
   1608269679.3311222     
   1473573410.4933810     
   1976894734.5335727     
   1846866416.6748619     
   1716831590.6547198     
   1587119277.0228441     
   1458208321.3745768     
   1820821502.9611666     
   1780042119.4068234     
   1735763772.5171850     
   1696626182.7221234     
   1681139720.3440254     
   1668522047.1035345     
   1552931963.6275132     
   1428223389.6859758     
   1294761207.1130440     
   1158681558.5649035     
   1548143329.2889254     
   1398055178.0640235     
   1244392126.0432899     
   1084888508.3653576     
   917518525.04733133     
   1473573410.4933810     
   1329108514.1334627     
   1199096724.3275914     
   1088037629.4915111     
   1001862259.2768809     
   1458208321.3745768     
   1348983367.6501620     
   1274746990.3259239     
   1243655742.3436086     
   1262776946.0526025     
   1681139720.3440254     
   1383656410.9560983     
   1129438241.4589629     
   1010212755.1582432     
   1153218284.5416551     
   1158681558.5649035     
   1008292407.8880191     
   985165010.54058897     
   1161525764.0692515     
   1544239973.1053927     
   917518525.04733133     
   962992235.15054679     
   1144876219.2095833     
   1476495703.8122826     
   1957536056.1675060     
   1001862259.2768809     
   1164614080.2524877     
   1425383894.1024551     
   1808751230.7688673     
   2334811875.9471068     
   1262776946.0526025     
   1446626285.2040138     
   1715667211.9199471     
   2110486442.9462352     
   2663544531.1801281     
   4617539675.2300673     
   4488944682.3315773     
   4360316020.5024490     
   4229579265.4161816     
   4095250945.1182857     
   4454571724.1950407     
   4297527316.2659035     
   4140227212.3976068     
   3982192725.7439609     
   3823035568.0730348     
   4239065382.1932497     
   4071401571.9614501     
   3906939352.7823062     
   3745999572.1805482     
   3588983998.7841101     
   3977241913.2918000     
   3815959253.0003405     
   3665034391.4699912     
   3524816981.6835971     
   3396181414.7977753     
   3681793896.4688010     
   3540736501.5411835     
   3421489043.4365635     
   3323407676.0124836     
   3247214800.8519988     
   4095250945.1182857     
   3972735589.5890112     
   3853576692.0696154     
   3738050804.4330759     
   3626631115.4222074     
   3823035568.0730348     
   3722070448.2929897     
   3624592196.1138272     
   3530936711.1275220     
   3441569064.3325758     
   3588983998.7841101     
   3506733813.5294952     
   3427752036.0310502     
   3352360478.8880353     
   3280950900.1399174     
   3396181414.7977753     
   3330160526.8658533     
   3266765631.2119050     
   3206235860.2860284     
   3148837016.2344489     
   3247214800.8519988     
   3195349459.0965047     
   3145004692.3310385     
   3096278675.7495742     
   3049273899.8285904     
   3626631115.4222074     
   3463269050.8501959     
   3303035978.2264724     
   3146263321.4142408     
   2993396827.8358984     
   3441569064.3325758     
   3290985869.7021418     
   3144506516.4212890     
   3002561556.5678344     
   2865712990.0353661     
   3280950900.1399174     
   3144147596.5703578     
   3012555096.6145678     
   2886690208.5566463     
   2767207548.1280518     
   3148837016.2344489     
   3026591080.7565761     
   2910744112.7637200     
   2801866863.4131985     
   2700659585.7641540     
   3049273899.8285904     
   2941971183.8196650     
   2842263686.5383544     
   2750726992.7728004     
   2668043812.8503709     
   2993396827.8358984     
   2871202955.9276614     
   2751002408.5734911     
   2633083927.4646993     
   2517806559.4484444     
   2865712990.0353661     
   2754715013.0688949     
   2646844198.0865130     
   2542518658.7086048     
   2442244508.7608328     
   2767207548.1280518     
   2669384897.3693938     
   2575979141.0853500     
   2487516052.3919411     
   2404611447.4320745     
   2700659585.7641540     
   2617558658.2717333     
   2540206607.7191768     
   2469183719.7012167     
   2405144020.6607518     
   2668043812.8503709     
   2600537865.5907874     
   2540031419.6101751     
   2487090342.8139119     
   2442326446.4075332     
   2517806559.4484444     
   2376292294.2157230     
   2238578481.6236086     
   2105207679.1186552     
   1976894734.5335727     
   2442244508.7608328     
   2315752274.5955505     
   2194423652.2824736     
   2078990177.7826176     
   1970361247.0277567     
   2404611447.4320745     
   2294908469.0926180     
   2191724888.0473771     
   2095887665.4496036     
   2008363967.2804234     
   2405144020.6607518     
   2313256297.8822675     
   2229032335.5163579     
   2153275600.6134028     
   2086867752.9075685     
   2442326446.4075332     
   2368377838.7061591     
   2302891450.1888714     
   2246552710.9619951     
   2200067413.7571468     
   1976894734.5335727     
   1846866416.6748619     
   1716831590.6547198     
   1587119277.0228441     
   1458208321.3745768     
   1970361247.0277567     
   1854637881.0312281     
   1743250516.9539173     
   1637104963.1266711     
   1537311535.3724515     
   2008363967.2804234     
   1912165723.2901828     
   1824739653.0988867     
   1747282135.6905324     
   1681080075.8945017     
   2086867752.9075685     
   2011872695.3760729     
   1949285595.5134549     
   1900193396.5513906     
   1865631698.0646098     
   2200067413.7571468     
   2144939435.5046067     
   2104868401.0322299     
   2080636073.3343141     
   2072930691.8191631     
   1458208321.3745768     
   1348983367.6501620     
   1274746990.3259239     
   1243655742.3436086     
   1262776946.0526025     
   1537311535.3724515     
   1476350951.4891596     
   1448090572.5274746     
   1456506807.7456589     
   1504897637.1104767     
   1681080075.8945017     
   1652573288.7529416     
   1651776822.9624789     
   1681059034.3744276     
   1743026045.8874404     
   1865631698.0646098     
   1855161262.4283030     
   1867625046.1031466     
   1905228437.4773839     
   1971001695.0114157     
   2072930691.8191631     
   2069486611.4612119     
   2085209616.0611084     
   2122728441.1982417     
   2185859084.3311505     
   1262776946.0526025     
   1446626285.2040138     
   1715667211.9199471     
   2110486442.9462352     
   2663544531.1801281     
   1504897637.1104767     
   1613295919.5342894     
   1788877923.8974676     
   2066403520.3212926     
   2476095977.9740238     
   1743026045.8874404     
   1787786023.4586916     
   1884693148.9912560     
   2060664693.5802839     
   2340941558.7633319     
   1971001695.0114157     
   1969058901.7315550     
   2003678247.4600043     
   2093537533.5593610     
   2257299584.5815101     
   2185859084.3311505     
   2156401515.0293250     
   2146574615.3003843     
   2166899992.7693219     
   2228443762.2303658     
   3681793896.4688010     
   3540736501.5411835     
   3421489043.4365635     
   3323407676.0124836     
   3247214800.8519988     
   3303562197.5643411     
   3230486489.1074853     
   3171918707.7845674     
   3128014133.9922786     
   3099380460.8812003     
   3030537541.1291609     
   3007079098.7062507     
   2989414824.5553474     
   2977697735.8387356     
   2972105119.2406120     
   2856452010.4403491     
   2867338310.7834325     
   2873944007.2290916     
   2875509249.1443219     
   2871433447.7626915     
   2771388271.7694287     
   2804341351.4348850     
   2822355436.1609507     
   2822783438.3594437     
   2803775651.8907256     
   3247214800.8519988     
   3195349459.0965047     
   3145004692.3310385     
   3096278675.7495742     
   3049273899.8285904     
   3099380460.8812003     
   3051830191.8001704     
   3007576223.0459657     
   2966823220.0946560     
   2929784249.4407253     
   2972105119.2406120     
   2930785652.2400599     
   2894778585.9975152     
   2864357085.8181653     
   2839805671.1461525     
   2871433447.7626915     
   2837228619.1805186     
   2810549571.4418068     
   2791679106.5703225     
   2780912006.5282283     
   2803775651.8907256     
   2776198375.5069427     
   2758525230.3663478     
   2750983841.1203556     
   2753813777.8883519     
   3049273899.8285904     
   2941971183.8196650     
   2842263686.5383544     
   2750726992.7728004     
   2668043812.8503709     
   2929784249.4407253     
   2838865958.5441375     
   2756107498.4795108     
   2682033985.3485274     
   2617245381.8544469     
   2839805671.1461525     
   2764623416.1654706     
   2698020411.1075392     
   2640438470.8062663     
   2592363802.9138880     
   2780912006.5282283     
   2720404959.7182322     
   2668725649.1092043     
   2626212746.5766463     
   2593225637.9517794     
   2753813777.8883519     
   2706492002.7046885     
   2668077522.4886913     
   2638803028.6125917     
   2618907253.2926798     
   2668043812.8503709     
   2600537865.5907874     
   2540031419.6101751     
   2487090342.8139119     
   2442326446.4075332     
   2617245381.8544469     
   2565081205.0430455     
   2520487219.1666398     
   2483944819.3122396     
   2455954650.9319105     
   2592363802.9138880     
   2554802828.1830578     
   2525201174.0564966     
   2503933851.7072277     
   2491376577.6310859     
   2593225637.9517794     
   2569027336.9931259     
   2553011734.8387041     
   2545444984.7746787     
   2546584965.4920745     
   2618907253.2926798     
   2606403880.1658611     
   2602186312.5752916     
   2606425003.4987226     
   2619280752.8154411     
   2442326446.4075332     
   2368377838.7061591     
   2302891450.1888714     
   2246552710.9619951     
   2200067413.7571468     
   2455954650.9319105     
   2397668929.7705426     
   2348730467.7923408     
   2309693592.5817127     
   2281097241.1118307     
   2491376577.6310859     
   2447673120.4531064     
   2413941025.4260974     
   2390583623.4684911     
   2377971276.5548029     
   2546584965.4920745     
   2515812779.6300082     
   2495443685.4793606     
   2485740191.4266024     
   2486930317.4268718     
   2619280752.8154411     
   2599393320.0804358     
   2590242392.1854095     
   2591976843.4941049     
   2604719435.6267128     
   2200067413.7571468     
   2144939435.5046067     
   2104868401.0322299     
   2080636073.3343141     
   2072930691.8191631     
   2281097241.1118307     
   2241172332.5575418     
   2215169199.3886776     
   2203538632.7544031     
   2206666798.9363165     
   2377971276.5548029     
   2350210054.5900483     
   2335209822.7077618     
   2333215793.3757329     
   2344442914.6026087     
   2486930317.4268718     
   2468620856.5482731     
   2462003050.2691555     
   2467206680.4920173     
   2484359330.7493935     
   2604719435.6267128     
   2593547046.6511931     
   2593146851.9607472     
   2603592104.7449174     
   2624973027.4829888     
   2072930691.8191631     
   2069486611.4612119     
   2085209616.0611084     
   2122728441.1982417     
   2185859084.3311505     
   2206666798.9363165     
   2192231405.3791366     
   2192766611.1324844     
   2210241618.0420685     
   2247580874.8714423     
   2344442914.6026087     
   2319845349.7710490     
   2306803444.8170218     
   2306723428.2290869     
   2321697818.1831508     
   2484359330.7493935     
   2451370376.9040203     
   2427007788.2942686     
   2412217509.3386102     
   2408379341.1678872     
   2624973027.4829888     
   2586037435.8508911     
   2553100933.3687224     
   2526745223.8450971     
   2507780822.3562140     
   2185859084.3311505     
   2156401515.0293250     
   2146574615.3003843     
   2166899992.7693219     
   2228443762.2303658     
   2247580874.8714423     
   2182796769.5527864     
   2134464088.6590235     
   2112248377.3596177     
   2127081668.2764990     
   2321697818.1831508     
   2224923688.0696650     
   2141471319.3662152     
   2079704943.6684237     
   2049795726.2653742     
   2408379341.1678872     
   2283075042.2832184     
   2168243340.2150979     
   2070623045.7346983     
   1998982850.6138027     
   2507780822.3562140     
   2357458558.4475923     
   2215250421.9341893     
   2086135488.9943724     
   1976990487.9003210     
   2771388271.7694287     
   2804341351.4348850     
   2822355436.1609507     
   2822783438.3594437     
   2803775651.8907256     
   2841156825.5075254     
   2817593787.6729059     
   2790334264.0984077     
   2759022667.3362131     
   2723395322.8209944     
   2896741183.8329830     
   2823915895.1611309     
   2763482501.8599539     
   2715724390.2770553     
   2680925583.1300740     
   2968174436.2090683     
   2847689573.3947744     
   2759229178.0483236     
   2702491840.7576380     
   2677254286.4824572     
   3095647137.2644877     
   2920169821.5521665     
   2798447351.1552210     
   2729309911.3458261     
   2711690243.4030347     
   2803775651.8907256     
   2776198375.5069427     
   2758525230.3663478     
   2750983841.1203556     
   2753813777.8883519     
   2723395322.8209944     
   2706854543.8221383     
   2699292773.7053895     
   2700828664.1785460     
   2711589277.7553468     
   2680925583.1300740     
   2672765771.5010033     
   2672666103.5187092     
   2680663256.4087029     
   2696807130.1809473     
   2677254286.4824572     
   2674998887.9755316     
   2679937704.8116999     
   2692040842.8520179     
   2711302798.0144553     
   2711690243.4030347     
   2713225781.3300848     
   2721181087.2514844     
   2735461766.1879716     
   2756014201.1356030     
   2753813777.8883519     
   2706492002.7046885     
   2668077522.4886913     
   2638803028.6125917     
   2618907253.2926798     
   2711589277.7553468     
   2670564436.7363229     
   2639192375.0303593     
   2617619274.9633746     
   2605992501.4359498     
   2696807130.1809473     
   2659708806.4363708     
   2632980248.7881422     
   2616690733.6664171     
   2610909228.0703182     
   2711302798.0144553     
   2675232561.2122946     
   2650239691.6259885     
   2636340636.8686700     
   2633552025.3591475     
   2756014201.1356030     
   2717696829.7070274     
   2691168224.7351685     
   2676428363.3636041     
   2673478543.4495869     
   2618907253.2926798     
   2606403880.1658611     
   2602186312.5752916     
   2606425003.4987226     
   2619280752.8154411     
   2605992501.4359498     
   2600906245.8828344     
   2604051838.1672063     
   2615520068.9567962     
   2635394369.7180538     
   2610909228.0703182     
   2610888907.9617519     
   2619052854.2480125     
   2635437697.2813196     
   2660076210.0088162     
   2633552025.3591475     
   2636108986.9089355     
   2646841267.5795774     
   2665756902.5028696     
   2692863022.2842770     
   2673478543.4495869     
   2676085501.8501897     
   2686915825.3114576     
   2705973437.6193085     
   2733262895.5270619     
   2619280752.8154411     
   2599393320.0804358     
   2590242392.1854095     
   2591976843.4941049     
   2604719435.6267128     
   2635394369.7180538     
   2621623279.5578547     
   2618335381.9291525     
   2625616545.7623930     
   2643536705.8502798     
   2660076210.0088162     
   2650953743.3712549     
   2652186276.7829256     
   2663814413.4841890     
   2685871588.3987994     
   2692863022.2842770     
   2686895079.6699610     
   2691301426.5781975     
   2706092555.0163174     
   2731278325.7695165     
   2733262895.5270619     
   2728951801.2641759     
   2735197483.6894188     
   2751993664.8011475     
   2779337186.1573615     
   2604719435.6267128     
   2593547046.6511931     
   2593146851.9607472     
   2603592104.7449174     
   2624973027.4829888     
   2643536705.8502798     
   2633384769.3619390     
   2633362787.3214040     
   2643508341.9296060     
   2663870441.5928016     
   2685871588.3987994     
   2676436464.4052773     
   2676661373.6134849     
   2686561196.5493007     
   2706157013.9305639     
   2731278325.7695165     
   2722364587.5953450     
   2722799475.0874915     
   2732585920.4052110     
   2751729088.3294487     
   2779337186.1573615     
   2770847557.5417290     
   2771541703.3931608     
   2781419507.0065613     
   2800480965.7192836     
   2624973027.4829888     
   2586037435.8508911     
   2553100933.3687224     
   2526745223.8450971     
   2507780822.3562140     
   2663870441.5928016     
   2618023544.6635337     
   2577918858.6459370     
   2543886748.2339716     
   2516389246.3927946     
   2706157013.9305639     
   2655517167.1149306     
   2610507614.4370689     
   2571274988.4524560     
   2538024306.3080363     
   2751729088.3294487     
   2698423448.9835162     
   2650780005.9437284     
   2608834795.7783589     
   2572637743.7516136     
   2800480965.7192836     
   2746639132.6553679     
   2698634238.3487887     
   2656466245.2403278     
   2620135141.5404301     
   2507780822.3562140     
   2357458558.4475923     
   2215250421.9341893     
   2086135488.9943724     
   1976990487.9003210     
   2516389246.3927946     
   2348489986.7299633     
   2184116405.3121238     
   2026366674.5457163     
   1879804503.1729162     
   2538024306.3080363     
   2357636460.1368437     
   2176982609.2859626     
   1997532516.2498279     
   1821562271.6425831     
   2572637743.7516136     
   2385003500.8491926     
   2194316720.6702075     
   2000954532.0203028     
   1805519565.8894894     
   2620135141.5404301     
   2430561382.6530371     
   2236261448.0218439     
   2037235334.7307034     
   1833483040.0456376     
   3095647137.2644877     
   2920169821.5521665     
   2798447351.1552210     
   2729309911.3458261     
   2711690243.4030347     
   2817223895.4535637     
   2727515863.6762409     
   2667494835.1663923     
   2637290167.1392899     
   2637057258.3938913     
   2656060694.5548310     
   2630984585.6386786     
   2614852223.0102987     
   2607941356.1436434     
   2610482906.7689552     
   2553861965.9281816     
   2586688106.1331124     
   2611450091.6931238     
   2626437134.7830329     
   2630353342.0027418     
   2458214756.3433723     
   2555442061.1300259     
   2630179095.3859572     
   2677098535.3462319     
   2692742712.9012871     
   2711690243.4030347     
   2713225781.3300848     
   2721181087.2514844     
   2735461766.1879716     
   2756014201.1356030     
   2637057258.3938913     
   2644201132.1658821     
   2657845263.4869852     
   2677978778.1739922     
   2704595229.1533327     
   2610482906.7689552     
   2618326993.8573036     
   2632667278.5811367     
   2653557858.2662015     
   2681052790.1620979     
   2630353342.0027418     
   2634096071.3946452     
   2644230163.8641820     
   2660851322.2292829     
   2684085577.3595972     
   2692742712.9012871     
   2688125279.0182166     
   2689654204.3138499     
   2697434153.8798504     
   2711665472.8282585     
   2756014201.1356030     
   2717696829.7070274     
   2691168224.7351685     
   2676428363.3636041     
   2673478543.4495869     
   2704595229.1533327     
   2668640388.8186970     
   2643540442.5637197     
   2629319010.0516200     
   2625999884.0716228     
   2681052790.1620979     
   2644831486.3847370     
   2618576284.3475876     
   2602362234.7788634     
   2596263544.2931695     
   2684085577.3595972     
   2645383163.7051826     
   2615799194.1428962     
   2595473993.7741666     
   2584547167.4283433     
   2711665472.8282585     
   2668777773.3484550     
   2634195241.3198867     
   2608123630.1875644     
   2590770032.5639729     
   2673478543.4495869     
   2676085501.8501897     
   2686915825.3114576     
   2705973437.6193085     
   2733262895.5270619     
   2625999884.0716228     
   2628323353.0086651     
   2638827551.8159828     
   2657524936.7506151     
   2684427119.1082029     
   2596263544.2931695     
   2596476240.9160085     
   2604902487.2393146     
   2621579928.0121140     
   2646542196.2686954     
   2584547167.4283433     
   2580830847.0633583     
   2585426656.2839084     
   2598415126.5086064     
   2619868357.5902691     
   2590770032.5639729     
   2581386534.3219976     
   2580460981.4477849     
   2588135099.4909520     
   2604537430.6943069     
   2733262895.5270619     
   2728951801.2641759     
   2735197483.6894188     
   2751993664.8011475     
   2779337186.1573615     
   2684427119.1082029     
   2680730060.3176212     
   2687306281.7985797     
   2704161092.9694872     
   2731298352.9804020     
   2646542196.2686954     
   2641054482.7060399     
   2645671171.8013110     
   2660430778.6249595     
   2685363754.8897958     
   2619868357.5902691     
   2610252340.7405939     
   2610663537.6757989     
   2621195909.6762805     
   2641927772.0145683     
   2604537430.6943069     
   2588581018.3107710     
   2582630710.2697616     
   2586859070.3345084     
   2601416245.8211603     
   2779337186.1573615     
   2770847557.5417290     
   2771541703.3931608     
   2781419507.0065613     
   2800480965.7192836     
   2731298352.9804020     
   2722182331.2206168     
   2722397096.0492411     
   2731946698.4236865     
   2750836088.5567765     
   2685363754.8897958     
   2675720213.9681134     
   2675705072.4887013     
   2685333762.0173693     
   2704627362.8681407     
   2641927772.0145683     
   2631760997.9521527     
   2631683251.2306890     
   2641730074.5000362     
   2661950890.8943243     
   2601416245.8211603     
   2590622513.3567915     
   2590556954.1724133     
   2601285604.7825480     
   2622899206.0549569     
   2800480965.7192836     
   2746639132.6553679     
   2698634238.3487887     
   2656466245.2403278     
   2620135141.5404301     
   2750836088.5567765     
   2697774975.0448475     
   2650355097.0666184     
   2608613409.6356325     
   2572602260.5242634     
   2704627362.8681407     
   2654395121.3620272     
   2609750562.2094831     
   2570841099.8690696     
   2537873430.1775627     
   2661950890.8943243     
   2616596543.3864045     
   2576918971.9486852     
   2543248023.7399101     
   2516043371.8652325     
   2622899206.0549569     
   2584466865.3451319     
   2551943516.0722818     
   2525907890.7403374     
   2507160967.6859374     
   2620135141.5404301     
   2430561382.6530371     
   2236261448.0218439     
   2037235334.7307034     
   1833483040.0456376     
   2572602260.5242634     
   2384961775.9654098     
   2194281860.5784431     
   2000943211.1252637     
   1805553423.0685041     
   2537873430.1775627     
   2357500133.4168463     
   2176886324.5363383     
   1997510940.1047826     
   1821663864.7044759     
   2516043371.8652325     
   2348205860.2123380     
   2183930685.3821039     
   2026331981.9684675     
   1879997474.2649786     
   2507160967.6859374     
   2356973664.1762433     
   2214946807.6016831     
   2086082499.5667570     
   1977290910.5666976     
   2458214756.3433723     
   2555442061.1300259     
   2630179095.3859572     
   2677098535.3462319     
   2692742712.9012871     
   2690316775.0620837     
   2735700839.9179931     
   2769666626.6048665     
   2791433521.9005747     
   2800497176.9423800     
   2997739157.6930499     
   2972073257.6329250     
   2953000831.4079466     
   2940489341.7708864     
   2934547253.4341922     
   3388214469.3098283     
   3277543982.3874092     
   3191805671.9903002     
   3130243866.6270332     
   3092576063.4648271     
   3877304615.3346672     
   3666977301.0775027     
   3496906282.6796761     
   3365371396.1652646     
   3272242950.3559346     
   2692742712.9012871     
   2688125279.0182166     
   2689654204.3138499     
   2697434153.8798504     
   2711665472.8282585     
   2800497176.9423800     
   2779777788.6782246     
   2764124585.2990522     
   2753748004.9519010     
   2748908910.4846873     
   2934547253.4341922     
   2899099398.9375196     
   2867863914.4581218     
   2841077472.3857641     
   2819001059.7933998     
   3092576063.4648271     
   3044222165.5893617     
   2999479341.1593456     
   2958544879.8102226     
   2921628650.6317987     
   3272242950.3559346     
   3213027476.0490708     
   3157094546.2793431     
   3104552552.3430214     
   3055522379.4308777     
   2711665472.8282585     
   2668777773.3484550     
   2634195241.3198867     
   2608123630.1875644     
   2590770032.5639729     
   2748908910.4846873     
   2691923764.1625772     
   2643453265.5114779     
   2603812121.0931854     
   2573330458.6164403     
   2819001059.7933998     
   2746256736.7941575     
   2682010271.0657144     
   2626686407.8911033     
   2580750499.1576304     
   2921628650.6317987     
   2831843832.4098635     
   2750309823.9776721     
   2677542710.3739176     
   2614133712.5891514     
   3055522379.4308777     
   2947792892.9711523     
   2847865238.0723538     
   2756311553.9015818     
   2673817623.1334424     
   2590770032.5639729     
   2581386534.3219976     
   2580460981.4477849     
   2588135099.4909520     
   2604537430.6943069     
   2573330458.6164403     
   2551978058.6205444     
   2538979152.0467868     
   2534579412.4461031     
   2539011122.0698819     
   2580750499.1576304     
   2545260351.9206624     
   2517850755.4596105     
   2498892150.5727286     
   2488752210.8294497     
   2614133712.5891514     
   2562856180.9061990     
   2519159802.1074309     
   2483540287.5084701     
   2456515152.8602905     
   2673817623.1334424     
   2605724257.4794259     
   2544466379.8731093     
   2490639160.0334296     
   2444896468.6086922     
   2604537430.6943069     
   2588581018.3107710     
   2582630710.2697616     
   2586859070.3345084     
   2601416245.8211603     
   2539011122.0698819     
   2509962428.9799333     
   2490812356.3524981     
   2481839311.2828774     
   2483291735.5862551     
   2488752210.8294497     
   2445160330.0163269     
   2411295722.6405230     
   2387565172.4679775     
   2374346863.3324533     
   2456515152.8602905     
   2397188995.8686213     
   2347272355.0398507     
   2307309881.4091172     
   2277833328.9959559     
   2444896468.6086922     
   2369052101.8997765     
   2302088886.0386324     
   2244674151.0659890     
   2197494827.4537559     
   2601416245.8211603     
   2590622513.3567915     
   2590556954.1724133     
   2601285604.7825480     
   2622899206.0549569     
   2483291735.5862551     
   2465548815.9735060     
   2459455197.2472982     
   2465133509.1331887     
   2482709147.1974983     
   2374346863.3324533     
   2347232799.8258495     
   2332831900.7301154     
   2331383670.8814497     
   2343099401.5473185     
   2277833328.9959559     
   2238537094.3335738     
   2213099510.1122112     
   2201968571.0304670     
   2205526869.6574759     
   2197494827.4537559     
   2142893575.2186439     
   2103257078.7515404     
   2079368217.4712682     
   2071913376.7747028     
   2622899206.0549569     
   2584466865.3451319     
   2551943516.0722818     
   2525907890.7403374     
   2507160967.6859374     
   2482709147.1974983     
   2450023351.2840414     
   2425908695.5524325     
   2411310330.6758809     
   2407600968.3745937     
   2343099401.5473185     
   2318648694.9172783     
   2305732491.4456058     
   2305758547.9779930     
   2320816672.1254649     
   2205526869.6574759     
   2191120179.5954261     
   2191696922.4182968     
   2209230756.8579922     
   2246650091.9355779     
   2071913376.7747028     
   2068407975.3460028     
   2084118689.9053485     
   2121682916.6073475     
   2184929722.0103540     
   2507160967.6859374     
   2356973664.1762433     
   2214946807.6016831     
   2086082499.5667570     
   1977290910.5666976     
   2407600968.3745937     
   2282537655.5520201     
   2167974941.6256967     
   2070667251.5686007     
   1999402137.8123751     
   2320816672.1254649     
   2224355897.6992903     
   2141224375.1001303     
   2079791069.8892331     
   2050228916.7540560     
   2246650091.9355779     
   2182218868.5929146     
   2134224410.7924972     
   2112324318.2761836     
   2127436177.2247925     
   2184929722.0103540     
   2155832292.2810926     
   2146328109.3590755     
   2166918028.3958240     
   2228640419.4766917     
   3877304615.3346672     
   3666977301.0775027     
   3496906282.6796761     
   3365371396.1652646     
   3272242950.3559346     
   4091559792.0864305     
   3896611970.7861414     
   3718809065.3507571     
   3558765301.3727670     
   3417850138.6743331     
   4299501044.6311483     
   4121519979.7031436     
   3946663079.8055558     
   3775392757.3871632     
   3608275205.1724820     
   4454786940.4117432     
   4310004087.6542292     
   4160106580.4227090     
   4003750885.7394218     
   3839773420.4310718     
   4528985499.1303072     
   4442078647.6162701     
   4345480456.3228312     
   4235113145.8207746     
   4108233575.4615278     
   3272242950.3559346     
   3213027476.0490708     
   3157094546.2793431     
   3104552552.3430214     
   3055522379.4308777     
   3417850138.6743331     
   3345662514.1015320     
   3277601234.0080042     
   3213892249.2641773     
   3154796710.8312378     
   3608275205.1724820     
   3520689282.3467422     
   3437585701.9305563     
   3359277564.4239869     
   3286154238.2319465     
   3839773420.4310718     
   3734162313.2818165     
   3632958641.5499420     
   3536517960.2975850     
   3445327105.5969658     
   4108233575.4615278     
   3981832785.6358743     
   3859417403.6610765     
   3741330590.0925398     
   3628108727.5890508     
   3055522379.4308777     
   2947792892.9711523     
   2847865238.0723538     
   2756311553.9015818     
   2673817623.1334424     
   3154796710.8312378     
   3032203185.3260784     
   2916120942.9766951     
   2807120721.1671233     
   2705908090.2665367     
   3286154238.2319465     
   3149028845.1132984     
   3017152693.1806726     
   2891044282.8927269     
   2771363626.2943964     
   3445327105.5969658     
   3294442185.4740577     
   3147644504.5450730     
   3005366689.5909877     
   2868174597.1553535     
   3628108727.5890508     
   3464499421.1289988     
   3303964988.1505060     
   3146838589.7785258     
   2993567530.2586322     
   2673817623.1334424     
   2605724257.4794259     
   2544466379.8731093     
   2490639160.0334296     
   2444896468.6086922     
   2705908090.2665367     
   2622050982.9138780     
   2543757658.6980147     
   2471620230.4977913     
   2406312910.9117060     
   2771363626.2943964     
   2672882549.4352293     
   2578651656.3252263     
   2489193507.4607072     
   2405123321.3313718     
   2868174597.1553535     
   2756828025.8928103     
   2648498925.4843478     
   2543593107.7387953     
   2442601696.2197380     
   2993567530.2586322     
   2871484541.0493217     
   2751373088.1680059     
   2633507195.6488223     
   2518225266.8957958     
   2444896468.6086922     
   2369052101.8997765     
   2302088886.0386324     
   2244674151.0659890     
   2197494827.4537559     
   2406312910.9117060     
   2313129321.6021338     
   2227945160.6383080     
   2151557938.0205560     
   2084843496.5284278     
   2405123321.3313718     
   2294533301.3666406     
   2190702848.1861391     
   2094462299.5524845     
   2006784042.6942422     
   2442601696.2197380     
   2315512149.2583132     
   2193720555.5402508     
   2077965816.2622740     
   1969167603.4132512     
   2518225266.8957958     
   2376358362.6298451     
   2238317902.5061250     
   2104652503.5344620     
   1976084979.6723893     
   2197494827.4537559     
   2142893575.2186439     
   2103257078.7515404     
   2079368217.4712682     
   2071913376.7747028     
   2084843496.5284278     
   2010231323.1203179     
   1947958565.4832582     
   1899110506.9028447     
   1864720021.4767528     
   2006784042.6942422     
   1910846408.1122389     
   1823638159.3101399     
   1746353566.2645590     
   1680277339.9425635     
   1969167603.4132512     
   1853588578.8835158     
   1742330889.8196607     
   1636300474.6652601     
   1536608350.9681475     
   1976084979.6723893     
   1846075485.9363651     
   1716072892.6421077     
   1586409820.3244107     
   1457569848.6704187     
   2071913376.7747028     
   2068407975.3460028     
   2084118689.9053485     
   2121682916.6073475     
   2184929722.0103540     
   1864720021.4767528     
   1854238421.7573917     
   1866722454.7946558     
   1904384082.7974598     
   1970263263.5989189     
   1680277339.9425635     
   1651801540.9185507     
   1651051342.8147106     
   1680399031.7790306     
   1742456582.8688164     
   1536608350.9681475     
   1475718790.3446064     
   1447529500.2532964     
   1456016552.2649562     
   1504478433.8370564     
   1457569848.6704187     
   1348464228.4670424     
   1274333984.0339608     
   1243327002.7119687     
   1262500701.3449395     
   2184929722.0103540     
   2155832292.2810926     
   2146328109.3590755     
   2166918028.3958240     
   2228640419.4766917     
   1970263263.5989189     
   1968588191.4554198     
   2003465271.2345173     
   2093549162.6353891     
   2257467935.6743717     
   1742456582.8688164     
   1787398354.7702210     
   1884499655.5008879     
   2060652780.7152152     
   2341060712.3782935     
   1504478433.8370564     
   1612978445.6453617     
   1788691624.9607656     
   2066353746.5122120     
   2476152315.8183031     
   1262500701.3449395     
   1446370642.6864076     
   1715477829.9920812     
   2110389759.4571753     
   2663536386.3760290     
   4528985499.1303072     
   4442078647.6162701     
   4345480456.3228312     
   4235113145.8207746     
   4108233575.4615278     
   4745506669.5148458     
   4651408674.1898251     
   4556071540.3815136     
   4459434776.9424276     
   4361449272.0152893     
   5147946311.8355045     
   4999563923.8690500     
   4861234631.4567642     
   4731659566.7785549     
   4610419711.7394972     
   5739330664.6195011     
   5492033740.9066153     
   5263935095.2622461     
   5049803835.0904198     
   4847965142.5825968     
   6524855385.2390375     
   6132875749.0217400     
   5765111609.2784300     
   5411440661.7328005     
   5069092648.8176022     
   4108233575.4615278     
   3981832785.6358743     
   3859417403.6610765     
   3741330590.0925398     
   3628108727.5890508     
   4361449272.0152893     
   4225388679.9846277     
   4090046771.2787008     
   3955623109.8575311     
   3822390025.5964885     
   4610419711.7394972     
   4472251490.4291191     
   4332778366.3367491     
   4191996890.7747898     
   4049936224.4755292     
   4847965142.5825968     
   4716373021.9926567     
   4582478037.5563478     
   4446088624.3500605     
   4307098731.9750986     
   5069092648.8176022     
   4953359812.6390238     
   4835194824.9643898     
   4714260817.6146202     
   4590448171.0690613     
   3628108727.5890508     
   3464499421.1289988     
   3303964988.1505060     
   3146838589.7785258     
   2993567530.2586322     
   3822390025.5964885     
   3644409806.6312733     
   3468902570.7070546     
   3296084983.1386042     
   3126280720.8960905     
   4049936224.4755292     
   3858094882.5356359     
   3668186102.9673882     
   3480311099.9807978     
   3294667033.3617535     
   4307098731.9750986     
   4101631440.9751740     
   3897623635.0475402     
   3695070432.1052637     
   3494051309.0770264     
   4590448171.0690613     
   4371318948.9901791     
   4153238140.0003476     
   3936107724.4709125     
   3719903979.3769798     
   2993567530.2586322     
   2871484541.0493217     
   2751373088.1680059     
   2633507195.6488223     
   2518225266.8957958     
   3126280720.8960905     
   2993875246.6585698     
   2863197435.2621298     
   2734480193.1285062     
   2608031175.5359206     
   3294667033.3617535     
   3151441189.3159871     
   3009546919.2448540     
   2869154572.8325157     
   2730517907.1029220     
   3494051309.0770264     
   3339211430.7060552     
   3185185698.2833095     
   3032066065.2057381     
   2880034381.5292449     
   3719903979.3769798     
   3552406164.5716720     
   3385116061.4554400     
   3218036830.5242190     
   3051265775.5207243     
   2518225266.8957958     
   2376358362.6298451     
   2238317902.5061250     
   2104652503.5344620     
   1976084979.6723893     
   2608031175.5359206     
   2456379040.9538069     
   2306754166.5417504     
   2159475232.2774296     
   2014975270.4823654     
   2730517907.1029220     
   2571850728.3221116     
   2413877403.0826240     
   2256724202.5433021     
   2100567515.8186779     
   2880034381.5292449     
   2717315583.0647426     
   2554464278.4599376     
   2391500262.5370922     
   2228455215.8505726     
   3051265775.5207243     
   2887390238.0694590     
   2723013604.8923440     
   2558138679.1646729     
   2392775197.5669322     
   1976084979.6723893     
   1846075485.9363651     
   1716072892.6421077     
   1586409820.3244107     
   1457569848.6704187     
   2014975270.4823654     
   1878761802.2833433     
   1742925519.4201255     
   1607591040.7840097     
   1472929471.7304184     
   2100567515.8186779     
   1960676520.7607870     
   1821844534.0791368     
   1684101766.2152061     
   1547510294.4243646     
   2228455215.8505726     
   2085652609.9082682     
   1944607269.3928006     
   1805316406.8308628     
   1667861455.0131857     
   2392775197.5669322     
   2246170137.9908762     
   2101823619.6628847     
   1959728700.8437941     
   1820058533.7412958     
   1457569848.6704187     
   1348464228.4670424     
   1274333984.0339608     
   1243327002.7119687     
   1262500701.3449395     
   1472929471.7304184     
   1328624544.6652057     
   1198754608.7832148     
   1087810113.9747164     
   1001706543.0665224     
   1547510294.4243646     
   1397624277.3211560     
   1244131666.3159289     
   1084761077.9953969     
   917480622.41904485     
   1667861455.0131857     
   1552521784.1179340     
   1428010625.8020935     
   1294700530.1600940     
   1158750626.8018637     
   1820058533.7412958     
   1779589398.0541353     
   1735539277.1337569     
   1696581397.9761832     
   1681280940.0057771     
   1262500701.3449395     
   1446370642.6864076     
   1715477829.9920812     
   2110389759.4571753     
   2663536386.3760290     
   1001706543.0665224     
   1164442884.3165572     
   1425235734.7856238     
   1808658902.7531996     
   2334800468.1619682     
   917480622.41904485     
   962894809.18264031     
   1144770799.7651925     
   1476433499.8354583     
   1957567657.0482965     
   1158750626.8018637     
   1008279898.6526812     
   985121103.14261365     
   1161525560.4898727     
   1544364981.4170644     
   1681280940.0057771     
   1383719661.8146653     
   1129478733.8063238     
   1010316747.5010160     
   1153506406.1691277     
 </DataArray>
 <DataArray  type="Float64" Name="strain" NumberOfComponents="3" format="ascii">
  0.10521652845935359       -2.7608833311224990E-002   8.8904192585708142E-003
  0.10021458641705583       -2.8243715658512802E-002   3.0621275150037874E-003
   9.5212644374757849E-002  -2.8324726596291094E-002  -7.1091538991452374E-004
   9.0210702332459980E-002  -2.7851866124559352E-002  -2.4287094561833977E-003
   8.5208760290162111E-002  -2.6825134243317894E-002  -2.0912546838030011E-003
   9.4241425779496346E-002  -2.6695606384644854E-002   1.1989242564771962E-002
   9.0946575669627383E-002  -2.6774862489781781E-002   8.4974739240089581E-003
   8.7651725559758531E-002  -2.6515004795656882E-002   6.3646403094548276E-003
   8.4356875449889540E-002  -2.5916033302270144E-002   5.5907417211091548E-003
   8.1062025340020605E-002  -2.4977948009621664E-002   6.1757781589723559E-003
   8.5504510504277653E-002  -2.5782379458064941E-002   1.5751070918248178E-002
   8.3220438514397255E-002  -2.5306009321050704E-002   1.4381067770041667E-002
   8.0936366524516801E-002  -2.4705282995022698E-002   1.3673685835603050E-002
   7.8652294534636347E-002  -2.3980200479980888E-002   1.3628925114933105E-002
   7.6368222544755893E-002  -2.3130761775925102E-002   1.4246785608030943E-002
   7.9005782633697758E-002  -2.4869152531484917E-002   2.0175904318999197E-002
   7.7036174951365291E-002  -2.3837156152319669E-002   2.0712909053101095E-002
   7.5066567269032825E-002  -2.2895561194388556E-002   2.1216221188530400E-002
   7.3096959586700358E-002  -2.2044367657691601E-002   2.1685840725287609E-002
   7.1127351904367975E-002  -2.1283575542228594E-002   2.2121767663372524E-002
   7.4745242167756354E-002  -2.3955925604904893E-002   2.5263742767025810E-002
   7.2393784980531506E-002  -2.2368302983588551E-002   2.7492997773187811E-002
   7.0042327793306547E-002  -2.1085839393754413E-002   2.8992246368237051E-002
   6.7690870606081616E-002  -2.0108534835402203E-002   2.9761488552173643E-002
   6.5339413418856712E-002  -1.9436389308532254E-002   2.9800724324997474E-002
   8.5208760290162111E-002  -2.6825134243317894E-002  -2.0912546838030011E-003
   8.2992341507729439E-002  -2.5577229784209177E-002  -7.4678410373069104E-004
   8.0775922725296712E-002  -2.4440851578875489E-002   3.4993898329799267E-004
   7.8559503942863984E-002  -2.3415999627317011E-002   1.1989145772837717E-003
   7.6343085160431312E-002  -2.2502673929533978E-002   1.8001426782259244E-003
   8.1062025340020605E-002  -2.4977948009621664E-002   6.1757781589723559E-003
   7.8672288576115218E-002  -2.3903998851288799E-002   6.9581542446572886E-003
   7.6282551812209776E-002  -2.2897435760850168E-002   7.6416418604398628E-003
   7.3892815048304417E-002  -2.1958258738305075E-002   8.2262410063205366E-003
   7.1503078284399002E-002  -2.1086467783653529E-002   8.7119516822987131E-003
   7.6368222544755893E-002  -2.3130761775925102E-002   1.4246785608030943E-002
   7.3954026822518795E-002  -2.2230767918368532E-002   1.4511207385210070E-002
   7.1539831100281698E-002  -2.1354019942824404E-002   1.4825599715627857E-002
   6.9125635378044545E-002  -2.0500517849292473E-002   1.5189962599284811E-002
   6.6711439655807475E-002  -1.9670261637772968E-002   1.5604296036180243E-002
   7.1127351904367975E-002  -2.1283575542228594E-002   2.2121767663372524E-002
   6.8837556246940226E-002  -2.0557536985448210E-002   2.1912375317927325E-002
   6.6547760589512422E-002  -1.9810604124798750E-002   2.1901812548861845E-002
   6.4257964932084660E-002  -1.9042776960280092E-002   2.2090079356176486E-002
   6.1968169274656884E-002  -1.8254055491892351E-002   2.2477175739870750E-002
   6.5339413418856712E-002  -1.9436389308532254E-002   2.9800724324997474E-002
   6.3322876849379345E-002  -1.8884306052527916E-002   2.9161658042809208E-002
   6.1306340279901964E-002  -1.8267188306773180E-002   2.8870280360142025E-002
   5.9289803710424589E-002  -1.7585036071267789E-002   2.8926591276995692E-002
   5.7273267140947215E-002  -1.6837849346011680E-002   2.9330590793370082E-002
   7.6343085160431312E-002  -2.2502673929533978E-002   1.8001426782259244E-003
   7.2765776928503001E-002  -2.1636784395621222E-002   1.0758510417707701E-003
   6.9188468696574801E-002  -2.0754240935673407E-002   5.7323307114159894E-004
   6.5611160464646545E-002  -1.9855043549690490E-002   2.9228876633757839E-004
   6.2033852232718290E-002  -1.8939192237672708E-002   2.3301812735987415E-004
   7.1503078284399002E-002  -2.1086467783653529E-002   8.7119516822987131E-003
   6.8142778474103605E-002  -2.0244940025362368E-002   8.0431198496956902E-003
   6.4782478663808235E-002  -1.9396552591898264E-002   7.5866311945323450E-003
   6.1422178853512879E-002  -1.8541305483260953E-002   7.3424857168096769E-003
   5.8061879043217524E-002  -1.7679198699450671E-002   7.3106834165262979E-003
   6.6711439655807475E-002  -1.9670261637772968E-002   1.5604296036180243E-002
   6.3558817778759311E-002  -1.8853095655103902E-002   1.4981129756567374E-002
   6.0406195901711118E-002  -1.8038864248123426E-002   1.4560976166008932E-002
   5.7253574024662940E-002  -1.7227567416831742E-002   1.4343835264504737E-002
   5.4100952147614761E-002  -1.6419205161228301E-002   1.4329707052054552E-002
   6.1968169274656884E-002  -1.8254055491892351E-002   2.2477175739870750E-002
   5.9013894842470216E-002  -1.7461251284845242E-002   2.1889880762386321E-002
   5.6059620410283416E-002  -1.6681175904348436E-002   2.1496267985570756E-002
   5.3105345978096671E-002  -1.5913829350402146E-002   2.1296337409423449E-002
   5.0151071545909899E-002  -1.5159211623006208E-002   2.1290089033944942E-002
   5.7273267140947215E-002  -1.6837849346011680E-002   2.9330590793370082E-002
   5.4508009665236223E-002  -1.6069406914586692E-002   2.8769372867152587E-002
   5.1742752189525204E-002  -1.5323487560573459E-002   2.8392506653217825E-002
   4.8977494713814143E-002  -1.4600091283972747E-002   2.8199992151565864E-002
   4.6212237238103193E-002  -1.3899218084784115E-002   2.8191829362196996E-002
   6.2033852232718290E-002  -1.8939192237672708E-002   2.3301812735987415E-004
   5.9240771866180930E-002  -1.8026424609033809E-002   1.3954860282883175E-006
   5.6447691499643515E-002  -1.7136478273187317E-002   3.6064375956712524E-006
   5.3654611133106128E-002  -1.6269353230133510E-002   2.3965098206352176E-004
   5.0861530766568741E-002  -1.5425049479872222E-002   7.0952911943034103E-004
   5.8061879043217524E-002  -1.7679198699450671E-002   7.3106834165262979E-003
   5.5486306119580830E-002  -1.6819714465247715E-002   7.0563178855030384E-003
   5.2910733195944082E-002  -1.5972335005432992E-002   7.0031336473813655E-003
   5.0335160272307333E-002  -1.5137060320007431E-002   7.1511307021614179E-003
   4.7759587348670640E-002  -1.4313890408969465E-002   7.5003090498434455E-003
   5.4100952147614761E-002  -1.6419205161228301E-002   1.4329707052054552E-002
   5.1710234366880825E-002  -1.5613004321461621E-002   1.4063315149744293E-002
   4.9319516586146819E-002  -1.4808191737679111E-002   1.3965452240337295E-002
   4.6928798805412793E-002  -1.4004767409881130E-002   1.4036118323833946E-002
   4.4538081024678877E-002  -1.3202731338067153E-002   1.4275313400234524E-002
   5.0151071545909899E-002  -1.5159211623006208E-002   2.1290089033944942E-002
   4.7912556608080713E-002  -1.4406294177675416E-002   2.1022387278751095E-002
   4.5674041670251561E-002  -1.3644048469925008E-002   2.0890562216462939E-002
   4.3435526732422375E-002  -1.2872474499754719E-002   2.0894613847080586E-002
   4.1197011794593230E-002  -1.2091572267164730E-002   2.1034542170604367E-002
   4.6212237238103193E-002  -1.3899218084784115E-002   2.8191829362196996E-002
   4.4093272843180792E-002  -1.3199584033889433E-002   2.7933534272523985E-002
   4.1974308448258446E-002  -1.2479905202170877E-002   2.7778463575758805E-002
   3.9855344053336100E-002  -1.1740181589628577E-002   2.7726617271901566E-002
   3.7736379658413699E-002  -1.0980413196262306E-002   2.7777995360952157E-002
   5.0861530766568741E-002  -1.5425049479872222E-002   7.0952911943034103E-004
   4.8111705041163133E-002  -1.4583222055805090E-002   5.1072783350569750E-004
   4.5361879315757636E-002  -1.3723525991334806E-002   3.2846643366379880E-004
   4.2612053590352139E-002  -1.2845961286461025E-002   1.6274491990436735E-004
   3.9862227864946531E-002  -1.1950527941183120E-002   1.3563292227347645E-005
   4.7759587348670640E-002  -1.4313890408969465E-002   7.5003090498434455E-003
   4.5042301251815353E-002  -1.3492267283946258E-002   7.2113845216745798E-003
   4.2325015154960122E-002  -1.2661632956563418E-002   6.9709993645235002E-003
   3.9607729058104890E-002  -1.1821987426820668E-002   6.7791535783899015E-003
   3.6890442961249548E-002  -1.0973330694718175E-002   6.6358471632751437E-003
   4.4538081024678877E-002  -1.3202731338067153E-002   1.4275313400234524E-002
   4.1885334041309258E-002  -1.2401312512087315E-002   1.3887408191777362E-002
   3.9232587057939722E-002  -1.1599739921792279E-002   1.3580041839273388E-002
   3.6579840074570186E-002  -1.0798013567180763E-002   1.3353214342722963E-002
   3.3927093091200566E-002  -9.9961334482535635E-003   1.3206925702125727E-002
   4.1197011794593230E-002  -1.2091572267164730E-002   2.1034542170604367E-002
   3.8640803409644785E-002  -1.1310357740228538E-002   2.0538798843814599E-002
   3.6084595024696318E-002  -1.0537846887020572E-002   2.0155593857913996E-002
   3.3528386639747811E-002  -9.7740397075406320E-003   1.9884927212902390E-002
   3.0972178254799407E-002  -9.0189362017887853E-003   1.9726798908779056E-002
   3.7736379658413699E-002  -1.0980413196262306E-002   2.7777995360952157E-002
   3.5308709356821844E-002  -1.0219402968369817E-002   2.7165556477786512E-002
   3.2881039055229933E-002  -9.4759538522492803E-003   2.6697655420445443E-002
   3.0453368753637994E-002  -8.7500658479008273E-003   2.6374292188928034E-002
   2.8025698452046111E-002  -8.0417389553242291E-003   2.6195466783235255E-002
   3.9862227864946531E-002  -1.1950527941183120E-002   1.3563292227347645E-005
   3.7452022691013220E-002  -1.1125728279983038E-002  -2.8650002187857737E-004
   3.5041817517079854E-002  -1.0460064627340449E-002  -4.8911294529840887E-004
   3.2631612343146488E-002  -9.9535369832567250E-003  -5.9427547803164726E-004
   3.0221407169213177E-002  -9.6061453477311876E-003  -6.0198762007801498E-004
   3.6890442961249548E-002  -1.0973330694718175E-002   6.6358471632751437E-003
   3.4557989784272047E-002  -1.0173029090257413E-002   6.1920917559856736E-003
   3.2225536607294436E-002  -9.4784489434399100E-003   5.8063899519210649E-003
   2.9893083430316908E-002  -8.8895902542649591E-003   5.4787417510815117E-003
   2.7560630253339269E-002  -8.4064530227332401E-003   5.2091471534674305E-003
   3.3927093091200566E-002  -9.9961334482535635E-003   1.3206925702125727E-002
   3.1632995123717339E-002  -9.2203299005325645E-003   1.2672892752567944E-002
   2.9338897156234112E-002  -8.4968332595387330E-003   1.2157516618773928E-002
   2.7044799188750884E-002  -7.8256435252732001E-003   1.1660797300743431E-002
   2.4750701221267685E-002  -7.2067606977351817E-003   1.1182734798476202E-002
   3.0972178254799407E-002  -9.0189362017887853E-003   1.9726798908779056E-002
   2.8677038709349102E-002  -8.2676307108071057E-003   1.9155902967868357E-002
   2.6381899163898742E-002  -7.5152175756379863E-003   1.8564267055259966E-002
   2.4086759618448458E-002  -6.7616967962814377E-003   1.7951891170953634E-002
   2.1791620072998188E-002  -6.0070683727374008E-003   1.7318775314949464E-002
   2.8025698452046111E-002  -8.0417389553242291E-003   2.6195466783235255E-002
   2.5690120541167261E-002  -7.3149315210818688E-003   2.5641122401887095E-002
   2.3354542630288411E-002  -6.5336018917369898E-003   2.5026641261379434E-002
   2.1018964719409547E-002  -5.6977500672895018E-003   2.4352023361712327E-002
   1.8683386808530711E-002  -4.8073760477393979E-003   2.3617268702886052E-002
   3.0221407169213177E-002  -9.6061453477311876E-003  -6.0198762007801498E-004
   2.9610001063164360E-002  -9.1352352811722159E-003  -3.5828974307894335E-004
   2.8998594957115653E-002  -8.2581523439879678E-003  -1.7964862537900306E-003
   2.8387188851066947E-002  -6.9748965361770554E-003  -4.9165771522115542E-003
   2.7775782745018129E-002  -5.2854678577418657E-003  -9.7185624383426816E-003
   2.7560630253339269E-002  -8.4064530227332401E-003   5.2091471534674305E-003
   2.5536974012321412E-002  -7.8711443823038518E-003   5.8814557400412859E-003
   2.3513317771303582E-002  -7.1257714664359484E-003   5.4111584443867766E-003
   2.1489661530285739E-002  -6.1703342751299323E-003   3.7982552665043190E-003
   1.9466005289267896E-002  -5.0048328083849292E-003   1.0427462063935522E-003
   2.4750701221267685E-002  -7.2067606977351817E-003   1.1182734798476202E-002
   2.1854083350762443E-002  -6.6070534834353767E-003   1.2087545499437968E-002
   1.8957465480257313E-002  -5.9933905888843730E-003   1.2389038823653803E-002
   1.6060847609752182E-002  -5.3657720140816989E-003   1.2087214771122623E-002
   1.3164229739246941E-002  -4.7241977590278816E-003   1.1182073341845344E-002
   2.1791620072998188E-002  -6.0070683727374008E-003   1.7318775314949464E-002
   1.8561329078487551E-002  -5.3429625845674011E-003   1.8259979535112159E-002
   1.5331038083976928E-002  -4.8610097113330197E-003   1.9137154884010368E-002
   1.2100747089466277E-002  -4.5612097530340207E-003   1.9950301361644107E-002
   8.8704560949556741E-003  -4.4435627096711117E-003   2.0699418968013070E-002
   1.8683386808530711E-002  -4.8073760477393979E-003   2.3617268702886052E-002
   1.5658711195496500E-002  -4.0788716856990370E-003   2.4398757847062802E-002
   1.2634035582462289E-002  -3.7286288337815277E-003   2.5655506625456681E-002
   9.6093599694281190E-003  -3.7566474919862522E-003   2.7387515038067883E-002
   6.5846843563938662E-003  -4.1629276603137866E-003   2.9594783084896714E-002
   2.7775782745018129E-002  -5.2854678577418657E-003  -9.7185624383426816E-003
   2.3351170878101346E-002  -4.2059530221416619E-003  -4.1889949208373523E-003
   1.8926559011184507E-002  -4.7524387428349857E-003   2.6042686713050323E-003
   1.4501947144267696E-002  -6.9249250198227114E-003   1.0661228338085971E-002
   1.0077335277350885E-002  -1.0723411853105880E-002   1.9981884079503409E-002
   1.9466005289267896E-002  -5.0048328083849292E-003   1.0427462063935522E-003
   1.6232687665468037E-002  -4.6903388111091404E-003   6.7388739127730579E-003
   1.2999370041668290E-002  -6.2879240282084359E-003   1.3553894030748692E-002
   9.7660524178686536E-003  -9.7975884596835650E-003   2.1487806560322287E-002
   6.5327347940686842E-003  -1.5219332105534278E-002   3.0540611501491899E-002
   1.3164229739246941E-002  -4.7241977590278816E-003   1.1182073341845344E-002
   1.0977402695523664E-002  -5.1747246000765079E-003   1.6758682579017914E-002
   8.7905756518003447E-003  -7.8234093135823579E-003   2.3309380564746324E-002
   6.6037486080769772E-003  -1.2670251899544092E-002   3.0834167299031587E-002
   4.4169215643537485E-003  -1.9715252357962676E-002   3.9333042781871663E-002
   8.8704560949556741E-003  -4.4435627096711117E-003   2.0699418968013070E-002
   7.5853159682681415E-003  -5.6591103890443750E-003   2.5870431077897327E-002
   6.3001758415806679E-003  -9.3588945989555999E-003   3.1870728273297851E-002
   5.0150357148930711E-003  -1.5542915339404783E-002   3.8700310554212830E-002
   3.7298955882056478E-003  -2.4211172610391518E-002   4.6359177920644146E-002
   6.5846843563938662E-003  -4.1629276603137866E-003   2.9594783084896714E-002
   6.0564274837015541E-003  -6.1434961780117980E-003   3.4074119409411852E-002
   5.5281706110091866E-003  -1.0894379884329258E-002   3.9237937156402503E-002
   4.9999137383168885E-003  -1.8415578779265245E-002   4.5086236325867307E-002
   4.4716568656245625E-003  -2.8707092862819916E-002   5.1619016917807681E-002
   7.4745242167756354E-002  -2.3955925604904893E-002   2.5263742767025810E-002
   7.2393784980531506E-002  -2.2368302983588551E-002   2.7492997773187811E-002
   7.0042327793306547E-002  -2.1085839393754413E-002   2.8992246368237051E-002
   6.7690870606081616E-002  -2.0108534835402203E-002   2.9761488552173643E-002
   6.5339413418856712E-002  -1.9436389308532254E-002   2.9800724324997474E-002
   7.0861562193825861E-002  -2.1305241860601343E-002   3.3200774829342972E-002
   6.8001814198016985E-002  -2.0228072471667580E-002   3.3935928972400831E-002
   6.5142066202208179E-002  -1.9308444141282910E-002   3.4384507909403728E-002
   6.2282318206399338E-002  -1.8546356869447347E-002   3.4546511640351565E-002
   5.9422570210590470E-002  -1.7941810656160934E-002   3.4421940165244275E-002
   6.5493415799278198E-002  -1.8654558116297848E-002   4.0553544672810748E-002
   6.2568808199943010E-002  -1.8087841959746637E-002   3.9942215925697855E-002
   5.9644200600607891E-002  -1.7531048888811518E-002   3.9487743177587409E-002
   5.6719593001272731E-002  -1.6984178903492575E-002   3.9190126428479480E-002
   5.3794985401937577E-002  -1.6447232003789641E-002   3.9049365678374068E-002
   5.8640802984113297E-002  -1.6003874371994353E-002   4.7322052297429806E-002
   5.6094766986309448E-002  -1.5947611447825735E-002   4.5511858633078731E-002
   5.3548730988505572E-002  -1.5753653636340181E-002   4.4301952172788039E-002
   5.1002694990701758E-002  -1.5422000937537733E-002   4.3692332916557261E-002
   4.8456658992897896E-002  -1.4952653351418363E-002   4.3683000864386756E-002
   5.0303723748331253E-002  -1.3353190627690803E-002   5.3506297703199479E-002
   4.8579690557116334E-002  -1.3807380935904723E-002   5.0644857094543638E-002
   4.6855657365901388E-002  -1.3976258383868678E-002   4.8827134895005564E-002
   4.5131624174686441E-002  -1.3859822971582933E-002   4.8053131104585090E-002
   4.3407590983471495E-002  -1.3458074699047085E-002   4.8322845723282437E-002
   6.5339413418856712E-002  -1.9436389308532254E-002   2.9800724324997474E-002
   6.3322876849379345E-002  -1.8884306052527916E-002   2.9161658042809208E-002
   6.1306340279901964E-002  -1.8267188306773180E-002   2.8870280360142025E-002
   5.9289803710424589E-002  -1.7585036071267789E-002   2.8926591276995692E-002
   5.7273267140947215E-002  -1.6837849346011680E-002   2.9330590793370082E-002
   5.9422570210590470E-002  -1.7941810656160934E-002   3.4421940165244275E-002
   5.7711693607554709E-002  -1.7390448533869493E-002   3.4088207332744910E-002
   5.6000817004518935E-002  -1.6787913535019190E-002   3.4018105833607690E-002
   5.4289940401483119E-002  -1.6134205659610074E-002   3.4211635667832800E-002
   5.2579063798447345E-002  -1.5429324907641984E-002   3.4668796835420290E-002
   5.3794985401937577E-002  -1.6447232003789641E-002   3.9049365678374068E-002
   5.2305711499184754E-002  -1.5896591015211139E-002   3.9007104682371695E-002
   5.0816437596431951E-002  -1.5308638763265478E-002   3.9144417753572996E-002
   4.9327163693679184E-002  -1.4683375247952418E-002   3.9461304891977828E-002
   4.7837889790926388E-002  -1.4020800469272204E-002   3.9957766097586625E-002
   4.8456658992897896E-002  -1.4952653351418363E-002   4.3683000864386756E-002
   4.7104930524269457E-002  -1.4402733496552834E-002   4.3918350091689817E-002
   4.5753202055641047E-002  -1.3829363991511627E-002   4.4249216120037821E-002
   4.4401473587012651E-002  -1.3232544836294815E-002   4.4675598949431003E-002
   4.3049745118384261E-002  -1.2612276030902494E-002   4.5197498579869280E-002
   4.3407590983471495E-002  -1.3458074699047085E-002   4.8322845723282437E-002
   4.2109350682808855E-002  -1.2908875977894363E-002   4.8821943560699022E-002
   4.0811110382146229E-002  -1.2350089219757776E-002   4.9332500933002399E-002
   3.9512870081483603E-002  -1.1781714424637046E-002   4.9854517840192125E-002
   3.8214629780820963E-002  -1.1203751592532674E-002   5.0387994282268200E-002
   5.7273267140947215E-002  -1.6837849346011680E-002   2.9330590793370082E-002
   5.4508009665236223E-002  -1.6069406914586692E-002   2.8769372867152587E-002
   5.1742752189525204E-002  -1.5323487560573459E-002   2.8392506653217825E-002
   4.8977494713814143E-002  -1.4600091283972747E-002   2.8199992151565864E-002
   4.6212237238103193E-002  -1.3899218084784115E-002   2.8191829362196996E-002
   5.2579063798447345E-002  -1.5429324907641984E-002   3.4668796835420290E-002
   5.0004478427114044E-002  -1.4708945341612822E-002   3.4045579473351684E-002
   4.7429893055780672E-002  -1.4008741024020430E-002   3.3619354607755669E-002
   4.4855307684447322E-002  -1.3328711954864885E-002   3.3390122238632233E-002
   4.2280722313114000E-002  -1.2668858134146088E-002   3.3357882365981362E-002
   4.7837889790926388E-002  -1.4020800469272204E-002   3.9957766097586625E-002
   4.5466617308160248E-002  -1.3348483768639063E-002   3.9274897128642738E-002
   4.3095344825394157E-002  -1.2693994487467282E-002   3.8801661440360756E-002
   4.0724072342628023E-002  -1.2057332625757021E-002   3.8538059032740893E-002
   3.8352799859861925E-002  -1.1438498183508061E-002   3.8484089905783087E-002
   4.3049745118384261E-002  -1.2612276030902494E-002   4.5197498579869280E-002
   4.0894426308374948E-002  -1.1988022195665332E-002   4.4457325833025238E-002
   3.8739107498365684E-002  -1.1379247950914249E-002   4.3939427151032967E-002
   3.6583788688356392E-002  -1.0785953296649158E-002   4.3643802533892183E-002
   3.4428469878347114E-002  -1.0208138232870145E-002   4.3570451981603010E-002
   3.8214629780820963E-002  -1.1203751592532674E-002   5.0387994282268200E-002
   3.6287905427758060E-002  -1.0627560622691434E-002   4.9592865586499502E-002
   3.4361181074695157E-002  -1.0064501414361118E-002   4.9032651739772060E-002
   3.2434456721632282E-002  -9.5145739675413822E-003   4.8707352742085666E-002
   3.0507732368569379E-002  -8.9777782822321184E-003   4.8616968593440557E-002
   4.6212237238103193E-002  -1.3899218084784115E-002   2.8191829362196996E-002
   4.4093272843180792E-002  -1.3199584033889433E-002   2.7933534272523985E-002
   4.1974308448258446E-002  -1.2479905202170877E-002   2.7778463575758805E-002
   3.9855344053336100E-002  -1.1740181589628577E-002   2.7726617271901566E-002
   3.7736379658413699E-002  -1.0980413196262306E-002   2.7777995360952157E-002
   4.2280722313114000E-002  -1.2668858134146088E-002   3.3357882365981362E-002
   4.0274320472026615E-002  -1.2009081221021706E-002   3.3132551016008455E-002
   3.8267918630939243E-002  -1.1329282874649765E-002   3.3029120380797805E-002
   3.6261516789851934E-002  -1.0629463095029774E-002   3.3047590460349080E-002
   3.4255114948764487E-002  -9.9096218821623783E-003   3.3187961254662723E-002
   3.8352799859861925E-002  -1.1438498183508061E-002   3.8484089905783087E-002
   3.6477636894463893E-002  -1.0818578408154034E-002   3.8291698947934300E-002
   3.4602473929065833E-002  -1.0178660547128557E-002   3.8239885026701892E-002
   3.2727310963667745E-002  -9.5187446004313635E-003   3.8328648142085926E-002
   3.0852147998269727E-002  -8.8388305680625612E-003   3.8557988294086548E-002
   3.4428469878347114E-002  -1.0208138232870145E-002   4.3570451981603010E-002
   3.2703222110492633E-002  -9.6280755952863895E-003   4.3410978068302013E-002
   3.0977974342638135E-002  -9.0280382196073414E-003   4.3410757513471648E-002
   2.9252726574783644E-002  -8.4080261058327565E-003   4.3569790317112174E-002
   2.7527478806929156E-002  -7.7680392539629106E-003   4.3888076479223166E-002
   3.0507732368569379E-002  -8.9777782822321184E-003   4.8616968593440557E-002
   2.8951076120112801E-002  -8.4375727824186897E-003   4.8490388377111115E-002
   2.7394419871656195E-002  -7.8774158920862647E-003   4.8541737841106769E-002
   2.5837763623199658E-002  -7.2973076112341564E-003   4.8771016985427545E-002
   2.4281107374743011E-002  -6.6972479398629270E-003   4.9178225810073140E-002
   3.7736379658413699E-002  -1.0980413196262306E-002   2.7777995360952157E-002
   3.5308709356821844E-002  -1.0219402968369817E-002   2.7165556477786512E-002
   3.2881039055229933E-002  -9.4759538522492803E-003   2.6697655420445443E-002
   3.0453368753637994E-002  -8.7500658479008273E-003   2.6374292188928034E-002
   2.8025698452046111E-002  -8.0417389553242291E-003   2.6195466783235255E-002
   3.4255114948764487E-002  -9.9096218821623783E-003   3.3187961254662723E-002
   3.1974446196961687E-002  -9.1862924682835079E-003   3.2640980783118001E-002
   2.9693777445158831E-002  -8.4760080856290665E-003   3.2243465585327119E-002
   2.7413108693356003E-002  -7.7787687341998243E-003   3.1995415661290105E-002
   2.5132439941553147E-002  -7.0945744139950806E-003   3.1896831011007043E-002
   3.0852147998269727E-002  -8.8388305680625612E-003   3.8557988294086548E-002
   2.8723408244185553E-002  -8.1531819681970596E-003   3.8080982314709660E-002
   2.6594668490101364E-002  -7.4760623190088665E-003   3.7758369057016281E-002
   2.4465928736017155E-002  -6.8074716204987139E-003   3.7590148521006207E-002
   2.2337188981932987E-002  -6.1474098726660431E-003   3.7576320706679878E-002
   2.7527478806929156E-002  -7.7680392539629106E-003   4.3888076479223166E-002
   2.5555595498493327E-002  -7.1200714681105143E-003   4.3485561072561428E-002
   2.3583712190057421E-002  -6.4761165523887151E-003   4.3242365835512706E-002
   2.1611828881621550E-002  -5.8361745067976017E-003   4.3158490768077026E-002
   1.9639945573185689E-002  -5.2002453313372277E-003   4.3233935870254474E-002
   2.4281107374743011E-002  -6.6972479398629270E-003   4.9178225810073140E-002
   2.2471007959885075E-002  -6.0869609680241354E-003   4.8854717056673658E-002
   2.0660908545027099E-002  -5.4761707857686748E-003   4.8695455920816422E-002
   1.8850809130169129E-002  -4.8648773930966560E-003   4.8700442402502209E-002
   1.7040709715311186E-002  -4.2530807900079681E-003   4.8869676501730575E-002
   2.8025698452046111E-002  -8.0417389553242291E-003   2.6195466783235255E-002
   2.5690120541167261E-002  -7.3149315210818688E-003   2.5641122401887095E-002
   2.3354542630288411E-002  -6.5336018917369898E-003   2.5026641261379434E-002
   2.1018964719409547E-002  -5.6977500672895018E-003   2.4352023361712327E-002
   1.8683386808530711E-002  -4.8073760477393979E-003   2.3617268702886052E-002
   2.5132439941553147E-002  -7.0945744139950806E-003   3.1896831011007043E-002
   2.2776828062889526E-002  -6.4106632321844215E-003   3.1514097446675438E-002
   2.0421216184225918E-002  -5.7142732959363507E-003   3.1151432705934179E-002
   1.8065604305562297E-002  -5.0054046052518189E-003   3.0808836788781990E-002
   1.5709992426898634E-002  -4.2840571601298061E-003   3.0486309695219871E-002
   2.2337188981932987E-002  -6.1474098726660431E-003   3.7576320706679878E-002
   2.0041748718233526E-002  -5.5063949432865300E-003   3.7323154518700247E-002
   1.7746308454534045E-002  -4.8949447001358365E-003   3.7170262737058965E-002
   1.5450868190834601E-002  -4.3130591432136954E-003   3.7117645361756220E-002
   1.3155427927135088E-002  -3.7607382725201033E-003   3.7165302392792393E-002
   1.9639945573185689E-002  -5.2002453313372277E-003   4.3233935870254474E-002
   1.7484882507199297E-002  -4.6021266543889716E-003   4.3068293617960461E-002
   1.5329819441212910E-002  -4.0756161043349268E-003   4.3083131354754042E-002
   1.3174756375226502E-002  -3.6207136811756257E-003   4.3278449080635155E-002
   1.1019693309240134E-002  -3.2374193849103450E-003   4.3654246795603695E-002
   1.7040709715311186E-002  -4.2530807900079681E-003   4.8869676501730575E-002
   1.5106229429786761E-002  -3.6978583654911912E-003   4.8749514744456768E-002
   1.3171749144262418E-002  -3.2562875085345999E-003   4.8890038559019300E-002
   1.1237268858738006E-002  -2.9283682191378127E-003   4.9291247945418393E-002
   9.3027885732136495E-003  -2.7141004973008087E-003   4.9953142903654157E-002
   1.8683386808530711E-002  -4.8073760477393979E-003   2.3617268702886052E-002
   1.5658711195496500E-002  -4.0788716856990370E-003   2.4398757847062802E-002
   1.2634035582462289E-002  -3.7286288337815277E-003   2.5655506625456681E-002
   9.6093599694281190E-003  -3.7566474919862522E-003   2.7387515038067883E-002
   6.5846843563938662E-003  -4.1629276603137866E-003   2.9594783084896714E-002
   1.5709992426898634E-002  -4.2840571601298061E-003   3.0486309695219871E-002
   1.3141737387309449E-002  -3.7742480997919881E-003   3.1260881143428898E-002
   1.0573482347720292E-002  -3.6999945634600961E-003   3.2473034104310211E-002
   8.0052273081311284E-003  -4.0612965511333948E-003   3.4122768577864573E-002
   5.4369722685419508E-003  -4.8581540628127584E-003   3.6210084564091694E-002
   1.3155427927135088E-002  -3.7607382725201033E-003   3.7165302392792393E-002
   1.1005915339446393E-002  -3.4696245138850224E-003   3.7875662131150512E-002
   8.8564027517576832E-003  -3.6713602931387895E-003   3.8985925260636475E-002
   6.7068901640690397E-003  -4.3659456102808740E-003   4.0496091781250736E-002
   4.5573775763803337E-003  -5.5533804653117858E-003   4.2406161692993410E-002
   1.1019693309240134E-002  -3.2374193849103450E-003   4.3654246795603695E-002
   9.2512450519073031E-003  -3.1650009279779595E-003   4.4243100810228045E-002
   7.4827967945744981E-003  -3.6427260228173095E-003   4.5194180094435848E-002
   5.7143485372416992E-003  -4.6705946694282959E-003   4.6507484648226814E-002
   3.9459002799088691E-003  -6.2486068678107853E-003   4.8183014471602052E-002
   9.3027885732136495E-003  -2.7141004973008087E-003   4.9953142903654157E-002
   7.8777265246921802E-003  -2.8603773420710077E-003   5.0363197180661290E-002
   6.4526644761707108E-003  -3.6140917524961624E-003   5.1097798605707623E-002
   5.0276024276492415E-003  -4.9752437285755235E-003   5.2156947178793045E-002
   3.6025403791277721E-003  -6.9438332703097849E-003   5.3540642899917223E-002
   6.5846843563938662E-003  -4.1629276603137866E-003   2.9594783084896714E-002
   6.0564274837015541E-003  -6.1434961780117980E-003   3.4074119409411852E-002
   5.5281706110091866E-003  -1.0894379884329258E-002   3.9237937156402503E-002
   4.9999137383168885E-003  -1.8415578779265245E-002   4.5086236325867307E-002
   4.4716568656245625E-003  -2.8707092862819916E-002   5.1619016917807681E-002
   5.4369722685419508E-003  -4.8581540628127584E-003   3.6210084564091694E-002
   5.4895866965443962E-003  -6.9912038614644567E-003   3.8350356043237999E-002
   5.5422011245468417E-003  -1.1361082710055287E-002   4.0967888701299637E-002
   5.5948155525492385E-003  -1.7967790608585020E-002   4.4062682538274778E-002
   5.6474299805517880E-003  -2.6811327557054510E-002   4.7634737554165696E-002
   4.5573775763803337E-003  -5.5533804653117858E-003   4.2406161692993410E-002
   4.9836430615172872E-003  -7.8389115449166713E-003   4.2740854465450923E-002
   5.4099085466543378E-003  -1.1827785535781107E-002   4.3345588173262548E-002
   5.8361740317913781E-003  -1.7520002437905299E-002   4.4220362816428500E-002
   6.2624395169282865E-003  -2.4915562251288881E-002   4.5365178394949357E-002
   3.9459002799088691E-003  -6.2486068678107853E-003   4.8183014471602052E-002
   4.5385965786202825E-003  -8.6866192283691079E-003   4.7245614676049798E-002
   5.1312928773316700E-003  -1.2294488361507032E-002   4.6371035572291719E-002
   5.7239891760430617E-003  -1.7072214267225438E-002   4.5559277160327927E-002
   6.3166854747544743E-003  -2.3019796945523363E-002   4.4810339440158387E-002
   3.6025403791277721E-003  -6.9438332703097849E-003   5.3540642899917223E-002
   4.1544472478533545E-003  -9.5343269118215446E-003   5.1864636675035380E-002
   4.7063541165789646E-003  -1.2761191187233067E-002   5.0044230898387165E-002
   5.2582609853044776E-003  -1.6624426096545381E-002   4.8079425569973078E-002
   5.8101678540301016E-003  -2.1124031639757845E-002   4.5970220689793173E-002
   5.0303723748331253E-002  -1.3353190627690803E-002   5.3506297703199479E-002
   4.8579690557116334E-002  -1.3807380935904723E-002   5.0644857094543638E-002
   4.6855657365901388E-002  -1.3976258383868678E-002   4.8827134895005564E-002
   4.5131624174686441E-002  -1.3859822971582933E-002   4.8053131104585090E-002
   4.3407590983471495E-002  -1.3458074699047085E-002   4.8322845723282437E-002
   4.1980646982057918E-002  -1.2612389336847718E-002   5.3470385449315261E-002
   4.1086301828921090E-002  -1.2614745262794214E-002   5.2119469996538909E-002
   4.0191956675784277E-002  -1.2478245714421424E-002   5.1384212210801139E-002
   3.9297611522647408E-002  -1.2202890691729518E-002   5.1264612092101605E-002
   3.8403266369510608E-002  -1.1788680194718404E-002   5.1760669640440793E-002
   3.5170041575419059E-002  -1.1871588046004661E-002   5.3959536270663966E-002
   3.4677323718281187E-002  -1.1422109589683621E-002   5.3972688587836368E-002
   3.4184605861143219E-002  -1.0980233044974058E-002   5.4173437829967960E-002
   3.3691888004005299E-002  -1.0545958411876159E-002   5.4561783997058910E-002
   3.3199170146867379E-002  -1.0119285690389695E-002   5.5137727089109079E-002
   2.9871907528414822E-002  -1.1130786755161604E-002   5.4973750167245414E-002
   2.9352756225196529E-002  -1.0229473916572973E-002   5.6204512868435905E-002
   2.8833604921978329E-002  -9.4822203755268314E-003   5.7194811752506354E-002
   2.8314453618760074E-002  -8.8890261320226892E-003   5.7944646819456810E-002
   2.7795302315541857E-002  -8.4498911860610565E-003   5.8454018069287572E-002
   2.6086244841045020E-002  -1.0389985464318519E-002   5.6513027139059813E-002
   2.5112599349667281E-002  -9.0368382434624916E-003   5.8814942838337603E-002
   2.4138953858289514E-002  -7.9842077060794103E-003   6.0448333978415980E-002
   2.3165308366911767E-002  -7.2320938521694342E-003   6.1413200559295333E-002
   2.2191662875534007E-002  -6.7804966817323065E-003   6.1709542580975718E-002
   4.3407590983471495E-002  -1.3458074699047085E-002   4.8322845723282437E-002
   4.2109350682808855E-002  -1.2908875977894363E-002   4.8821943560699022E-002
   4.0811110382146229E-002  -1.2350089219757776E-002   4.9332500933002399E-002
   3.9512870081483603E-002  -1.1781714424637046E-002   4.9854517840192125E-002
   3.8214629780820963E-002  -1.1203751592532674E-002   5.0387994282268200E-002
   3.8403266369510608E-002  -1.1788680194718404E-002   5.1760669640440793E-002
   3.7147802145951009E-002  -1.1302265627066516E-002   5.2098882763365051E-002
   3.5892337922391410E-002  -1.0810298392452289E-002   5.2511188505608736E-002
   3.4636873698831831E-002  -1.0312778490875835E-002   5.2997586867172097E-002
   3.3381409475272239E-002  -9.8097059223369309E-003   5.3558077848054997E-002
   3.3199170146867379E-002  -1.0119285690389695E-002   5.5137727089109079E-002
   3.2049115084843982E-002  -9.6956552762386683E-003   5.5311020127519053E-002
   3.0899060022820557E-002  -9.2705075651469127E-003   5.5621038869681755E-002
   2.9749004960797146E-002  -8.8438425571143453E-003   5.6067783315597267E-002
   2.8598949898773735E-002  -8.4156602521411050E-003   5.6651253465265464E-002
   2.7795302315541857E-002  -8.4498911860610565E-003   5.8454018069287572E-002
   2.6813289499487754E-002  -8.0890449254108210E-003   5.8458355653161681E-002
   2.5831276683433668E-002  -7.7307167378413977E-003   5.8662052025221664E-002
   2.4849263867379564E-002  -7.3749066233530503E-003   5.9065107185467564E-002
   2.3867251051325478E-002  -7.0216145819453207E-003   5.9667521133899365E-002
   2.2191662875534007E-002  -6.7804966817323065E-003   6.1709542580975718E-002
   2.1440325389882386E-002  -6.4824345745830014E-003   6.1540889340292559E-002
   2.0688987904230752E-002  -6.1909259105360492E-003   6.1634227972228256E-002
   1.9937650418579110E-002  -5.9059706895915609E-003   6.1989558476783113E-002
   1.9186312932927468E-002  -5.6275689117495364E-003   6.2606880853956937E-002
   3.8214629780820963E-002  -1.1203751592532674E-002   5.0387994282268200E-002
   3.6287905427758060E-002  -1.0627560622691434E-002   4.9592865586499502E-002
   3.4361181074695157E-002  -1.0064501414361118E-002   4.9032651739772060E-002
   3.2434456721632282E-002  -9.5145739675413822E-003   4.8707352742085666E-002
   3.0507732368569379E-002  -8.9777782822321184E-003   4.8616968593440557E-002
   3.3381409475272239E-002  -9.8097059223369309E-003   5.3558077848054997E-002
   3.1687905425975910E-002  -9.3083186002930196E-003   5.2800987875330663E-002
   2.9994401376679594E-002  -8.8158544382013621E-003   5.2275423661097997E-002
   2.8300897327383286E-002  -8.3323134360619271E-003   5.1981385205357486E-002
   2.6607393278086949E-002  -7.8576955938746140E-003   5.1918872508108949E-002
   2.8598949898773735E-002  -8.4156602521411050E-003   5.6651253465265464E-002
   2.7135277062694800E-002  -7.9890765778943273E-003   5.5936410817143414E-002
   2.5671604226615866E-002  -7.5672074620414878E-003   5.5449704836964299E-002
   2.4207931390536931E-002  -7.1500529045825257E-003   5.5191135524728013E-002
   2.2744258554457997E-002  -6.7376129055172762E-003   5.5160702880434370E-002
   2.3867251051325478E-002  -7.0216145819453207E-003   5.9667521133899365E-002
   2.2630020337914732E-002  -6.6698345554957739E-003   5.8999134411938423E-002
   2.1392789624503944E-002  -6.3185604858818391E-003   5.8555495267371152E-002
   2.0155558911093177E-002  -5.9677923731030419E-003   5.8336603700197241E-002
   1.8918328197682410E-002  -5.6175302171599106E-003   5.8342459710417065E-002
   1.9186312932927468E-002  -5.6275689117495364E-003   6.2606880853956937E-002
   1.8172135251635663E-002  -5.3505925330972204E-003   6.1989158659715493E-002
   1.7157957570343857E-002  -5.0699135097218295E-003   6.1592794952318286E-002
   1.6143779889052051E-002  -4.7855318416237178E-003   6.1417789731765510E-002
   1.5129602207760245E-002  -4.4974475288024340E-003   6.1464142998057025E-002
   3.0507732368569379E-002  -8.9777782822321184E-003   4.8616968593440557E-002
   2.8951076120112801E-002  -8.4375727824186897E-003   4.8490388377111115E-002
   2.7394419871656195E-002  -7.8774158920862647E-003   4.8541737841106769E-002
   2.5837763623199658E-002  -7.2973076112341564E-003   4.8771016985427545E-002
   2.4281107374743011E-002  -6.6972479398629270E-003   4.9178225810073140E-002
   2.6607393278086949E-002  -7.8576955938746140E-003   5.1918872508108949E-002
   2.5231025450790645E-002  -7.3777056166351718E-003   5.1851664809756198E-002
   2.3854657623494285E-002  -6.8780482093389328E-003   5.1967104273398901E-002
   2.2478289796197926E-002  -6.3587233719856542E-003   5.2265190899036931E-002
   2.1101921968901621E-002  -5.8197311045755651E-003   5.2745924686670442E-002
   2.2744258554457997E-002  -6.7376129055172762E-003   5.5160702880434370E-002
   2.1552896629992262E-002  -6.3178384508517926E-003   5.5152583739595890E-002
   2.0361534705526575E-002  -5.8786805265916980E-003   5.5331829242423358E-002
   1.9170172781060875E-002  -5.4201391327370931E-003   5.5698439388916630E-002
   1.7978810856595161E-002  -4.9422142692880366E-003   5.6252414179075727E-002
   1.8918328197682410E-002  -5.6175302171599106E-003   5.8342459710417065E-002
   1.7916689657717748E-002  -5.2579712850681776E-003   5.8393145166630543E-002
   1.6915051117753068E-002  -4.8793128438445812E-003   5.8635912748180308E-002
   1.5913412577788416E-002  -4.4815548934886169E-003   5.9070762455066275E-002
   1.4911774037823759E-002  -4.0646974340005915E-003   5.9697694287288494E-002
   1.5129602207760245E-002  -4.4974475288024340E-003   6.1464142998057025E-002
   1.4322404533967020E-002  -4.1981041192849511E-003   6.1573349090860263E-002
   1.3515206860173795E-002  -3.8799451610972147E-003   6.1879354790669916E-002
   1.2708009186380584E-002  -3.5429706542400505E-003   6.2382160097486317E-002
   1.1900811512587373E-002  -3.1871805987130353E-003   6.3081765011309465E-002
   2.4281107374743011E-002  -6.6972479398629270E-003   4.9178225810073140E-002
   2.2471007959885075E-002  -6.0869609680241354E-003   4.8854717056673658E-002
   2.0660908545027099E-002  -5.4761707857686748E-003   4.8695455920816422E-002
   1.8850809130169129E-002  -4.8648773930966560E-003   4.8700442402502209E-002
   1.7040709715311186E-002  -4.2530807900079681E-003   4.8869676501730575E-002
   2.1101921968901621E-002  -5.8197311045755651E-003   5.2745924686670442E-002
   1.9465718852900188E-002  -5.2737037659821850E-003   5.2485591869482817E-002
   1.7829515736898741E-002  -4.7332737150795334E-003   5.2408804032465228E-002
   1.6193312620897286E-002  -4.1984409518669025E-003   5.2515561175618106E-002
   1.4557109504895888E-002  -3.6692054763453053E-003   5.2805863298941436E-002
   1.7978810856595161E-002  -4.9422142692880366E-003   5.6252414179075727E-002
   1.6535801402077950E-002  -4.4604465639404289E-003   5.6049156799992783E-002
   1.5092791947560764E-002  -3.9903766443903921E-003   5.6048741763707860E-002
   1.3649782493043544E-002  -3.5320045106376485E-003   5.6251169070220999E-002
   1.2206773038526339E-002  -3.0853301626825869E-003   5.6656438719532132E-002
   1.4911774037823759E-002  -4.0646974340005915E-003   5.9697694287288494E-002
   1.3681255607418466E-002  -3.6471893618987422E-003   5.9545411848203625E-002
   1.2450737177013161E-002  -3.2474795737012507E-003   5.9615269114544164E-002
   1.1220218746607863E-002  -2.8655680694081448E-003   5.9907266086310626E-002
   9.9897003162025926E-003  -2.5014548490196742E-003   6.0421402763502864E-002
   1.1900811512587373E-002  -3.1871805987130353E-003   6.3081765011309465E-002
   1.0902081468921646E-002  -2.8339321598567779E-003   6.2974357014115356E-002
   9.9033514252559462E-003  -2.5045825030123037E-003   6.3108386084974433E-002
   8.9046213815902470E-003  -2.1991316281787451E-003   6.3483852223887138E-002
   7.9058913379245477E-003  -1.9175795353570946E-003   6.4100755430853251E-002
   1.7040709715311186E-002  -4.2530807900079681E-003   4.8869676501730575E-002
   1.5106229429786761E-002  -3.6978583654911912E-003   4.8749514744456768E-002
   1.3171749144262418E-002  -3.2562875085345999E-003   4.8890038559019300E-002
   1.1237268858738006E-002  -2.9283682191378127E-003   4.9291247945418393E-002
   9.3027885732136495E-003  -2.7141004973008087E-003   4.9953142903654157E-002
   1.4557109504895888E-002  -3.6692054763453053E-003   5.2805863298941436E-002
   1.2880633115672668E-002  -3.1991334096880264E-003   5.2703093061378881E-002
   1.1204156726449449E-002  -2.8417908730689057E-003   5.2855645044581956E-002
   9.5276803372262575E-003  -2.5971778664884981E-003   5.3263519248551161E-002
   7.8512039480030382E-003  -2.4652943899465818E-003   5.3926715673286107E-002
   1.2206773038526339E-002  -3.0853301626825869E-003   5.6656438719532132E-002
   1.0782937194533659E-002  -2.7004084538845285E-003   5.6571982039202384E-002
   9.3591013505409520E-003  -2.4272942376035306E-003   5.6737484228567517E-002
   7.9352655065482690E-003  -2.2659875138396242E-003   5.7152945287627967E-002
   6.5114296625555651E-003  -2.2164882825925769E-003   5.7818365216383505E-002
   9.9897003162025926E-003  -2.5014548490196742E-003   6.0421402763502864E-002
   8.8131416663697268E-003  -2.2016834980813638E-003   6.0356181677927112E-002
   7.6365830165368888E-003  -2.0127976021382180E-003   6.0535556110975969E-002
   6.4600243667040638E-003  -1.9347971611909185E-003   6.0959526062649393E-002
   5.2834657168712128E-003  -1.9676821752384055E-003   6.1628091532947377E-002
   7.9058913379245477E-003  -1.9175795353570946E-003   6.4100755430853251E-002
   6.9712465311808913E-003  -1.7029585422777549E-003   6.4055691977553120E-002
   6.0366017244372766E-003  -1.5983009666726833E-003   6.4249860691807048E-002
   5.1019569176936411E-003  -1.6036068085417687E-003   6.4683261573614703E-002
   4.1673121109500055E-003  -1.7188760678844561E-003   6.5355894622976307E-002
   9.3027885732136495E-003  -2.7141004973008087E-003   4.9953142903654157E-002
   7.8777265246921802E-003  -2.8603773420710077E-003   5.0363197180661290E-002
   6.4526644761707108E-003  -3.6140917524961624E-003   5.1097798605707623E-002
   5.0276024276492415E-003  -4.9752437285755235E-003   5.2156947178793045E-002
   3.6025403791277721E-003  -6.9438332703097849E-003   5.3540642899917223E-002
   7.8512039480030382E-003  -2.4652943899465818E-003   5.3926715673286107E-002
   6.7253174953097739E-003  -2.6468163839235004E-003   5.3862449249518773E-002
   5.5994310426164817E-003  -3.3424197888996809E-003   5.4071986869368427E-002
   4.4735445899231896E-003  -4.5521046048749500E-003   5.4555328532835817E-002
   3.3476581372299252E-003  -6.2758708318498835E-003   5.5312474239920029E-002
   6.5114296625555651E-003  -2.2164882825925769E-003   5.7818365216383505E-002
   5.6339757012687716E-003  -2.4332554257758821E-003   5.7373134246496732E-002
   4.7565217399819920E-003  -3.0707478253033105E-003   5.7150964215805844E-002
   3.8790677786952263E-003  -4.1289654811744875E-003   5.7151855124310341E-002
   3.0016138174084189E-003  -5.6079083933897600E-003   5.7375806972010612E-002
   5.2834657168712128E-003  -1.9676821752384055E-003   6.1628091532947377E-002
   4.6037011425692012E-003  -2.2196944676284303E-003   6.0895252171596588E-002
   3.9239365682672139E-003  -2.7990758617068290E-003   6.0334730645019610E-002
   3.2441719939652353E-003  -3.7058263574740805E-003   5.9946526953216624E-002
   2.5644074196632428E-003  -4.9399459549299696E-003   5.9730641096187795E-002
   4.1673121109500055E-003  -1.7188760678844561E-003   6.5355894622976307E-002
   3.6344938192111043E-003  -2.0061335094807564E-003   6.4428803024817016E-002
   3.1016755274721891E-003  -2.5274038981104308E-003   6.3623286157009851E-002
   2.5688572357332740E-003  -3.2826872337735000E-003   6.2939344019555116E-002
   2.0360389439943727E-003  -4.2719835164697351E-003   6.2376976612452228E-002
   3.6025403791277721E-003  -6.9438332703097849E-003   5.3540642899917223E-002
   4.1544472478533545E-003  -9.5343269118215446E-003   5.1864636675035380E-002
   4.7063541165789646E-003  -1.2761191187233067E-002   5.0044230898387165E-002
   5.2582609853044776E-003  -1.6624426096545381E-002   4.8079425569973078E-002
   5.8101678540301016E-003  -2.1124031639757845E-002   4.5970220689793173E-002
   3.3476581372299252E-003  -6.2758708318498835E-003   5.5312474239920029E-002
   3.7723771379826881E-003  -8.5443727178188822E-003   5.2956637350462854E-002
   4.1970961387354927E-003  -1.1388264510777540E-002   5.0490824276825608E-002
   4.6218151394883250E-003  -1.4807546210725019E-002   4.7915035019008123E-002
   5.0465341402410879E-003  -1.8802217817662337E-002   4.5229269577012232E-002
   3.0016138174084189E-003  -5.6079083933897600E-003   5.7375806972010612E-002
   3.3335683177746558E-003  -7.5544185238163308E-003   5.4401120144888293E-002
   3.6655228181408997E-003  -1.0015337834321347E-002   5.1350880501172813E-002
   3.9974773185071401E-003  -1.2990666324904879E-002   4.8225088040863881E-002
   4.3294318188733250E-003  -1.6480403995567050E-002   4.5023742763961483E-002
   2.5644074196632428E-003  -4.9399459549299696E-003   5.9730641096187795E-002
   2.8380207872291344E-003  -6.5644643298141681E-003   5.6198085058311996E-002
   3.1116341547950521E-003  -8.6424111578654872E-003   5.2624399571428851E-002
   3.3852475223610104E-003  -1.1173786439084628E-002   4.9009584635539026E-002
   3.6588608899269168E-003  -1.4158590173471763E-002   4.5353640250641453E-002
   2.0360389439943727E-003  -4.2719835164697351E-003   6.2376976612452228E-002
   2.2857345463462020E-003  -5.5745101358114502E-003   5.8347532090733623E-002
   2.5354301486980313E-003  -7.2694844814093496E-003   5.4311381487594290E-002
   2.7851257510498745E-003  -9.3569065532643630E-003   5.0268524803033399E-002
   3.0348213534017177E-003  -1.1836776351376255E-002   4.6218962037051892E-002
   2.6086244841045020E-002  -1.0389985464318519E-002   5.6513027139059813E-002
   2.5112599349667281E-002  -9.0368382434624916E-003   5.8814942838337603E-002
   2.4138953858289514E-002  -7.9842077060794103E-003   6.0448333978415980E-002
   2.3165308366911767E-002  -7.2320938521694342E-003   6.1413200559295333E-002
   2.2191662875534007E-002  -6.7804966817323065E-003   6.1709542580975718E-002
   2.2108103718733799E-002  -6.2891615796272782E-003   6.2916511896989435E-002
   2.0705512364331616E-002  -5.7145938301894073E-003   6.3346192746664337E-002
   1.9302921009929412E-002  -5.2682800297987609E-003   6.3586506429489292E-002
   1.7900329655527219E-002  -4.9502201784554847E-003   6.3637452945464718E-002
   1.6497738301125019E-002  -4.7604142761595303E-003   6.3499032294590058E-002
   1.6232534366905256E-002  -2.1883376949361211E-003   6.8455285816288375E-002
   1.4880154541827943E-002  -2.3923494169162257E-003   6.7184994550785943E-002
   1.3527774716750634E-002  -2.5523523535180698E-003   6.6204493510783044E-002
   1.2175394891673323E-002  -2.6683465047414832E-003   6.5513782696279887E-002
   1.0823015066596012E-002  -2.7403318705867541E-003   6.5112862107276070E-002
   8.4595367855593243E-003   1.9124861897550915E-003   7.3129348896956214E-002
   7.6365258821562473E-003   9.2989499635692807E-004   7.0331348250702447E-002
   6.8135149787531572E-003   1.6357532276265602E-004   6.8302295222297263E-002
   5.9905040753500827E-003  -3.8647283102761880E-004   6.7042189811741038E-002
   5.1674931719469953E-003  -7.2024946501400566E-004   6.6551032019033785E-002
  -1.2108890253039323E-003   6.0133100744462764E-003   7.6938701138993315E-002
  -1.0253736146834530E-003   4.2521394096300957E-003   7.2785253846413434E-002
  -8.3985820406298414E-004   2.8795029990432847E-003   6.9879911564031810E-002
  -6.5434279344251528E-004   1.8954008426863879E-003   6.8222674291848320E-002
  -4.6882738282204295E-004   1.2998329405587983E-003   6.7813542029863116E-002
   2.2191662875534007E-002  -6.7804966817323065E-003   6.1709542580975718E-002
   2.1440325389882386E-002  -6.4824345745830014E-003   6.1540889340292559E-002
   2.0688987904230752E-002  -6.1909259105360492E-003   6.1634227972228256E-002
   1.9937650418579110E-002  -5.9059706895915609E-003   6.1989558476783113E-002
   1.9186312932927468E-002  -5.6275689117495364E-003   6.2606880853956937E-002
   1.6497738301125019E-002  -4.7604142761595303E-003   6.3499032294590058E-002
   1.5994965413811249E-002  -4.6240611150468736E-003   6.3343550631294820E-002
   1.5492192526497476E-002  -4.4663594872535184E-003   6.3423206292056319E-002
   1.4989419639183694E-002  -4.2873093927794301E-003   6.3737999276874374E-002
   1.4486646751869933E-002  -4.0869108316244906E-003   6.4287929585749193E-002
   1.0823015066596012E-002  -2.7403318705867541E-003   6.5112862107276070E-002
   1.0541952229057776E-002  -2.7656876555108983E-003   6.4998453931151987E-002
   1.0260889391519524E-002  -2.7417930639709875E-003   6.5092328530522284E-002
   9.9798265539812869E-003  -2.6686480959672992E-003   6.5394485905387004E-002
   9.6987637164430360E-003  -2.5462527514995559E-003   6.5904926055745966E-002
   5.1674931719469953E-003  -7.2024946501400566E-004   6.6551032019033785E-002
   5.0812858356219584E-003  -9.0731419597479129E-004   6.6505599239864044E-002
   4.9950784992969224E-003  -1.0172266406885400E-003   6.6641594687626302E-002
   4.9088711629718760E-003  -1.0499867991550574E-003   6.6959018362320599E-002
   4.8226638266468426E-003  -1.0055946713745656E-003   6.7457870263947034E-002
  -4.6882738282204295E-004   1.2998329405587983E-003   6.7813542029863116E-002
  -3.8703376649620175E-004   9.5105926356114923E-004   6.7864986557430979E-002
  -3.0524015017036055E-004   7.0733978259410191E-004   6.8071004763368387E-002
  -2.2344653384452108E-004   5.6867449765708039E-004   6.8431596647675674E-002
  -1.4165291751867815E-004   5.3506340875042468E-004   6.8946762210352619E-002
   1.9186312932927468E-002  -5.6275689117495364E-003   6.2606880853956937E-002
   1.8172135251635663E-002  -5.3505925330972204E-003   6.1989158659715493E-002
   1.7157957570343857E-002  -5.0699135097218295E-003   6.1592794952318286E-002
   1.6143779889052051E-002  -4.7855318416237178E-003   6.1417789731765510E-002
   1.5129602207760245E-002  -4.4974475288024340E-003   6.1464142998057025E-002
   1.4486646751869933E-002  -4.0869108316244906E-003   6.4287929585749193E-002
   1.3703060153987145E-002  -3.8764857257814755E-003   6.3592426767412447E-002
   1.2919473556104379E-002  -3.6673559972427994E-003   6.3136747629049195E-002
   1.2135886958221594E-002  -3.4595216460086356E-003   6.2920892170659826E-002
   1.1352300360338824E-002  -3.2529826720787414E-003   6.2944860392244006E-002
   9.6987637164430360E-003  -2.5462527514995559E-003   6.5904926055745966E-002
   9.1642333950986594E-003  -2.4023789184657862E-003   6.5126644591286337E-002
   8.6297030737542725E-003  -2.2647984847637831E-003   6.4606651999929737E-002
   8.0951727524098890E-003  -2.1335114503935569E-003   6.4344948281676168E-002
   7.5606424310655090E-003  -2.0085178153551597E-003   6.4341533436525766E-002
   4.8226638266468426E-003  -1.0055946713745656E-003   6.7457870263947034E-002
   4.5556549749702011E-003  -9.2827211115006913E-004   6.6591812131337358E-002
   4.2886461232935578E-003  -8.6224097228470437E-004   6.6002508064959955E-002
   4.0216372716169093E-003  -8.0750125477842098E-004   6.5689958064815132E-002
   3.7546284199402660E-003  -7.6405295863157807E-004   6.5654162130902582E-002
  -1.4165291751867815E-004   5.3506340875042468E-004   6.8946762210352619E-002
  -1.2267510639822968E-004   5.4583469616567570E-004   6.7987929387565316E-002
  -1.0369729527777774E-004   5.4031654019429110E-004   6.7324315824139780E-002
  -8.4719484157325803E-005   5.1850894083658311E-004   6.6955921520076067E-002
  -6.5741673036877335E-005   4.8041189809211460E-004   6.6882746475374177E-002
   1.5129602207760245E-002  -4.4974475288024340E-003   6.1464142998057025E-002
   1.4322404533967020E-002  -4.1981041192849511E-003   6.1573349090860263E-002
   1.3515206860173795E-002  -3.8799451610972147E-003   6.1879354790669916E-002
   1.2708009186380584E-002  -3.5429706542400505E-003   6.2382160097486317E-002
   1.1900811512587373E-002  -3.1871805987130353E-003   6.3081765011309465E-002
   1.1352300360338824E-002  -3.2529826720787414E-003   6.2944860392244006E-002
   1.0743028845625044E-002  -3.0417810482159247E-003   6.3055555068188079E-002
   1.0133757330911264E-002  -2.8199587471824938E-003   6.3365302455284600E-002
   9.5244858161974699E-003  -2.5875157689786016E-003   6.3874102553533221E-002
   8.9152143014837038E-003  -2.3444521136043450E-003   6.4581955362934207E-002
   7.5606424310655090E-003  -2.0085178153551597E-003   6.4341533436525766E-002
   7.1515501795767385E-003  -1.8854579771470370E-003   6.4445521824111673E-002
   6.7424579280879783E-003  -1.7599723332677869E-003   6.4750816026995353E-002
   6.3333656765992077E-003  -1.6320608837172672E-003   6.5257416045176930E-002
   5.9242734251104476E-003  -1.5017236284955993E-003   6.5965321878656336E-002
   3.7546284199402660E-003  -7.6405295863157807E-004   6.5654162130902582E-002
   3.5479685358221135E-003  -7.2913490607819098E-004   6.5743249358630962E-002
   3.3413086517039411E-003  -6.9998591935285098E-004   6.6035895505802508E-002
   3.1346487675857756E-003  -6.7660599845598655E-004   6.6532100572417721E-002
   2.9279888834676162E-003  -6.5899514338677023E-004   6.7231864558476129E-002
  -6.5741673036877335E-005   4.8041189809211460E-004   6.6882746475374177E-002
  -6.7716085638859502E-005   4.2718816499059953E-004   6.6948737671745528E-002
  -6.9690498240838200E-005   3.6000049456172412E-004   6.7220540891706038E-002
  -7.1664910842822102E-005   2.7884888680553693E-004   6.7698156135255400E-002
  -7.3639323444799065E-005   1.8373334172183675E-004   6.8381583402393753E-002
   1.1900811512587373E-002  -3.1871805987130353E-003   6.3081765011309465E-002
   1.0902081468921646E-002  -2.8339321598567779E-003   6.2974357014115356E-002
   9.9033514252559462E-003  -2.5045825030123037E-003   6.3108386084974433E-002
   8.9046213815902470E-003  -2.1991316281787451E-003   6.3483852223887138E-002
   7.9058913379245477E-003  -1.9175795353570946E-003   6.4100755430853251E-002
   8.9152143014837038E-003  -2.3444521136043450E-003   6.4581955362934207E-002
   8.1607237581035191E-003  -2.1014209714792509E-003   6.4454713889861903E-002
   7.4062332147233345E-003  -1.8690755330234843E-003   6.4574514349307555E-002
   6.6517426713431430E-003  -1.6474157982370383E-003   6.4941356741270731E-002
   5.8972521279629653E-003  -1.4364417671198781E-003   6.5555241065751779E-002
   5.9242734251104476E-003  -1.5017236284955993E-003   6.5965321878656336E-002
   5.4196272464799855E-003  -1.3689097831018071E-003   6.5831460008048542E-002
   4.9149810678495234E-003  -1.2335685630351229E-003   6.5950244934422655E-002
   4.4103348892190614E-003  -1.0956999682955569E-003   6.6321676657778578E-002
   3.9056887105885993E-003  -9.5530399888305029E-004   6.6945755178116462E-002
   2.9279888834676162E-003  -6.5899514338677023E-004   6.7231864558476129E-002
   2.6787919340510681E-003  -6.3639859472426619E-004   6.7104595368674802E-002
   2.4295949846345252E-003  -5.9806159304675449E-004   6.7235577840319694E-002
   2.1803980352179762E-003  -5.4398413835385177E-004   6.7624811973410540E-002
   1.9312010858014341E-003  -4.7416623064602814E-004   6.8272297767947548E-002
  -7.3639323444799065E-005   1.8373334172183675E-004   6.8381583402393753E-002
  -6.1782179183234032E-005   9.6112593653219225E-005   6.8274119971741265E-002
  -4.9925034921665529E-005   3.7445376941974695E-005   6.8430513066999044E-002
  -3.8067890660100495E-005   7.7316915876105008E-006   6.8850762688167005E-002
  -2.6210746398531992E-005   6.9715375908829813E-006   6.9534868835245178E-002
   7.9058913379245477E-003  -1.9175795353570946E-003   6.4100755430853251E-002
   6.9712465311808913E-003  -1.7029585422777549E-003   6.4055691977553120E-002
   6.0366017244372766E-003  -1.5983009666726833E-003   6.4249860691807048E-002
   5.1019569176936411E-003  -1.6036068085417687E-003   6.4683261573614703E-002
   4.1673121109500055E-003  -1.7188760678844561E-003   6.5355894622976307E-002
   5.8972521279629653E-003  -1.4364417671198781E-003   6.5555241065751779E-002
   5.2006560165338070E-003  -1.2727330005840587E-003   6.5429165811315526E-002
   4.5040599051046210E-003  -1.1928690595423008E-003   6.5539955779954417E-002
   3.8074637936754592E-003  -1.1968499439939106E-003   6.5887610971668370E-002
   3.1108676822462766E-003  -1.2846756539394155E-003   6.6472131386457578E-002
   3.9056887105885993E-003  -9.5530399888305029E-004   6.6945755178116462E-002
   3.4447743499950410E-003  -8.4250745889075107E-004   6.6764786714524460E-002
   2.9838599894014724E-003  -7.8743715241191836E-004   6.6818316529528798E-002
   2.5229456288078985E-003  -7.9009307944638563E-004   6.7106344623129408E-002
   2.0620312682143455E-003  -8.5047523999443042E-004   6.7628870995325913E-002
   1.9312010858014341E-003  -4.7416623064602814E-004   6.8272297767947548E-002
   1.7036015315646247E-003  -4.1228191719719365E-004   6.8062554687180032E-002
   1.4760019773278144E-003  -3.8200524528159141E-004   6.8084942940530135E-002
   1.2484024230910002E-003  -3.8333621489902714E-004   6.8339462527997427E-002
   1.0208028688541947E-003  -4.1627482604947308E-004   6.8826113449582171E-002
  -2.6210746398531992E-005   6.9715375908829813E-006   6.9534868835245178E-002
  -2.2862438757438597E-005   1.7943624496308264E-005   6.9322469729282576E-002
  -1.9514131116348671E-005   2.3426661848874319E-005   6.9339835012958595E-002
  -1.6165823475255275E-005   2.3420649648782377E-005   6.9586964686272901E-002
  -1.2817515834165349E-005   1.7925587895484263E-005   7.0063858749225827E-002
   4.1673121109500055E-003  -1.7188760678844561E-003   6.5355894622976307E-002
   3.6344938192111043E-003  -2.0061335094807564E-003   6.4428803024817016E-002
   3.1016755274721891E-003  -2.5274038981104308E-003   6.3623286157009851E-002
   2.5688572357332740E-003  -3.2826872337735000E-003   6.2939344019555116E-002
   2.0360389439943727E-003  -4.2719835164697351E-003   6.2376976612452228E-002
   3.1108676822462766E-003  -1.2846756539394155E-003   6.6472131386457578E-002
   2.7026809818509467E-003  -1.5018399403088911E-003   6.5351282026767266E-002
   2.2944942814556030E-003  -1.8938365540327740E-003   6.4358121119411860E-002
   1.8863075810602627E-003  -2.4606654951113485E-003   6.3492648664391610E-002
   1.4781208806649293E-003  -3.2023267635441499E-003   6.2754864661706322E-002
   2.0620312682143455E-003  -8.5047523999443042E-004   6.7628870995325913E-002
   1.7845898811452640E-003  -9.9754637113691480E-004   6.6373444493783795E-002
   1.5071484940761826E-003  -1.2602692099550200E-003   6.5251820166559268E-002
   1.2297071070071081E-003  -1.6386437564490895E-003   6.4263998013652263E-002
   9.5226571993803355E-004  -2.1326700106185648E-003   6.3409978035063042E-002
   1.0208028688541947E-003  -4.1627482604947308E-004   6.8826113449582171E-002
   8.8022051709406995E-004  -4.9325280196527155E-004   6.7495290425866855E-002
   7.3963816533393137E-004  -6.2670186587731463E-004   6.6304383298451799E-002
   5.9905581357379972E-004  -8.1662201778699532E-004   6.5253392067337185E-002
   4.5847346181366808E-004  -1.0630132576929796E-003   6.4342316732522623E-002
  -1.2817515834165349E-005   1.7925587895484263E-005   7.0063858749225827E-002
  -1.0427110302656251E-005   1.1040767206982327E-005   6.8716819823016029E-002
  -8.0367047711540907E-006   6.8654782003352288E-006   6.7515810515089481E-002
  -5.6462992396501960E-006   5.3997208754735793E-006   6.6460830825445905E-002
  -3.2558937081428319E-006   6.6434952327165675E-006   6.5551880754085023E-002
   2.0360389439943727E-003  -4.2719835164697351E-003   6.2376976612452228E-002
   2.2857345463462020E-003  -5.5745101358114502E-003   5.8347532090733623E-002
   2.5354301486980313E-003  -7.2694844814093496E-003   5.4311381487594290E-002
   2.7851257510498745E-003  -9.3569065532643630E-003   5.0268524803033399E-002
   3.0348213534017177E-003  -1.1836776351376255E-002   4.6218962037051892E-002
   1.4781208806649293E-003  -3.2023267635441499E-003   6.2754864661706322E-002
   1.7071684102100693E-003  -4.1786344482908078E-003   5.8400086935439854E-002
   1.9362159397552300E-003  -5.4494026383100080E-003   5.4010719144980679E-002
   2.1652634693003735E-003  -7.0146313336016813E-003   4.9586761290329295E-002
   2.3943109988455447E-003  -8.8743205341661469E-003   4.5128213371485648E-002
   9.5226571993803355E-004  -2.1326700106185648E-003   6.3409978035063042E-002
   1.1327811939050546E-003  -2.7827587607704429E-003   5.8827854325232881E-002
   1.3132966678720756E-003  -3.6293207952101392E-003   5.4183256568438837E-002
   1.4938121418391036E-003  -4.6723561139387845E-003   4.9476184764680936E-002
   1.6743276158061038E-003  -5.9118647169558169E-003   4.4706638913958874E-002
   4.5847346181366808E-004  -1.0630132576929796E-003   6.4342316732522623E-002
   5.6257289743112237E-004  -1.3868830732500503E-003   5.9630834260112869E-002
   6.6667233304857666E-004  -1.8092389521108670E-003   5.4828993757968146E-002
   7.7077176866601014E-004  -2.3300808942762173E-003   4.9936795226087682E-002
   8.7487120428345749E-004  -2.9494088997457091E-003   4.4954238664472068E-002
  -3.2558937081428319E-006   6.6434952327165675E-006   6.5551880754085023E-002
  -3.4564792117178222E-006   8.9926142706753254E-006   6.0809026740080152E-002
  -3.6570647152893432E-006   1.0842890988987941E-005   5.5947930713568128E-002
  -3.8576502188678030E-006   1.2194325386884197E-005   5.0968592674549423E-002
  -4.0582357224427934E-006   1.3046917464620833E-005   4.5871012623024843E-002
  -1.2108890253039323E-003   6.0133100744462764E-003   7.6938701138993315E-002
  -1.0253736146834530E-003   4.2521394096300957E-003   7.2785253846413434E-002
  -8.3985820406298414E-004   2.8795029990432847E-003   6.9879911564031810E-002
  -6.5434279344251528E-004   1.8954008426863879E-003   6.8222674291848320E-002
  -4.6882738282204295E-004   1.2998329405587983E-003   6.7813542029863116E-002
  -1.0682054768408999E-002   4.6441878512167856E-003   6.8490965578634322E-002
  -9.5215248222991784E-003   3.7677377401173495E-003   6.6646922715494078E-002
  -8.3609948761893659E-003   3.0758464530182134E-003   6.5504803913134513E-002
  -7.2004649300795491E-003   2.5685139899194291E-003   6.5064609171555376E-002
  -6.0399349839697185E-003   2.2457403508209517E-003   6.5326338490756641E-002
  -1.7857272146480335E-002   3.2750656279872670E-003   6.1029938287106553E-002
  -1.6267908614298922E-002   3.2833360706046588E-003   6.1291324423176988E-002
  -1.4678545082117508E-002   3.2721899069930241E-003   6.1708453670610154E-002
  -1.3089181549936093E-002   3.2416271371525519E-003   6.2281326029406087E-002
  -1.1499818017754680E-002   3.1916477610829941E-003   6.3009941499564681E-002
  -2.2736541159517922E-002   1.9059434047577900E-003   5.4555619264410465E-002
  -2.1264524990682661E-002   2.7989344010919681E-003   5.6718458969462121E-002
  -1.9792508821847417E-002   3.4685333609678105E-003   5.8490860836458769E-002
  -1.8320492653012169E-002   3.9147402843855506E-003   5.9872824865400374E-002
  -1.6848476484176915E-002   4.1375551713450642E-003   6.0864351056286993E-002
  -2.5319861807521778E-002   5.3682118152825753E-004   4.9068008510545547E-002
  -2.4511373951450449E-002   2.3145327315792219E-003   5.2928326354349187E-002
  -2.3702886095379096E-002   3.6648768149427496E-003   5.5852025410680212E-002
  -2.2894398239307757E-002   4.5878534316188095E-003   5.7839105679538330E-002
  -2.2085910383236422E-002   5.0834625816071899E-003   5.8889567160923695E-002
  -4.6882738282204295E-004   1.2998329405587983E-003   6.7813542029863116E-002
  -3.8703376649620175E-004   9.5105926356114923E-004   6.7864986557430979E-002
  -3.0524015017036055E-004   7.0733978259410191E-004   6.8071004763368387E-002
  -2.2344653384452108E-004   5.6867449765708039E-004   6.8431596647675674E-002
  -1.4165291751867815E-004   5.3506340875042468E-004   6.8946762210352619E-002
  -6.0399349839697185E-003   2.2457403508209517E-003   6.5326338490756641E-002
  -5.8015707337105323E-003   2.0355944602356707E-003   6.5563879975779130E-002
  -5.5632064834513512E-003   1.8661452426767186E-003   6.5959989050298568E-002
  -5.3248422331921641E-003   1.7373926981441908E-003   6.6514665714315011E-002
  -5.0864779829329770E-003   1.6493368266378150E-003   6.7227909967828320E-002
  -1.1499818017754680E-002   3.1916477610829941E-003   6.3009941499564681E-002
  -1.1100889222434882E-002   3.1201296569101367E-003   6.3369222419037752E-002
  -1.0701960427115092E-002   3.0249507027595574E-003   6.3891064839135064E-002
  -1.0303031631795294E-002   2.9061108986311902E-003   6.4575468759856647E-002
  -9.9041028364755031E-003   2.7636102445250943E-003   6.5422434181202443E-002
  -1.6848476484176915E-002   4.1375551713450642E-003   6.0864351056286993E-002
  -1.6284989232669255E-002   4.2046648535844916E-003   6.1281013887206658E-002
  -1.5721501981161595E-002   4.1837561628422573E-003   6.1864232129877780E-002
  -1.5158014729653927E-002   4.0748290991181896E-003   6.2614005784300431E-002
  -1.4594527478146265E-002   3.8778836624123736E-003   6.3530334850474657E-002
  -2.2085910383236422E-002   5.0834625816071899E-003   5.8889567160923695E-002
  -2.1353870764413620E-002   5.2892000502590963E-003   5.9299254380285910E-002
  -2.0621831145590849E-002   5.3425616229249850E-003   5.9879490922526896E-002
  -1.9889791526768050E-002   5.2435472996053209E-003   6.0630276787646709E-002
  -1.9157751907945268E-002   4.9921570802997084E-003   6.1551611975645182E-002
  -1.4165291751867815E-004   5.3506340875042468E-004   6.8946762210352619E-002
  -1.2267510639822968E-004   5.4583469616567570E-004   6.7987929387565316E-002
  -1.0369729527777774E-004   5.4031654019429110E-004   6.7324315824139780E-002
  -8.4719484157325803E-005   5.1850894083658311E-004   6.6955921520076067E-002
  -6.5741673036877335E-005   4.8041189809211460E-004   6.6882746475374177E-002
  -5.0864779829329770E-003   1.6493368266378150E-003   6.7227909967828320E-002
  -4.7841808236558057E-003   1.5780159017042272E-003   6.6372619334074151E-002
  -4.4818836643786483E-003   1.4994681968898971E-003   6.5788748137271633E-002
  -4.1795865051014857E-003   1.4136937121948939E-003   6.5476296377420778E-002
  -3.8772893458243196E-003   1.3206924476191206E-003   6.5435264054521491E-002
  -9.9041028364755031E-003   2.7636102445250943E-003   6.5422434181202443E-002
  -9.3422861514517418E-003   2.6101971072427094E-003   6.4679748399987108E-002
  -8.7804694664279787E-003   2.4586198535853782E-003   6.4184682233313403E-002
  -8.2186527814042121E-003   2.3088784835533123E-003   6.3937235681181120E-002
  -7.6568360963804542E-003   2.1609729971463487E-003   6.3937408743590579E-002
  -1.4594527478146265E-002   3.8778836624123736E-003   6.3530334850474657E-002
  -1.3796991089786012E-002   3.6423783127811429E-003   6.2909316585304145E-002
  -1.2999454701425765E-002   3.4177715102808662E-003   6.2512118112265022E-002
  -1.2201918313065515E-002   3.2040632549118434E-003   6.2338739431357489E-002
  -1.1404381924705265E-002   3.0012535466735768E-003   6.2389180542581336E-002
  -1.9157751907945268E-002   4.9921570802997084E-003   6.1551611975645182E-002
  -1.8148295638658642E-002   4.6745595183196875E-003   6.1061323890025332E-002
  -1.7138839369372008E-002   4.3769231669764097E-003   6.0771055774126753E-002
  -1.6129383100085378E-002   4.0992480262701109E-003   6.0680807627949557E-002
  -1.5119926830798755E-002   3.8415340962006383E-003   6.0790579451493632E-002
  -6.5741673036877335E-005   4.8041189809211460E-004   6.6882746475374177E-002
  -6.7716085638859502E-005   4.2718816499059953E-004   6.6948737671745528E-002
  -6.9690498240838200E-005   3.6000049456172412E-004   6.7220540891706038E-002
  -7.1664910842822102E-005   2.7884888680553693E-004   6.7698156135255400E-002
  -7.3639323444799065E-005   1.8373334172183675E-004   6.8381583402393753E-002
  -3.8772893458243196E-003   1.3206924476191206E-003   6.5435264054521491E-002
  -3.6744132546638886E-003   1.2202621067220754E-003   6.5521496998253020E-002
  -3.4715371635034506E-003   1.1122003930632007E-003   6.5811618925920357E-002
  -3.2686610723430091E-003   9.9650730664220533E-004   6.6305629837523763E-002
  -3.0657849811825816E-003   8.7318284745918628E-004   6.7003529733062728E-002
  -7.6568360963804542E-003   2.1609729971463487E-003   6.3937408743590579E-002
  -7.2510325411107145E-003   2.0133360484536345E-003   6.4050215999247567E-002
  -6.8452289858409619E-003   1.8644002915645802E-003   6.4364989199187386E-002
  -6.4394254305712231E-003   1.7141657264787662E-003   6.4881728343409772E-002
  -6.0336218753014696E-003   1.5626323531966468E-003   6.5600433431915212E-002
  -1.1404381924705265E-002   3.0012535466735768E-003   6.2389180542581336E-002
  -1.0797573944979324E-002   2.8064099901851519E-003   6.2534894674729349E-002
  -1.0190765965253383E-002   2.6166001900657862E-003   6.2880651711506974E-002
  -9.5839579855274432E-003   2.4318241463155473E-003   6.3426451652914245E-002
  -8.9771500058015083E-003   2.2520818589338853E-003   6.4172294498951149E-002
  -1.5119926830798755E-002   3.8415340962006383E-003   6.0790579451493632E-002
  -1.4314037466269747E-002   3.5994839319166139E-003   6.0975533024697992E-002
  -1.3508148101740714E-002   3.3688000885673669E-003   6.1358606462879023E-002
  -1.2702258737211701E-002   3.1494825661520891E-003   6.1939799766036460E-002
  -1.1896369372682680E-002   2.9415313646714569E-003   6.2719112934170429E-002
  -7.3639323444799065E-005   1.8373334172183675E-004   6.8381583402393753E-002
  -6.1782179183234032E-005   9.6112593653219225E-005   6.8274119971741265E-002
  -4.9925034921665529E-005   3.7445376941974695E-005   6.8430513066999044E-002
  -3.8067890660100495E-005   7.7316915876105008E-006   6.8850762688167005E-002
  -2.6210746398531992E-005   6.9715375908829813E-006   6.9534868835245178E-002
  -3.0657849811825816E-003   8.7318284745918628E-004   6.7003529733062728E-002
  -2.7947112297745831E-003   7.5400307755613127E-004   6.6938172288604658E-002
  -2.5236374783666055E-003   6.5074405897419529E-004   6.7127391532529307E-002
  -2.2525637269586191E-003   5.6340579171378080E-004   6.7571187464836632E-002
  -1.9814899755506293E-003   4.9198827577467963E-004   6.8269560085526537E-002
  -6.0336218753014696E-003   1.5626323531966468E-003   6.5600433431915212E-002
  -5.5126113542746675E-003   1.4118935614589045E-003   6.5564149193615751E-002
  -4.9916008332478437E-003   1.2640427410066241E-003   6.5773161806171196E-002
  -4.4705903122210311E-003   1.1190798918397811E-003   6.6227471269581673E-002
  -3.9495797911942177E-003   9.7700501395853179E-004   6.6927077583847222E-002
  -8.9771500058015083E-003   2.2520818589338853E-003   6.4172294498951149E-002
  -8.2154825526834507E-003   2.0697840453619137E-003   6.4152050686774167E-002
  -7.4538150995653880E-003   1.8773414230391153E-003   6.4367823887924697E-002
  -6.6921476464473278E-003   1.6747539919658664E-003   6.4819614102402612E-002
  -5.9304801933292677E-003   1.4620217521423007E-003   6.5507421330208038E-002
  -1.1896369372682680E-002   2.9415313646714569E-003   6.2719112934170429E-002
  -1.0903324825000969E-002   2.7276745292645344E-003   6.2701876768080145E-002
  -9.9102802773192410E-003   2.4906401050713567E-003   6.2911377777789712E-002
  -8.9172357296375283E-003   2.2304280920919725E-003   6.3347615963299325E-002
  -7.9241911819558086E-003   1.9470384903261806E-003   6.4010591324608512E-002
  -2.6210746398531992E-005   6.9715375908829813E-006   6.9534868835245178E-002
  -2.2862438757438597E-005   1.7943624496308264E-005   6.9322469729282576E-002
  -1.9514131116348671E-005   2.3426661848874319E-005   6.9339835012958595E-002
  -1.6165823475255275E-005   2.3420649648782377E-005   6.9586964686272901E-002
  -1.2817515834165349E-005   1.7925587895484263E-005   7.0063858749225827E-002
  -1.9814899755506293E-003   4.9198827577467963E-004   6.8269560085526537E-002
  -1.7474320144116873E-003   4.4134251111421774E-004   6.8055362507773220E-002
  -1.5133740532727279E-003   4.1631949768997090E-004   6.8072819847377314E-002
  -1.2793160921337789E-003   4.1691923550103011E-004   6.8321932104338665E-002
  -1.0452581309948264E-003   4.4314172454851253E-004   6.8802699278657287E-002
  -3.9495797911942177E-003   9.7700501395853179E-004   6.6927077583847222E-002
  -3.4829216488386295E-003   8.6474139773209946E-004   6.6742193335092542E-002
  -3.0162635064830412E-003   8.0921233353072053E-004   6.6790854531413466E-002
  -2.5496053641274529E-003   8.1041782135360743E-004   6.7073061172810505E-002
  -2.0829472217718647E-003   8.6835786120159630E-004   6.7588813259283675E-002
  -5.9304801933292677E-003   1.4620217521423007E-003   6.5507421330208038E-002
  -5.2293313420382799E-003   1.2881402843499951E-003   6.5382962211240042E-002
  -4.5281824907472991E-003   1.2021051693714771E-003   6.5493939065067008E-002
  -3.8270336394563144E-003   1.2039164072062420E-003   6.5840351891688464E-002
  -3.1258847881653301E-003   1.2935739978545968E-003   6.6422200691105021E-002
  -7.9241911819558086E-003   1.9470384903261806E-003   6.4010591324608512E-002
  -6.9866610940106377E-003   1.7115391709678907E-003   6.3977669136216386E-002
  -6.0491310060654772E-003   1.5949980052125390E-003   6.4182073448337706E-002
  -5.1116009181203115E-003   1.5974149930587031E-003   6.4623804260972750E-002
  -4.1740708301751459E-003   1.7187901345077083E-003   6.5302861574121129E-002
  -1.2817515834165349E-005   1.7925587895484263E-005   7.0063858749225827E-002
  -1.0427110302656251E-005   1.1040767206982327E-005   6.8716819823016029E-002
  -8.0367047711540907E-006   6.8654782003352288E-006   6.7515810515089481E-002
  -5.6462992396501960E-006   5.3997208754735793E-006   6.6460830825445905E-002
  -3.2558937081428319E-006   6.6434952327165675E-006   6.5551880754085023E-002
  -1.0452581309948264E-003   4.4314172454851253E-004   6.8802699278657287E-002
  -9.0019086557693515E-004   5.1201711822335128E-004   6.7478255413285393E-002
  -7.5512360015904736E-004   6.4057556991792275E-004   6.6293135649403118E-002
  -6.1005633474115958E-004   8.2881707963172735E-004   6.5247339987010836E-002
  -4.6498906932326833E-004   1.0767416473653757E-003   6.4340868426108311E-002
  -2.0829472217718647E-003   8.6835786120159630E-004   6.7588813259283675E-002
  -1.8019086132607803E-003   1.0129934692402476E-003   6.6343937981086953E-002
  -1.5208700047496977E-003   1.2742856616358711E-003   6.5231681287586857E-002
  -1.2398313962386147E-003   1.6522344383885432E-003   6.4252043178783358E-002
  -9.5879278772753075E-004   2.1468397994982014E-003   6.3405023654676346E-002
  -3.1258847881653301E-003   1.2935739978545968E-003   6.6422200691105021E-002
  -2.7155803533542230E-003   1.5139698202571023E-003   6.5313867526420988E-002
  -2.3052759185431442E-003   1.9079957533538056E-003   6.4331447429640476E-002
  -1.8949714837320410E-003   2.4756517971450780E-003   6.3474940400763374E-002
  -1.4846670489209583E-003   3.2169379516310548E-003   6.2744346439789878E-002
  -4.1740708301751459E-003   1.7187901345077083E-003   6.5302861574121129E-002
  -3.6412060858572390E-003   2.0149461712735683E-003   6.4388044049287552E-002
  -3.1083413415393321E-003   2.5417058450713792E-003   6.3592434075564086E-002
  -2.5754765972214235E-003   3.2990691559017168E-003   6.2916031652950816E-002
  -2.0426118529035184E-003   4.2870361037637972E-003   6.2358836781448157E-002
  -3.2558937081428319E-006   6.6434952327165675E-006   6.5551880754085023E-002
  -3.4564792117178222E-006   8.9926142706753254E-006   6.0809026740080152E-002
  -3.6570647152893432E-006   1.0842890988987941E-005   5.5947930713568128E-002
  -3.8576502188678030E-006   1.2194325386884197E-005   5.0968592674549423E-002
  -4.0582357224427934E-006   1.3046917464620833E-005   4.5871012623024843E-002
  -4.6498906932326833E-004   1.0767416473653757E-003   6.4340868426108311E-002
  -5.6942963087560500E-004   1.4036647732477148E-003   5.9628853513751356E-002
  -6.7387019242793472E-004   1.8289019574087573E-003   5.4826600661803726E-002
  -7.7831075398026618E-004   2.3524531998479065E-003   4.9934109870264559E-002
  -8.8275131553260111E-004   2.9743185005655093E-003   4.4951381139135993E-002
  -9.5879278772753075E-004   2.1468397994982014E-003   6.3405023654676346E-002
  -1.1394692524126677E-003   2.7983369322246987E-003   5.8822660744565963E-002
  -1.3201457170978056E-003   3.6469610238282907E-003   5.4178063967780868E-002
  -1.5008221817829296E-003   4.6927120743088142E-003   4.9471233324320955E-002
  -1.6814986464680805E-003   5.9355900836663977E-003   4.4702168814185761E-002
  -1.4846670489209583E-003   3.2169379516310548E-003   6.2744346439789878E-002
  -1.7135753438229104E-003   4.1930090912019324E-003   5.8390448432524611E-002
  -1.9424836387248697E-003   5.4650200902480531E-003   5.4002320631500275E-002
  -2.1713919336268151E-003   7.0329709487697793E-003   4.9579963036717002E-002
  -2.4003002285287811E-003   8.8968616667671752E-003   4.5123375648175174E-002
  -2.0426118529035184E-003   4.2870361037637972E-003   6.2358836781448157E-002
  -2.2917479051063408E-003   5.5876812501787221E-003   5.8332216577626217E-002
  -2.5408839573091598E-003   7.2830791566677877E-003   5.4299370652961476E-002
  -2.7900200095119648E-003   9.3732298232307928E-003   5.0260299007453740E-002
  -3.0391560617148011E-003   1.1858133249868175E-002   4.6215001641103370E-002
  -2.5319861807521778E-002   5.3682118152825753E-004   4.9068008510545547E-002
  -2.4511373951450449E-002   2.3145327315792219E-003   5.2928326354349187E-002
  -2.3702886095379096E-002   3.6648768149427496E-003   5.5852025410680212E-002
  -2.2894398239307757E-002   4.5878534316188095E-003   5.7839105679538330E-002
  -2.2085910383236422E-002   5.0834625816071899E-003   5.8889567160923695E-002
  -2.7926798627927484E-002   5.2822797184298720E-003   5.3272605960376751E-002
  -2.7764280928787237E-002   6.1085398910354083E-003   5.4753459695344481E-002
  -2.7601763229646921E-002   6.7083034712480949E-003   5.5878991903922953E-002
  -2.7439245530506612E-002   7.0815704590678208E-003   5.6649202586112182E-002
  -2.7276727831366299E-002   7.2283408544945027E-003   5.7064091741912099E-002
  -3.2876916158170844E-002   1.0027738255331486E-002   5.6425316595615296E-002
  -3.2779071354877988E-002   9.9025470504917057E-003   5.5727577096041592E-002
  -3.2681226551585195E-002   9.7517301275534748E-003   5.5255813331162092E-002
  -3.2583381748292395E-002   9.5752874865168616E-003   5.5010025300976942E-002
  -3.2485536944999560E-002   9.3732191273818155E-003   5.4990213005485900E-002
  -4.0170214398251594E-002   1.4773196792233087E-002   5.8526140416261238E-002
  -3.9555745229722772E-002   1.3696554209947934E-002   5.5850678556440547E-002
  -3.8941276061193963E-002   1.2795156783858893E-002   5.3982489692397752E-002
  -3.8326806892665148E-002   1.2069004513965888E-002   5.2921573824132651E-002
  -3.7712337724136340E-002   1.1518097400269128E-002   5.2667930951645313E-002
  -4.9806693348169895E-002   1.9518655329134715E-002   5.9575077422314493E-002
  -4.8094302553321588E-002   1.7490561369404189E-002   5.5122764076541486E-002
  -4.6381911758473199E-002   1.5838583440164172E-002   5.2059020987629767E-002
  -4.4669520963624879E-002   1.4562721541414962E-002   5.0383848155579364E-002
  -4.2957130168776531E-002   1.3662975673156441E-002   5.0097245580390193E-002
  -2.2085910383236422E-002   5.0834625816071899E-003   5.8889567160923695E-002
  -2.1353870764413620E-002   5.2892000502590963E-003   5.9299254380285910E-002
  -2.0621831145590849E-002   5.3425616229249850E-003   5.9879490922526896E-002
  -1.9889791526768050E-002   5.2435472996053209E-003   6.0630276787646709E-002
  -1.9157751907945268E-002   4.9921570802997084E-003   6.1551611975645182E-002
  -2.7276727831366299E-002   7.2283408544945027E-003   5.7064091741912099E-002
  -2.6386163633396097E-002   7.2105855716773359E-003   5.7316297221999268E-002
  -2.5495599435425918E-002   7.0902755247657170E-003   5.7715002537502544E-002
  -2.4605035237455729E-002   6.8674107137593077E-003   5.8260207688421821E-002
  -2.3714471039485541E-002   6.5419911386584428E-003   5.8951912674757134E-002
  -3.2485536944999560E-002   9.3732191273818155E-003   5.4990213005485900E-002
  -3.1460497655344713E-002   9.1319710930958115E-003   5.5134757878189312E-002
  -3.0435458365689842E-002   8.8379894266063935E-003   5.5401753098846054E-002
  -2.9410419076034984E-002   8.4912741279135166E-003   5.5791198667456056E-002
  -2.8385379786380130E-002   8.0918251970172606E-003   5.6303094584019386E-002
  -3.7712337724136340E-002   1.1518097400269128E-002   5.2667930951645313E-002
  -3.6576872830259503E-002   1.1053356614514197E-002   5.2754636348856063E-002
  -3.5441407936382688E-002   1.0585703328447015E-002   5.2939742606557413E-002
  -3.4305943042505845E-002   1.0115137542067670E-002   5.3223249724749351E-002
  -3.3170478148629029E-002   9.6416592553761199E-003   5.3605157703431869E-002
  -4.2957130168776531E-002   1.3662975673156441E-002   5.0097245580390193E-002
  -4.1735289158140426E-002   1.2974742135932554E-002   5.0175932633999443E-002
  -4.0513448147504377E-002   1.2333417230287802E-002   5.0328971060636635E-002
  -3.9291607136868294E-002   1.1739000956221851E-002   5.0556360860301672E-002
  -3.8069766126232224E-002   1.1191493313734868E-002   5.0858102032994679E-002
  -1.9157751907945268E-002   4.9921570802997084E-003   6.1551611975645182E-002
  -1.8148295638658642E-002   4.6745595183196875E-003   6.1061323890025332E-002
  -1.7138839369372008E-002   4.3769231669764097E-003   6.0771055774126753E-002
  -1.6129383100085378E-002   4.0992480262701109E-003   6.0680807627949557E-002
  -1.5119926830798755E-002   3.8415340962006383E-003   6.0790579451493632E-002
  -2.3714471039485541E-002   6.5419911386584428E-003   5.8951912674757134E-002
  -2.2498972508150250E-002   6.1733178352694207E-003   5.8371461525187934E-002
  -2.1283473976814946E-002   5.8206918393985813E-003   5.8003074929994736E-002
  -2.0067975445479613E-002   5.4841131510463791E-003   5.7846752889177649E-002
  -1.8852476914144354E-002   5.1635817702121445E-003   5.7902495402736509E-002
  -2.8385379786380130E-002   8.0918251970172606E-003   5.6303094584019386E-002
  -2.6951794408341417E-002   7.6720761522191816E-003   5.5628566467382304E-002
  -2.5518209030302764E-002   7.2644605118209193E-003   5.5178147489776022E-002
  -2.4084623652264096E-002   6.8689782758225917E-003   5.4951837651200416E-002
  -2.2651038274225398E-002   6.4856294442239559E-003   5.4949636951655570E-002
  -3.3170478148629029E-002   9.6416592553761199E-003   5.3605157703431869E-002
  -3.1506761339232248E-002   9.1708344691689286E-003   5.2832638716608468E-002
  -2.9843044529835498E-002   8.7082291842431186E-003   5.2296273453470384E-002
  -2.8179327720438706E-002   8.2538434005987212E-003   5.1996061914017955E-002
  -2.6515610911041966E-002   7.8076771182355037E-003   5.1932004098250703E-002
  -3.8069766126232224E-002   1.1191493313734868E-002   5.0858102032994679E-002
  -3.6163873300822658E-002   1.0669592786118703E-002   4.9983678272866372E-002
  -3.4257980475413105E-002   1.0151997856665457E-002   4.9357452821078091E-002
  -3.2352087650003546E-002   9.6387085253750518E-003   4.8979425677630056E-002
  -3.0446194824593986E-002   9.1297247922473290E-003   4.8849596842522158E-002
  -1.5119926830798755E-002   3.8415340962006383E-003   6.0790579451493632E-002
  -1.4314037466269747E-002   3.5994839319166139E-003   6.0975533024697992E-002
  -1.3508148101740714E-002   3.3688000885673669E-003   6.1358606462879023E-002
  -1.2702258737211701E-002   3.1494825661520891E-003   6.1939799766036460E-002
  -1.1896369372682680E-002   2.9415313646714569E-003   6.2719112934170429E-002
  -1.8852476914144354E-002   5.1635817702121445E-003   5.7902495402736509E-002
  -1.7850818652021073E-002   4.8500513042456783E-003   5.8023747153398503E-002
  -1.6849160389897741E-002   4.5344753604953936E-003   5.8338416834272711E-002
  -1.5847502127774415E-002   4.2168539389615539E-003   5.8846504445358758E-002
  -1.4845843865651135E-002   3.8971870396441455E-003   5.9548009986656936E-002
  -2.2651038274225398E-002   6.4856294442239559E-003   5.4949636951655570E-002
  -2.1458313049272291E-002   6.1006186765743819E-003   5.4993775081057295E-002
  -2.0265587824319233E-002   5.7001506324235382E-003   5.5226629205906534E-002
  -1.9072862599366140E-002   5.2842253117710205E-003   5.5648199326203490E-002
  -1.7880137374413067E-002   4.8528427146169451E-003   5.6258485441947781E-002
  -2.6515610911041966E-002   7.8076771182355037E-003   5.1932004098250703E-002
  -2.5136520658023576E-002   7.3511860489033215E-003   5.1885616807674173E-002
  -2.3757430405005175E-002   6.8658259043515128E-003   5.2023243577780882E-002
  -2.2378340151986750E-002   6.3515966845805417E-003   5.2344884408570568E-002
  -2.0999249898968383E-002   5.8084983895897446E-003   5.2850539300043430E-002
  -3.0446194824593986E-002   9.1297247922473290E-003   4.8849596842522158E-002
  -2.8885441478274806E-002   8.6017534212322611E-003   4.8699272333249499E-002
  -2.7324688131955585E-002   8.0315011762797511E-003   4.8728259949895408E-002
  -2.5763934785636371E-002   7.4189680573899623E-003   4.8936559692459872E-002
  -2.4203181439317184E-002   6.7641540645625442E-003   4.9324171560943042E-002
  -1.1896369372682680E-002   2.9415313646714569E-003   6.2719112934170429E-002
  -1.0903324825000969E-002   2.7276745292645344E-003   6.2701876768080145E-002
  -9.9102802773192410E-003   2.4906401050713567E-003   6.2911377777789712E-002
  -8.9172357296375283E-003   2.2304280920919725E-003   6.3347615963299325E-002
  -7.9241911819558086E-003   1.9470384903261806E-003   6.4010591324608512E-002
  -1.4845843865651135E-002   3.8971870396441455E-003   5.9548009986656936E-002
  -1.3632517986347157E-002   3.5702996255300712E-003   5.9421712390297698E-002
  -1.2419192107043153E-002   3.2310166596067336E-003   5.9509240281382991E-002
  -1.1205866227739128E-002   2.8793381418733693E-003   5.9810593659913133E-002
  -9.9925403484351465E-003   2.5152640723304920E-003   6.0325772525887944E-002
  -1.7880137374413067E-002   4.8528427146169451E-003   5.6258485441947781E-002
  -1.6459441851841942E-002   4.4129247217957468E-003   5.6033908452296305E-002
  -1.5038746329270856E-002   3.9713932141416802E-003   5.6010245261734357E-002
  -1.3618050806699759E-002   3.5282481916548807E-003   5.6187495870261846E-002
  -1.2197355284128670E-002   3.0834896543351364E-003   5.6565660277878987E-002
  -2.0999249898968383E-002   5.8084983895897446E-003   5.2850539300043430E-002
  -1.9384096421485381E-002   5.2555498180612420E-003   5.2538464954076200E-002
  -1.7768942944002341E-002   4.7117697686768975E-003   5.2414392718843558E-002
  -1.6153789466519308E-002   4.1771582414362237E-003   5.2478322594345171E-002
  -1.4538635989036304E-002   3.6517152363396144E-003   5.2730254580580928E-002
  -2.4203181439317184E-002   6.7641540645625442E-003   4.9324171560943042E-002
  -2.2406481695277425E-002   6.0981749143270703E-003   4.8935381895637287E-002
  -2.0609781951237652E-002   5.4521463232119760E-003   4.8721682652710652E-002
  -1.8813082207197886E-002   4.8260682912177263E-003   4.8683073832163054E-002
  -1.7016382463158120E-002   4.2199408183442033E-003   4.8819555433994855E-002
  -7.9241911819558086E-003   1.9470384903261806E-003   6.4010591324608512E-002
  -6.9866610940106377E-003   1.7115391709678907E-003   6.3977669136216386E-002
  -6.0491310060654772E-003   1.5949980052125390E-003   6.4182073448337706E-002
  -5.1116009181203115E-003   1.5974149930587031E-003   6.4623804260972750E-002
  -4.1740708301751459E-003   1.7187901345077083E-003   6.5302861574121129E-002
  -9.9925403484351465E-003   2.5152640723304920E-003   6.0325772525887944E-002
  -8.8149701944253943E-003   2.2032914389327751E-003   6.0276876422683590E-002
  -7.6374000404156265E-003   2.0079172296352532E-003   6.0470733951095035E-002
  -6.4598298864058734E-003   1.9291414444371005E-003   6.0907345111122058E-002
  -5.2822597323960788E-003   1.9669640833388513E-003   6.1586709902764880E-002
  -1.2197355284128670E-002   3.0834896543351364E-003   5.6565660277878987E-002
  -1.0774317932952249E-002   2.6950437068976596E-003   5.6498430530360022E-002
  -9.3512805817758289E-003   2.4208364540577593E-003   5.6679381545559057E-002
  -7.9282432305994213E-003   2.2608678958152793E-003   5.7108513323475767E-002
  -6.5052058794229841E-003   2.2151380321703273E-003   5.7785825864109991E-002
  -1.4538635989036304E-002   3.6517152363396144E-003   5.2730254580580928E-002
  -1.2864704309591184E-002   3.1867959748624330E-003   5.2642331459245566E-002
  -1.1190772630146010E-002   2.8337556784803694E-003   5.2808016231729815E-002
  -9.5168409507008778E-003   2.5925943471936230E-003   5.3227308898033898E-002
  -7.8429092712557196E-003   2.4633119810014703E-003   5.3900209458157718E-002
  -1.7016382463158120E-002   4.2199408183442033E-003   4.8819555433994855E-002
  -1.5086129324342196E-002   3.6785482428274285E-003   4.8708579209340241E-002
  -1.3155876185526244E-002   3.2466749029030351E-003   4.8856638009607156E-002
  -1.1225623046710306E-002   2.9243207985717584E-003   4.9263731834796043E-002
  -9.2953699078943686E-003   2.7114859298329463E-003   4.9929860684906902E-002
  -4.1740708301751459E-003   1.7187901345077083E-003   6.5302861574121129E-002
  -3.6412060858572390E-003   2.0149461712735683E-003   6.4388044049287552E-002
  -3.1083413415393321E-003   2.5417058450713792E-003   6.3592434075564086E-002
  -2.5754765972214235E-003   3.2990691559017168E-003   6.2916031652950816E-002
  -2.0426118529035184E-003   4.2870361037637972E-003   6.2358836781448157E-002
  -5.2822597323960788E-003   1.9669640833388513E-003   6.1586709902764880E-002
  -4.6043484130565381E-003   2.2256211236729717E-003   6.0860811164934636E-002
  -3.9264370937169280E-003   2.8093485427703457E-003   6.0305798026037721E-002
  -3.2485257743773612E-003   3.7181463406325208E-003   5.9921670486073872E-002
  -2.5706144550377771E-003   4.9520145172580188E-003   5.9708428545043102E-002
  -6.5052058794229841E-003   2.2151380321703273E-003   5.7785825864109991E-002
  -5.6305699372388215E-003   2.4362960760721253E-003   5.7343312655015549E-002
  -4.7559339950546181E-003   3.0769912404695482E-003   5.7123363092676946E-002
  -3.8812980528704541E-003   4.1372235253629951E-003   5.7125977177094646E-002
  -3.0066621106862503E-003   5.6169929307519628E-003   5.7351154908268170E-002
  -7.8429092712557196E-003   2.4633119810014703E-003   5.3900209458157718E-002
  -6.7198706584040303E-003   2.6469710284714593E-003   5.3835548519530270E-002
  -5.5968320455523409E-003   3.3446339381686882E-003   5.4045129275481968E-002
  -4.4737934327006368E-003   4.5563007100935232E-003   5.4528951726012548E-002
  -3.3507548198489622E-003   6.2819713442461567E-003   5.5287015871122190E-002
  -9.2953699078943686E-003   2.7114859298329463E-003   4.9929860684906902E-002
  -7.8722505765522477E-003   2.8576459808705712E-003   5.0337518758478694E-002
  -6.4491312452101268E-003   3.6122766358675784E-003   5.1071096574452690E-002
  -5.0260119138680059E-003   4.9753778948242386E-003   5.2130594132828195E-002
  -3.6028925825258851E-003   6.9469497577402395E-003   5.3516011433605848E-002
  -2.0426118529035184E-003   4.2870361037637972E-003   6.2358836781448157E-002
  -2.2917479051063408E-003   5.5876812501787221E-003   5.8332216577626217E-002
  -2.5408839573091598E-003   7.2830791566677877E-003   5.4299370652961476E-002
  -2.7900200095119648E-003   9.3732298232307928E-003   5.0260299007453740E-002
  -3.0391560617148011E-003   1.1858133249868175E-002   4.6215001641103370E-002
  -2.5706144550377771E-003   4.9520145172580188E-003   5.9708428545043102E-002
  -2.8433849316571135E-003   6.5758433745852773E-003   5.6181156455490266E-002
  -3.1161554082764810E-003   8.6545232145517625E-003   5.2612841237947239E-002
  -3.3889258848957861E-003   1.1188054037157870E-002   4.9003482892413824E-002
  -3.6616963615152195E-003   1.4176435842403468E-002   4.5353081418890717E-002
  -3.0066621106862503E-003   5.6169929307519628E-003   5.7351154908268170E-002
  -3.3378844188693604E-003   7.5640054989916106E-003   5.4383329155549082E-002
  -3.6691067270525519E-003   1.0025967272435529E-002   5.1339642867693089E-002
  -4.0003290352357314E-003   1.3002878251084506E-002   4.8220096044699338E-002
  -4.3315513434188276E-003   1.6494738434938538E-002   4.5024688686568282E-002
  -3.3507548198489622E-003   6.2819713442461567E-003   5.5287015871122190E-002
  -3.7752463667431917E-003   8.5521676233978328E-003   5.2938734677803113E-002
  -4.1997379136374776E-003   1.1397411330319511E-002   5.0479775542199137E-002
  -4.6242294605316940E-003   1.4817702465011474E-002   4.7910138464310373E-002
  -5.0487210074259660E-003   1.8813041027473720E-002   4.5229823444137313E-002
  -3.6028925825258851E-003   6.9469497577402395E-003   5.3516011433605848E-002
  -4.1554707752785164E-003   9.5403297478044990E-003   5.1847373022251841E-002
  -4.7080489680311477E-003   1.2768855388203076E-002   5.0033239261465579E-002
  -5.2606271607837651E-003   1.6632526678938060E-002   4.8073610151247198E-002
  -5.8132053535364103E-003   2.1131343620008902E-002   4.5968485691597394E-002
  -4.9806693348169895E-002   1.9518655329134715E-002   5.9575077422314493E-002
  -4.8094302553321588E-002   1.7490561369404189E-002   5.5122764076541486E-002
  -4.6381911758473199E-002   1.5838583440164172E-002   5.2059020987629767E-002
  -4.4669520963624879E-002   1.4562721541414962E-002   5.0383848155579364E-002
  -4.2957130168776531E-002   1.3662975673156441E-002   5.0097245580390193E-002
  -5.9462127691848499E-002   1.9510662135167001E-002   4.9059587034207541E-002
  -5.6674242458637752E-002   1.8174427094425211E-002   4.6876530205266054E-002
  -5.3886357225426895E-002   1.7016200849219593E-002   4.5455891996188158E-002
  -5.1098471992216107E-002   1.6035983399550181E-002   4.4797672406974007E-002
  -4.8310586759005236E-002   1.5233774745417095E-002   4.4901871437623503E-002
  -6.6812292113210464E-002   1.9502668941199369E-002   3.9335009182566660E-002
  -6.3575064078634710E-002   1.8858292819446176E-002   3.9223101635502064E-002
  -6.0337836044059089E-002   1.8193818258274860E-002   3.9247461071303710E-002
  -5.7100608009483314E-002   1.7509245257685348E-002   3.9408087489971259E-002
  -5.3863379974907664E-002   1.6804573817677804E-002   3.9704980891505065E-002
  -7.1857186612255430E-002   1.9494675747231682E-002   3.0401343867391441E-002
  -6.8796767413312518E-002   1.9542158544467197E-002   3.2162478367249572E-002
  -6.5736348214369550E-002   1.9371435667330232E-002   3.3433728212976244E-002
  -6.2675929015426624E-002   1.8982507115820682E-002   3.4215093404571358E-002
  -5.9615509816483642E-002   1.8375372889938457E-002   3.4506573942034900E-002
  -7.4596811188983814E-002   1.9486682553264023E-002   2.2258591088682222E-002
  -7.2339352462671147E-002   2.0226024269488163E-002   2.5694660400508607E-002
  -7.0081893736358536E-002   2.0549053076385562E-002   2.8014693421205911E-002
  -6.7824435010045897E-002   2.0455768973955835E-002   2.9218690150774010E-002
  -6.5566976283733258E-002   1.9946171962199222E-002   2.9306650589212946E-002
  -4.2957130168776531E-002   1.3662975673156441E-002   5.0097245580390193E-002
  -4.1735289158140426E-002   1.2974742135932554E-002   5.0175932633999443E-002
  -4.0513448147504377E-002   1.2333417230287802E-002   5.0328971060636635E-002
  -3.9291607136868294E-002   1.1739000956221851E-002   5.0556360860301672E-002
  -3.8069766126232224E-002   1.1191493313734868E-002   5.0858102032994679E-002
  -4.8310586759005236E-002   1.5233774745417095E-002   4.4901871437623503E-002
  -4.6979862334891653E-002   1.4535990582706548E-002   4.4854628315452616E-002
  -4.5649137910778070E-002   1.3869046607304508E-002   4.4950800647208813E-002
  -4.4318413486664474E-002   1.3232942819211384E-002   4.5190388432892185E-002
  -4.2987689062550911E-002   1.2627679218426779E-002   4.5573391672502767E-002
  -5.3863379974907664E-002   1.6804573817677804E-002   3.9704980891505065E-002
  -5.2354708056417253E-002   1.6097239029480362E-002   3.9515739149283691E-002
  -5.0846036137926875E-002   1.5404675984321381E-002   3.9538976941888751E-002
  -4.9337364219436464E-002   1.4726884682200805E-002   3.9774694269320197E-002
  -4.7828692300946087E-002   1.4063865123118663E-002   4.0222891131578092E-002
  -5.9615509816483642E-002   1.8375372889938457E-002   3.4506573942034900E-002
  -5.7859826322717182E-002   1.7658487476254238E-002   3.4159265135492917E-002
  -5.6104142828950786E-002   1.6940305361338198E-002   3.4093499944676524E-002
  -5.4348459335184340E-002   1.6220826545190310E-002   3.4309278369585854E-002
  -5.2592775841417923E-002   1.5500051027810616E-002   3.4806600410220857E-002
  -6.5566976283733258E-002   1.9946171962199222E-002   2.9306650589212946E-002
  -6.3495217133791554E-002   1.9219735923028142E-002   2.8785206274080044E-002
  -6.1423457983849794E-002   1.8475934738354946E-002   2.8614369655572069E-002
  -5.9351698833908020E-002   1.7714768408179756E-002   2.8794140733689064E-002
  -5.7279939683966302E-002   1.6936236932502458E-002   2.9324519508430846E-002
  -3.8069766126232224E-002   1.1191493313734868E-002   5.0858102032994679E-002
  -3.6163873300822658E-002   1.0669592786118703E-002   4.9983678272866372E-002
  -3.4257980475413105E-002   1.0151997856665457E-002   4.9357452821078091E-002
  -3.2352087650003546E-002   9.6387085253750518E-003   4.8979425677630056E-002
  -3.0446194824593986E-002   9.1297247922473290E-003   4.8849596842522158E-002
  -4.2987689062550911E-002   1.2627679218426779E-002   4.5573391672502767E-002
  -4.0841674005747626E-002   1.2041732274934630E-002   4.4773860896070772E-002
  -3.8695658948944389E-002   1.1463578458718426E-002   4.4206376274085954E-002
  -3.6549643892141125E-002   1.0893217769778238E-002   4.3870937806548431E-002
  -3.4403628835337846E-002   1.0330650208113745E-002   4.3767545493458015E-002
  -4.7828692300946087E-002   1.4063865123118663E-002   4.0222891131578092E-002
  -4.5458707166642076E-002   1.3413871763750432E-002   3.9501740867955687E-002
  -4.3088722032338031E-002   1.2775159060771271E-002   3.8996484604887457E-002
  -4.0718736898034048E-002   1.2147727014181420E-002   3.8707122342373716E-002
  -3.8348751763729989E-002   1.1531575623980467E-002   3.8633654080414234E-002
  -5.2592775841417923E-002   1.5500051027810616E-002   3.4806600410220857E-002
  -5.0014972783506029E-002   1.4786011252566240E-002   3.4167318188521048E-002
  -4.7437169725594135E-002   1.4086739662824178E-002   3.3727777813482740E-002
  -4.4859366667682206E-002   1.3402236258584494E-002   3.3487979285105877E-002
  -4.2281563609770284E-002   1.2732501039847147E-002   3.3447922603390426E-002
  -5.7279939683966302E-002   1.6936236932502458E-002   2.9324519508430846E-002
  -5.4510470856339449E-002   1.6158150741382132E-002   2.8770592857767063E-002
  -5.1741002028712610E-002   1.5398320264877058E-002   2.8400255899871829E-002
  -4.8971533201085764E-002   1.4656745502987810E-002   2.8213508634744908E-002
  -4.6202064373458918E-002   1.3933426455713716E-002   2.8210351062386674E-002
  -3.0446194824593986E-002   9.1297247922473290E-003   4.8849596842522158E-002
  -2.8885441478274806E-002   8.6017534212322611E-003   4.8699272333249499E-002
  -2.7324688131955585E-002   8.0315011762797511E-003   4.8728259949895408E-002
  -2.5763934785636371E-002   7.4189680573899623E-003   4.8936559692459872E-002
  -2.4203181439317184E-002   6.7641540645625442E-003   4.9324171560943042E-002
  -3.4403628835337846E-002   1.0330650208113745E-002   4.3767545493458015E-002
  -3.2673879445568162E-002   9.7543805301225361E-003   4.3580476867135592E-002
  -3.0944130055798456E-002   9.1429134922012267E-003   4.3552088201795319E-002
  -2.9214380666028734E-002   8.4962490943498795E-003   4.3682379497437668E-002
  -2.7484631276259067E-002   7.8143873365684735E-003   4.3971350754062444E-002
  -3.8348751763729989E-002   1.1531575623980467E-002   3.8633654080414234E-002
  -3.6470638495445885E-002   1.0907007639013033E-002   3.8416924851048972E-002
  -3.4592525227161733E-002   1.0254325808122598E-002   3.8338243417729991E-002
  -3.2714411958877643E-002   9.5735301313097983E-003   3.8397609780457462E-002
  -3.0836298690593490E-002   8.8646206085741253E-003   3.8595023939231171E-002
  -4.2281563609770284E-002   1.2732501039847147E-002   3.3447922603390426E-002
  -4.0275718627907929E-002   1.2059634747903419E-002   3.3208616284989716E-002
  -3.8269873646045519E-002   1.1365738124044188E-002   3.3086725597699450E-002
  -3.6264028664183129E-002   1.0650811168269606E-002   3.3082250541519191E-002
  -3.4258183682320704E-002   9.9148538805799713E-003   3.3195191116449467E-002
  -4.6202064373458918E-002   1.3933426455713716E-002   2.8210351062386674E-002
  -4.4089119842954327E-002   1.3212261856793805E-002   2.7955551168957982E-002
  -4.1976175312449709E-002   1.2477150439965556E-002   2.7797534741703656E-002
  -3.9863230781945092E-002   1.1728092205229607E-002   2.7736301780623335E-002
  -3.7750286251440501E-002   1.0965087152585595E-002   2.7771852285717213E-002
  -2.4203181439317184E-002   6.7641540645625442E-003   4.9324171560943042E-002
  -2.2406481695277425E-002   6.0981749143270703E-003   4.8935381895637287E-002
  -2.0609781951237652E-002   5.4521463232119760E-003   4.8721682652710652E-002
  -1.8813082207197886E-002   4.8260682912177263E-003   4.8683073832163054E-002
  -1.7016382463158120E-002   4.2199408183442033E-003   4.8819555433994855E-002
  -2.7484631276259067E-002   7.8143873365684735E-003   4.3971350754062444E-002
  -2.5516643809883610E-002   7.1247127100797503E-003   4.3528301902138411E-002
  -2.3548656343508230E-002   6.4546097061060348E-003   4.3252738072506625E-002
  -2.1580668877132853E-002   5.8040783246483887E-003   4.3144659265166835E-002
  -1.9612681410757393E-002   5.1731185657055700E-003   4.3204065480119347E-002
  -3.0836298690593490E-002   8.8646206085741253E-003   3.8595023939231171E-002
  -2.8704628901969481E-002   8.1512505058322637E-003   3.8097336964083850E-002
  -2.6572959113345552E-002   7.4570730890003295E-003   3.7759529611141526E-002
  -2.4441289324721539E-002   6.7820883580785550E-003   3.7581601880404512E-002
  -2.2309619536097558E-002   6.1262963130669923E-003   3.7563553771872232E-002
  -3.4258183682320704E-002   9.9148538805799713E-003   3.3195191116449467E-002
  -3.1970436971535177E-002   9.1777883015846384E-003   3.2642487081473430E-002
  -2.9682690260749628E-002   8.4595364718943952E-003   3.2242057268615384E-002
  -2.7394943549964083E-002   7.7600983915090804E-003   3.1993901677875407E-002
  -2.5107196839178558E-002   7.0794740604284423E-003   3.1898020309253469E-002
  -3.7750286251440501E-002   1.0965087152585595E-002   2.7771852285717213E-002
  -3.5314068018580447E-002   1.0204326097337513E-002   2.7163752254307283E-002
  -3.2877849785720420E-002   9.4619998547885997E-003   2.6700321044928144E-002
  -3.0441631552860365E-002   8.7381084249393629E-003   2.6381558657580156E-002
  -2.8005413320000339E-002   8.0326518077897813E-003   2.6207465092263016E-002
  -1.7016382463158120E-002   4.2199408183442033E-003   4.8819555433994855E-002
  -1.5086129324342196E-002   3.6785482428274285E-003   4.8708579209340241E-002
  -1.3155876185526244E-002   3.2466749029030351E-003   4.8856638009607156E-002
  -1.1225623046710306E-002   2.9243207985717584E-003   4.9263731834796043E-002
  -9.2953699078943686E-003   2.7114859298329463E-003   4.9929860684906902E-002
  -1.9612681410757393E-002   5.1731185657055700E-003   4.3204065480119347E-002
  -1.7463038891437251E-002   4.5860980208062840E-003   4.3041717453888073E-002
  -1.5313396372117066E-002   4.0673842814777372E-003   4.3059113163743501E-002
  -1.3163753852796889E-002   3.6169773477210260E-003   4.3256252609685658E-002
  -1.1014111333476739E-002   3.2348772195350817E-003   4.3633135791714239E-002
  -2.2309619536097558E-002   6.1262963130669923E-003   3.7563553771872232E-002
  -2.0019878925108356E-002   5.4936477987853616E-003   3.7308621514042711E-002
  -1.7730138314119182E-002   4.8880936600529667E-003   3.7154141703465093E-002
  -1.5440397703130007E-002   4.3096338968703976E-003   3.7100114340138712E-002
  -1.3150657092140750E-002   3.7582685092372170E-003   3.7146539424063624E-002
  -2.5107196839178558E-002   7.0794740604284423E-003   3.1898020309253469E-002
  -2.2756649425355477E-002   6.4011975767641616E-003   3.1509291389804517E-002
  -2.0406102011532444E-002   5.7088030386280436E-003   3.1141723628771725E-002
  -1.8055554597709370E-002   5.0022904460197172E-003   3.0795317026155278E-002
  -1.5705007183886330E-002   4.2816597989394634E-003   3.0470071581955048E-002
  -2.8005413320000339E-002   8.0326518077897813E-003   2.6207465092263016E-002
  -2.5673350392178690E-002   7.3087473547433501E-003   2.5643727081172907E-002
  -2.3341287464356986E-002   6.5295124172029539E-003   2.5021858939663688E-002
  -2.1009224536535323E-002   5.6949469951689952E-003   2.4341860667735471E-002
  -1.8677161608713633E-002   4.8050510886413766E-003   2.3603732265388255E-002
  -9.2953699078943686E-003   2.7114859298329463E-003   4.9929860684906902E-002
  -7.8722505765522477E-003   2.8576459808705712E-003   5.0337518758478694E-002
  -6.4491312452101268E-003   3.6122766358675784E-003   5.1071096574452690E-002
  -5.0260119138680059E-003   4.9753778948242386E-003   5.2130594132828195E-002
  -3.6028925825258851E-003   6.9469497577402395E-003   5.3516011433605848E-002
  -1.1014111333476739E-002   3.2348772195350817E-003   4.3633135791714239E-002
  -9.2465199381658175E-003   3.1624226064025929E-003   4.4221269268019170E-002
  -7.4789285428549096E-003   3.6409522178054710E-003   4.5172427129859638E-002
  -5.7113371475440294E-003   4.6704660537441323E-003   4.6486609377235671E-002
  -3.9437457522330799E-003   6.2509641142187711E-003   4.8163816010147742E-002
  -1.3150657092140750E-002   3.7582685092372170E-003   3.7146539424063624E-002
  -1.1001488989727234E-002   3.4671992319347811E-003   3.7857661923677149E-002
  -8.8523208873136638E-003   3.6696277997439325E-003   3.8968913451960560E-002
  -6.7031527849001349E-003   4.3655542126645845E-003   4.0480294008913432E-002
  -4.5539846824865782E-003   5.5549784706970251E-003   4.2391803594535676E-002
  -1.5705007183886330E-002   4.2816597989394634E-003   3.0470071581955048E-002
  -1.3137157731236313E-002   3.7719758574669970E-003   3.1246696725453646E-002
  -1.0569308278586327E-002   3.6983033816818875E-003   3.2460555540755567E-002
  -8.0014588259363813E-003   4.0606423715846465E-003   3.4111648027860868E-002
  -5.4336093732863244E-003   4.8589928271750848E-003   3.6199974186769991E-002
  -1.8677161608713633E-002   4.8050510886413766E-003   2.3603732265388255E-002
  -1.5653526162693360E-002   4.0767524829990465E-003   2.4388373673347896E-002
  -1.2629890716673031E-002   3.7269789636201200E-003   2.5647353396244799E-002
  -9.6062552706527027E-003   3.7557305305051109E-003   2.7380671434078685E-002
  -6.5826198246324297E-003   4.1630071836536997E-003   2.9588327786849944E-002
  -3.6028925825258851E-003   6.9469497577402395E-003   5.3516011433605848E-002
  -4.1554707752785164E-003   9.5403297478044990E-003   5.1847373022251841E-002
  -4.7080489680311477E-003   1.2768855388203076E-002   5.0033239261465579E-002
  -5.2606271607837651E-003   1.6632526678938060E-002   4.8073610151247198E-002
  -5.8132053535364103E-003   2.1131343620008902E-002   4.5968485691597394E-002
  -3.9437457522330799E-003   6.2509641142187711E-003   4.8163816010147742E-002
  -4.5379334096675716E-003   8.6913535584890456E-003   4.7231649819693577E-002
  -5.1321210671020634E-003   1.2300541545816251E-002   4.6361760049307865E-002
  -5.7263087245364996E-003   1.7078528076199660E-002   4.5554146698990355E-002
  -6.3204963819709914E-003   2.3025313149640514E-002   4.4808809768741353E-002
  -4.5539846824865782E-003   5.5549784706970251E-003   4.2391803594535676E-002
  -4.9820100351025479E-003   7.8423773691742582E-003   4.2729762517702718E-002
  -5.4100353877184967E-003   1.1832227703428969E-002   4.3337769630438686E-002
  -5.8380607403344248E-003   1.7524529473461534E-002   4.4215824932742877E-002
  -6.2660860929504708E-003   2.4919282679272126E-002   4.5363928424616451E-002
  -5.4336093732863244E-003   4.8589928271750848E-003   3.6199974186769991E-002
  -5.4877006515834208E-003   6.9934011798591378E-003   3.8341711116279091E-002
  -5.5417919298805709E-003   1.1363913861041471E-002   4.0961268004857332E-002
  -5.5958832081776100E-003   1.7970530870723270E-002   4.4058644852505047E-002
  -5.6499744864748173E-003   2.6813252208903848E-002   4.7633841659221354E-002
  -6.5826198246324297E-003   4.1630071836536997E-003   2.9588327786849944E-002
  -6.0550052591102632E-003   6.1444249905440174E-003   3.4067495615422771E-002
  -5.5273906935881523E-003   1.0895600018654666E-002   3.9232255172564845E-002
  -4.9997761280659858E-003   1.8416532267984738E-002   4.5082606458276137E-002
  -4.4721615625438194E-003   2.8707221738535349E-002   5.1618549472557174E-002
  -7.4596811188983814E-002   1.9486682553264023E-002   2.2258591088682222E-002
  -7.2339352462671147E-002   2.0226024269488163E-002   2.5694660400508607E-002
  -7.0081893736358536E-002   2.0549053076385562E-002   2.8014693421205911E-002
  -6.7824435010045897E-002   2.0455768973955835E-002   2.9218690150774010E-002
  -6.5566976283733258E-002   1.9946171962199222E-002   2.9306650589212946E-002
  -7.7880276468334231E-002   2.3275921698769519E-002   2.0863952336509950E-002
  -7.6232346682592739E-002   2.2853081600535508E-002   2.1179798389155513E-002
  -7.4584416896851385E-002   2.2378995847272570E-002   2.1392622851787807E-002
  -7.2936487111109949E-002   2.1853664438980742E-002   2.1502425724406596E-002
  -7.1288557325368457E-002   2.1277087375659975E-002   2.1509207007012254E-002
  -8.4556693075245160E-002   2.7065160844274933E-002   1.8124598142730583E-002
  -8.2505277528959295E-002   2.5480138931582796E-002   1.5685288190493196E-002
  -8.0453861982673278E-002   2.4208938618159544E-002   1.4155971349358483E-002
  -7.8402446436387316E-002   2.3251559904005729E-002   1.3536647619326225E-002
  -7.6351030890101396E-002   2.2608002789120812E-002   1.3827317000396272E-002
  -9.4626061009717238E-002   3.0854399989780415E-002   1.4040528507343827E-002
  -9.1158145001770816E-002   2.8107196262630002E-002   9.2111298045216596E-003
  -8.7690228993824559E-002   2.6038881389046784E-002   6.3047389139178917E-003
  -8.4222312985878164E-002   2.4649455369030678E-002   5.3213558355324911E-003
  -8.0754396977931825E-002   2.3938918202581663E-002   6.2609805693652591E-003
 -0.10808838027175005        3.4643639135285897E-002   8.6117434303498719E-003
 -0.10219094910102744        3.0734253593677541E-002   1.7573232312411147E-003
  -9.6293517930304939E-002   2.7868824159933664E-002  -2.1610744545337290E-003
  -9.0396086759582384E-002   2.6047350834055301E-002  -3.1434496269741319E-003
  -8.4498655588859828E-002   2.5269833616042403E-002  -1.1898022860808433E-003
  -6.5566976283733258E-002   1.9946171962199222E-002   2.9306650589212946E-002
  -6.3495217133791554E-002   1.9219735923028142E-002   2.8785206274080044E-002
  -6.1423457983849794E-002   1.8475934738354946E-002   2.8614369655572069E-002
  -5.9351698833908020E-002   1.7714768408179756E-002   2.8794140733689064E-002
  -5.7279939683966302E-002   1.6936236932502458E-002   2.9324519508430846E-002
  -7.1288557325368457E-002   2.1277087375659975E-002   2.1509207007012254E-002
  -6.8959825985135517E-002   2.0641782512633988E-002   2.1511447117505939E-002
  -6.6631094644902591E-002   1.9940267705226097E-002   2.1677023911957319E-002
  -6.4302363304669680E-002   1.9172542953436702E-002   2.2005937390366048E-002
  -6.1973631964436726E-002   1.8338608257265410E-002   2.2498187552732307E-002
  -7.6351030890101396E-002   2.2608002789120812E-002   1.3827317000396272E-002
  -7.3952598372244688E-002   2.2063829102239738E-002   1.4304396737637171E-002
  -7.1554165854387994E-002   2.1404600672097422E-002   1.4757542146168097E-002
  -6.9155733336531300E-002   2.0630317498693429E-002   1.5186753225989124E-002
  -6.6757300818674592E-002   1.9740979582028306E-002   1.5592029977100005E-002
  -8.0754396977931825E-002   2.3938918202581663E-002   6.2609805693652591E-003
  -7.8473534295118788E-002   2.3485875691845702E-002   7.1640551344735459E-003
  -7.6192671612305876E-002   2.2868933638968549E-002   7.8559243582044854E-003
  -7.3911808929492936E-002   2.2088092043950402E-002   8.3365882405578851E-003
  -7.1630946246679969E-002   2.1143350906790953E-002   8.6060467815337049E-003
  -8.4498655588859828E-002   2.5269833616042403E-002  -1.1898022860808433E-003
  -8.2522633753758123E-002   2.4907922281451500E-002   9.0422308014925790E-005
  -8.0546611918656308E-002   2.4333266605839815E-002   9.7217054806640613E-004
  -7.8570590083554603E-002   2.3545866589207216E-002   1.4554424340724147E-003
  -7.6594568248452788E-002   2.2545722231554044E-002   1.5402379660335308E-003
  -5.7279939683966302E-002   1.6936236932502458E-002   2.9324519508430846E-002
  -5.4510470856339449E-002   1.6158150741382132E-002   2.8770592857767063E-002
  -5.1741002028712610E-002   1.5398320264877058E-002   2.8400255899871829E-002
  -4.8971533201085764E-002   1.4656745502987810E-002   2.8213508634744908E-002
  -4.6202064373458918E-002   1.3933426455713716E-002   2.8210351062386674E-002
  -6.1973631964436726E-002   1.8338608257265410E-002   2.2498187552732307E-002
  -5.9011295501857575E-002   1.7486752083533091E-002   2.1887873622422560E-002
  -5.6048959039278465E-002   1.6665262899060507E-002   2.1479705269248764E-002
  -5.3086622576699306E-002   1.5874140703847919E-002   2.1273682493211134E-002
  -5.0124286114120203E-002   1.5113385497894982E-002   2.1269805294309607E-002
  -6.6757300818674592E-002   1.9740979582028306E-002   1.5592029977100005E-002
  -6.3583540836775587E-002   1.8815353425684120E-002   1.4937440041788472E-002
  -6.0409780854876555E-002   1.7932205533244136E-002   1.4503551567980305E-002
  -5.7236020872977522E-002   1.7091535904707921E-002   1.4290364555676061E-002
  -5.4062260891078517E-002   1.6293344540076193E-002   1.4297879004875530E-002
  -7.1630946246679969E-002   2.1143350906790953E-002   8.6060467815337049E-003
  -6.8227206861093445E-002   2.0143954767835086E-002   7.9192921158645416E-003
  -6.4823467475507004E-002   1.9199148167427564E-002   7.4717947960667684E-003
  -6.1419728089920488E-002   1.8308931105568423E-002   7.2635548221399535E-003
  -5.8015988704334068E-002   1.7473303582257210E-002   7.2945721940846295E-003
  -7.6594568248452788E-002   2.2545722231554044E-002   1.5402379660335308E-003
  -7.2942293574811246E-002   2.1472556109986052E-002   8.3342984465129000E-004
  -6.9290018901169703E-002   2.0466090801611297E-002   3.8443495350731771E-004
  -6.5637744227528161E-002   1.9526326306428386E-002   1.9325329260265478E-004
  -6.1985469553886618E-002   1.8653262624438449E-002   2.5988486193651017E-004
  -4.6202064373458918E-002   1.3933426455713716E-002   2.8210351062386674E-002
  -4.4089119842954327E-002   1.3212261856793805E-002   2.7955551168957982E-002
  -4.1976175312449709E-002   1.2477150439965556E-002   2.7797534741703656E-002
  -3.9863230781945092E-002   1.1728092205229607E-002   2.7736301780623335E-002
  -3.7750286251440501E-002   1.0965087152585595E-002   2.7771852285717213E-002
  -5.0124286114120203E-002   1.5113385497894982E-002   2.1269805294309607E-002
  -4.7896277396478393E-002   1.4364405100809247E-002   2.1007150990830281E-002
  -4.5668268678836582E-002   1.3608607332197958E-002   2.0877841595451141E-002
  -4.3440259961194737E-002   1.2845992192061097E-002   2.0881877108172325E-002
  -4.1212251243552961E-002   1.2076559680399113E-002   2.1019257528993640E-002
  -5.4062260891078517E-002   1.6293344540076193E-002   1.4297879004875530E-002
  -5.1682626544373389E-002   1.5516548344824743E-002   1.4034499737727829E-002
  -4.9302992197668316E-002   1.4740064224429805E-002   1.3941026820606633E-002
  -4.6923357850963215E-002   1.3963892178892920E-002   1.4017460253511638E-002
  -4.4543723504258101E-002   1.3188032208212463E-002   1.4263800036443175E-002
  -5.8015988704334068E-002   1.7473303582257210E-002   7.2945721940846295E-003
  -5.5448167286639517E-002   1.6668691588840323E-002   7.0375974096510106E-003
  -5.2880345868944953E-002   1.5871521116662263E-002   6.9870904171700082E-003
  -5.0312524451250396E-002   1.5081792165724688E-002   7.1430512166420108E-003
  -4.7744703033555838E-002   1.4299504736026009E-002   7.5054798080659360E-003
  -6.1985469553886618E-002   1.8653262624438449E-002   2.5988486193651017E-004
  -5.9192899623276451E-002   1.7820834832855903E-002   1.6444006599947159E-005
  -5.6400329692666507E-002   1.7002978008894276E-002   1.6032385142111805E-005
  -5.3607759762056506E-002   1.6199692152556178E-002   2.5864999756269186E-004
  -5.0815189831446395E-002   1.5410977263839554E-002   7.4429684386190242E-004
  -3.7750286251440501E-002   1.0965087152585595E-002   2.7771852285717213E-002
  -3.5314068018580447E-002   1.0204326097337513E-002   2.7163752254307283E-002
  -3.2877849785720420E-002   9.4619998547885997E-003   2.6700321044928144E-002
  -3.0441631552860365E-002   8.7381084249393629E-003   2.6381558657580156E-002
  -2.8005413320000339E-002   8.0326518077897813E-003   2.6207465092263016E-002
  -4.1212251243552961E-002   1.2076559680399113E-002   2.1019257528993640E-002
  -3.8648881382726069E-002   1.1305800307761960E-002   2.0535432266064579E-002
  -3.6085511521899066E-002   1.0539204584700756E-002   2.0161241437038430E-002
  -3.3522141661072091E-002   9.7767725112158227E-003   1.9896685041915149E-002
  -3.0958771800245172E-002   9.0185040873065336E-003   1.9741763080694585E-002
  -4.4543723504258101E-002   1.3188032208212463E-002   1.4263800036443175E-002
  -4.1888236403592446E-002   1.2407274518186934E-002   1.3889978378871654E-002
  -3.9232749302926681E-002   1.1616409314613121E-002   1.3590756767074344E-002
  -3.6577262202260978E-002   1.0815436597492279E-002   1.3366135201052232E-002
  -3.3921775101595317E-002   1.0004356366822953E-002   1.3216113680804692E-002
  -4.7744703033555838E-002   1.4299504736026009E-002   7.5054798080659360E-003
  -4.5032133081179551E-002   1.3508748728611533E-002   7.2273905927279294E-003
  -4.2319563128803202E-002   1.2693614044525993E-002   6.9888670350362926E-003
  -3.9606993176426977E-002   1.1854100683768293E-002   6.7899091349912493E-003
  -3.6894423224050579E-002   1.0990208646339483E-002   6.6305168925929331E-003
  -5.0815189831446395E-002   1.5410977263839554E-002   7.4429684386190242E-004
  -4.8080571415487605E-002   1.4610222939036133E-002   5.4766890763374709E-004
  -4.5345952999528760E-002   1.3770818774437588E-002   3.5557224092386264E-004
  -4.2611334583569915E-002   1.2892764770045292E-002   1.6800684373236008E-004
  -3.9876716167611126E-002   1.1976060925856125E-002  -1.5027283940316494E-005
  -2.8005413320000339E-002   8.0326518077897813E-003   2.6207465092263016E-002
  -2.5673350392178690E-002   7.3087473547433501E-003   2.5643727081172907E-002
  -2.3341287464356986E-002   6.5295124172029539E-003   2.5021858939663688E-002
  -2.1009224536535323E-002   5.6949469951689952E-003   2.4341860667735471E-002
  -1.8677161608713633E-002   4.8050510886413766E-003   2.3603732265388255E-002
  -3.0958771800245172E-002   9.0185040873065336E-003   1.9741763080694585E-002
  -2.8665032359935103E-002   8.2628525154873622E-003   1.9161056676462063E-002
  -2.6371292919625006E-002   7.5082709982730034E-003   1.8561833427625268E-002
  -2.4077553479314832E-002   6.7547595356639289E-003   1.7944093334184424E-002
  -2.1783814039004784E-002   6.0023181276592785E-003   1.7307836396139142E-002
  -3.3921775101595317E-002   1.0004356366822953E-002   1.3216113680804692E-002
  -3.1626745862982017E-002   9.2169576762319017E-003   1.2674839422528394E-002
  -2.9331716624368752E-002   8.4870295793432471E-003   1.2154661605462441E-002
  -2.7036687385755476E-002   7.8145720761589668E-003   1.1655580229607013E-002
  -2.4741658147142243E-002   7.1995851666770139E-003   1.1177595294962345E-002
  -3.6894423224050579E-002   1.0990208646339483E-002   6.6305168925929331E-003
  -3.4558490901319378E-002   1.0171062836975345E-002   6.1850753193712082E-003
  -3.2222558578588231E-002   9.4657881604138933E-003   5.8003434731748911E-003
  -2.9886626255857099E-002   8.8743846166530090E-003   5.4763213540035584E-003
  -2.7550693933125883E-002   8.3968522056948325E-003   5.2130089618578415E-003
  -3.9876716167611126E-002   1.1976060925856125E-002  -1.5027283940316494E-005
  -3.7460267474947240E-002   1.1125167997720120E-002  -3.0823563300896861E-004
  -3.5043818782283465E-002   1.0444546741483651E-002  -5.0112096923757288E-004
  -3.2627370089619578E-002   9.9341971571485777E-003  -5.9368329262603908E-004
  -3.0210921396955803E-002   9.5941192447124291E-003  -5.8592260317491540E-004
  -1.8677161608713633E-002   4.8050510886413766E-003   2.3603732265388255E-002
  -1.5653526162693360E-002   4.0767524829990465E-003   2.4388373673347896E-002
  -1.2629890716673031E-002   3.7269789636201200E-003   2.5647353396244799E-002
  -9.6062552706527027E-003   3.7557305305051109E-003   2.7380671434078685E-002
  -6.5826198246324297E-003   4.1630071836536997E-003   2.9588327786849944E-002
  -2.1783814039004784E-002   6.0023181276592785E-003   1.7307836396139142E-002
  -1.8555363539316971E-002   5.3410178209029602E-003   1.8251631482060660E-002
  -1.5326913039629159E-002   4.8609296620393261E-003   1.9130718360380355E-002
  -1.2098462539941332E-002   4.5620536510672938E-003   1.9945097031097689E-002
  -8.8700120402534222E-003   4.4443897879878902E-003   2.0694767494213062E-002
  -2.4741658147142243E-002   7.1995851666770139E-003   1.1177595294962345E-002
  -2.1847439116326257E-002   6.6052831588075123E-003   1.2083231120474380E-002
  -1.8953220085510245E-002   5.9948803604581713E-003   1.2385112215845082E-002
  -1.6059001054694190E-002   5.3683767716300249E-003   1.2083238581074018E-002
  -1.3164782023878246E-002   4.7257723923223582E-003   1.1177610216161510E-002
  -2.7550693933125883E-002   8.3968522056948325E-003   5.2130089618578415E-003
  -2.5529752893720961E-002   7.8695484967120782E-003   5.8831725885882813E-003
  -2.3508811854316237E-002   7.1288310588775300E-003   5.4105349626388521E-003
  -2.1487870814911436E-002   6.1746998921923708E-003   3.7950960840077951E-003
  -1.9466929775506590E-002   5.0071549966564655E-003   1.0368559526962792E-003
  -3.0210921396955803E-002   9.5941192447124291E-003  -5.8592260317491540E-004
  -2.9602304871501506E-002   9.1338138346157560E-003  -3.4854411359647175E-004
  -2.8993688346047208E-002   8.2627817572964446E-003  -1.7930133992385688E-003
  -2.8385071820592939E-002   6.9810230127551609E-003  -4.9193304601007418E-003
  -2.7776455295138613E-002   5.2885376009907947E-003  -9.7274952961828864E-003
  -6.5826198246324297E-003   4.1630071836536997E-003   2.9588327786849944E-002
  -6.0550052591102632E-003   6.1444249905440174E-003   3.4067495615422771E-002
  -5.5273906935881523E-003   1.0895600018654666E-002   3.9232255172564845E-002
  -4.9997761280659858E-003   1.8416532267984738E-002   4.5082606458276137E-002
  -4.4721615625438194E-003   2.8707221738535349E-002   5.1618549472557174E-002
  -8.8700120402534222E-003   4.4443897879878902E-003   2.0694767494213062E-002
  -7.5846559720870177E-003   5.6595571107067588E-003   2.5865811051319243E-002
  -6.2992999039204883E-003   9.3591746571309586E-003   3.1866745885145042E-002
  -5.0139438357539104E-003   1.5543242427260205E-002   3.8697571995690100E-002
  -3.7285877675874435E-003   2.4211760421094075E-002   4.6358289382954165E-002
  -1.3164782023878246E-002   4.7257723923223582E-003   1.1177610216161510E-002
  -1.0977384904917432E-002   5.1746892308699444E-003   1.6755222504286932E-002
  -8.7899877859566738E-003   7.8227492956072370E-003   2.3307025617281443E-002
  -6.6025906669959153E-003   1.2669952586535336E-002   3.0833019555145079E-002
  -4.4151935480351012E-003   1.9716299103653023E-002   3.9333204317878123E-002
  -1.9466929775506590E-002   5.0071549966564655E-003   1.0368559526962792E-003
  -1.6233192057601660E-002   4.6898213510319087E-003   6.7357299743260393E-003
  -1.2999454339696927E-002   6.2863239340835222E-003   1.3553094368974245E-002
  -9.7657166217920265E-003   9.7966627458096357E-003   2.1488949136641490E-002
  -6.5319789038872644E-003   1.5220837786211971E-002   3.0543294277328131E-002
  -2.7776455295138613E-002   5.2885376009907947E-003  -9.7274952961828864E-003
  -2.3352077430139784E-002   4.2049534711949832E-003  -4.1926665385647599E-003
  -1.8927699565140899E-002   4.7498985725606402E-003   2.6049521402229381E-003
  -1.4503321700142069E-002   6.9233729050853648E-003   1.0665360740179652E-002
  -1.0078943835143184E-002   1.0725376468770698E-002   1.9988559261304717E-002
 </DataArray>
 </PointData>
 </Piece>
 </UnstructuredGrid>
 </VTKFile>
