 <VTKFile type="UnstructuredGrid"  version="0.1"   >
 <UnstructuredGrid>
 <Piece  NumberOfPoints="          1600 "  NumberOfCells="         1024 ">
 <Points>
 <DataArray  type="Float64" NumberOfComponents="3"  format="ascii" >
   0.0000000000000000        0.0000000000000000        0.0000000000000000     
   3.1250000000000000E-002   0.0000000000000000        0.0000000000000000     
   6.2500000000000000E-002   0.0000000000000000        0.0000000000000000     
   9.3750000000000000E-002   0.0000000000000000        0.0000000000000000     
  0.12500000000000000        0.0000000000000000        0.0000000000000000     
   0.0000000000000000        3.1250000000000000E-002   0.0000000000000000     
   3.1250000000000000E-002   3.1250000000000000E-002   0.0000000000000000     
   6.2500000000000000E-002   3.1250000000000000E-002   0.0000000000000000     
   9.3750000000000000E-002   3.1250000000000000E-002   0.0000000000000000     
  0.12500000000000000        3.1250000000000000E-002   0.0000000000000000     
   0.0000000000000000        6.2500000000000000E-002   0.0000000000000000     
   3.1250000000000000E-002   6.2500000000000000E-002   0.0000000000000000     
   6.2500000000000000E-002   6.2500000000000000E-002   0.0000000000000000     
   9.3750000000000000E-002   6.2500000000000000E-002   0.0000000000000000     
  0.12500000000000000        6.2500000000000000E-002   0.0000000000000000     
   0.0000000000000000        9.3750000000000000E-002   0.0000000000000000     
   3.1250000000000000E-002   9.3750000000000000E-002   0.0000000000000000     
   6.2500000000000000E-002   9.3750000000000000E-002   0.0000000000000000     
   9.3750000000000000E-002   9.3750000000000000E-002   0.0000000000000000     
  0.12500000000000000        9.3750000000000000E-002   0.0000000000000000     
   0.0000000000000000       0.12500000000000000        0.0000000000000000     
   3.1250000000000000E-002  0.12500000000000000        0.0000000000000000     
   6.2500000000000000E-002  0.12500000000000000        0.0000000000000000     
   9.3750000000000000E-002  0.12500000000000000        0.0000000000000000     
  0.12500000000000000       0.12500000000000000        0.0000000000000000     
  0.12500000000000000        0.0000000000000000        0.0000000000000000     
  0.15625000000000000        0.0000000000000000        0.0000000000000000     
  0.18750000000000000        0.0000000000000000        0.0000000000000000     
  0.21875000000000000        0.0000000000000000        0.0000000000000000     
  0.25000000000000000        0.0000000000000000        0.0000000000000000     
  0.12500000000000000        3.1250000000000000E-002   0.0000000000000000     
  0.15625000000000000        3.1250000000000000E-002   0.0000000000000000     
  0.18750000000000000        3.1250000000000000E-002   0.0000000000000000     
  0.21875000000000000        3.1250000000000000E-002   0.0000000000000000     
  0.25000000000000000        3.1250000000000000E-002   0.0000000000000000     
  0.12500000000000000        6.2500000000000000E-002   0.0000000000000000     
  0.15625000000000000        6.2500000000000000E-002   0.0000000000000000     
  0.18750000000000000        6.2500000000000000E-002   0.0000000000000000     
  0.21875000000000000        6.2500000000000000E-002   0.0000000000000000     
  0.25000000000000000        6.2500000000000000E-002   0.0000000000000000     
  0.12500000000000000        9.3750000000000000E-002   0.0000000000000000     
  0.15625000000000000        9.3750000000000000E-002   0.0000000000000000     
  0.18750000000000000        9.3750000000000000E-002   0.0000000000000000     
  0.21875000000000000        9.3750000000000000E-002   0.0000000000000000     
  0.25000000000000000        9.3750000000000000E-002   0.0000000000000000     
  0.12500000000000000       0.12500000000000000        0.0000000000000000     
  0.15625000000000000       0.12500000000000000        0.0000000000000000     
  0.18750000000000000       0.12500000000000000        0.0000000000000000     
  0.21875000000000000       0.12500000000000000        0.0000000000000000     
  0.25000000000000000       0.12500000000000000        0.0000000000000000     
  0.25000000000000000        0.0000000000000000        0.0000000000000000     
  0.28125000000000000        0.0000000000000000        0.0000000000000000     
  0.31250000000000000        0.0000000000000000        0.0000000000000000     
  0.34375000000000000        0.0000000000000000        0.0000000000000000     
  0.37500000000000000        0.0000000000000000        0.0000000000000000     
  0.25000000000000000        3.1250000000000000E-002   0.0000000000000000     
  0.28125000000000000        3.1250000000000000E-002   0.0000000000000000     
  0.31250000000000000        3.1250000000000000E-002   0.0000000000000000     
  0.34375000000000000        3.1250000000000000E-002   0.0000000000000000     
  0.37500000000000000        3.1250000000000000E-002   0.0000000000000000     
  0.25000000000000000        6.2500000000000000E-002   0.0000000000000000     
  0.28125000000000000        6.2500000000000000E-002   0.0000000000000000     
  0.31250000000000000        6.2500000000000000E-002   0.0000000000000000     
  0.34375000000000000        6.2500000000000000E-002   0.0000000000000000     
  0.37500000000000000        6.2500000000000000E-002   0.0000000000000000     
  0.25000000000000000        9.3750000000000000E-002   0.0000000000000000     
  0.28125000000000000        9.3750000000000000E-002   0.0000000000000000     
  0.31250000000000000        9.3750000000000000E-002   0.0000000000000000     
  0.34375000000000000        9.3750000000000000E-002   0.0000000000000000     
  0.37500000000000000        9.3750000000000000E-002   0.0000000000000000     
  0.25000000000000000       0.12500000000000000        0.0000000000000000     
  0.28125000000000000       0.12500000000000000        0.0000000000000000     
  0.31250000000000000       0.12500000000000000        0.0000000000000000     
  0.34375000000000000       0.12500000000000000        0.0000000000000000     
  0.37500000000000000       0.12500000000000000        0.0000000000000000     
  0.37500000000000000        0.0000000000000000        0.0000000000000000     
  0.40625000000000000        0.0000000000000000        0.0000000000000000     
  0.43750000000000000        0.0000000000000000        0.0000000000000000     
  0.46875000000000000        0.0000000000000000        0.0000000000000000     
  0.50000000000000000        0.0000000000000000        0.0000000000000000     
  0.37500000000000000        3.1250000000000000E-002   0.0000000000000000     
  0.40625000000000000        3.1250000000000000E-002   0.0000000000000000     
  0.43750000000000000        3.1250000000000000E-002   0.0000000000000000     
  0.46875000000000000        3.1250000000000000E-002   0.0000000000000000     
  0.50000000000000000        3.1250000000000000E-002   0.0000000000000000     
  0.37500000000000000        6.2500000000000000E-002   0.0000000000000000     
  0.40625000000000000        6.2500000000000000E-002   0.0000000000000000     
  0.43750000000000000        6.2500000000000000E-002   0.0000000000000000     
  0.46875000000000000        6.2500000000000000E-002   0.0000000000000000     
  0.50000000000000000        6.2500000000000000E-002   0.0000000000000000     
  0.37500000000000000        9.3750000000000000E-002   0.0000000000000000     
  0.40625000000000000        9.3750000000000000E-002   0.0000000000000000     
  0.43750000000000000        9.3750000000000000E-002   0.0000000000000000     
  0.46875000000000000        9.3750000000000000E-002   0.0000000000000000     
  0.50000000000000000        9.3750000000000000E-002   0.0000000000000000     
  0.37500000000000000       0.12500000000000000        0.0000000000000000     
  0.40625000000000000       0.12500000000000000        0.0000000000000000     
  0.43750000000000000       0.12500000000000000        0.0000000000000000     
  0.46875000000000000       0.12500000000000000        0.0000000000000000     
  0.50000000000000000       0.12500000000000000        0.0000000000000000     
  0.50000000000000000        0.0000000000000000        0.0000000000000000     
  0.53125000000000000        0.0000000000000000        0.0000000000000000     
  0.56250000000000000        0.0000000000000000        0.0000000000000000     
  0.59375000000000000        0.0000000000000000        0.0000000000000000     
  0.62500000000000000        0.0000000000000000        0.0000000000000000     
  0.50000000000000000        3.1250000000000000E-002   0.0000000000000000     
  0.53125000000000000        3.1250000000000000E-002   0.0000000000000000     
  0.56250000000000000        3.1250000000000000E-002   0.0000000000000000     
  0.59375000000000000        3.1250000000000000E-002   0.0000000000000000     
  0.62500000000000000        3.1250000000000000E-002   0.0000000000000000     
  0.50000000000000000        6.2500000000000000E-002   0.0000000000000000     
  0.53125000000000000        6.2500000000000000E-002   0.0000000000000000     
  0.56250000000000000        6.2500000000000000E-002   0.0000000000000000     
  0.59375000000000000        6.2500000000000000E-002   0.0000000000000000     
  0.62500000000000000        6.2500000000000000E-002   0.0000000000000000     
  0.50000000000000000        9.3750000000000000E-002   0.0000000000000000     
  0.53125000000000000        9.3750000000000000E-002   0.0000000000000000     
  0.56250000000000000        9.3750000000000000E-002   0.0000000000000000     
  0.59375000000000000        9.3750000000000000E-002   0.0000000000000000     
  0.62500000000000000        9.3750000000000000E-002   0.0000000000000000     
  0.50000000000000000       0.12500000000000000        0.0000000000000000     
  0.53125000000000000       0.12500000000000000        0.0000000000000000     
  0.56250000000000000       0.12500000000000000        0.0000000000000000     
  0.59375000000000000       0.12500000000000000        0.0000000000000000     
  0.62500000000000000       0.12500000000000000        0.0000000000000000     
  0.62500000000000000        0.0000000000000000        0.0000000000000000     
  0.65625000000000000        0.0000000000000000        0.0000000000000000     
  0.68750000000000000        0.0000000000000000        0.0000000000000000     
  0.71875000000000000        0.0000000000000000        0.0000000000000000     
  0.75000000000000000        0.0000000000000000        0.0000000000000000     
  0.62500000000000000        3.1250000000000000E-002   0.0000000000000000     
  0.65625000000000000        3.1250000000000000E-002   0.0000000000000000     
  0.68750000000000000        3.1250000000000000E-002   0.0000000000000000     
  0.71875000000000000        3.1250000000000000E-002   0.0000000000000000     
  0.75000000000000000        3.1250000000000000E-002   0.0000000000000000     
  0.62500000000000000        6.2500000000000000E-002   0.0000000000000000     
  0.65625000000000000        6.2500000000000000E-002   0.0000000000000000     
  0.68750000000000000        6.2500000000000000E-002   0.0000000000000000     
  0.71875000000000000        6.2500000000000000E-002   0.0000000000000000     
  0.75000000000000000        6.2500000000000000E-002   0.0000000000000000     
  0.62500000000000000        9.3750000000000000E-002   0.0000000000000000     
  0.65625000000000000        9.3750000000000000E-002   0.0000000000000000     
  0.68750000000000000        9.3750000000000000E-002   0.0000000000000000     
  0.71875000000000000        9.3750000000000000E-002   0.0000000000000000     
  0.75000000000000000        9.3750000000000000E-002   0.0000000000000000     
  0.62500000000000000       0.12500000000000000        0.0000000000000000     
  0.65625000000000000       0.12500000000000000        0.0000000000000000     
  0.68750000000000000       0.12500000000000000        0.0000000000000000     
  0.71875000000000000       0.12500000000000000        0.0000000000000000     
  0.75000000000000000       0.12500000000000000        0.0000000000000000     
  0.75000000000000000        0.0000000000000000        0.0000000000000000     
  0.78125000000000000        0.0000000000000000        0.0000000000000000     
  0.81250000000000000        0.0000000000000000        0.0000000000000000     
  0.84375000000000000        0.0000000000000000        0.0000000000000000     
  0.87500000000000000        0.0000000000000000        0.0000000000000000     
  0.75000000000000000        3.1250000000000000E-002   0.0000000000000000     
  0.78125000000000000        3.1250000000000000E-002   0.0000000000000000     
  0.81250000000000000        3.1250000000000000E-002   0.0000000000000000     
  0.84375000000000000        3.1250000000000000E-002   0.0000000000000000     
  0.87500000000000000        3.1250000000000000E-002   0.0000000000000000     
  0.75000000000000000        6.2500000000000000E-002   0.0000000000000000     
  0.78125000000000000        6.2500000000000000E-002   0.0000000000000000     
  0.81250000000000000        6.2500000000000000E-002   0.0000000000000000     
  0.84375000000000000        6.2500000000000000E-002   0.0000000000000000     
  0.87500000000000000        6.2500000000000000E-002   0.0000000000000000     
  0.75000000000000000        9.3750000000000000E-002   0.0000000000000000     
  0.78125000000000000        9.3750000000000000E-002   0.0000000000000000     
  0.81250000000000000        9.3750000000000000E-002   0.0000000000000000     
  0.84375000000000000        9.3750000000000000E-002   0.0000000000000000     
  0.87500000000000000        9.3750000000000000E-002   0.0000000000000000     
  0.75000000000000000       0.12500000000000000        0.0000000000000000     
  0.78125000000000000       0.12500000000000000        0.0000000000000000     
  0.81250000000000000       0.12500000000000000        0.0000000000000000     
  0.84375000000000000       0.12500000000000000        0.0000000000000000     
  0.87500000000000000       0.12500000000000000        0.0000000000000000     
  0.87500000000000000        0.0000000000000000        0.0000000000000000     
  0.90625000000000000        0.0000000000000000        0.0000000000000000     
  0.93750000000000000        0.0000000000000000        0.0000000000000000     
  0.96875000000000000        0.0000000000000000        0.0000000000000000     
   1.0000000000000000        0.0000000000000000        0.0000000000000000     
  0.87500000000000000        3.1250000000000000E-002   0.0000000000000000     
  0.90625000000000000        3.1250000000000000E-002   0.0000000000000000     
  0.93750000000000000        3.1250000000000000E-002   0.0000000000000000     
  0.96875000000000000        3.1250000000000000E-002   0.0000000000000000     
   1.0000000000000000        3.1250000000000000E-002   0.0000000000000000     
  0.87500000000000000        6.2500000000000000E-002   0.0000000000000000     
  0.90625000000000000        6.2500000000000000E-002   0.0000000000000000     
  0.93750000000000000        6.2500000000000000E-002   0.0000000000000000     
  0.96875000000000000        6.2500000000000000E-002   0.0000000000000000     
   1.0000000000000000        6.2500000000000000E-002   0.0000000000000000     
  0.87500000000000000        9.3750000000000000E-002   0.0000000000000000     
  0.90625000000000000        9.3750000000000000E-002   0.0000000000000000     
  0.93750000000000000        9.3750000000000000E-002   0.0000000000000000     
  0.96875000000000000        9.3750000000000000E-002   0.0000000000000000     
   1.0000000000000000        9.3750000000000000E-002   0.0000000000000000     
  0.87500000000000000       0.12500000000000000        0.0000000000000000     
  0.90625000000000000       0.12500000000000000        0.0000000000000000     
  0.93750000000000000       0.12500000000000000        0.0000000000000000     
  0.96875000000000000       0.12500000000000000        0.0000000000000000     
   1.0000000000000000       0.12500000000000000        0.0000000000000000     
   0.0000000000000000       0.12500000000000000        0.0000000000000000     
   3.1250000000000000E-002  0.12500000000000000        0.0000000000000000     
   6.2500000000000000E-002  0.12500000000000000        0.0000000000000000     
   9.3750000000000000E-002  0.12500000000000000        0.0000000000000000     
  0.12500000000000000       0.12500000000000000        0.0000000000000000     
   0.0000000000000000       0.15625000000000000        0.0000000000000000     
   3.1250000000000000E-002  0.15625000000000000        0.0000000000000000     
   6.2500000000000000E-002  0.15625000000000000        0.0000000000000000     
   9.3750000000000000E-002  0.15625000000000000        0.0000000000000000     
  0.12500000000000000       0.15625000000000000        0.0000000000000000     
   0.0000000000000000       0.18750000000000000        0.0000000000000000     
   3.1250000000000000E-002  0.18750000000000000        0.0000000000000000     
   6.2500000000000000E-002  0.18750000000000000        0.0000000000000000     
   9.3750000000000000E-002  0.18750000000000000        0.0000000000000000     
  0.12500000000000000       0.18750000000000000        0.0000000000000000     
   0.0000000000000000       0.21875000000000000        0.0000000000000000     
   3.1250000000000000E-002  0.21875000000000000        0.0000000000000000     
   6.2500000000000000E-002  0.21875000000000000        0.0000000000000000     
   9.3750000000000000E-002  0.21875000000000000        0.0000000000000000     
  0.12500000000000000       0.21875000000000000        0.0000000000000000     
   0.0000000000000000       0.25000000000000000        0.0000000000000000     
   3.1250000000000000E-002  0.25000000000000000        0.0000000000000000     
   6.2500000000000000E-002  0.25000000000000000        0.0000000000000000     
   9.3750000000000000E-002  0.25000000000000000        0.0000000000000000     
  0.12500000000000000       0.25000000000000000        0.0000000000000000     
  0.12500000000000000       0.12500000000000000        0.0000000000000000     
  0.15625000000000000       0.12500000000000000        0.0000000000000000     
  0.18750000000000000       0.12500000000000000        0.0000000000000000     
  0.21875000000000000       0.12500000000000000        0.0000000000000000     
  0.25000000000000000       0.12500000000000000        0.0000000000000000     
  0.12500000000000000       0.15625000000000000        0.0000000000000000     
  0.15625000000000000       0.15625000000000000        0.0000000000000000     
  0.18750000000000000       0.15625000000000000        0.0000000000000000     
  0.21875000000000000       0.15625000000000000        0.0000000000000000     
  0.25000000000000000       0.15625000000000000        0.0000000000000000     
  0.12500000000000000       0.18750000000000000        0.0000000000000000     
  0.15625000000000000       0.18750000000000000        0.0000000000000000     
  0.18750000000000000       0.18750000000000000        0.0000000000000000     
  0.21875000000000000       0.18750000000000000        0.0000000000000000     
  0.25000000000000000       0.18750000000000000        0.0000000000000000     
  0.12500000000000000       0.21875000000000000        0.0000000000000000     
  0.15625000000000000       0.21875000000000000        0.0000000000000000     
  0.18750000000000000       0.21875000000000000        0.0000000000000000     
  0.21875000000000000       0.21875000000000000        0.0000000000000000     
  0.25000000000000000       0.21875000000000000        0.0000000000000000     
  0.12500000000000000       0.25000000000000000        0.0000000000000000     
  0.15625000000000000       0.25000000000000000        0.0000000000000000     
  0.18750000000000000       0.25000000000000000        0.0000000000000000     
  0.21875000000000000       0.25000000000000000        0.0000000000000000     
  0.25000000000000000       0.25000000000000000        0.0000000000000000     
  0.25000000000000000       0.12500000000000000        0.0000000000000000     
  0.28125000000000000       0.12500000000000000        0.0000000000000000     
  0.31250000000000000       0.12500000000000000        0.0000000000000000     
  0.34375000000000000       0.12500000000000000        0.0000000000000000     
  0.37500000000000000       0.12500000000000000        0.0000000000000000     
  0.25000000000000000       0.15625000000000000        0.0000000000000000     
  0.28125000000000000       0.15625000000000000        0.0000000000000000     
  0.31250000000000000       0.15625000000000000        0.0000000000000000     
  0.34375000000000000       0.15625000000000000        0.0000000000000000     
  0.37500000000000000       0.15625000000000000        0.0000000000000000     
  0.25000000000000000       0.18750000000000000        0.0000000000000000     
  0.28125000000000000       0.18750000000000000        0.0000000000000000     
  0.31250000000000000       0.18750000000000000        0.0000000000000000     
  0.34375000000000000       0.18750000000000000        0.0000000000000000     
  0.37500000000000000       0.18750000000000000        0.0000000000000000     
  0.25000000000000000       0.21875000000000000        0.0000000000000000     
  0.28125000000000000       0.21875000000000000        0.0000000000000000     
  0.31250000000000000       0.21875000000000000        0.0000000000000000     
  0.34375000000000000       0.21875000000000000        0.0000000000000000     
  0.37500000000000000       0.21875000000000000        0.0000000000000000     
  0.25000000000000000       0.25000000000000000        0.0000000000000000     
  0.28125000000000000       0.25000000000000000        0.0000000000000000     
  0.31250000000000000       0.25000000000000000        0.0000000000000000     
  0.34375000000000000       0.25000000000000000        0.0000000000000000     
  0.37500000000000000       0.25000000000000000        0.0000000000000000     
  0.37500000000000000       0.12500000000000000        0.0000000000000000     
  0.40625000000000000       0.12500000000000000        0.0000000000000000     
  0.43750000000000000       0.12500000000000000        0.0000000000000000     
  0.46875000000000000       0.12500000000000000        0.0000000000000000     
  0.50000000000000000       0.12500000000000000        0.0000000000000000     
  0.37500000000000000       0.15625000000000000        0.0000000000000000     
  0.40625000000000000       0.15625000000000000        0.0000000000000000     
  0.43750000000000000       0.15625000000000000        0.0000000000000000     
  0.46875000000000000       0.15625000000000000        0.0000000000000000     
  0.50000000000000000       0.15625000000000000        0.0000000000000000     
  0.37500000000000000       0.18750000000000000        0.0000000000000000     
  0.40625000000000000       0.18750000000000000        0.0000000000000000     
  0.43750000000000000       0.18750000000000000        0.0000000000000000     
  0.46875000000000000       0.18750000000000000        0.0000000000000000     
  0.50000000000000000       0.18750000000000000        0.0000000000000000     
  0.37500000000000000       0.21875000000000000        0.0000000000000000     
  0.40625000000000000       0.21875000000000000        0.0000000000000000     
  0.43750000000000000       0.21875000000000000        0.0000000000000000     
  0.46875000000000000       0.21875000000000000        0.0000000000000000     
  0.50000000000000000       0.21875000000000000        0.0000000000000000     
  0.37500000000000000       0.25000000000000000        0.0000000000000000     
  0.40625000000000000       0.25000000000000000        0.0000000000000000     
  0.43750000000000000       0.25000000000000000        0.0000000000000000     
  0.46875000000000000       0.25000000000000000        0.0000000000000000     
  0.50000000000000000       0.25000000000000000        0.0000000000000000     
  0.50000000000000000       0.12500000000000000        0.0000000000000000     
  0.53125000000000000       0.12500000000000000        0.0000000000000000     
  0.56250000000000000       0.12500000000000000        0.0000000000000000     
  0.59375000000000000       0.12500000000000000        0.0000000000000000     
  0.62500000000000000       0.12500000000000000        0.0000000000000000     
  0.50000000000000000       0.15625000000000000        0.0000000000000000     
  0.53125000000000000       0.15625000000000000        0.0000000000000000     
  0.56250000000000000       0.15625000000000000        0.0000000000000000     
  0.59375000000000000       0.15625000000000000        0.0000000000000000     
  0.62500000000000000       0.15625000000000000        0.0000000000000000     
  0.50000000000000000       0.18750000000000000        0.0000000000000000     
  0.53125000000000000       0.18750000000000000        0.0000000000000000     
  0.56250000000000000       0.18750000000000000        0.0000000000000000     
  0.59375000000000000       0.18750000000000000        0.0000000000000000     
  0.62500000000000000       0.18750000000000000        0.0000000000000000     
  0.50000000000000000       0.21875000000000000        0.0000000000000000     
  0.53125000000000000       0.21875000000000000        0.0000000000000000     
  0.56250000000000000       0.21875000000000000        0.0000000000000000     
  0.59375000000000000       0.21875000000000000        0.0000000000000000     
  0.62500000000000000       0.21875000000000000        0.0000000000000000     
  0.50000000000000000       0.25000000000000000        0.0000000000000000     
  0.53125000000000000       0.25000000000000000        0.0000000000000000     
  0.56250000000000000       0.25000000000000000        0.0000000000000000     
  0.59375000000000000       0.25000000000000000        0.0000000000000000     
  0.62500000000000000       0.25000000000000000        0.0000000000000000     
  0.62500000000000000       0.12500000000000000        0.0000000000000000     
  0.65625000000000000       0.12500000000000000        0.0000000000000000     
  0.68750000000000000       0.12500000000000000        0.0000000000000000     
  0.71875000000000000       0.12500000000000000        0.0000000000000000     
  0.75000000000000000       0.12500000000000000        0.0000000000000000     
  0.62500000000000000       0.15625000000000000        0.0000000000000000     
  0.65625000000000000       0.15625000000000000        0.0000000000000000     
  0.68750000000000000       0.15625000000000000        0.0000000000000000     
  0.71875000000000000       0.15625000000000000        0.0000000000000000     
  0.75000000000000000       0.15625000000000000        0.0000000000000000     
  0.62500000000000000       0.18750000000000000        0.0000000000000000     
  0.65625000000000000       0.18750000000000000        0.0000000000000000     
  0.68750000000000000       0.18750000000000000        0.0000000000000000     
  0.71875000000000000       0.18750000000000000        0.0000000000000000     
  0.75000000000000000       0.18750000000000000        0.0000000000000000     
  0.62500000000000000       0.21875000000000000        0.0000000000000000     
  0.65625000000000000       0.21875000000000000        0.0000000000000000     
  0.68750000000000000       0.21875000000000000        0.0000000000000000     
  0.71875000000000000       0.21875000000000000        0.0000000000000000     
  0.75000000000000000       0.21875000000000000        0.0000000000000000     
  0.62500000000000000       0.25000000000000000        0.0000000000000000     
  0.65625000000000000       0.25000000000000000        0.0000000000000000     
  0.68750000000000000       0.25000000000000000        0.0000000000000000     
  0.71875000000000000       0.25000000000000000        0.0000000000000000     
  0.75000000000000000       0.25000000000000000        0.0000000000000000     
  0.75000000000000000       0.12500000000000000        0.0000000000000000     
  0.78125000000000000       0.12500000000000000        0.0000000000000000     
  0.81250000000000000       0.12500000000000000        0.0000000000000000     
  0.84375000000000000       0.12500000000000000        0.0000000000000000     
  0.87500000000000000       0.12500000000000000        0.0000000000000000     
  0.75000000000000000       0.15625000000000000        0.0000000000000000     
  0.78125000000000000       0.15625000000000000        0.0000000000000000     
  0.81250000000000000       0.15625000000000000        0.0000000000000000     
  0.84375000000000000       0.15625000000000000        0.0000000000000000     
  0.87500000000000000       0.15625000000000000        0.0000000000000000     
  0.75000000000000000       0.18750000000000000        0.0000000000000000     
  0.78125000000000000       0.18750000000000000        0.0000000000000000     
  0.81250000000000000       0.18750000000000000        0.0000000000000000     
  0.84375000000000000       0.18750000000000000        0.0000000000000000     
  0.87500000000000000       0.18750000000000000        0.0000000000000000     
  0.75000000000000000       0.21875000000000000        0.0000000000000000     
  0.78125000000000000       0.21875000000000000        0.0000000000000000     
  0.81250000000000000       0.21875000000000000        0.0000000000000000     
  0.84375000000000000       0.21875000000000000        0.0000000000000000     
  0.87500000000000000       0.21875000000000000        0.0000000000000000     
  0.75000000000000000       0.25000000000000000        0.0000000000000000     
  0.78125000000000000       0.25000000000000000        0.0000000000000000     
  0.81250000000000000       0.25000000000000000        0.0000000000000000     
  0.84375000000000000       0.25000000000000000        0.0000000000000000     
  0.87500000000000000       0.25000000000000000        0.0000000000000000     
  0.87500000000000000       0.12500000000000000        0.0000000000000000     
  0.90625000000000000       0.12500000000000000        0.0000000000000000     
  0.93750000000000000       0.12500000000000000        0.0000000000000000     
  0.96875000000000000       0.12500000000000000        0.0000000000000000     
   1.0000000000000000       0.12500000000000000        0.0000000000000000     
  0.87500000000000000       0.15625000000000000        0.0000000000000000     
  0.90625000000000000       0.15625000000000000        0.0000000000000000     
  0.93750000000000000       0.15625000000000000        0.0000000000000000     
  0.96875000000000000       0.15625000000000000        0.0000000000000000     
   1.0000000000000000       0.15625000000000000        0.0000000000000000     
  0.87500000000000000       0.18750000000000000        0.0000000000000000     
  0.90625000000000000       0.18750000000000000        0.0000000000000000     
  0.93750000000000000       0.18750000000000000        0.0000000000000000     
  0.96875000000000000       0.18750000000000000        0.0000000000000000     
   1.0000000000000000       0.18750000000000000        0.0000000000000000     
  0.87500000000000000       0.21875000000000000        0.0000000000000000     
  0.90625000000000000       0.21875000000000000        0.0000000000000000     
  0.93750000000000000       0.21875000000000000        0.0000000000000000     
  0.96875000000000000       0.21875000000000000        0.0000000000000000     
   1.0000000000000000       0.21875000000000000        0.0000000000000000     
  0.87500000000000000       0.25000000000000000        0.0000000000000000     
  0.90625000000000000       0.25000000000000000        0.0000000000000000     
  0.93750000000000000       0.25000000000000000        0.0000000000000000     
  0.96875000000000000       0.25000000000000000        0.0000000000000000     
   1.0000000000000000       0.25000000000000000        0.0000000000000000     
   0.0000000000000000       0.25000000000000000        0.0000000000000000     
   3.1250000000000000E-002  0.25000000000000000        0.0000000000000000     
   6.2500000000000000E-002  0.25000000000000000        0.0000000000000000     
   9.3750000000000000E-002  0.25000000000000000        0.0000000000000000     
  0.12500000000000000       0.25000000000000000        0.0000000000000000     
   0.0000000000000000       0.28125000000000000        0.0000000000000000     
   3.1250000000000000E-002  0.28125000000000000        0.0000000000000000     
   6.2500000000000000E-002  0.28125000000000000        0.0000000000000000     
   9.3750000000000000E-002  0.28125000000000000        0.0000000000000000     
  0.12500000000000000       0.28125000000000000        0.0000000000000000     
   0.0000000000000000       0.31250000000000000        0.0000000000000000     
   3.1250000000000000E-002  0.31250000000000000        0.0000000000000000     
   6.2500000000000000E-002  0.31250000000000000        0.0000000000000000     
   9.3750000000000000E-002  0.31250000000000000        0.0000000000000000     
  0.12500000000000000       0.31250000000000000        0.0000000000000000     
   0.0000000000000000       0.34375000000000000        0.0000000000000000     
   3.1250000000000000E-002  0.34375000000000000        0.0000000000000000     
   6.2500000000000000E-002  0.34375000000000000        0.0000000000000000     
   9.3750000000000000E-002  0.34375000000000000        0.0000000000000000     
  0.12500000000000000       0.34375000000000000        0.0000000000000000     
   0.0000000000000000       0.37500000000000000        0.0000000000000000     
   3.1250000000000000E-002  0.37500000000000000        0.0000000000000000     
   6.2500000000000000E-002  0.37500000000000000        0.0000000000000000     
   9.3750000000000000E-002  0.37500000000000000        0.0000000000000000     
  0.12500000000000000       0.37500000000000000        0.0000000000000000     
  0.12500000000000000       0.25000000000000000        0.0000000000000000     
  0.15625000000000000       0.25000000000000000        0.0000000000000000     
  0.18750000000000000       0.25000000000000000        0.0000000000000000     
  0.21875000000000000       0.25000000000000000        0.0000000000000000     
  0.25000000000000000       0.25000000000000000        0.0000000000000000     
  0.12500000000000000       0.28125000000000000        0.0000000000000000     
  0.15625000000000000       0.28125000000000000        0.0000000000000000     
  0.18750000000000000       0.28125000000000000        0.0000000000000000     
  0.21875000000000000       0.28125000000000000        0.0000000000000000     
  0.25000000000000000       0.28125000000000000        0.0000000000000000     
  0.12500000000000000       0.31250000000000000        0.0000000000000000     
  0.15625000000000000       0.31250000000000000        0.0000000000000000     
  0.18750000000000000       0.31250000000000000        0.0000000000000000     
  0.21875000000000000       0.31250000000000000        0.0000000000000000     
  0.25000000000000000       0.31250000000000000        0.0000000000000000     
  0.12500000000000000       0.34375000000000000        0.0000000000000000     
  0.15625000000000000       0.34375000000000000        0.0000000000000000     
  0.18750000000000000       0.34375000000000000        0.0000000000000000     
  0.21875000000000000       0.34375000000000000        0.0000000000000000     
  0.25000000000000000       0.34375000000000000        0.0000000000000000     
  0.12500000000000000       0.37500000000000000        0.0000000000000000     
  0.15625000000000000       0.37500000000000000        0.0000000000000000     
  0.18750000000000000       0.37500000000000000        0.0000000000000000     
  0.21875000000000000       0.37500000000000000        0.0000000000000000     
  0.25000000000000000       0.37500000000000000        0.0000000000000000     
  0.25000000000000000       0.25000000000000000        0.0000000000000000     
  0.28125000000000000       0.25000000000000000        0.0000000000000000     
  0.31250000000000000       0.25000000000000000        0.0000000000000000     
  0.34375000000000000       0.25000000000000000        0.0000000000000000     
  0.37500000000000000       0.25000000000000000        0.0000000000000000     
  0.25000000000000000       0.28125000000000000        0.0000000000000000     
  0.28125000000000000       0.28125000000000000        0.0000000000000000     
  0.31250000000000000       0.28125000000000000        0.0000000000000000     
  0.34375000000000000       0.28125000000000000        0.0000000000000000     
  0.37500000000000000       0.28125000000000000        0.0000000000000000     
  0.25000000000000000       0.31250000000000000        0.0000000000000000     
  0.28125000000000000       0.31250000000000000        0.0000000000000000     
  0.31250000000000000       0.31250000000000000        0.0000000000000000     
  0.34375000000000000       0.31250000000000000        0.0000000000000000     
  0.37500000000000000       0.31250000000000000        0.0000000000000000     
  0.25000000000000000       0.34375000000000000        0.0000000000000000     
  0.28125000000000000       0.34375000000000000        0.0000000000000000     
  0.31250000000000000       0.34375000000000000        0.0000000000000000     
  0.34375000000000000       0.34375000000000000        0.0000000000000000     
  0.37500000000000000       0.34375000000000000        0.0000000000000000     
  0.25000000000000000       0.37500000000000000        0.0000000000000000     
  0.28125000000000000       0.37500000000000000        0.0000000000000000     
  0.31250000000000000       0.37500000000000000        0.0000000000000000     
  0.34375000000000000       0.37500000000000000        0.0000000000000000     
  0.37500000000000000       0.37500000000000000        0.0000000000000000     
  0.37500000000000000       0.25000000000000000        0.0000000000000000     
  0.40625000000000000       0.25000000000000000        0.0000000000000000     
  0.43750000000000000       0.25000000000000000        0.0000000000000000     
  0.46875000000000000       0.25000000000000000        0.0000000000000000     
  0.50000000000000000       0.25000000000000000        0.0000000000000000     
  0.37500000000000000       0.28125000000000000        0.0000000000000000     
  0.40625000000000000       0.28125000000000000        0.0000000000000000     
  0.43750000000000000       0.28125000000000000        0.0000000000000000     
  0.46875000000000000       0.28125000000000000        0.0000000000000000     
  0.50000000000000000       0.28125000000000000        0.0000000000000000     
  0.37500000000000000       0.31250000000000000        0.0000000000000000     
  0.40625000000000000       0.31250000000000000        0.0000000000000000     
  0.43750000000000000       0.31250000000000000        0.0000000000000000     
  0.46875000000000000       0.31250000000000000        0.0000000000000000     
  0.50000000000000000       0.31250000000000000        0.0000000000000000     
  0.37500000000000000       0.34375000000000000        0.0000000000000000     
  0.40625000000000000       0.34375000000000000        0.0000000000000000     
  0.43750000000000000       0.34375000000000000        0.0000000000000000     
  0.46875000000000000       0.34375000000000000        0.0000000000000000     
  0.50000000000000000       0.34375000000000000        0.0000000000000000     
  0.37500000000000000       0.37500000000000000        0.0000000000000000     
  0.40625000000000000       0.37500000000000000        0.0000000000000000     
  0.43750000000000000       0.37500000000000000        0.0000000000000000     
  0.46875000000000000       0.37500000000000000        0.0000000000000000     
  0.50000000000000000       0.37500000000000000        0.0000000000000000     
  0.50000000000000000       0.25000000000000000        0.0000000000000000     
  0.53125000000000000       0.25000000000000000        0.0000000000000000     
  0.56250000000000000       0.25000000000000000        0.0000000000000000     
  0.59375000000000000       0.25000000000000000        0.0000000000000000     
  0.62500000000000000       0.25000000000000000        0.0000000000000000     
  0.50000000000000000       0.28125000000000000        0.0000000000000000     
  0.53125000000000000       0.28125000000000000        0.0000000000000000     
  0.56250000000000000       0.28125000000000000        0.0000000000000000     
  0.59375000000000000       0.28125000000000000        0.0000000000000000     
  0.62500000000000000       0.28125000000000000        0.0000000000000000     
  0.50000000000000000       0.31250000000000000        0.0000000000000000     
  0.53125000000000000       0.31250000000000000        0.0000000000000000     
  0.56250000000000000       0.31250000000000000        0.0000000000000000     
  0.59375000000000000       0.31250000000000000        0.0000000000000000     
  0.62500000000000000       0.31250000000000000        0.0000000000000000     
  0.50000000000000000       0.34375000000000000        0.0000000000000000     
  0.53125000000000000       0.34375000000000000        0.0000000000000000     
  0.56250000000000000       0.34375000000000000        0.0000000000000000     
  0.59375000000000000       0.34375000000000000        0.0000000000000000     
  0.62500000000000000       0.34375000000000000        0.0000000000000000     
  0.50000000000000000       0.37500000000000000        0.0000000000000000     
  0.53125000000000000       0.37500000000000000        0.0000000000000000     
  0.56250000000000000       0.37500000000000000        0.0000000000000000     
  0.59375000000000000       0.37500000000000000        0.0000000000000000     
  0.62500000000000000       0.37500000000000000        0.0000000000000000     
  0.62500000000000000       0.25000000000000000        0.0000000000000000     
  0.65625000000000000       0.25000000000000000        0.0000000000000000     
  0.68750000000000000       0.25000000000000000        0.0000000000000000     
  0.71875000000000000       0.25000000000000000        0.0000000000000000     
  0.75000000000000000       0.25000000000000000        0.0000000000000000     
  0.62500000000000000       0.28125000000000000        0.0000000000000000     
  0.65625000000000000       0.28125000000000000        0.0000000000000000     
  0.68750000000000000       0.28125000000000000        0.0000000000000000     
  0.71875000000000000       0.28125000000000000        0.0000000000000000     
  0.75000000000000000       0.28125000000000000        0.0000000000000000     
  0.62500000000000000       0.31250000000000000        0.0000000000000000     
  0.65625000000000000       0.31250000000000000        0.0000000000000000     
  0.68750000000000000       0.31250000000000000        0.0000000000000000     
  0.71875000000000000       0.31250000000000000        0.0000000000000000     
  0.75000000000000000       0.31250000000000000        0.0000000000000000     
  0.62500000000000000       0.34375000000000000        0.0000000000000000     
  0.65625000000000000       0.34375000000000000        0.0000000000000000     
  0.68750000000000000       0.34375000000000000        0.0000000000000000     
  0.71875000000000000       0.34375000000000000        0.0000000000000000     
  0.75000000000000000       0.34375000000000000        0.0000000000000000     
  0.62500000000000000       0.37500000000000000        0.0000000000000000     
  0.65625000000000000       0.37500000000000000        0.0000000000000000     
  0.68750000000000000       0.37500000000000000        0.0000000000000000     
  0.71875000000000000       0.37500000000000000        0.0000000000000000     
  0.75000000000000000       0.37500000000000000        0.0000000000000000     
  0.75000000000000000       0.25000000000000000        0.0000000000000000     
  0.78125000000000000       0.25000000000000000        0.0000000000000000     
  0.81250000000000000       0.25000000000000000        0.0000000000000000     
  0.84375000000000000       0.25000000000000000        0.0000000000000000     
  0.87500000000000000       0.25000000000000000        0.0000000000000000     
  0.75000000000000000       0.28125000000000000        0.0000000000000000     
  0.78125000000000000       0.28125000000000000        0.0000000000000000     
  0.81250000000000000       0.28125000000000000        0.0000000000000000     
  0.84375000000000000       0.28125000000000000        0.0000000000000000     
  0.87500000000000000       0.28125000000000000        0.0000000000000000     
  0.75000000000000000       0.31250000000000000        0.0000000000000000     
  0.78125000000000000       0.31250000000000000        0.0000000000000000     
  0.81250000000000000       0.31250000000000000        0.0000000000000000     
  0.84375000000000000       0.31250000000000000        0.0000000000000000     
  0.87500000000000000       0.31250000000000000        0.0000000000000000     
  0.75000000000000000       0.34375000000000000        0.0000000000000000     
  0.78125000000000000       0.34375000000000000        0.0000000000000000     
  0.81250000000000000       0.34375000000000000        0.0000000000000000     
  0.84375000000000000       0.34375000000000000        0.0000000000000000     
  0.87500000000000000       0.34375000000000000        0.0000000000000000     
  0.75000000000000000       0.37500000000000000        0.0000000000000000     
  0.78125000000000000       0.37500000000000000        0.0000000000000000     
  0.81250000000000000       0.37500000000000000        0.0000000000000000     
  0.84375000000000000       0.37500000000000000        0.0000000000000000     
  0.87500000000000000       0.37500000000000000        0.0000000000000000     
  0.87500000000000000       0.25000000000000000        0.0000000000000000     
  0.90625000000000000       0.25000000000000000        0.0000000000000000     
  0.93750000000000000       0.25000000000000000        0.0000000000000000     
  0.96875000000000000       0.25000000000000000        0.0000000000000000     
   1.0000000000000000       0.25000000000000000        0.0000000000000000     
  0.87500000000000000       0.28125000000000000        0.0000000000000000     
  0.90625000000000000       0.28125000000000000        0.0000000000000000     
  0.93750000000000000       0.28125000000000000        0.0000000000000000     
  0.96875000000000000       0.28125000000000000        0.0000000000000000     
   1.0000000000000000       0.28125000000000000        0.0000000000000000     
  0.87500000000000000       0.31250000000000000        0.0000000000000000     
  0.90625000000000000       0.31250000000000000        0.0000000000000000     
  0.93750000000000000       0.31250000000000000        0.0000000000000000     
  0.96875000000000000       0.31250000000000000        0.0000000000000000     
   1.0000000000000000       0.31250000000000000        0.0000000000000000     
  0.87500000000000000       0.34375000000000000        0.0000000000000000     
  0.90625000000000000       0.34375000000000000        0.0000000000000000     
  0.93750000000000000       0.34375000000000000        0.0000000000000000     
  0.96875000000000000       0.34375000000000000        0.0000000000000000     
   1.0000000000000000       0.34375000000000000        0.0000000000000000     
  0.87500000000000000       0.37500000000000000        0.0000000000000000     
  0.90625000000000000       0.37500000000000000        0.0000000000000000     
  0.93750000000000000       0.37500000000000000        0.0000000000000000     
  0.96875000000000000       0.37500000000000000        0.0000000000000000     
   1.0000000000000000       0.37500000000000000        0.0000000000000000     
   0.0000000000000000       0.37500000000000000        0.0000000000000000     
   3.1250000000000000E-002  0.37500000000000000        0.0000000000000000     
   6.2500000000000000E-002  0.37500000000000000        0.0000000000000000     
   9.3750000000000000E-002  0.37500000000000000        0.0000000000000000     
  0.12500000000000000       0.37500000000000000        0.0000000000000000     
   0.0000000000000000       0.40625000000000000        0.0000000000000000     
   3.1250000000000000E-002  0.40625000000000000        0.0000000000000000     
   6.2500000000000000E-002  0.40625000000000000        0.0000000000000000     
   9.3750000000000000E-002  0.40625000000000000        0.0000000000000000     
  0.12500000000000000       0.40625000000000000        0.0000000000000000     
   0.0000000000000000       0.43750000000000000        0.0000000000000000     
   3.1250000000000000E-002  0.43750000000000000        0.0000000000000000     
   6.2500000000000000E-002  0.43750000000000000        0.0000000000000000     
   9.3750000000000000E-002  0.43750000000000000        0.0000000000000000     
  0.12500000000000000       0.43750000000000000        0.0000000000000000     
   0.0000000000000000       0.46875000000000000        0.0000000000000000     
   3.1250000000000000E-002  0.46875000000000000        0.0000000000000000     
   6.2500000000000000E-002  0.46875000000000000        0.0000000000000000     
   9.3750000000000000E-002  0.46875000000000000        0.0000000000000000     
  0.12500000000000000       0.46875000000000000        0.0000000000000000     
   0.0000000000000000       0.50000000000000000        0.0000000000000000     
   3.1250000000000000E-002  0.50000000000000000        0.0000000000000000     
   6.2500000000000000E-002  0.50000000000000000        0.0000000000000000     
   9.3750000000000000E-002  0.50000000000000000        0.0000000000000000     
  0.12500000000000000       0.50000000000000000        0.0000000000000000     
  0.12500000000000000       0.37500000000000000        0.0000000000000000     
  0.15625000000000000       0.37500000000000000        0.0000000000000000     
  0.18750000000000000       0.37500000000000000        0.0000000000000000     
  0.21875000000000000       0.37500000000000000        0.0000000000000000     
  0.25000000000000000       0.37500000000000000        0.0000000000000000     
  0.12500000000000000       0.40625000000000000        0.0000000000000000     
  0.15625000000000000       0.40625000000000000        0.0000000000000000     
  0.18750000000000000       0.40625000000000000        0.0000000000000000     
  0.21875000000000000       0.40625000000000000        0.0000000000000000     
  0.25000000000000000       0.40625000000000000        0.0000000000000000     
  0.12500000000000000       0.43750000000000000        0.0000000000000000     
  0.15625000000000000       0.43750000000000000        0.0000000000000000     
  0.18750000000000000       0.43750000000000000        0.0000000000000000     
  0.21875000000000000       0.43750000000000000        0.0000000000000000     
  0.25000000000000000       0.43750000000000000        0.0000000000000000     
  0.12500000000000000       0.46875000000000000        0.0000000000000000     
  0.15625000000000000       0.46875000000000000        0.0000000000000000     
  0.18750000000000000       0.46875000000000000        0.0000000000000000     
  0.21875000000000000       0.46875000000000000        0.0000000000000000     
  0.25000000000000000       0.46875000000000000        0.0000000000000000     
  0.12500000000000000       0.50000000000000000        0.0000000000000000     
  0.15625000000000000       0.50000000000000000        0.0000000000000000     
  0.18750000000000000       0.50000000000000000        0.0000000000000000     
  0.21875000000000000       0.50000000000000000        0.0000000000000000     
  0.25000000000000000       0.50000000000000000        0.0000000000000000     
  0.25000000000000000       0.37500000000000000        0.0000000000000000     
  0.28125000000000000       0.37500000000000000        0.0000000000000000     
  0.31250000000000000       0.37500000000000000        0.0000000000000000     
  0.34375000000000000       0.37500000000000000        0.0000000000000000     
  0.37500000000000000       0.37500000000000000        0.0000000000000000     
  0.25000000000000000       0.40625000000000000        0.0000000000000000     
  0.28125000000000000       0.40625000000000000        0.0000000000000000     
  0.31250000000000000       0.40625000000000000        0.0000000000000000     
  0.34375000000000000       0.40625000000000000        0.0000000000000000     
  0.37500000000000000       0.40625000000000000        0.0000000000000000     
  0.25000000000000000       0.43750000000000000        0.0000000000000000     
  0.28125000000000000       0.43750000000000000        0.0000000000000000     
  0.31250000000000000       0.43750000000000000        0.0000000000000000     
  0.34375000000000000       0.43750000000000000        0.0000000000000000     
  0.37500000000000000       0.43750000000000000        0.0000000000000000     
  0.25000000000000000       0.46875000000000000        0.0000000000000000     
  0.28125000000000000       0.46875000000000000        0.0000000000000000     
  0.31250000000000000       0.46875000000000000        0.0000000000000000     
  0.34375000000000000       0.46875000000000000        0.0000000000000000     
  0.37500000000000000       0.46875000000000000        0.0000000000000000     
  0.25000000000000000       0.50000000000000000        0.0000000000000000     
  0.28125000000000000       0.50000000000000000        0.0000000000000000     
  0.31250000000000000       0.50000000000000000        0.0000000000000000     
  0.34375000000000000       0.50000000000000000        0.0000000000000000     
  0.37500000000000000       0.50000000000000000        0.0000000000000000     
  0.37500000000000000       0.37500000000000000        0.0000000000000000     
  0.40625000000000000       0.37500000000000000        0.0000000000000000     
  0.43750000000000000       0.37500000000000000        0.0000000000000000     
  0.46875000000000000       0.37500000000000000        0.0000000000000000     
  0.50000000000000000       0.37500000000000000        0.0000000000000000     
  0.37500000000000000       0.40625000000000000        0.0000000000000000     
  0.40625000000000000       0.40625000000000000        0.0000000000000000     
  0.43750000000000000       0.40625000000000000        0.0000000000000000     
  0.46875000000000000       0.40625000000000000        0.0000000000000000     
  0.50000000000000000       0.40625000000000000        0.0000000000000000     
  0.37500000000000000       0.43750000000000000        0.0000000000000000     
  0.40625000000000000       0.43750000000000000        0.0000000000000000     
  0.43750000000000000       0.43750000000000000        0.0000000000000000     
  0.46875000000000000       0.43750000000000000        0.0000000000000000     
  0.50000000000000000       0.43750000000000000        0.0000000000000000     
  0.37500000000000000       0.46875000000000000        0.0000000000000000     
  0.40625000000000000       0.46875000000000000        0.0000000000000000     
  0.43750000000000000       0.46875000000000000        0.0000000000000000     
  0.46875000000000000       0.46875000000000000        0.0000000000000000     
  0.50000000000000000       0.46875000000000000        0.0000000000000000     
  0.37500000000000000       0.50000000000000000        0.0000000000000000     
  0.40625000000000000       0.50000000000000000        0.0000000000000000     
  0.43750000000000000       0.50000000000000000        0.0000000000000000     
  0.46875000000000000       0.50000000000000000        0.0000000000000000     
  0.50000000000000000       0.50000000000000000        0.0000000000000000     
  0.50000000000000000       0.37500000000000000        0.0000000000000000     
  0.53125000000000000       0.37500000000000000        0.0000000000000000     
  0.56250000000000000       0.37500000000000000        0.0000000000000000     
  0.59375000000000000       0.37500000000000000        0.0000000000000000     
  0.62500000000000000       0.37500000000000000        0.0000000000000000     
  0.50000000000000000       0.40625000000000000        0.0000000000000000     
  0.53125000000000000       0.40625000000000000        0.0000000000000000     
  0.56250000000000000       0.40625000000000000        0.0000000000000000     
  0.59375000000000000       0.40625000000000000        0.0000000000000000     
  0.62500000000000000       0.40625000000000000        0.0000000000000000     
  0.50000000000000000       0.43750000000000000        0.0000000000000000     
  0.53125000000000000       0.43750000000000000        0.0000000000000000     
  0.56250000000000000       0.43750000000000000        0.0000000000000000     
  0.59375000000000000       0.43750000000000000        0.0000000000000000     
  0.62500000000000000       0.43750000000000000        0.0000000000000000     
  0.50000000000000000       0.46875000000000000        0.0000000000000000     
  0.53125000000000000       0.46875000000000000        0.0000000000000000     
  0.56250000000000000       0.46875000000000000        0.0000000000000000     
  0.59375000000000000       0.46875000000000000        0.0000000000000000     
  0.62500000000000000       0.46875000000000000        0.0000000000000000     
  0.50000000000000000       0.50000000000000000        0.0000000000000000     
  0.53125000000000000       0.50000000000000000        0.0000000000000000     
  0.56250000000000000       0.50000000000000000        0.0000000000000000     
  0.59375000000000000       0.50000000000000000        0.0000000000000000     
  0.62500000000000000       0.50000000000000000        0.0000000000000000     
  0.62500000000000000       0.37500000000000000        0.0000000000000000     
  0.65625000000000000       0.37500000000000000        0.0000000000000000     
  0.68750000000000000       0.37500000000000000        0.0000000000000000     
  0.71875000000000000       0.37500000000000000        0.0000000000000000     
  0.75000000000000000       0.37500000000000000        0.0000000000000000     
  0.62500000000000000       0.40625000000000000        0.0000000000000000     
  0.65625000000000000       0.40625000000000000        0.0000000000000000     
  0.68750000000000000       0.40625000000000000        0.0000000000000000     
  0.71875000000000000       0.40625000000000000        0.0000000000000000     
  0.75000000000000000       0.40625000000000000        0.0000000000000000     
  0.62500000000000000       0.43750000000000000        0.0000000000000000     
  0.65625000000000000       0.43750000000000000        0.0000000000000000     
  0.68750000000000000       0.43750000000000000        0.0000000000000000     
  0.71875000000000000       0.43750000000000000        0.0000000000000000     
  0.75000000000000000       0.43750000000000000        0.0000000000000000     
  0.62500000000000000       0.46875000000000000        0.0000000000000000     
  0.65625000000000000       0.46875000000000000        0.0000000000000000     
  0.68750000000000000       0.46875000000000000        0.0000000000000000     
  0.71875000000000000       0.46875000000000000        0.0000000000000000     
  0.75000000000000000       0.46875000000000000        0.0000000000000000     
  0.62500000000000000       0.50000000000000000        0.0000000000000000     
  0.65625000000000000       0.50000000000000000        0.0000000000000000     
  0.68750000000000000       0.50000000000000000        0.0000000000000000     
  0.71875000000000000       0.50000000000000000        0.0000000000000000     
  0.75000000000000000       0.50000000000000000        0.0000000000000000     
  0.75000000000000000       0.37500000000000000        0.0000000000000000     
  0.78125000000000000       0.37500000000000000        0.0000000000000000     
  0.81250000000000000       0.37500000000000000        0.0000000000000000     
  0.84375000000000000       0.37500000000000000        0.0000000000000000     
  0.87500000000000000       0.37500000000000000        0.0000000000000000     
  0.75000000000000000       0.40625000000000000        0.0000000000000000     
  0.78125000000000000       0.40625000000000000        0.0000000000000000     
  0.81250000000000000       0.40625000000000000        0.0000000000000000     
  0.84375000000000000       0.40625000000000000        0.0000000000000000     
  0.87500000000000000       0.40625000000000000        0.0000000000000000     
  0.75000000000000000       0.43750000000000000        0.0000000000000000     
  0.78125000000000000       0.43750000000000000        0.0000000000000000     
  0.81250000000000000       0.43750000000000000        0.0000000000000000     
  0.84375000000000000       0.43750000000000000        0.0000000000000000     
  0.87500000000000000       0.43750000000000000        0.0000000000000000     
  0.75000000000000000       0.46875000000000000        0.0000000000000000     
  0.78125000000000000       0.46875000000000000        0.0000000000000000     
  0.81250000000000000       0.46875000000000000        0.0000000000000000     
  0.84375000000000000       0.46875000000000000        0.0000000000000000     
  0.87500000000000000       0.46875000000000000        0.0000000000000000     
  0.75000000000000000       0.50000000000000000        0.0000000000000000     
  0.78125000000000000       0.50000000000000000        0.0000000000000000     
  0.81250000000000000       0.50000000000000000        0.0000000000000000     
  0.84375000000000000       0.50000000000000000        0.0000000000000000     
  0.87500000000000000       0.50000000000000000        0.0000000000000000     
  0.87500000000000000       0.37500000000000000        0.0000000000000000     
  0.90625000000000000       0.37500000000000000        0.0000000000000000     
  0.93750000000000000       0.37500000000000000        0.0000000000000000     
  0.96875000000000000       0.37500000000000000        0.0000000000000000     
   1.0000000000000000       0.37500000000000000        0.0000000000000000     
  0.87500000000000000       0.40625000000000000        0.0000000000000000     
  0.90625000000000000       0.40625000000000000        0.0000000000000000     
  0.93750000000000000       0.40625000000000000        0.0000000000000000     
  0.96875000000000000       0.40625000000000000        0.0000000000000000     
   1.0000000000000000       0.40625000000000000        0.0000000000000000     
  0.87500000000000000       0.43750000000000000        0.0000000000000000     
  0.90625000000000000       0.43750000000000000        0.0000000000000000     
  0.93750000000000000       0.43750000000000000        0.0000000000000000     
  0.96875000000000000       0.43750000000000000        0.0000000000000000     
   1.0000000000000000       0.43750000000000000        0.0000000000000000     
  0.87500000000000000       0.46875000000000000        0.0000000000000000     
  0.90625000000000000       0.46875000000000000        0.0000000000000000     
  0.93750000000000000       0.46875000000000000        0.0000000000000000     
  0.96875000000000000       0.46875000000000000        0.0000000000000000     
   1.0000000000000000       0.46875000000000000        0.0000000000000000     
  0.87500000000000000       0.50000000000000000        0.0000000000000000     
  0.90625000000000000       0.50000000000000000        0.0000000000000000     
  0.93750000000000000       0.50000000000000000        0.0000000000000000     
  0.96875000000000000       0.50000000000000000        0.0000000000000000     
   1.0000000000000000       0.50000000000000000        0.0000000000000000     
   0.0000000000000000       0.50000000000000000        0.0000000000000000     
   3.1250000000000000E-002  0.50000000000000000        0.0000000000000000     
   6.2500000000000000E-002  0.50000000000000000        0.0000000000000000     
   9.3750000000000000E-002  0.50000000000000000        0.0000000000000000     
  0.12500000000000000       0.50000000000000000        0.0000000000000000     
   0.0000000000000000       0.53125000000000000        0.0000000000000000     
   3.1250000000000000E-002  0.53125000000000000        0.0000000000000000     
   6.2500000000000000E-002  0.53125000000000000        0.0000000000000000     
   9.3750000000000000E-002  0.53125000000000000        0.0000000000000000     
  0.12500000000000000       0.53125000000000000        0.0000000000000000     
   0.0000000000000000       0.56250000000000000        0.0000000000000000     
   3.1250000000000000E-002  0.56250000000000000        0.0000000000000000     
   6.2500000000000000E-002  0.56250000000000000        0.0000000000000000     
   9.3750000000000000E-002  0.56250000000000000        0.0000000000000000     
  0.12500000000000000       0.56250000000000000        0.0000000000000000     
   0.0000000000000000       0.59375000000000000        0.0000000000000000     
   3.1250000000000000E-002  0.59375000000000000        0.0000000000000000     
   6.2500000000000000E-002  0.59375000000000000        0.0000000000000000     
   9.3750000000000000E-002  0.59375000000000000        0.0000000000000000     
  0.12500000000000000       0.59375000000000000        0.0000000000000000     
   0.0000000000000000       0.62500000000000000        0.0000000000000000     
   3.1250000000000000E-002  0.62500000000000000        0.0000000000000000     
   6.2500000000000000E-002  0.62500000000000000        0.0000000000000000     
   9.3750000000000000E-002  0.62500000000000000        0.0000000000000000     
  0.12500000000000000       0.62500000000000000        0.0000000000000000     
  0.12500000000000000       0.50000000000000000        0.0000000000000000     
  0.15625000000000000       0.50000000000000000        0.0000000000000000     
  0.18750000000000000       0.50000000000000000        0.0000000000000000     
  0.21875000000000000       0.50000000000000000        0.0000000000000000     
  0.25000000000000000       0.50000000000000000        0.0000000000000000     
  0.12500000000000000       0.53125000000000000        0.0000000000000000     
  0.15625000000000000       0.53125000000000000        0.0000000000000000     
  0.18750000000000000       0.53125000000000000        0.0000000000000000     
  0.21875000000000000       0.53125000000000000        0.0000000000000000     
  0.25000000000000000       0.53125000000000000        0.0000000000000000     
  0.12500000000000000       0.56250000000000000        0.0000000000000000     
  0.15625000000000000       0.56250000000000000        0.0000000000000000     
  0.18750000000000000       0.56250000000000000        0.0000000000000000     
  0.21875000000000000       0.56250000000000000        0.0000000000000000     
  0.25000000000000000       0.56250000000000000        0.0000000000000000     
  0.12500000000000000       0.59375000000000000        0.0000000000000000     
  0.15625000000000000       0.59375000000000000        0.0000000000000000     
  0.18750000000000000       0.59375000000000000        0.0000000000000000     
  0.21875000000000000       0.59375000000000000        0.0000000000000000     
  0.25000000000000000       0.59375000000000000        0.0000000000000000     
  0.12500000000000000       0.62500000000000000        0.0000000000000000     
  0.15625000000000000       0.62500000000000000        0.0000000000000000     
  0.18750000000000000       0.62500000000000000        0.0000000000000000     
  0.21875000000000000       0.62500000000000000        0.0000000000000000     
  0.25000000000000000       0.62500000000000000        0.0000000000000000     
  0.25000000000000000       0.50000000000000000        0.0000000000000000     
  0.28125000000000000       0.50000000000000000        0.0000000000000000     
  0.31250000000000000       0.50000000000000000        0.0000000000000000     
  0.34375000000000000       0.50000000000000000        0.0000000000000000     
  0.37500000000000000       0.50000000000000000        0.0000000000000000     
  0.25000000000000000       0.53125000000000000        0.0000000000000000     
  0.28125000000000000       0.53125000000000000        0.0000000000000000     
  0.31250000000000000       0.53125000000000000        0.0000000000000000     
  0.34375000000000000       0.53125000000000000        0.0000000000000000     
  0.37500000000000000       0.53125000000000000        0.0000000000000000     
  0.25000000000000000       0.56250000000000000        0.0000000000000000     
  0.28125000000000000       0.56250000000000000        0.0000000000000000     
  0.31250000000000000       0.56250000000000000        0.0000000000000000     
  0.34375000000000000       0.56250000000000000        0.0000000000000000     
  0.37500000000000000       0.56250000000000000        0.0000000000000000     
  0.25000000000000000       0.59375000000000000        0.0000000000000000     
  0.28125000000000000       0.59375000000000000        0.0000000000000000     
  0.31250000000000000       0.59375000000000000        0.0000000000000000     
  0.34375000000000000       0.59375000000000000        0.0000000000000000     
  0.37500000000000000       0.59375000000000000        0.0000000000000000     
  0.25000000000000000       0.62500000000000000        0.0000000000000000     
  0.28125000000000000       0.62500000000000000        0.0000000000000000     
  0.31250000000000000       0.62500000000000000        0.0000000000000000     
  0.34375000000000000       0.62500000000000000        0.0000000000000000     
  0.37500000000000000       0.62500000000000000        0.0000000000000000     
  0.37500000000000000       0.50000000000000000        0.0000000000000000     
  0.40625000000000000       0.50000000000000000        0.0000000000000000     
  0.43750000000000000       0.50000000000000000        0.0000000000000000     
  0.46875000000000000       0.50000000000000000        0.0000000000000000     
  0.50000000000000000       0.50000000000000000        0.0000000000000000     
  0.37500000000000000       0.53125000000000000        0.0000000000000000     
  0.40625000000000000       0.53125000000000000        0.0000000000000000     
  0.43750000000000000       0.53125000000000000        0.0000000000000000     
  0.46875000000000000       0.53125000000000000        0.0000000000000000     
  0.50000000000000000       0.53125000000000000        0.0000000000000000     
  0.37500000000000000       0.56250000000000000        0.0000000000000000     
  0.40625000000000000       0.56250000000000000        0.0000000000000000     
  0.43750000000000000       0.56250000000000000        0.0000000000000000     
  0.46875000000000000       0.56250000000000000        0.0000000000000000     
  0.50000000000000000       0.56250000000000000        0.0000000000000000     
  0.37500000000000000       0.59375000000000000        0.0000000000000000     
  0.40625000000000000       0.59375000000000000        0.0000000000000000     
  0.43750000000000000       0.59375000000000000        0.0000000000000000     
  0.46875000000000000       0.59375000000000000        0.0000000000000000     
  0.50000000000000000       0.59375000000000000        0.0000000000000000     
  0.37500000000000000       0.62500000000000000        0.0000000000000000     
  0.40625000000000000       0.62500000000000000        0.0000000000000000     
  0.43750000000000000       0.62500000000000000        0.0000000000000000     
  0.46875000000000000       0.62500000000000000        0.0000000000000000     
  0.50000000000000000       0.62500000000000000        0.0000000000000000     
  0.50000000000000000       0.50000000000000000        0.0000000000000000     
  0.53125000000000000       0.50000000000000000        0.0000000000000000     
  0.56250000000000000       0.50000000000000000        0.0000000000000000     
  0.59375000000000000       0.50000000000000000        0.0000000000000000     
  0.62500000000000000       0.50000000000000000        0.0000000000000000     
  0.50000000000000000       0.53125000000000000        0.0000000000000000     
  0.53125000000000000       0.53125000000000000        0.0000000000000000     
  0.56250000000000000       0.53125000000000000        0.0000000000000000     
  0.59375000000000000       0.53125000000000000        0.0000000000000000     
  0.62500000000000000       0.53125000000000000        0.0000000000000000     
  0.50000000000000000       0.56250000000000000        0.0000000000000000     
  0.53125000000000000       0.56250000000000000        0.0000000000000000     
  0.56250000000000000       0.56250000000000000        0.0000000000000000     
  0.59375000000000000       0.56250000000000000        0.0000000000000000     
  0.62500000000000000       0.56250000000000000        0.0000000000000000     
  0.50000000000000000       0.59375000000000000        0.0000000000000000     
  0.53125000000000000       0.59375000000000000        0.0000000000000000     
  0.56250000000000000       0.59375000000000000        0.0000000000000000     
  0.59375000000000000       0.59375000000000000        0.0000000000000000     
  0.62500000000000000       0.59375000000000000        0.0000000000000000     
  0.50000000000000000       0.62500000000000000        0.0000000000000000     
  0.53125000000000000       0.62500000000000000        0.0000000000000000     
  0.56250000000000000       0.62500000000000000        0.0000000000000000     
  0.59375000000000000       0.62500000000000000        0.0000000000000000     
  0.62500000000000000       0.62500000000000000        0.0000000000000000     
  0.62500000000000000       0.50000000000000000        0.0000000000000000     
  0.65625000000000000       0.50000000000000000        0.0000000000000000     
  0.68750000000000000       0.50000000000000000        0.0000000000000000     
  0.71875000000000000       0.50000000000000000        0.0000000000000000     
  0.75000000000000000       0.50000000000000000        0.0000000000000000     
  0.62500000000000000       0.53125000000000000        0.0000000000000000     
  0.65625000000000000       0.53125000000000000        0.0000000000000000     
  0.68750000000000000       0.53125000000000000        0.0000000000000000     
  0.71875000000000000       0.53125000000000000        0.0000000000000000     
  0.75000000000000000       0.53125000000000000        0.0000000000000000     
  0.62500000000000000       0.56250000000000000        0.0000000000000000     
  0.65625000000000000       0.56250000000000000        0.0000000000000000     
  0.68750000000000000       0.56250000000000000        0.0000000000000000     
  0.71875000000000000       0.56250000000000000        0.0000000000000000     
  0.75000000000000000       0.56250000000000000        0.0000000000000000     
  0.62500000000000000       0.59375000000000000        0.0000000000000000     
  0.65625000000000000       0.59375000000000000        0.0000000000000000     
  0.68750000000000000       0.59375000000000000        0.0000000000000000     
  0.71875000000000000       0.59375000000000000        0.0000000000000000     
  0.75000000000000000       0.59375000000000000        0.0000000000000000     
  0.62500000000000000       0.62500000000000000        0.0000000000000000     
  0.65625000000000000       0.62500000000000000        0.0000000000000000     
  0.68750000000000000       0.62500000000000000        0.0000000000000000     
  0.71875000000000000       0.62500000000000000        0.0000000000000000     
  0.75000000000000000       0.62500000000000000        0.0000000000000000     
  0.75000000000000000       0.50000000000000000        0.0000000000000000     
  0.78125000000000000       0.50000000000000000        0.0000000000000000     
  0.81250000000000000       0.50000000000000000        0.0000000000000000     
  0.84375000000000000       0.50000000000000000        0.0000000000000000     
  0.87500000000000000       0.50000000000000000        0.0000000000000000     
  0.75000000000000000       0.53125000000000000        0.0000000000000000     
  0.78125000000000000       0.53125000000000000        0.0000000000000000     
  0.81250000000000000       0.53125000000000000        0.0000000000000000     
  0.84375000000000000       0.53125000000000000        0.0000000000000000     
  0.87500000000000000       0.53125000000000000        0.0000000000000000     
  0.75000000000000000       0.56250000000000000        0.0000000000000000     
  0.78125000000000000       0.56250000000000000        0.0000000000000000     
  0.81250000000000000       0.56250000000000000        0.0000000000000000     
  0.84375000000000000       0.56250000000000000        0.0000000000000000     
  0.87500000000000000       0.56250000000000000        0.0000000000000000     
  0.75000000000000000       0.59375000000000000        0.0000000000000000     
  0.78125000000000000       0.59375000000000000        0.0000000000000000     
  0.81250000000000000       0.59375000000000000        0.0000000000000000     
  0.84375000000000000       0.59375000000000000        0.0000000000000000     
  0.87500000000000000       0.59375000000000000        0.0000000000000000     
  0.75000000000000000       0.62500000000000000        0.0000000000000000     
  0.78125000000000000       0.62500000000000000        0.0000000000000000     
  0.81250000000000000       0.62500000000000000        0.0000000000000000     
  0.84375000000000000       0.62500000000000000        0.0000000000000000     
  0.87500000000000000       0.62500000000000000        0.0000000000000000     
  0.87500000000000000       0.50000000000000000        0.0000000000000000     
  0.90625000000000000       0.50000000000000000        0.0000000000000000     
  0.93750000000000000       0.50000000000000000        0.0000000000000000     
  0.96875000000000000       0.50000000000000000        0.0000000000000000     
   1.0000000000000000       0.50000000000000000        0.0000000000000000     
  0.87500000000000000       0.53125000000000000        0.0000000000000000     
  0.90625000000000000       0.53125000000000000        0.0000000000000000     
  0.93750000000000000       0.53125000000000000        0.0000000000000000     
  0.96875000000000000       0.53125000000000000        0.0000000000000000     
   1.0000000000000000       0.53125000000000000        0.0000000000000000     
  0.87500000000000000       0.56250000000000000        0.0000000000000000     
  0.90625000000000000       0.56250000000000000        0.0000000000000000     
  0.93750000000000000       0.56250000000000000        0.0000000000000000     
  0.96875000000000000       0.56250000000000000        0.0000000000000000     
   1.0000000000000000       0.56250000000000000        0.0000000000000000     
  0.87500000000000000       0.59375000000000000        0.0000000000000000     
  0.90625000000000000       0.59375000000000000        0.0000000000000000     
  0.93750000000000000       0.59375000000000000        0.0000000000000000     
  0.96875000000000000       0.59375000000000000        0.0000000000000000     
   1.0000000000000000       0.59375000000000000        0.0000000000000000     
  0.87500000000000000       0.62500000000000000        0.0000000000000000     
  0.90625000000000000       0.62500000000000000        0.0000000000000000     
  0.93750000000000000       0.62500000000000000        0.0000000000000000     
  0.96875000000000000       0.62500000000000000        0.0000000000000000     
   1.0000000000000000       0.62500000000000000        0.0000000000000000     
   0.0000000000000000       0.62500000000000000        0.0000000000000000     
   3.1250000000000000E-002  0.62500000000000000        0.0000000000000000     
   6.2500000000000000E-002  0.62500000000000000        0.0000000000000000     
   9.3750000000000000E-002  0.62500000000000000        0.0000000000000000     
  0.12500000000000000       0.62500000000000000        0.0000000000000000     
   0.0000000000000000       0.65625000000000000        0.0000000000000000     
   3.1250000000000000E-002  0.65625000000000000        0.0000000000000000     
   6.2500000000000000E-002  0.65625000000000000        0.0000000000000000     
   9.3750000000000000E-002  0.65625000000000000        0.0000000000000000     
  0.12500000000000000       0.65625000000000000        0.0000000000000000     
   0.0000000000000000       0.68750000000000000        0.0000000000000000     
   3.1250000000000000E-002  0.68750000000000000        0.0000000000000000     
   6.2500000000000000E-002  0.68750000000000000        0.0000000000000000     
   9.3750000000000000E-002  0.68750000000000000        0.0000000000000000     
  0.12500000000000000       0.68750000000000000        0.0000000000000000     
   0.0000000000000000       0.71875000000000000        0.0000000000000000     
   3.1250000000000000E-002  0.71875000000000000        0.0000000000000000     
   6.2500000000000000E-002  0.71875000000000000        0.0000000000000000     
   9.3750000000000000E-002  0.71875000000000000        0.0000000000000000     
  0.12500000000000000       0.71875000000000000        0.0000000000000000     
   0.0000000000000000       0.75000000000000000        0.0000000000000000     
   3.1250000000000000E-002  0.75000000000000000        0.0000000000000000     
   6.2500000000000000E-002  0.75000000000000000        0.0000000000000000     
   9.3750000000000000E-002  0.75000000000000000        0.0000000000000000     
  0.12500000000000000       0.75000000000000000        0.0000000000000000     
  0.12500000000000000       0.62500000000000000        0.0000000000000000     
  0.15625000000000000       0.62500000000000000        0.0000000000000000     
  0.18750000000000000       0.62500000000000000        0.0000000000000000     
  0.21875000000000000       0.62500000000000000        0.0000000000000000     
  0.25000000000000000       0.62500000000000000        0.0000000000000000     
  0.12500000000000000       0.65625000000000000        0.0000000000000000     
  0.15625000000000000       0.65625000000000000        0.0000000000000000     
  0.18750000000000000       0.65625000000000000        0.0000000000000000     
  0.21875000000000000       0.65625000000000000        0.0000000000000000     
  0.25000000000000000       0.65625000000000000        0.0000000000000000     
  0.12500000000000000       0.68750000000000000        0.0000000000000000     
  0.15625000000000000       0.68750000000000000        0.0000000000000000     
  0.18750000000000000       0.68750000000000000        0.0000000000000000     
  0.21875000000000000       0.68750000000000000        0.0000000000000000     
  0.25000000000000000       0.68750000000000000        0.0000000000000000     
  0.12500000000000000       0.71875000000000000        0.0000000000000000     
  0.15625000000000000       0.71875000000000000        0.0000000000000000     
  0.18750000000000000       0.71875000000000000        0.0000000000000000     
  0.21875000000000000       0.71875000000000000        0.0000000000000000     
  0.25000000000000000       0.71875000000000000        0.0000000000000000     
  0.12500000000000000       0.75000000000000000        0.0000000000000000     
  0.15625000000000000       0.75000000000000000        0.0000000000000000     
  0.18750000000000000       0.75000000000000000        0.0000000000000000     
  0.21875000000000000       0.75000000000000000        0.0000000000000000     
  0.25000000000000000       0.75000000000000000        0.0000000000000000     
  0.25000000000000000       0.62500000000000000        0.0000000000000000     
  0.28125000000000000       0.62500000000000000        0.0000000000000000     
  0.31250000000000000       0.62500000000000000        0.0000000000000000     
  0.34375000000000000       0.62500000000000000        0.0000000000000000     
  0.37500000000000000       0.62500000000000000        0.0000000000000000     
  0.25000000000000000       0.65625000000000000        0.0000000000000000     
  0.28125000000000000       0.65625000000000000        0.0000000000000000     
  0.31250000000000000       0.65625000000000000        0.0000000000000000     
  0.34375000000000000       0.65625000000000000        0.0000000000000000     
  0.37500000000000000       0.65625000000000000        0.0000000000000000     
  0.25000000000000000       0.68750000000000000        0.0000000000000000     
  0.28125000000000000       0.68750000000000000        0.0000000000000000     
  0.31250000000000000       0.68750000000000000        0.0000000000000000     
  0.34375000000000000       0.68750000000000000        0.0000000000000000     
  0.37500000000000000       0.68750000000000000        0.0000000000000000     
  0.25000000000000000       0.71875000000000000        0.0000000000000000     
  0.28125000000000000       0.71875000000000000        0.0000000000000000     
  0.31250000000000000       0.71875000000000000        0.0000000000000000     
  0.34375000000000000       0.71875000000000000        0.0000000000000000     
  0.37500000000000000       0.71875000000000000        0.0000000000000000     
  0.25000000000000000       0.75000000000000000        0.0000000000000000     
  0.28125000000000000       0.75000000000000000        0.0000000000000000     
  0.31250000000000000       0.75000000000000000        0.0000000000000000     
  0.34375000000000000       0.75000000000000000        0.0000000000000000     
  0.37500000000000000       0.75000000000000000        0.0000000000000000     
  0.37500000000000000       0.62500000000000000        0.0000000000000000     
  0.40625000000000000       0.62500000000000000        0.0000000000000000     
  0.43750000000000000       0.62500000000000000        0.0000000000000000     
  0.46875000000000000       0.62500000000000000        0.0000000000000000     
  0.50000000000000000       0.62500000000000000        0.0000000000000000     
  0.37500000000000000       0.65625000000000000        0.0000000000000000     
  0.40625000000000000       0.65625000000000000        0.0000000000000000     
  0.43750000000000000       0.65625000000000000        0.0000000000000000     
  0.46875000000000000       0.65625000000000000        0.0000000000000000     
  0.50000000000000000       0.65625000000000000        0.0000000000000000     
  0.37500000000000000       0.68750000000000000        0.0000000000000000     
  0.40625000000000000       0.68750000000000000        0.0000000000000000     
  0.43750000000000000       0.68750000000000000        0.0000000000000000     
  0.46875000000000000       0.68750000000000000        0.0000000000000000     
  0.50000000000000000       0.68750000000000000        0.0000000000000000     
  0.37500000000000000       0.71875000000000000        0.0000000000000000     
  0.40625000000000000       0.71875000000000000        0.0000000000000000     
  0.43750000000000000       0.71875000000000000        0.0000000000000000     
  0.46875000000000000       0.71875000000000000        0.0000000000000000     
  0.50000000000000000       0.71875000000000000        0.0000000000000000     
  0.37500000000000000       0.75000000000000000        0.0000000000000000     
  0.40625000000000000       0.75000000000000000        0.0000000000000000     
  0.43750000000000000       0.75000000000000000        0.0000000000000000     
  0.46875000000000000       0.75000000000000000        0.0000000000000000     
  0.50000000000000000       0.75000000000000000        0.0000000000000000     
  0.50000000000000000       0.62500000000000000        0.0000000000000000     
  0.53125000000000000       0.62500000000000000        0.0000000000000000     
  0.56250000000000000       0.62500000000000000        0.0000000000000000     
  0.59375000000000000       0.62500000000000000        0.0000000000000000     
  0.62500000000000000       0.62500000000000000        0.0000000000000000     
  0.50000000000000000       0.65625000000000000        0.0000000000000000     
  0.53125000000000000       0.65625000000000000        0.0000000000000000     
  0.56250000000000000       0.65625000000000000        0.0000000000000000     
  0.59375000000000000       0.65625000000000000        0.0000000000000000     
  0.62500000000000000       0.65625000000000000        0.0000000000000000     
  0.50000000000000000       0.68750000000000000        0.0000000000000000     
  0.53125000000000000       0.68750000000000000        0.0000000000000000     
  0.56250000000000000       0.68750000000000000        0.0000000000000000     
  0.59375000000000000       0.68750000000000000        0.0000000000000000     
  0.62500000000000000       0.68750000000000000        0.0000000000000000     
  0.50000000000000000       0.71875000000000000        0.0000000000000000     
  0.53125000000000000       0.71875000000000000        0.0000000000000000     
  0.56250000000000000       0.71875000000000000        0.0000000000000000     
  0.59375000000000000       0.71875000000000000        0.0000000000000000     
  0.62500000000000000       0.71875000000000000        0.0000000000000000     
  0.50000000000000000       0.75000000000000000        0.0000000000000000     
  0.53125000000000000       0.75000000000000000        0.0000000000000000     
  0.56250000000000000       0.75000000000000000        0.0000000000000000     
  0.59375000000000000       0.75000000000000000        0.0000000000000000     
  0.62500000000000000       0.75000000000000000        0.0000000000000000     
  0.62500000000000000       0.62500000000000000        0.0000000000000000     
  0.65625000000000000       0.62500000000000000        0.0000000000000000     
  0.68750000000000000       0.62500000000000000        0.0000000000000000     
  0.71875000000000000       0.62500000000000000        0.0000000000000000     
  0.75000000000000000       0.62500000000000000        0.0000000000000000     
  0.62500000000000000       0.65625000000000000        0.0000000000000000     
  0.65625000000000000       0.65625000000000000        0.0000000000000000     
  0.68750000000000000       0.65625000000000000        0.0000000000000000     
  0.71875000000000000       0.65625000000000000        0.0000000000000000     
  0.75000000000000000       0.65625000000000000        0.0000000000000000     
  0.62500000000000000       0.68750000000000000        0.0000000000000000     
  0.65625000000000000       0.68750000000000000        0.0000000000000000     
  0.68750000000000000       0.68750000000000000        0.0000000000000000     
  0.71875000000000000       0.68750000000000000        0.0000000000000000     
  0.75000000000000000       0.68750000000000000        0.0000000000000000     
  0.62500000000000000       0.71875000000000000        0.0000000000000000     
  0.65625000000000000       0.71875000000000000        0.0000000000000000     
  0.68750000000000000       0.71875000000000000        0.0000000000000000     
  0.71875000000000000       0.71875000000000000        0.0000000000000000     
  0.75000000000000000       0.71875000000000000        0.0000000000000000     
  0.62500000000000000       0.75000000000000000        0.0000000000000000     
  0.65625000000000000       0.75000000000000000        0.0000000000000000     
  0.68750000000000000       0.75000000000000000        0.0000000000000000     
  0.71875000000000000       0.75000000000000000        0.0000000000000000     
  0.75000000000000000       0.75000000000000000        0.0000000000000000     
  0.75000000000000000       0.62500000000000000        0.0000000000000000     
  0.78125000000000000       0.62500000000000000        0.0000000000000000     
  0.81250000000000000       0.62500000000000000        0.0000000000000000     
  0.84375000000000000       0.62500000000000000        0.0000000000000000     
  0.87500000000000000       0.62500000000000000        0.0000000000000000     
  0.75000000000000000       0.65625000000000000        0.0000000000000000     
  0.78125000000000000       0.65625000000000000        0.0000000000000000     
  0.81250000000000000       0.65625000000000000        0.0000000000000000     
  0.84375000000000000       0.65625000000000000        0.0000000000000000     
  0.87500000000000000       0.65625000000000000        0.0000000000000000     
  0.75000000000000000       0.68750000000000000        0.0000000000000000     
  0.78125000000000000       0.68750000000000000        0.0000000000000000     
  0.81250000000000000       0.68750000000000000        0.0000000000000000     
  0.84375000000000000       0.68750000000000000        0.0000000000000000     
  0.87500000000000000       0.68750000000000000        0.0000000000000000     
  0.75000000000000000       0.71875000000000000        0.0000000000000000     
  0.78125000000000000       0.71875000000000000        0.0000000000000000     
  0.81250000000000000       0.71875000000000000        0.0000000000000000     
  0.84375000000000000       0.71875000000000000        0.0000000000000000     
  0.87500000000000000       0.71875000000000000        0.0000000000000000     
  0.75000000000000000       0.75000000000000000        0.0000000000000000     
  0.78125000000000000       0.75000000000000000        0.0000000000000000     
  0.81250000000000000       0.75000000000000000        0.0000000000000000     
  0.84375000000000000       0.75000000000000000        0.0000000000000000     
  0.87500000000000000       0.75000000000000000        0.0000000000000000     
  0.87500000000000000       0.62500000000000000        0.0000000000000000     
  0.90625000000000000       0.62500000000000000        0.0000000000000000     
  0.93750000000000000       0.62500000000000000        0.0000000000000000     
  0.96875000000000000       0.62500000000000000        0.0000000000000000     
   1.0000000000000000       0.62500000000000000        0.0000000000000000     
  0.87500000000000000       0.65625000000000000        0.0000000000000000     
  0.90625000000000000       0.65625000000000000        0.0000000000000000     
  0.93750000000000000       0.65625000000000000        0.0000000000000000     
  0.96875000000000000       0.65625000000000000        0.0000000000000000     
   1.0000000000000000       0.65625000000000000        0.0000000000000000     
  0.87500000000000000       0.68750000000000000        0.0000000000000000     
  0.90625000000000000       0.68750000000000000        0.0000000000000000     
  0.93750000000000000       0.68750000000000000        0.0000000000000000     
  0.96875000000000000       0.68750000000000000        0.0000000000000000     
   1.0000000000000000       0.68750000000000000        0.0000000000000000     
  0.87500000000000000       0.71875000000000000        0.0000000000000000     
  0.90625000000000000       0.71875000000000000        0.0000000000000000     
  0.93750000000000000       0.71875000000000000        0.0000000000000000     
  0.96875000000000000       0.71875000000000000        0.0000000000000000     
   1.0000000000000000       0.71875000000000000        0.0000000000000000     
  0.87500000000000000       0.75000000000000000        0.0000000000000000     
  0.90625000000000000       0.75000000000000000        0.0000000000000000     
  0.93750000000000000       0.75000000000000000        0.0000000000000000     
  0.96875000000000000       0.75000000000000000        0.0000000000000000     
   1.0000000000000000       0.75000000000000000        0.0000000000000000     
   0.0000000000000000       0.75000000000000000        0.0000000000000000     
   3.1250000000000000E-002  0.75000000000000000        0.0000000000000000     
   6.2500000000000000E-002  0.75000000000000000        0.0000000000000000     
   9.3750000000000000E-002  0.75000000000000000        0.0000000000000000     
  0.12500000000000000       0.75000000000000000        0.0000000000000000     
   0.0000000000000000       0.78125000000000000        0.0000000000000000     
   3.1250000000000000E-002  0.78125000000000000        0.0000000000000000     
   6.2500000000000000E-002  0.78125000000000000        0.0000000000000000     
   9.3750000000000000E-002  0.78125000000000000        0.0000000000000000     
  0.12500000000000000       0.78125000000000000        0.0000000000000000     
   0.0000000000000000       0.81250000000000000        0.0000000000000000     
   3.1250000000000000E-002  0.81250000000000000        0.0000000000000000     
   6.2500000000000000E-002  0.81250000000000000        0.0000000000000000     
   9.3750000000000000E-002  0.81250000000000000        0.0000000000000000     
  0.12500000000000000       0.81250000000000000        0.0000000000000000     
   0.0000000000000000       0.84375000000000000        0.0000000000000000     
   3.1250000000000000E-002  0.84375000000000000        0.0000000000000000     
   6.2500000000000000E-002  0.84375000000000000        0.0000000000000000     
   9.3750000000000000E-002  0.84375000000000000        0.0000000000000000     
  0.12500000000000000       0.84375000000000000        0.0000000000000000     
   0.0000000000000000       0.87500000000000000        0.0000000000000000     
   3.1250000000000000E-002  0.87500000000000000        0.0000000000000000     
   6.2500000000000000E-002  0.87500000000000000        0.0000000000000000     
   9.3750000000000000E-002  0.87500000000000000        0.0000000000000000     
  0.12500000000000000       0.87500000000000000        0.0000000000000000     
  0.12500000000000000       0.75000000000000000        0.0000000000000000     
  0.15625000000000000       0.75000000000000000        0.0000000000000000     
  0.18750000000000000       0.75000000000000000        0.0000000000000000     
  0.21875000000000000       0.75000000000000000        0.0000000000000000     
  0.25000000000000000       0.75000000000000000        0.0000000000000000     
  0.12500000000000000       0.78125000000000000        0.0000000000000000     
  0.15625000000000000       0.78125000000000000        0.0000000000000000     
  0.18750000000000000       0.78125000000000000        0.0000000000000000     
  0.21875000000000000       0.78125000000000000        0.0000000000000000     
  0.25000000000000000       0.78125000000000000        0.0000000000000000     
  0.12500000000000000       0.81250000000000000        0.0000000000000000     
  0.15625000000000000       0.81250000000000000        0.0000000000000000     
  0.18750000000000000       0.81250000000000000        0.0000000000000000     
  0.21875000000000000       0.81250000000000000        0.0000000000000000     
  0.25000000000000000       0.81250000000000000        0.0000000000000000     
  0.12500000000000000       0.84375000000000000        0.0000000000000000     
  0.15625000000000000       0.84375000000000000        0.0000000000000000     
  0.18750000000000000       0.84375000000000000        0.0000000000000000     
  0.21875000000000000       0.84375000000000000        0.0000000000000000     
  0.25000000000000000       0.84375000000000000        0.0000000000000000     
  0.12500000000000000       0.87500000000000000        0.0000000000000000     
  0.15625000000000000       0.87500000000000000        0.0000000000000000     
  0.18750000000000000       0.87500000000000000        0.0000000000000000     
  0.21875000000000000       0.87500000000000000        0.0000000000000000     
  0.25000000000000000       0.87500000000000000        0.0000000000000000     
  0.25000000000000000       0.75000000000000000        0.0000000000000000     
  0.28125000000000000       0.75000000000000000        0.0000000000000000     
  0.31250000000000000       0.75000000000000000        0.0000000000000000     
  0.34375000000000000       0.75000000000000000        0.0000000000000000     
  0.37500000000000000       0.75000000000000000        0.0000000000000000     
  0.25000000000000000       0.78125000000000000        0.0000000000000000     
  0.28125000000000000       0.78125000000000000        0.0000000000000000     
  0.31250000000000000       0.78125000000000000        0.0000000000000000     
  0.34375000000000000       0.78125000000000000        0.0000000000000000     
  0.37500000000000000       0.78125000000000000        0.0000000000000000     
  0.25000000000000000       0.81250000000000000        0.0000000000000000     
  0.28125000000000000       0.81250000000000000        0.0000000000000000     
  0.31250000000000000       0.81250000000000000        0.0000000000000000     
  0.34375000000000000       0.81250000000000000        0.0000000000000000     
  0.37500000000000000       0.81250000000000000        0.0000000000000000     
  0.25000000000000000       0.84375000000000000        0.0000000000000000     
  0.28125000000000000       0.84375000000000000        0.0000000000000000     
  0.31250000000000000       0.84375000000000000        0.0000000000000000     
  0.34375000000000000       0.84375000000000000        0.0000000000000000     
  0.37500000000000000       0.84375000000000000        0.0000000000000000     
  0.25000000000000000       0.87500000000000000        0.0000000000000000     
  0.28125000000000000       0.87500000000000000        0.0000000000000000     
  0.31250000000000000       0.87500000000000000        0.0000000000000000     
  0.34375000000000000       0.87500000000000000        0.0000000000000000     
  0.37500000000000000       0.87500000000000000        0.0000000000000000     
  0.37500000000000000       0.75000000000000000        0.0000000000000000     
  0.40625000000000000       0.75000000000000000        0.0000000000000000     
  0.43750000000000000       0.75000000000000000        0.0000000000000000     
  0.46875000000000000       0.75000000000000000        0.0000000000000000     
  0.50000000000000000       0.75000000000000000        0.0000000000000000     
  0.37500000000000000       0.78125000000000000        0.0000000000000000     
  0.40625000000000000       0.78125000000000000        0.0000000000000000     
  0.43750000000000000       0.78125000000000000        0.0000000000000000     
  0.46875000000000000       0.78125000000000000        0.0000000000000000     
  0.50000000000000000       0.78125000000000000        0.0000000000000000     
  0.37500000000000000       0.81250000000000000        0.0000000000000000     
  0.40625000000000000       0.81250000000000000        0.0000000000000000     
  0.43750000000000000       0.81250000000000000        0.0000000000000000     
  0.46875000000000000       0.81250000000000000        0.0000000000000000     
  0.50000000000000000       0.81250000000000000        0.0000000000000000     
  0.37500000000000000       0.84375000000000000        0.0000000000000000     
  0.40625000000000000       0.84375000000000000        0.0000000000000000     
  0.43750000000000000       0.84375000000000000        0.0000000000000000     
  0.46875000000000000       0.84375000000000000        0.0000000000000000     
  0.50000000000000000       0.84375000000000000        0.0000000000000000     
  0.37500000000000000       0.87500000000000000        0.0000000000000000     
  0.40625000000000000       0.87500000000000000        0.0000000000000000     
  0.43750000000000000       0.87500000000000000        0.0000000000000000     
  0.46875000000000000       0.87500000000000000        0.0000000000000000     
  0.50000000000000000       0.87500000000000000        0.0000000000000000     
  0.50000000000000000       0.75000000000000000        0.0000000000000000     
  0.53125000000000000       0.75000000000000000        0.0000000000000000     
  0.56250000000000000       0.75000000000000000        0.0000000000000000     
  0.59375000000000000       0.75000000000000000        0.0000000000000000     
  0.62500000000000000       0.75000000000000000        0.0000000000000000     
  0.50000000000000000       0.78125000000000000        0.0000000000000000     
  0.53125000000000000       0.78125000000000000        0.0000000000000000     
  0.56250000000000000       0.78125000000000000        0.0000000000000000     
  0.59375000000000000       0.78125000000000000        0.0000000000000000     
  0.62500000000000000       0.78125000000000000        0.0000000000000000     
  0.50000000000000000       0.81250000000000000        0.0000000000000000     
  0.53125000000000000       0.81250000000000000        0.0000000000000000     
  0.56250000000000000       0.81250000000000000        0.0000000000000000     
  0.59375000000000000       0.81250000000000000        0.0000000000000000     
  0.62500000000000000       0.81250000000000000        0.0000000000000000     
  0.50000000000000000       0.84375000000000000        0.0000000000000000     
  0.53125000000000000       0.84375000000000000        0.0000000000000000     
  0.56250000000000000       0.84375000000000000        0.0000000000000000     
  0.59375000000000000       0.84375000000000000        0.0000000000000000     
  0.62500000000000000       0.84375000000000000        0.0000000000000000     
  0.50000000000000000       0.87500000000000000        0.0000000000000000     
  0.53125000000000000       0.87500000000000000        0.0000000000000000     
  0.56250000000000000       0.87500000000000000        0.0000000000000000     
  0.59375000000000000       0.87500000000000000        0.0000000000000000     
  0.62500000000000000       0.87500000000000000        0.0000000000000000     
  0.62500000000000000       0.75000000000000000        0.0000000000000000     
  0.65625000000000000       0.75000000000000000        0.0000000000000000     
  0.68750000000000000       0.75000000000000000        0.0000000000000000     
  0.71875000000000000       0.75000000000000000        0.0000000000000000     
  0.75000000000000000       0.75000000000000000        0.0000000000000000     
  0.62500000000000000       0.78125000000000000        0.0000000000000000     
  0.65625000000000000       0.78125000000000000        0.0000000000000000     
  0.68750000000000000       0.78125000000000000        0.0000000000000000     
  0.71875000000000000       0.78125000000000000        0.0000000000000000     
  0.75000000000000000       0.78125000000000000        0.0000000000000000     
  0.62500000000000000       0.81250000000000000        0.0000000000000000     
  0.65625000000000000       0.81250000000000000        0.0000000000000000     
  0.68750000000000000       0.81250000000000000        0.0000000000000000     
  0.71875000000000000       0.81250000000000000        0.0000000000000000     
  0.75000000000000000       0.81250000000000000        0.0000000000000000     
  0.62500000000000000       0.84375000000000000        0.0000000000000000     
  0.65625000000000000       0.84375000000000000        0.0000000000000000     
  0.68750000000000000       0.84375000000000000        0.0000000000000000     
  0.71875000000000000       0.84375000000000000        0.0000000000000000     
  0.75000000000000000       0.84375000000000000        0.0000000000000000     
  0.62500000000000000       0.87500000000000000        0.0000000000000000     
  0.65625000000000000       0.87500000000000000        0.0000000000000000     
  0.68750000000000000       0.87500000000000000        0.0000000000000000     
  0.71875000000000000       0.87500000000000000        0.0000000000000000     
  0.75000000000000000       0.87500000000000000        0.0000000000000000     
  0.75000000000000000       0.75000000000000000        0.0000000000000000     
  0.78125000000000000       0.75000000000000000        0.0000000000000000     
  0.81250000000000000       0.75000000000000000        0.0000000000000000     
  0.84375000000000000       0.75000000000000000        0.0000000000000000     
  0.87500000000000000       0.75000000000000000        0.0000000000000000     
  0.75000000000000000       0.78125000000000000        0.0000000000000000     
  0.78125000000000000       0.78125000000000000        0.0000000000000000     
  0.81250000000000000       0.78125000000000000        0.0000000000000000     
  0.84375000000000000       0.78125000000000000        0.0000000000000000     
  0.87500000000000000       0.78125000000000000        0.0000000000000000     
  0.75000000000000000       0.81250000000000000        0.0000000000000000     
  0.78125000000000000       0.81250000000000000        0.0000000000000000     
  0.81250000000000000       0.81250000000000000        0.0000000000000000     
  0.84375000000000000       0.81250000000000000        0.0000000000000000     
  0.87500000000000000       0.81250000000000000        0.0000000000000000     
  0.75000000000000000       0.84375000000000000        0.0000000000000000     
  0.78125000000000000       0.84375000000000000        0.0000000000000000     
  0.81250000000000000       0.84375000000000000        0.0000000000000000     
  0.84375000000000000       0.84375000000000000        0.0000000000000000     
  0.87500000000000000       0.84375000000000000        0.0000000000000000     
  0.75000000000000000       0.87500000000000000        0.0000000000000000     
  0.78125000000000000       0.87500000000000000        0.0000000000000000     
  0.81250000000000000       0.87500000000000000        0.0000000000000000     
  0.84375000000000000       0.87500000000000000        0.0000000000000000     
  0.87500000000000000       0.87500000000000000        0.0000000000000000     
  0.87500000000000000       0.75000000000000000        0.0000000000000000     
  0.90625000000000000       0.75000000000000000        0.0000000000000000     
  0.93750000000000000       0.75000000000000000        0.0000000000000000     
  0.96875000000000000       0.75000000000000000        0.0000000000000000     
   1.0000000000000000       0.75000000000000000        0.0000000000000000     
  0.87500000000000000       0.78125000000000000        0.0000000000000000     
  0.90625000000000000       0.78125000000000000        0.0000000000000000     
  0.93750000000000000       0.78125000000000000        0.0000000000000000     
  0.96875000000000000       0.78125000000000000        0.0000000000000000     
   1.0000000000000000       0.78125000000000000        0.0000000000000000     
  0.87500000000000000       0.81250000000000000        0.0000000000000000     
  0.90625000000000000       0.81250000000000000        0.0000000000000000     
  0.93750000000000000       0.81250000000000000        0.0000000000000000     
  0.96875000000000000       0.81250000000000000        0.0000000000000000     
   1.0000000000000000       0.81250000000000000        0.0000000000000000     
  0.87500000000000000       0.84375000000000000        0.0000000000000000     
  0.90625000000000000       0.84375000000000000        0.0000000000000000     
  0.93750000000000000       0.84375000000000000        0.0000000000000000     
  0.96875000000000000       0.84375000000000000        0.0000000000000000     
   1.0000000000000000       0.84375000000000000        0.0000000000000000     
  0.87500000000000000       0.87500000000000000        0.0000000000000000     
  0.90625000000000000       0.87500000000000000        0.0000000000000000     
  0.93750000000000000       0.87500000000000000        0.0000000000000000     
  0.96875000000000000       0.87500000000000000        0.0000000000000000     
   1.0000000000000000       0.87500000000000000        0.0000000000000000     
   0.0000000000000000       0.87500000000000000        0.0000000000000000     
   3.1250000000000000E-002  0.87500000000000000        0.0000000000000000     
   6.2500000000000000E-002  0.87500000000000000        0.0000000000000000     
   9.3750000000000000E-002  0.87500000000000000        0.0000000000000000     
  0.12500000000000000       0.87500000000000000        0.0000000000000000     
   0.0000000000000000       0.90625000000000000        0.0000000000000000     
   3.1250000000000000E-002  0.90625000000000000        0.0000000000000000     
   6.2500000000000000E-002  0.90625000000000000        0.0000000000000000     
   9.3750000000000000E-002  0.90625000000000000        0.0000000000000000     
  0.12500000000000000       0.90625000000000000        0.0000000000000000     
   0.0000000000000000       0.93750000000000000        0.0000000000000000     
   3.1250000000000000E-002  0.93750000000000000        0.0000000000000000     
   6.2500000000000000E-002  0.93750000000000000        0.0000000000000000     
   9.3750000000000000E-002  0.93750000000000000        0.0000000000000000     
  0.12500000000000000       0.93750000000000000        0.0000000000000000     
   0.0000000000000000       0.96875000000000000        0.0000000000000000     
   3.1250000000000000E-002  0.96875000000000000        0.0000000000000000     
   6.2500000000000000E-002  0.96875000000000000        0.0000000000000000     
   9.3750000000000000E-002  0.96875000000000000        0.0000000000000000     
  0.12500000000000000       0.96875000000000000        0.0000000000000000     
   0.0000000000000000        1.0000000000000000        0.0000000000000000     
   3.1250000000000000E-002   1.0000000000000000        0.0000000000000000     
   6.2500000000000000E-002   1.0000000000000000        0.0000000000000000     
   9.3750000000000000E-002   1.0000000000000000        0.0000000000000000     
  0.12500000000000000        1.0000000000000000        0.0000000000000000     
  0.12500000000000000       0.87500000000000000        0.0000000000000000     
  0.15625000000000000       0.87500000000000000        0.0000000000000000     
  0.18750000000000000       0.87500000000000000        0.0000000000000000     
  0.21875000000000000       0.87500000000000000        0.0000000000000000     
  0.25000000000000000       0.87500000000000000        0.0000000000000000     
  0.12500000000000000       0.90625000000000000        0.0000000000000000     
  0.15625000000000000       0.90625000000000000        0.0000000000000000     
  0.18750000000000000       0.90625000000000000        0.0000000000000000     
  0.21875000000000000       0.90625000000000000        0.0000000000000000     
  0.25000000000000000       0.90625000000000000        0.0000000000000000     
  0.12500000000000000       0.93750000000000000        0.0000000000000000     
  0.15625000000000000       0.93750000000000000        0.0000000000000000     
  0.18750000000000000       0.93750000000000000        0.0000000000000000     
  0.21875000000000000       0.93750000000000000        0.0000000000000000     
  0.25000000000000000       0.93750000000000000        0.0000000000000000     
  0.12500000000000000       0.96875000000000000        0.0000000000000000     
  0.15625000000000000       0.96875000000000000        0.0000000000000000     
  0.18750000000000000       0.96875000000000000        0.0000000000000000     
  0.21875000000000000       0.96875000000000000        0.0000000000000000     
  0.25000000000000000       0.96875000000000000        0.0000000000000000     
  0.12500000000000000        1.0000000000000000        0.0000000000000000     
  0.15625000000000000        1.0000000000000000        0.0000000000000000     
  0.18750000000000000        1.0000000000000000        0.0000000000000000     
  0.21875000000000000        1.0000000000000000        0.0000000000000000     
  0.25000000000000000        1.0000000000000000        0.0000000000000000     
  0.25000000000000000       0.87500000000000000        0.0000000000000000     
  0.28125000000000000       0.87500000000000000        0.0000000000000000     
  0.31250000000000000       0.87500000000000000        0.0000000000000000     
  0.34375000000000000       0.87500000000000000        0.0000000000000000     
  0.37500000000000000       0.87500000000000000        0.0000000000000000     
  0.25000000000000000       0.90625000000000000        0.0000000000000000     
  0.28125000000000000       0.90625000000000000        0.0000000000000000     
  0.31250000000000000       0.90625000000000000        0.0000000000000000     
  0.34375000000000000       0.90625000000000000        0.0000000000000000     
  0.37500000000000000       0.90625000000000000        0.0000000000000000     
  0.25000000000000000       0.93750000000000000        0.0000000000000000     
  0.28125000000000000       0.93750000000000000        0.0000000000000000     
  0.31250000000000000       0.93750000000000000        0.0000000000000000     
  0.34375000000000000       0.93750000000000000        0.0000000000000000     
  0.37500000000000000       0.93750000000000000        0.0000000000000000     
  0.25000000000000000       0.96875000000000000        0.0000000000000000     
  0.28125000000000000       0.96875000000000000        0.0000000000000000     
  0.31250000000000000       0.96875000000000000        0.0000000000000000     
  0.34375000000000000       0.96875000000000000        0.0000000000000000     
  0.37500000000000000       0.96875000000000000        0.0000000000000000     
  0.25000000000000000        1.0000000000000000        0.0000000000000000     
  0.28125000000000000        1.0000000000000000        0.0000000000000000     
  0.31250000000000000        1.0000000000000000        0.0000000000000000     
  0.34375000000000000        1.0000000000000000        0.0000000000000000     
  0.37500000000000000        1.0000000000000000        0.0000000000000000     
  0.37500000000000000       0.87500000000000000        0.0000000000000000     
  0.40625000000000000       0.87500000000000000        0.0000000000000000     
  0.43750000000000000       0.87500000000000000        0.0000000000000000     
  0.46875000000000000       0.87500000000000000        0.0000000000000000     
  0.50000000000000000       0.87500000000000000        0.0000000000000000     
  0.37500000000000000       0.90625000000000000        0.0000000000000000     
  0.40625000000000000       0.90625000000000000        0.0000000000000000     
  0.43750000000000000       0.90625000000000000        0.0000000000000000     
  0.46875000000000000       0.90625000000000000        0.0000000000000000     
  0.50000000000000000       0.90625000000000000        0.0000000000000000     
  0.37500000000000000       0.93750000000000000        0.0000000000000000     
  0.40625000000000000       0.93750000000000000        0.0000000000000000     
  0.43750000000000000       0.93750000000000000        0.0000000000000000     
  0.46875000000000000       0.93750000000000000        0.0000000000000000     
  0.50000000000000000       0.93750000000000000        0.0000000000000000     
  0.37500000000000000       0.96875000000000000        0.0000000000000000     
  0.40625000000000000       0.96875000000000000        0.0000000000000000     
  0.43750000000000000       0.96875000000000000        0.0000000000000000     
  0.46875000000000000       0.96875000000000000        0.0000000000000000     
  0.50000000000000000       0.96875000000000000        0.0000000000000000     
  0.37500000000000000        1.0000000000000000        0.0000000000000000     
  0.40625000000000000        1.0000000000000000        0.0000000000000000     
  0.43750000000000000        1.0000000000000000        0.0000000000000000     
  0.46875000000000000        1.0000000000000000        0.0000000000000000     
  0.50000000000000000        1.0000000000000000        0.0000000000000000     
  0.50000000000000000       0.87500000000000000        0.0000000000000000     
  0.53125000000000000       0.87500000000000000        0.0000000000000000     
  0.56250000000000000       0.87500000000000000        0.0000000000000000     
  0.59375000000000000       0.87500000000000000        0.0000000000000000     
  0.62500000000000000       0.87500000000000000        0.0000000000000000     
  0.50000000000000000       0.90625000000000000        0.0000000000000000     
  0.53125000000000000       0.90625000000000000        0.0000000000000000     
  0.56250000000000000       0.90625000000000000        0.0000000000000000     
  0.59375000000000000       0.90625000000000000        0.0000000000000000     
  0.62500000000000000       0.90625000000000000        0.0000000000000000     
  0.50000000000000000       0.93750000000000000        0.0000000000000000     
  0.53125000000000000       0.93750000000000000        0.0000000000000000     
  0.56250000000000000       0.93750000000000000        0.0000000000000000     
  0.59375000000000000       0.93750000000000000        0.0000000000000000     
  0.62500000000000000       0.93750000000000000        0.0000000000000000     
  0.50000000000000000       0.96875000000000000        0.0000000000000000     
  0.53125000000000000       0.96875000000000000        0.0000000000000000     
  0.56250000000000000       0.96875000000000000        0.0000000000000000     
  0.59375000000000000       0.96875000000000000        0.0000000000000000     
  0.62500000000000000       0.96875000000000000        0.0000000000000000     
  0.50000000000000000        1.0000000000000000        0.0000000000000000     
  0.53125000000000000        1.0000000000000000        0.0000000000000000     
  0.56250000000000000        1.0000000000000000        0.0000000000000000     
  0.59375000000000000        1.0000000000000000        0.0000000000000000     
  0.62500000000000000        1.0000000000000000        0.0000000000000000     
  0.62500000000000000       0.87500000000000000        0.0000000000000000     
  0.65625000000000000       0.87500000000000000        0.0000000000000000     
  0.68750000000000000       0.87500000000000000        0.0000000000000000     
  0.71875000000000000       0.87500000000000000        0.0000000000000000     
  0.75000000000000000       0.87500000000000000        0.0000000000000000     
  0.62500000000000000       0.90625000000000000        0.0000000000000000     
  0.65625000000000000       0.90625000000000000        0.0000000000000000     
  0.68750000000000000       0.90625000000000000        0.0000000000000000     
  0.71875000000000000       0.90625000000000000        0.0000000000000000     
  0.75000000000000000       0.90625000000000000        0.0000000000000000     
  0.62500000000000000       0.93750000000000000        0.0000000000000000     
  0.65625000000000000       0.93750000000000000        0.0000000000000000     
  0.68750000000000000       0.93750000000000000        0.0000000000000000     
  0.71875000000000000       0.93750000000000000        0.0000000000000000     
  0.75000000000000000       0.93750000000000000        0.0000000000000000     
  0.62500000000000000       0.96875000000000000        0.0000000000000000     
  0.65625000000000000       0.96875000000000000        0.0000000000000000     
  0.68750000000000000       0.96875000000000000        0.0000000000000000     
  0.71875000000000000       0.96875000000000000        0.0000000000000000     
  0.75000000000000000       0.96875000000000000        0.0000000000000000     
  0.62500000000000000        1.0000000000000000        0.0000000000000000     
  0.65625000000000000        1.0000000000000000        0.0000000000000000     
  0.68750000000000000        1.0000000000000000        0.0000000000000000     
  0.71875000000000000        1.0000000000000000        0.0000000000000000     
  0.75000000000000000        1.0000000000000000        0.0000000000000000     
  0.75000000000000000       0.87500000000000000        0.0000000000000000     
  0.78125000000000000       0.87500000000000000        0.0000000000000000     
  0.81250000000000000       0.87500000000000000        0.0000000000000000     
  0.84375000000000000       0.87500000000000000        0.0000000000000000     
  0.87500000000000000       0.87500000000000000        0.0000000000000000     
  0.75000000000000000       0.90625000000000000        0.0000000000000000     
  0.78125000000000000       0.90625000000000000        0.0000000000000000     
  0.81250000000000000       0.90625000000000000        0.0000000000000000     
  0.84375000000000000       0.90625000000000000        0.0000000000000000     
  0.87500000000000000       0.90625000000000000        0.0000000000000000     
  0.75000000000000000       0.93750000000000000        0.0000000000000000     
  0.78125000000000000       0.93750000000000000        0.0000000000000000     
  0.81250000000000000       0.93750000000000000        0.0000000000000000     
  0.84375000000000000       0.93750000000000000        0.0000000000000000     
  0.87500000000000000       0.93750000000000000        0.0000000000000000     
  0.75000000000000000       0.96875000000000000        0.0000000000000000     
  0.78125000000000000       0.96875000000000000        0.0000000000000000     
  0.81250000000000000       0.96875000000000000        0.0000000000000000     
  0.84375000000000000       0.96875000000000000        0.0000000000000000     
  0.87500000000000000       0.96875000000000000        0.0000000000000000     
  0.75000000000000000        1.0000000000000000        0.0000000000000000     
  0.78125000000000000        1.0000000000000000        0.0000000000000000     
  0.81250000000000000        1.0000000000000000        0.0000000000000000     
  0.84375000000000000        1.0000000000000000        0.0000000000000000     
  0.87500000000000000        1.0000000000000000        0.0000000000000000     
  0.87500000000000000       0.87500000000000000        0.0000000000000000     
  0.90625000000000000       0.87500000000000000        0.0000000000000000     
  0.93750000000000000       0.87500000000000000        0.0000000000000000     
  0.96875000000000000       0.87500000000000000        0.0000000000000000     
   1.0000000000000000       0.87500000000000000        0.0000000000000000     
  0.87500000000000000       0.90625000000000000        0.0000000000000000     
  0.90625000000000000       0.90625000000000000        0.0000000000000000     
  0.93750000000000000       0.90625000000000000        0.0000000000000000     
  0.96875000000000000       0.90625000000000000        0.0000000000000000     
   1.0000000000000000       0.90625000000000000        0.0000000000000000     
  0.87500000000000000       0.93750000000000000        0.0000000000000000     
  0.90625000000000000       0.93750000000000000        0.0000000000000000     
  0.93750000000000000       0.93750000000000000        0.0000000000000000     
  0.96875000000000000       0.93750000000000000        0.0000000000000000     
   1.0000000000000000       0.93750000000000000        0.0000000000000000     
  0.87500000000000000       0.96875000000000000        0.0000000000000000     
  0.90625000000000000       0.96875000000000000        0.0000000000000000     
  0.93750000000000000       0.96875000000000000        0.0000000000000000     
  0.96875000000000000       0.96875000000000000        0.0000000000000000     
   1.0000000000000000       0.96875000000000000        0.0000000000000000     
  0.87500000000000000        1.0000000000000000        0.0000000000000000     
  0.90625000000000000        1.0000000000000000        0.0000000000000000     
  0.93750000000000000        1.0000000000000000        0.0000000000000000     
  0.96875000000000000        1.0000000000000000        0.0000000000000000     
   1.0000000000000000        1.0000000000000000        0.0000000000000000     
 </DataArray>
 </Points>
 <Cells>
 <DataArray  type="Int32"  Name="connectivity"  format="ascii">
           0           1           6           5
           1           2           7           6
           2           3           8           7
           3           4           9           8
           5           6          11          10
           6           7          12          11
           7           8          13          12
           8           9          14          13
          10          11          16          15
          11          12          17          16
          12          13          18          17
          13          14          19          18
          15          16          21          20
          16          17          22          21
          17          18          23          22
          18          19          24          23
          25          26          31          30
          26          27          32          31
          27          28          33          32
          28          29          34          33
          30          31          36          35
          31          32          37          36
          32          33          38          37
          33          34          39          38
          35          36          41          40
          36          37          42          41
          37          38          43          42
          38          39          44          43
          40          41          46          45
          41          42          47          46
          42          43          48          47
          43          44          49          48
          50          51          56          55
          51          52          57          56
          52          53          58          57
          53          54          59          58
          55          56          61          60
          56          57          62          61
          57          58          63          62
          58          59          64          63
          60          61          66          65
          61          62          67          66
          62          63          68          67
          63          64          69          68
          65          66          71          70
          66          67          72          71
          67          68          73          72
          68          69          74          73
          75          76          81          80
          76          77          82          81
          77          78          83          82
          78          79          84          83
          80          81          86          85
          81          82          87          86
          82          83          88          87
          83          84          89          88
          85          86          91          90
          86          87          92          91
          87          88          93          92
          88          89          94          93
          90          91          96          95
          91          92          97          96
          92          93          98          97
          93          94          99          98
         100         101         106         105
         101         102         107         106
         102         103         108         107
         103         104         109         108
         105         106         111         110
         106         107         112         111
         107         108         113         112
         108         109         114         113
         110         111         116         115
         111         112         117         116
         112         113         118         117
         113         114         119         118
         115         116         121         120
         116         117         122         121
         117         118         123         122
         118         119         124         123
         125         126         131         130
         126         127         132         131
         127         128         133         132
         128         129         134         133
         130         131         136         135
         131         132         137         136
         132         133         138         137
         133         134         139         138
         135         136         141         140
         136         137         142         141
         137         138         143         142
         138         139         144         143
         140         141         146         145
         141         142         147         146
         142         143         148         147
         143         144         149         148
         150         151         156         155
         151         152         157         156
         152         153         158         157
         153         154         159         158
         155         156         161         160
         156         157         162         161
         157         158         163         162
         158         159         164         163
         160         161         166         165
         161         162         167         166
         162         163         168         167
         163         164         169         168
         165         166         171         170
         166         167         172         171
         167         168         173         172
         168         169         174         173
         175         176         181         180
         176         177         182         181
         177         178         183         182
         178         179         184         183
         180         181         186         185
         181         182         187         186
         182         183         188         187
         183         184         189         188
         185         186         191         190
         186         187         192         191
         187         188         193         192
         188         189         194         193
         190         191         196         195
         191         192         197         196
         192         193         198         197
         193         194         199         198
         200         201         206         205
         201         202         207         206
         202         203         208         207
         203         204         209         208
         205         206         211         210
         206         207         212         211
         207         208         213         212
         208         209         214         213
         210         211         216         215
         211         212         217         216
         212         213         218         217
         213         214         219         218
         215         216         221         220
         216         217         222         221
         217         218         223         222
         218         219         224         223
         225         226         231         230
         226         227         232         231
         227         228         233         232
         228         229         234         233
         230         231         236         235
         231         232         237         236
         232         233         238         237
         233         234         239         238
         235         236         241         240
         236         237         242         241
         237         238         243         242
         238         239         244         243
         240         241         246         245
         241         242         247         246
         242         243         248         247
         243         244         249         248
         250         251         256         255
         251         252         257         256
         252         253         258         257
         253         254         259         258
         255         256         261         260
         256         257         262         261
         257         258         263         262
         258         259         264         263
         260         261         266         265
         261         262         267         266
         262         263         268         267
         263         264         269         268
         265         266         271         270
         266         267         272         271
         267         268         273         272
         268         269         274         273
         275         276         281         280
         276         277         282         281
         277         278         283         282
         278         279         284         283
         280         281         286         285
         281         282         287         286
         282         283         288         287
         283         284         289         288
         285         286         291         290
         286         287         292         291
         287         288         293         292
         288         289         294         293
         290         291         296         295
         291         292         297         296
         292         293         298         297
         293         294         299         298
         300         301         306         305
         301         302         307         306
         302         303         308         307
         303         304         309         308
         305         306         311         310
         306         307         312         311
         307         308         313         312
         308         309         314         313
         310         311         316         315
         311         312         317         316
         312         313         318         317
         313         314         319         318
         315         316         321         320
         316         317         322         321
         317         318         323         322
         318         319         324         323
         325         326         331         330
         326         327         332         331
         327         328         333         332
         328         329         334         333
         330         331         336         335
         331         332         337         336
         332         333         338         337
         333         334         339         338
         335         336         341         340
         336         337         342         341
         337         338         343         342
         338         339         344         343
         340         341         346         345
         341         342         347         346
         342         343         348         347
         343         344         349         348
         350         351         356         355
         351         352         357         356
         352         353         358         357
         353         354         359         358
         355         356         361         360
         356         357         362         361
         357         358         363         362
         358         359         364         363
         360         361         366         365
         361         362         367         366
         362         363         368         367
         363         364         369         368
         365         366         371         370
         366         367         372         371
         367         368         373         372
         368         369         374         373
         375         376         381         380
         376         377         382         381
         377         378         383         382
         378         379         384         383
         380         381         386         385
         381         382         387         386
         382         383         388         387
         383         384         389         388
         385         386         391         390
         386         387         392         391
         387         388         393         392
         388         389         394         393
         390         391         396         395
         391         392         397         396
         392         393         398         397
         393         394         399         398
         400         401         406         405
         401         402         407         406
         402         403         408         407
         403         404         409         408
         405         406         411         410
         406         407         412         411
         407         408         413         412
         408         409         414         413
         410         411         416         415
         411         412         417         416
         412         413         418         417
         413         414         419         418
         415         416         421         420
         416         417         422         421
         417         418         423         422
         418         419         424         423
         425         426         431         430
         426         427         432         431
         427         428         433         432
         428         429         434         433
         430         431         436         435
         431         432         437         436
         432         433         438         437
         433         434         439         438
         435         436         441         440
         436         437         442         441
         437         438         443         442
         438         439         444         443
         440         441         446         445
         441         442         447         446
         442         443         448         447
         443         444         449         448
         450         451         456         455
         451         452         457         456
         452         453         458         457
         453         454         459         458
         455         456         461         460
         456         457         462         461
         457         458         463         462
         458         459         464         463
         460         461         466         465
         461         462         467         466
         462         463         468         467
         463         464         469         468
         465         466         471         470
         466         467         472         471
         467         468         473         472
         468         469         474         473
         475         476         481         480
         476         477         482         481
         477         478         483         482
         478         479         484         483
         480         481         486         485
         481         482         487         486
         482         483         488         487
         483         484         489         488
         485         486         491         490
         486         487         492         491
         487         488         493         492
         488         489         494         493
         490         491         496         495
         491         492         497         496
         492         493         498         497
         493         494         499         498
         500         501         506         505
         501         502         507         506
         502         503         508         507
         503         504         509         508
         505         506         511         510
         506         507         512         511
         507         508         513         512
         508         509         514         513
         510         511         516         515
         511         512         517         516
         512         513         518         517
         513         514         519         518
         515         516         521         520
         516         517         522         521
         517         518         523         522
         518         519         524         523
         525         526         531         530
         526         527         532         531
         527         528         533         532
         528         529         534         533
         530         531         536         535
         531         532         537         536
         532         533         538         537
         533         534         539         538
         535         536         541         540
         536         537         542         541
         537         538         543         542
         538         539         544         543
         540         541         546         545
         541         542         547         546
         542         543         548         547
         543         544         549         548
         550         551         556         555
         551         552         557         556
         552         553         558         557
         553         554         559         558
         555         556         561         560
         556         557         562         561
         557         558         563         562
         558         559         564         563
         560         561         566         565
         561         562         567         566
         562         563         568         567
         563         564         569         568
         565         566         571         570
         566         567         572         571
         567         568         573         572
         568         569         574         573
         575         576         581         580
         576         577         582         581
         577         578         583         582
         578         579         584         583
         580         581         586         585
         581         582         587         586
         582         583         588         587
         583         584         589         588
         585         586         591         590
         586         587         592         591
         587         588         593         592
         588         589         594         593
         590         591         596         595
         591         592         597         596
         592         593         598         597
         593         594         599         598
         600         601         606         605
         601         602         607         606
         602         603         608         607
         603         604         609         608
         605         606         611         610
         606         607         612         611
         607         608         613         612
         608         609         614         613
         610         611         616         615
         611         612         617         616
         612         613         618         617
         613         614         619         618
         615         616         621         620
         616         617         622         621
         617         618         623         622
         618         619         624         623
         625         626         631         630
         626         627         632         631
         627         628         633         632
         628         629         634         633
         630         631         636         635
         631         632         637         636
         632         633         638         637
         633         634         639         638
         635         636         641         640
         636         637         642         641
         637         638         643         642
         638         639         644         643
         640         641         646         645
         641         642         647         646
         642         643         648         647
         643         644         649         648
         650         651         656         655
         651         652         657         656
         652         653         658         657
         653         654         659         658
         655         656         661         660
         656         657         662         661
         657         658         663         662
         658         659         664         663
         660         661         666         665
         661         662         667         666
         662         663         668         667
         663         664         669         668
         665         666         671         670
         666         667         672         671
         667         668         673         672
         668         669         674         673
         675         676         681         680
         676         677         682         681
         677         678         683         682
         678         679         684         683
         680         681         686         685
         681         682         687         686
         682         683         688         687
         683         684         689         688
         685         686         691         690
         686         687         692         691
         687         688         693         692
         688         689         694         693
         690         691         696         695
         691         692         697         696
         692         693         698         697
         693         694         699         698
         700         701         706         705
         701         702         707         706
         702         703         708         707
         703         704         709         708
         705         706         711         710
         706         707         712         711
         707         708         713         712
         708         709         714         713
         710         711         716         715
         711         712         717         716
         712         713         718         717
         713         714         719         718
         715         716         721         720
         716         717         722         721
         717         718         723         722
         718         719         724         723
         725         726         731         730
         726         727         732         731
         727         728         733         732
         728         729         734         733
         730         731         736         735
         731         732         737         736
         732         733         738         737
         733         734         739         738
         735         736         741         740
         736         737         742         741
         737         738         743         742
         738         739         744         743
         740         741         746         745
         741         742         747         746
         742         743         748         747
         743         744         749         748
         750         751         756         755
         751         752         757         756
         752         753         758         757
         753         754         759         758
         755         756         761         760
         756         757         762         761
         757         758         763         762
         758         759         764         763
         760         761         766         765
         761         762         767         766
         762         763         768         767
         763         764         769         768
         765         766         771         770
         766         767         772         771
         767         768         773         772
         768         769         774         773
         775         776         781         780
         776         777         782         781
         777         778         783         782
         778         779         784         783
         780         781         786         785
         781         782         787         786
         782         783         788         787
         783         784         789         788
         785         786         791         790
         786         787         792         791
         787         788         793         792
         788         789         794         793
         790         791         796         795
         791         792         797         796
         792         793         798         797
         793         794         799         798
         800         801         806         805
         801         802         807         806
         802         803         808         807
         803         804         809         808
         805         806         811         810
         806         807         812         811
         807         808         813         812
         808         809         814         813
         810         811         816         815
         811         812         817         816
         812         813         818         817
         813         814         819         818
         815         816         821         820
         816         817         822         821
         817         818         823         822
         818         819         824         823
         825         826         831         830
         826         827         832         831
         827         828         833         832
         828         829         834         833
         830         831         836         835
         831         832         837         836
         832         833         838         837
         833         834         839         838
         835         836         841         840
         836         837         842         841
         837         838         843         842
         838         839         844         843
         840         841         846         845
         841         842         847         846
         842         843         848         847
         843         844         849         848
         850         851         856         855
         851         852         857         856
         852         853         858         857
         853         854         859         858
         855         856         861         860
         856         857         862         861
         857         858         863         862
         858         859         864         863
         860         861         866         865
         861         862         867         866
         862         863         868         867
         863         864         869         868
         865         866         871         870
         866         867         872         871
         867         868         873         872
         868         869         874         873
         875         876         881         880
         876         877         882         881
         877         878         883         882
         878         879         884         883
         880         881         886         885
         881         882         887         886
         882         883         888         887
         883         884         889         888
         885         886         891         890
         886         887         892         891
         887         888         893         892
         888         889         894         893
         890         891         896         895
         891         892         897         896
         892         893         898         897
         893         894         899         898
         900         901         906         905
         901         902         907         906
         902         903         908         907
         903         904         909         908
         905         906         911         910
         906         907         912         911
         907         908         913         912
         908         909         914         913
         910         911         916         915
         911         912         917         916
         912         913         918         917
         913         914         919         918
         915         916         921         920
         916         917         922         921
         917         918         923         922
         918         919         924         923
         925         926         931         930
         926         927         932         931
         927         928         933         932
         928         929         934         933
         930         931         936         935
         931         932         937         936
         932         933         938         937
         933         934         939         938
         935         936         941         940
         936         937         942         941
         937         938         943         942
         938         939         944         943
         940         941         946         945
         941         942         947         946
         942         943         948         947
         943         944         949         948
         950         951         956         955
         951         952         957         956
         952         953         958         957
         953         954         959         958
         955         956         961         960
         956         957         962         961
         957         958         963         962
         958         959         964         963
         960         961         966         965
         961         962         967         966
         962         963         968         967
         963         964         969         968
         965         966         971         970
         966         967         972         971
         967         968         973         972
         968         969         974         973
         975         976         981         980
         976         977         982         981
         977         978         983         982
         978         979         984         983
         980         981         986         985
         981         982         987         986
         982         983         988         987
         983         984         989         988
         985         986         991         990
         986         987         992         991
         987         988         993         992
         988         989         994         993
         990         991         996         995
         991         992         997         996
         992         993         998         997
         993         994         999         998
        1000        1001        1006        1005
        1001        1002        1007        1006
        1002        1003        1008        1007
        1003        1004        1009        1008
        1005        1006        1011        1010
        1006        1007        1012        1011
        1007        1008        1013        1012
        1008        1009        1014        1013
        1010        1011        1016        1015
        1011        1012        1017        1016
        1012        1013        1018        1017
        1013        1014        1019        1018
        1015        1016        1021        1020
        1016        1017        1022        1021
        1017        1018        1023        1022
        1018        1019        1024        1023
        1025        1026        1031        1030
        1026        1027        1032        1031
        1027        1028        1033        1032
        1028        1029        1034        1033
        1030        1031        1036        1035
        1031        1032        1037        1036
        1032        1033        1038        1037
        1033        1034        1039        1038
        1035        1036        1041        1040
        1036        1037        1042        1041
        1037        1038        1043        1042
        1038        1039        1044        1043
        1040        1041        1046        1045
        1041        1042        1047        1046
        1042        1043        1048        1047
        1043        1044        1049        1048
        1050        1051        1056        1055
        1051        1052        1057        1056
        1052        1053        1058        1057
        1053        1054        1059        1058
        1055        1056        1061        1060
        1056        1057        1062        1061
        1057        1058        1063        1062
        1058        1059        1064        1063
        1060        1061        1066        1065
        1061        1062        1067        1066
        1062        1063        1068        1067
        1063        1064        1069        1068
        1065        1066        1071        1070
        1066        1067        1072        1071
        1067        1068        1073        1072
        1068        1069        1074        1073
        1075        1076        1081        1080
        1076        1077        1082        1081
        1077        1078        1083        1082
        1078        1079        1084        1083
        1080        1081        1086        1085
        1081        1082        1087        1086
        1082        1083        1088        1087
        1083        1084        1089        1088
        1085        1086        1091        1090
        1086        1087        1092        1091
        1087        1088        1093        1092
        1088        1089        1094        1093
        1090        1091        1096        1095
        1091        1092        1097        1096
        1092        1093        1098        1097
        1093        1094        1099        1098
        1100        1101        1106        1105
        1101        1102        1107        1106
        1102        1103        1108        1107
        1103        1104        1109        1108
        1105        1106        1111        1110
        1106        1107        1112        1111
        1107        1108        1113        1112
        1108        1109        1114        1113
        1110        1111        1116        1115
        1111        1112        1117        1116
        1112        1113        1118        1117
        1113        1114        1119        1118
        1115        1116        1121        1120
        1116        1117        1122        1121
        1117        1118        1123        1122
        1118        1119        1124        1123
        1125        1126        1131        1130
        1126        1127        1132        1131
        1127        1128        1133        1132
        1128        1129        1134        1133
        1130        1131        1136        1135
        1131        1132        1137        1136
        1132        1133        1138        1137
        1133        1134        1139        1138
        1135        1136        1141        1140
        1136        1137        1142        1141
        1137        1138        1143        1142
        1138        1139        1144        1143
        1140        1141        1146        1145
        1141        1142        1147        1146
        1142        1143        1148        1147
        1143        1144        1149        1148
        1150        1151        1156        1155
        1151        1152        1157        1156
        1152        1153        1158        1157
        1153        1154        1159        1158
        1155        1156        1161        1160
        1156        1157        1162        1161
        1157        1158        1163        1162
        1158        1159        1164        1163
        1160        1161        1166        1165
        1161        1162        1167        1166
        1162        1163        1168        1167
        1163        1164        1169        1168
        1165        1166        1171        1170
        1166        1167        1172        1171
        1167        1168        1173        1172
        1168        1169        1174        1173
        1175        1176        1181        1180
        1176        1177        1182        1181
        1177        1178        1183        1182
        1178        1179        1184        1183
        1180        1181        1186        1185
        1181        1182        1187        1186
        1182        1183        1188        1187
        1183        1184        1189        1188
        1185        1186        1191        1190
        1186        1187        1192        1191
        1187        1188        1193        1192
        1188        1189        1194        1193
        1190        1191        1196        1195
        1191        1192        1197        1196
        1192        1193        1198        1197
        1193        1194        1199        1198
        1200        1201        1206        1205
        1201        1202        1207        1206
        1202        1203        1208        1207
        1203        1204        1209        1208
        1205        1206        1211        1210
        1206        1207        1212        1211
        1207        1208        1213        1212
        1208        1209        1214        1213
        1210        1211        1216        1215
        1211        1212        1217        1216
        1212        1213        1218        1217
        1213        1214        1219        1218
        1215        1216        1221        1220
        1216        1217        1222        1221
        1217        1218        1223        1222
        1218        1219        1224        1223
        1225        1226        1231        1230
        1226        1227        1232        1231
        1227        1228        1233        1232
        1228        1229        1234        1233
        1230        1231        1236        1235
        1231        1232        1237        1236
        1232        1233        1238        1237
        1233        1234        1239        1238
        1235        1236        1241        1240
        1236        1237        1242        1241
        1237        1238        1243        1242
        1238        1239        1244        1243
        1240        1241        1246        1245
        1241        1242        1247        1246
        1242        1243        1248        1247
        1243        1244        1249        1248
        1250        1251        1256        1255
        1251        1252        1257        1256
        1252        1253        1258        1257
        1253        1254        1259        1258
        1255        1256        1261        1260
        1256        1257        1262        1261
        1257        1258        1263        1262
        1258        1259        1264        1263
        1260        1261        1266        1265
        1261        1262        1267        1266
        1262        1263        1268        1267
        1263        1264        1269        1268
        1265        1266        1271        1270
        1266        1267        1272        1271
        1267        1268        1273        1272
        1268        1269        1274        1273
        1275        1276        1281        1280
        1276        1277        1282        1281
        1277        1278        1283        1282
        1278        1279        1284        1283
        1280        1281        1286        1285
        1281        1282        1287        1286
        1282        1283        1288        1287
        1283        1284        1289        1288
        1285        1286        1291        1290
        1286        1287        1292        1291
        1287        1288        1293        1292
        1288        1289        1294        1293
        1290        1291        1296        1295
        1291        1292        1297        1296
        1292        1293        1298        1297
        1293        1294        1299        1298
        1300        1301        1306        1305
        1301        1302        1307        1306
        1302        1303        1308        1307
        1303        1304        1309        1308
        1305        1306        1311        1310
        1306        1307        1312        1311
        1307        1308        1313        1312
        1308        1309        1314        1313
        1310        1311        1316        1315
        1311        1312        1317        1316
        1312        1313        1318        1317
        1313        1314        1319        1318
        1315        1316        1321        1320
        1316        1317        1322        1321
        1317        1318        1323        1322
        1318        1319        1324        1323
        1325        1326        1331        1330
        1326        1327        1332        1331
        1327        1328        1333        1332
        1328        1329        1334        1333
        1330        1331        1336        1335
        1331        1332        1337        1336
        1332        1333        1338        1337
        1333        1334        1339        1338
        1335        1336        1341        1340
        1336        1337        1342        1341
        1337        1338        1343        1342
        1338        1339        1344        1343
        1340        1341        1346        1345
        1341        1342        1347        1346
        1342        1343        1348        1347
        1343        1344        1349        1348
        1350        1351        1356        1355
        1351        1352        1357        1356
        1352        1353        1358        1357
        1353        1354        1359        1358
        1355        1356        1361        1360
        1356        1357        1362        1361
        1357        1358        1363        1362
        1358        1359        1364        1363
        1360        1361        1366        1365
        1361        1362        1367        1366
        1362        1363        1368        1367
        1363        1364        1369        1368
        1365        1366        1371        1370
        1366        1367        1372        1371
        1367        1368        1373        1372
        1368        1369        1374        1373
        1375        1376        1381        1380
        1376        1377        1382        1381
        1377        1378        1383        1382
        1378        1379        1384        1383
        1380        1381        1386        1385
        1381        1382        1387        1386
        1382        1383        1388        1387
        1383        1384        1389        1388
        1385        1386        1391        1390
        1386        1387        1392        1391
        1387        1388        1393        1392
        1388        1389        1394        1393
        1390        1391        1396        1395
        1391        1392        1397        1396
        1392        1393        1398        1397
        1393        1394        1399        1398
        1400        1401        1406        1405
        1401        1402        1407        1406
        1402        1403        1408        1407
        1403        1404        1409        1408
        1405        1406        1411        1410
        1406        1407        1412        1411
        1407        1408        1413        1412
        1408        1409        1414        1413
        1410        1411        1416        1415
        1411        1412        1417        1416
        1412        1413        1418        1417
        1413        1414        1419        1418
        1415        1416        1421        1420
        1416        1417        1422        1421
        1417        1418        1423        1422
        1418        1419        1424        1423
        1425        1426        1431        1430
        1426        1427        1432        1431
        1427        1428        1433        1432
        1428        1429        1434        1433
        1430        1431        1436        1435
        1431        1432        1437        1436
        1432        1433        1438        1437
        1433        1434        1439        1438
        1435        1436        1441        1440
        1436        1437        1442        1441
        1437        1438        1443        1442
        1438        1439        1444        1443
        1440        1441        1446        1445
        1441        1442        1447        1446
        1442        1443        1448        1447
        1443        1444        1449        1448
        1450        1451        1456        1455
        1451        1452        1457        1456
        1452        1453        1458        1457
        1453        1454        1459        1458
        1455        1456        1461        1460
        1456        1457        1462        1461
        1457        1458        1463        1462
        1458        1459        1464        1463
        1460        1461        1466        1465
        1461        1462        1467        1466
        1462        1463        1468        1467
        1463        1464        1469        1468
        1465        1466        1471        1470
        1466        1467        1472        1471
        1467        1468        1473        1472
        1468        1469        1474        1473
        1475        1476        1481        1480
        1476        1477        1482        1481
        1477        1478        1483        1482
        1478        1479        1484        1483
        1480        1481        1486        1485
        1481        1482        1487        1486
        1482        1483        1488        1487
        1483        1484        1489        1488
        1485        1486        1491        1490
        1486        1487        1492        1491
        1487        1488        1493        1492
        1488        1489        1494        1493
        1490        1491        1496        1495
        1491        1492        1497        1496
        1492        1493        1498        1497
        1493        1494        1499        1498
        1500        1501        1506        1505
        1501        1502        1507        1506
        1502        1503        1508        1507
        1503        1504        1509        1508
        1505        1506        1511        1510
        1506        1507        1512        1511
        1507        1508        1513        1512
        1508        1509        1514        1513
        1510        1511        1516        1515
        1511        1512        1517        1516
        1512        1513        1518        1517
        1513        1514        1519        1518
        1515        1516        1521        1520
        1516        1517        1522        1521
        1517        1518        1523        1522
        1518        1519        1524        1523
        1525        1526        1531        1530
        1526        1527        1532        1531
        1527        1528        1533        1532
        1528        1529        1534        1533
        1530        1531        1536        1535
        1531        1532        1537        1536
        1532        1533        1538        1537
        1533        1534        1539        1538
        1535        1536        1541        1540
        1536        1537        1542        1541
        1537        1538        1543        1542
        1538        1539        1544        1543
        1540        1541        1546        1545
        1541        1542        1547        1546
        1542        1543        1548        1547
        1543        1544        1549        1548
        1550        1551        1556        1555
        1551        1552        1557        1556
        1552        1553        1558        1557
        1553        1554        1559        1558
        1555        1556        1561        1560
        1556        1557        1562        1561
        1557        1558        1563        1562
        1558        1559        1564        1563
        1560        1561        1566        1565
        1561        1562        1567        1566
        1562        1563        1568        1567
        1563        1564        1569        1568
        1565        1566        1571        1570
        1566        1567        1572        1571
        1567        1568        1573        1572
        1568        1569        1574        1573
        1575        1576        1581        1580
        1576        1577        1582        1581
        1577        1578        1583        1582
        1578        1579        1584        1583
        1580        1581        1586        1585
        1581        1582        1587        1586
        1582        1583        1588        1587
        1583        1584        1589        1588
        1585        1586        1591        1590
        1586        1587        1592        1591
        1587        1588        1593        1592
        1588        1589        1594        1593
        1590        1591        1596        1595
        1591        1592        1597        1596
        1592        1593        1598        1597
        1593        1594        1599        1598
 </DataArray>
 <DataArray  type="Int32"  Name="offsets"  format="ascii"> 
           4
           8
          12
          16
          20
          24
          28
          32
          36
          40
          44
          48
          52
          56
          60
          64
          68
          72
          76
          80
          84
          88
          92
          96
         100
         104
         108
         112
         116
         120
         124
         128
         132
         136
         140
         144
         148
         152
         156
         160
         164
         168
         172
         176
         180
         184
         188
         192
         196
         200
         204
         208
         212
         216
         220
         224
         228
         232
         236
         240
         244
         248
         252
         256
         260
         264
         268
         272
         276
         280
         284
         288
         292
         296
         300
         304
         308
         312
         316
         320
         324
         328
         332
         336
         340
         344
         348
         352
         356
         360
         364
         368
         372
         376
         380
         384
         388
         392
         396
         400
         404
         408
         412
         416
         420
         424
         428
         432
         436
         440
         444
         448
         452
         456
         460
         464
         468
         472
         476
         480
         484
         488
         492
         496
         500
         504
         508
         512
         516
         520
         524
         528
         532
         536
         540
         544
         548
         552
         556
         560
         564
         568
         572
         576
         580
         584
         588
         592
         596
         600
         604
         608
         612
         616
         620
         624
         628
         632
         636
         640
         644
         648
         652
         656
         660
         664
         668
         672
         676
         680
         684
         688
         692
         696
         700
         704
         708
         712
         716
         720
         724
         728
         732
         736
         740
         744
         748
         752
         756
         760
         764
         768
         772
         776
         780
         784
         788
         792
         796
         800
         804
         808
         812
         816
         820
         824
         828
         832
         836
         840
         844
         848
         852
         856
         860
         864
         868
         872
         876
         880
         884
         888
         892
         896
         900
         904
         908
         912
         916
         920
         924
         928
         932
         936
         940
         944
         948
         952
         956
         960
         964
         968
         972
         976
         980
         984
         988
         992
         996
        1000
        1004
        1008
        1012
        1016
        1020
        1024
        1028
        1032
        1036
        1040
        1044
        1048
        1052
        1056
        1060
        1064
        1068
        1072
        1076
        1080
        1084
        1088
        1092
        1096
        1100
        1104
        1108
        1112
        1116
        1120
        1124
        1128
        1132
        1136
        1140
        1144
        1148
        1152
        1156
        1160
        1164
        1168
        1172
        1176
        1180
        1184
        1188
        1192
        1196
        1200
        1204
        1208
        1212
        1216
        1220
        1224
        1228
        1232
        1236
        1240
        1244
        1248
        1252
        1256
        1260
        1264
        1268
        1272
        1276
        1280
        1284
        1288
        1292
        1296
        1300
        1304
        1308
        1312
        1316
        1320
        1324
        1328
        1332
        1336
        1340
        1344
        1348
        1352
        1356
        1360
        1364
        1368
        1372
        1376
        1380
        1384
        1388
        1392
        1396
        1400
        1404
        1408
        1412
        1416
        1420
        1424
        1428
        1432
        1436
        1440
        1444
        1448
        1452
        1456
        1460
        1464
        1468
        1472
        1476
        1480
        1484
        1488
        1492
        1496
        1500
        1504
        1508
        1512
        1516
        1520
        1524
        1528
        1532
        1536
        1540
        1544
        1548
        1552
        1556
        1560
        1564
        1568
        1572
        1576
        1580
        1584
        1588
        1592
        1596
        1600
        1604
        1608
        1612
        1616
        1620
        1624
        1628
        1632
        1636
        1640
        1644
        1648
        1652
        1656
        1660
        1664
        1668
        1672
        1676
        1680
        1684
        1688
        1692
        1696
        1700
        1704
        1708
        1712
        1716
        1720
        1724
        1728
        1732
        1736
        1740
        1744
        1748
        1752
        1756
        1760
        1764
        1768
        1772
        1776
        1780
        1784
        1788
        1792
        1796
        1800
        1804
        1808
        1812
        1816
        1820
        1824
        1828
        1832
        1836
        1840
        1844
        1848
        1852
        1856
        1860
        1864
        1868
        1872
        1876
        1880
        1884
        1888
        1892
        1896
        1900
        1904
        1908
        1912
        1916
        1920
        1924
        1928
        1932
        1936
        1940
        1944
        1948
        1952
        1956
        1960
        1964
        1968
        1972
        1976
        1980
        1984
        1988
        1992
        1996
        2000
        2004
        2008
        2012
        2016
        2020
        2024
        2028
        2032
        2036
        2040
        2044
        2048
        2052
        2056
        2060
        2064
        2068
        2072
        2076
        2080
        2084
        2088
        2092
        2096
        2100
        2104
        2108
        2112
        2116
        2120
        2124
        2128
        2132
        2136
        2140
        2144
        2148
        2152
        2156
        2160
        2164
        2168
        2172
        2176
        2180
        2184
        2188
        2192
        2196
        2200
        2204
        2208
        2212
        2216
        2220
        2224
        2228
        2232
        2236
        2240
        2244
        2248
        2252
        2256
        2260
        2264
        2268
        2272
        2276
        2280
        2284
        2288
        2292
        2296
        2300
        2304
        2308
        2312
        2316
        2320
        2324
        2328
        2332
        2336
        2340
        2344
        2348
        2352
        2356
        2360
        2364
        2368
        2372
        2376
        2380
        2384
        2388
        2392
        2396
        2400
        2404
        2408
        2412
        2416
        2420
        2424
        2428
        2432
        2436
        2440
        2444
        2448
        2452
        2456
        2460
        2464
        2468
        2472
        2476
        2480
        2484
        2488
        2492
        2496
        2500
        2504
        2508
        2512
        2516
        2520
        2524
        2528
        2532
        2536
        2540
        2544
        2548
        2552
        2556
        2560
        2564
        2568
        2572
        2576
        2580
        2584
        2588
        2592
        2596
        2600
        2604
        2608
        2612
        2616
        2620
        2624
        2628
        2632
        2636
        2640
        2644
        2648
        2652
        2656
        2660
        2664
        2668
        2672
        2676
        2680
        2684
        2688
        2692
        2696
        2700
        2704
        2708
        2712
        2716
        2720
        2724
        2728
        2732
        2736
        2740
        2744
        2748
        2752
        2756
        2760
        2764
        2768
        2772
        2776
        2780
        2784
        2788
        2792
        2796
        2800
        2804
        2808
        2812
        2816
        2820
        2824
        2828
        2832
        2836
        2840
        2844
        2848
        2852
        2856
        2860
        2864
        2868
        2872
        2876
        2880
        2884
        2888
        2892
        2896
        2900
        2904
        2908
        2912
        2916
        2920
        2924
        2928
        2932
        2936
        2940
        2944
        2948
        2952
        2956
        2960
        2964
        2968
        2972
        2976
        2980
        2984
        2988
        2992
        2996
        3000
        3004
        3008
        3012
        3016
        3020
        3024
        3028
        3032
        3036
        3040
        3044
        3048
        3052
        3056
        3060
        3064
        3068
        3072
        3076
        3080
        3084
        3088
        3092
        3096
        3100
        3104
        3108
        3112
        3116
        3120
        3124
        3128
        3132
        3136
        3140
        3144
        3148
        3152
        3156
        3160
        3164
        3168
        3172
        3176
        3180
        3184
        3188
        3192
        3196
        3200
        3204
        3208
        3212
        3216
        3220
        3224
        3228
        3232
        3236
        3240
        3244
        3248
        3252
        3256
        3260
        3264
        3268
        3272
        3276
        3280
        3284
        3288
        3292
        3296
        3300
        3304
        3308
        3312
        3316
        3320
        3324
        3328
        3332
        3336
        3340
        3344
        3348
        3352
        3356
        3360
        3364
        3368
        3372
        3376
        3380
        3384
        3388
        3392
        3396
        3400
        3404
        3408
        3412
        3416
        3420
        3424
        3428
        3432
        3436
        3440
        3444
        3448
        3452
        3456
        3460
        3464
        3468
        3472
        3476
        3480
        3484
        3488
        3492
        3496
        3500
        3504
        3508
        3512
        3516
        3520
        3524
        3528
        3532
        3536
        3540
        3544
        3548
        3552
        3556
        3560
        3564
        3568
        3572
        3576
        3580
        3584
        3588
        3592
        3596
        3600
        3604
        3608
        3612
        3616
        3620
        3624
        3628
        3632
        3636
        3640
        3644
        3648
        3652
        3656
        3660
        3664
        3668
        3672
        3676
        3680
        3684
        3688
        3692
        3696
        3700
        3704
        3708
        3712
        3716
        3720
        3724
        3728
        3732
        3736
        3740
        3744
        3748
        3752
        3756
        3760
        3764
        3768
        3772
        3776
        3780
        3784
        3788
        3792
        3796
        3800
        3804
        3808
        3812
        3816
        3820
        3824
        3828
        3832
        3836
        3840
        3844
        3848
        3852
        3856
        3860
        3864
        3868
        3872
        3876
        3880
        3884
        3888
        3892
        3896
        3900
        3904
        3908
        3912
        3916
        3920
        3924
        3928
        3932
        3936
        3940
        3944
        3948
        3952
        3956
        3960
        3964
        3968
        3972
        3976
        3980
        3984
        3988
        3992
        3996
        4000
        4004
        4008
        4012
        4016
        4020
        4024
        4028
        4032
        4036
        4040
        4044
        4048
        4052
        4056
        4060
        4064
        4068
        4072
        4076
        4080
        4084
        4088
        4092
        4096
 </DataArray>
 <DataArray  type="UInt8"  Name="types"  format="ascii">
 9
 9
 9
 9
 9
 9
 9
 9
 9
 9
 9
 9
 9
 9
 9
 9
 9
 9
 9
 9
 9
 9
 9
 9
 9
 9
 9
 9
 9
 9
 9
 9
 9
 9
 9
 9
 9
 9
 9
 9
 9
 9
 9
 9
 9
 9
 9
 9
 9
 9
 9
 9
 9
 9
 9
 9
 9
 9
 9
 9
 9
 9
 9
 9
 9
 9
 9
 9
 9
 9
 9
 9
 9
 9
 9
 9
 9
 9
 9
 9
 9
 9
 9
 9
 9
 9
 9
 9
 9
 9
 9
 9
 9
 9
 9
 9
 9
 9
 9
 9
 9
 9
 9
 9
 9
 9
 9
 9
 9
 9
 9
 9
 9
 9
 9
 9
 9
 9
 9
 9
 9
 9
 9
 9
 9
 9
 9
 9
 9
 9
 9
 9
 9
 9
 9
 9
 9
 9
 9
 9
 9
 9
 9
 9
 9
 9
 9
 9
 9
 9
 9
 9
 9
 9
 9
 9
 9
 9
 9
 9
 9
 9
 9
 9
 9
 9
 9
 9
 9
 9
 9
 9
 9
 9
 9
 9
 9
 9
 9
 9
 9
 9
 9
 9
 9
 9
 9
 9
 9
 9
 9
 9
 9
 9
 9
 9
 9
 9
 9
 9
 9
 9
 9
 9
 9
 9
 9
 9
 9
 9
 9
 9
 9
 9
 9
 9
 9
 9
 9
 9
 9
 9
 9
 9
 9
 9
 9
 9
 9
 9
 9
 9
 9
 9
 9
 9
 9
 9
 9
 9
 9
 9
 9
 9
 9
 9
 9
 9
 9
 9
 9
 9
 9
 9
 9
 9
 9
 9
 9
 9
 9
 9
 9
 9
 9
 9
 9
 9
 9
 9
 9
 9
 9
 9
 9
 9
 9
 9
 9
 9
 9
 9
 9
 9
 9
 9
 9
 9
 9
 9
 9
 9
 9
 9
 9
 9
 9
 9
 9
 9
 9
 9
 9
 9
 9
 9
 9
 9
 9
 9
 9
 9
 9
 9
 9
 9
 9
 9
 9
 9
 9
 9
 9
 9
 9
 9
 9
 9
 9
 9
 9
 9
 9
 9
 9
 9
 9
 9
 9
 9
 9
 9
 9
 9
 9
 9
 9
 9
 9
 9
 9
 9
 9
 9
 9
 9
 9
 9
 9
 9
 9
 9
 9
 9
 9
 9
 9
 9
 9
 9
 9
 9
 9
 9
 9
 9
 9
 9
 9
 9
 9
 9
 9
 9
 9
 9
 9
 9
 9
 9
 9
 9
 9
 9
 9
 9
 9
 9
 9
 9
 9
 9
 9
 9
 9
 9
 9
 9
 9
 9
 9
 9
 9
 9
 9
 9
 9
 9
 9
 9
 9
 9
 9
 9
 9
 9
 9
 9
 9
 9
 9
 9
 9
 9
 9
 9
 9
 9
 9
 9
 9
 9
 9
 9
 9
 9
 9
 9
 9
 9
 9
 9
 9
 9
 9
 9
 9
 9
 9
 9
 9
 9
 9
 9
 9
 9
 9
 9
 9
 9
 9
 9
 9
 9
 9
 9
 9
 9
 9
 9
 9
 9
 9
 9
 9
 9
 9
 9
 9
 9
 9
 9
 9
 9
 9
 9
 9
 9
 9
 9
 9
 9
 9
 9
 9
 9
 9
 9
 9
 9
 9
 9
 9
 9
 9
 9
 9
 9
 9
 9
 9
 9
 9
 9
 9
 9
 9
 9
 9
 9
 9
 9
 9
 9
 9
 9
 9
 9
 9
 9
 9
 9
 9
 9
 9
 9
 9
 9
 9
 9
 9
 9
 9
 9
 9
 9
 9
 9
 9
 9
 9
 9
 9
 9
 9
 9
 9
 9
 9
 9
 9
 9
 9
 9
 9
 9
 9
 9
 9
 9
 9
 9
 9
 9
 9
 9
 9
 9
 9
 9
 9
 9
 9
 9
 9
 9
 9
 9
 9
 9
 9
 9
 9
 9
 9
 9
 9
 9
 9
 9
 9
 9
 9
 9
 9
 9
 9
 9
 9
 9
 9
 9
 9
 9
 9
 9
 9
 9
 9
 9
 9
 9
 9
 9
 9
 9
 9
 9
 9
 9
 9
 9
 9
 9
 9
 9
 9
 9
 9
 9
 9
 9
 9
 9
 9
 9
 9
 9
 9
 9
 9
 9
 9
 9
 9
 9
 9
 9
 9
 9
 9
 9
 9
 9
 9
 9
 9
 9
 9
 9
 9
 9
 9
 9
 9
 9
 9
 9
 9
 9
 9
 9
 9
 9
 9
 9
 9
 9
 9
 9
 9
 9
 9
 9
 9
 9
 9
 9
 9
 9
 9
 9
 9
 9
 9
 9
 9
 9
 9
 9
 9
 9
 9
 9
 9
 9
 9
 9
 9
 9
 9
 9
 9
 9
 9
 9
 9
 9
 9
 9
 9
 9
 9
 9
 9
 9
 9
 9
 9
 9
 9
 9
 9
 9
 9
 9
 9
 9
 9
 9
 9
 9
 9
 9
 9
 9
 9
 9
 9
 9
 9
 9
 9
 9
 9
 9
 9
 9
 9
 9
 9
 9
 9
 9
 9
 9
 9
 9
 9
 9
 9
 9
 9
 9
 9
 9
 9
 9
 9
 9
 9
 9
 9
 9
 9
 9
 9
 9
 9
 9
 9
 9
 9
 9
 9
 9
 9
 9
 9
 9
 9
 9
 9
 9
 9
 9
 9
 9
 9
 9
 9
 9
 9
 9
 9
 9
 9
 9
 9
 9
 9
 9
 9
 9
 9
 9
 9
 9
 9
 9
 9
 9
 9
 9
 9
 9
 9
 9
 9
 9
 9
 9
 9
 9
 9
 9
 9
 9
 9
 9
 9
 9
 9
 9
 9
 9
 9
 9
 9
 9
 9
 9
 9
 9
 9
 9
 9
 9
 9
 9
 9
 9
 9
 9
 9
 9
 9
 9
 9
 9
 9
 9
 9
 9
 9
 9
 9
 9
 9
 9
 9
 9
 9
 9
 9
 9
 9
 9
 9
 9
 9
 9
 9
 9
 9
 9
 9
 9
 9
 9
 9
 9
 9
 9
 9
 9
 9
 9
 9
 9
 9
 9
 9
 9
 9
 9
 9
 9
 9
 9
 9
 9
 9
 9
 9
 9
 9
 9
 9
 9
 9
 9
 9
 9
 9
 9
 9
 9
 9
 9
 9
 9
 9
 9
 9
 9
 9
 9
 9
 9
 9
 9
 9
 9
 9
 9
 9
 9
 9
 9
 9
 9
 9
 9
 9
 9
 9
 9
 9
 9
 9
 9
 9
 9
 9
 9
 9
 9
 9
 9
 9
 9
 9
 9
 9
 9
 9
 9
 9
 9
 9
 9
 9
 9
 </DataArray>
 </Cells> 
 <PointData>
 <DataArray  type="Float64" Name="disp" NumberOfComponents="3" format="ascii">
   0.0000000000000000        0.0000000000000000        0.0000000000000000     
   6.0960638886576515E-003   3.7910252310985578E-003   0.0000000000000000     
   1.1666097194130236E-002   7.3244330568071623E-003   0.0000000000000000     
   1.6710099916417753E-002   1.0600223477125815E-002   0.0000000000000000     
   2.1228072055520200E-002   1.3618396492054513E-002   0.0000000000000000     
   0.0000000000000000        0.0000000000000000        0.0000000000000000     
   4.8912895047852553E-003   3.0223521593443379E-003   0.0000000000000000     
   9.5738138392710889E-003   6.0606883370292195E-003   0.0000000000000000     
   1.4047573003457497E-002   9.1150085330546429E-003   0.0000000000000000     
   1.8312566997344484E-002   1.2185312747420612E-002   0.0000000000000000     
   0.0000000000000000        0.0000000000000000        0.0000000000000000     
   3.9537158310534032E-003   2.4250753601231436E-003   0.0000000000000000     
   7.9108330677301331E-003   5.0627722640505272E-003   0.0000000000000000     
   1.1871351710030191E-002   7.9130907117821534E-003   0.0000000000000000     
   1.5835271757953576E-002   1.0976030703318021E-002   0.0000000000000000     
   0.0000000000000000        0.0000000000000000        0.0000000000000000     
   3.2833428674620925E-003   1.9991948334349727E-003   0.0000000000000000     
   6.6771548795073700E-003   4.3306848378710881E-003   0.0000000000000000     
   1.0181436036135836E-002   6.9944700133083449E-003   0.0000000000000000     
   1.3796186337347485E-002   9.9905503597467454E-003   0.0000000000000000     
   0.0000000000000000        0.0000000000000000        0.0000000000000000     
   2.8801706140113240E-003   1.7447105792798277E-003   0.0000000000000000     
   5.8727792746027987E-003   3.8644260584909003E-003   0.0000000000000000     
   8.9778259817744240E-003   6.3591464376332183E-003   0.0000000000000000     
   1.2195310735526202E-002   9.2288717167067821E-003   0.0000000000000000     
   2.1228072055520200E-002   1.3618396492054513E-002   0.0000000000000000     
   2.5433119855476083E-002   1.6610455295927196E-002   0.0000000000000000     
   2.9538349560323876E-002   1.9807903083077800E-002   0.0000000000000000     
   3.3543761170063600E-002   2.3210739853506319E-002   0.0000000000000000     
   3.7449354684695249E-002   2.6818965607212759E-002   0.0000000000000000     
   1.8312566997344484E-002   1.2185312747420612E-002   0.0000000000000000     
   2.2407163422447987E-002   1.5340357879223400E-002   0.0000000000000000     
   2.6369729880283951E-002   1.8648900827559281E-002   0.0000000000000000     
   3.0200266370852366E-002   2.2110941592428261E-002   0.0000000000000000     
   3.3898772894153245E-002   2.5726480173830342E-002   0.0000000000000000     
   1.5835271757953576E-002   1.0976030703318021E-002   0.0000000000000000     
   1.9730922948286253E-002   1.4210493526138747E-002   0.0000000000000000     
   2.3486635017814176E-002   1.7575380467724944E-002   0.0000000000000000     
   2.7102407966537345E-002   2.1070691528076627E-002   0.0000000000000000     
   3.0578241794455757E-002   2.4696426707193776E-002   0.0000000000000000     
   1.3796186337347485E-002   9.9905503597467454E-003   0.0000000000000000     
   1.7404398432990870E-002   1.3220862236673242E-002   0.0000000000000000     
   2.0889064972914550E-002   1.6587342003574795E-002   0.0000000000000000     
   2.4250185957118517E-002   2.0089989660451404E-002   0.0000000000000000     
   2.7487761385602785E-002   2.3728805207303066E-002   0.0000000000000000     
   1.2195310735526202E-002   9.2288717167067821E-003   0.0000000000000000     
   1.5427589876561848E-002   1.2371464010826885E-002   0.0000000000000000     
   1.8577019745585087E-002   1.5684785435108824E-002   0.0000000000000000     
   2.1643600342595912E-002   1.9168835989552602E-002   0.0000000000000000     
   2.4627331667594326E-002   2.2823615674158207E-002   0.0000000000000000     
   3.7449354684695249E-002   2.6818965607212759E-002   0.0000000000000000     
   4.1258729582584926E-002   3.0625858365836020E-002   0.0000000000000000     
   4.4975485342098755E-002   3.4624696151015016E-002   0.0000000000000000     
   4.8599621963236729E-002   3.8815478962749735E-002   0.0000000000000000     
   5.2131139445998856E-002   4.3198206801040182E-002   0.0000000000000000     
   3.3898772894153245E-002   2.5726480173830342E-002   0.0000000000000000     
   3.7488081122320493E-002   2.9523357912771667E-002   0.0000000000000000     
   4.0991022727488037E-002   3.3529416150258409E-002   0.0000000000000000     
   4.4407597709655862E-002   3.7744654886290557E-002   0.0000000000000000     
   4.7737806068823975E-002   4.2169074120868115E-002   0.0000000000000000     
   3.0578241794455757E-002   2.4696426707193776E-002   0.0000000000000000     
   3.3943451818380731E-002   2.8496871281781092E-002   0.0000000000000000     
   3.7227353355123588E-002   3.2516310528543285E-002   0.0000000000000000     
   4.0429946404684308E-002   3.6754744447480343E-002   0.0000000000000000     
   4.3551230967062912E-002   4.1212173038592273E-002   0.0000000000000000     
   2.7487761385602785E-002   2.3728805207303066E-002   0.0000000000000000     
   3.0624841670765641E-002   2.7546398472864306E-002   0.0000000000000000     
   3.3684477225005408E-002   3.1585379285869651E-002   0.0000000000000000     
   3.6666668048322082E-002   3.5845747646319107E-002   0.0000000000000000     
   3.9571414140715661E-002   4.0327503554212663E-002   0.0000000000000000     
   2.4627331667594326E-002   2.2823615674158207E-002   0.0000000000000000     
   2.7532250679475231E-002   2.6671939486021295E-002   0.0000000000000000     
   3.0362394337133509E-002   3.0736622422237504E-002   0.0000000000000000     
   3.3117762640569176E-002   3.5017664482806833E-002   0.0000000000000000     
   3.5798355589782220E-002   3.9515065667729284E-002   0.0000000000000000     
   5.2131139445998856E-002   4.3198206801040182E-002   0.0000000000000000     
   5.5570364343049621E-002   4.7782553037980027E-002   0.0000000000000000     
   5.8917623207053516E-002   5.2578191045662928E-002   0.0000000000000000     
   6.2172916038010513E-002   5.7585120824088877E-002   0.0000000000000000     
   6.5336242835920641E-002   6.2803342373257881E-002   0.0000000000000000     
   4.7737806068823975E-002   4.2169074120868115E-002   0.0000000000000000     
   5.0978523806517233E-002   4.6798766850274807E-002   0.0000000000000000     
   5.4126626924260492E-002   5.1629826070794388E-002   0.0000000000000000     
   5.7182115422053738E-002   5.6662251782426828E-002   0.0000000000000000     
   6.0144989299896985E-002   6.1896043985172157E-002   0.0000000000000000     
   4.3551230967062912E-002   4.1212173038592273E-002   0.0000000000000000     
   4.6586857121436731E-002   4.5876983265706155E-002   0.0000000000000000     
   4.9532474946983124E-002   5.0737562092649076E-002   0.0000000000000000     
   5.2388084443702070E-002   5.5793909519421057E-002   0.0000000000000000     
   5.5153685611593596E-002   6.1046025546022072E-002   0.0000000000000000     
   3.9571414140715661E-002   4.0327503554212663E-002   0.0000000000000000     
   4.2395364287808102E-002   4.5017202284274041E-002   0.0000000000000000     
   4.5135167275221398E-002   4.9901399111227013E-002   0.0000000000000000     
   4.7790823102955529E-002   5.4980094035071529E-002   0.0000000000000000     
   5.0362331771010509E-002   6.0253287055807625E-002   0.0000000000000000     
   3.5798355589782220E-002   3.9515065667729284E-002   0.0000000000000000     
   3.8404045305631365E-002   4.4219423905978515E-002   0.0000000000000000     
   4.0934703908975321E-002   4.9121337126528178E-002   0.0000000000000000     
   4.3390331399814103E-002   5.4220805329378279E-002   0.0000000000000000     
   4.5770927778147688E-002   5.9517828514528810E-002   0.0000000000000000     
   6.5336242835920641E-002   6.2803342373257881E-002   0.0000000000000000     
   6.8405106182466438E-002   6.8209831482166694E-002   0.0000000000000000     
   7.1377008659330429E-002   7.3781563939812014E-002   0.0000000000000000     
   7.4251950266512601E-002   7.9518539746193884E-002   0.0000000000000000     
   7.7029931004012980E-002   8.5420758901312274E-002   0.0000000000000000     
   6.0144989299896985E-002   6.1896043985172157E-002   0.0000000000000000     
   6.3017973443804942E-002   6.7317302247762889E-002   0.0000000000000000     
   6.5803792739792366E-002   7.2912126138931513E-002   0.0000000000000000     
   6.8502447187859236E-002   7.8680515658678035E-002   0.0000000000000000     
   7.1113936788005538E-002   8.4622470807002498E-002   0.0000000000000000     
   5.5153685611593596E-002   6.1046025546022072E-002   0.0000000000000000     
   5.7834327222541115E-002   6.6485669875970321E-002   0.0000000000000000     
   6.0435058048428039E-002   7.2104602212783961E-002   0.0000000000000000     
   6.2955878089254347E-002   7.7902822556463025E-002   0.0000000000000000     
   6.5396787345020052E-002   8.3880330907007472E-002   0.0000000000000000     
   5.0362331771010509E-002   6.0253287055807625E-002   0.0000000000000000     
   5.2854167518674937E-002   6.5714934366789005E-002   0.0000000000000000     
   5.5270804585237414E-002   7.1358992161369386E-002   0.0000000000000000     
   5.7612242970697940E-002   7.7185460439548798E-002   0.0000000000000000     
   5.9878482675056542E-002   8.3194339201327225E-002   0.0000000000000000     
   4.5770927778147688E-002   5.9517828514528810E-002   0.0000000000000000     
   4.8077494332206407E-002   6.5005095720218939E-002   0.0000000000000000     
   5.0311032350220518E-002   7.0675295984687803E-002   0.0000000000000000     
   5.2471541832190050E-002   7.6528429307935394E-002   0.0000000000000000     
   5.4559022778114995E-002   8.2564495689961714E-002   0.0000000000000000     
   7.7029931004012980E-002   8.5420758901312274E-002   0.0000000000000000     
   7.9680124439664032E-002   9.1481183624240792E-002   0.0000000000000000     
   8.2171704141298221E-002   9.7692776134053055E-002   0.0000000000000000     
   8.4504670108915575E-002  0.10405553643074905        0.0000000000000000     
   8.6679022342516066E-002  0.11056946451432878        0.0000000000000000     
   7.1113936788005538E-002   8.4622470807002498E-002   0.0000000000000000     
   7.3604147876151438E-002   9.0723328437311790E-002   0.0000000000000000     
   7.5938966788217058E-002   9.6968425403012884E-002   0.0000000000000000     
   7.8118393524202426E-002  0.10335776170410577        0.0000000000000000     
   8.0142428084107514E-002  0.10989133734059048        0.0000000000000000     
   6.5396787345020052E-002   8.3880330907007472E-002   0.0000000000000000     
   6.7723905221529893E-002   9.0016220146442269E-002   0.0000000000000000     
   6.9903351124588564E-002   9.6289583156792383E-002   0.0000000000000000     
   7.1935125054196095E-002  0.10270041993805774        0.0000000000000000     
   7.3819227010352456E-002  0.10924873049023844        0.0000000000000000     
   5.9878482675056542E-002   8.3194339201327225E-002   0.0000000000000000     
   6.2039396475799403E-002   8.9359858751632257E-002   0.0000000000000000     
   6.4064857150412755E-002   9.5656249395391496E-002   0.0000000000000000     
   6.5954864698896581E-002  0.10208351113260496        0.0000000000000000     
   6.7709419121250891E-002  0.10864164396327264        0.0000000000000000     
   5.4559022778114995E-002   8.2564495689961714E-002   0.0000000000000000     
   5.6550621638959978E-002   8.8754244252881725E-002   0.0000000000000000     
   5.8423484865689608E-002   9.5068424118810280E-002   0.0000000000000000     
   6.0177612458303886E-002  0.10150703528774742        0.0000000000000000     
   6.1813004416802833E-002  0.10807007775969313        0.0000000000000000     
   8.6679022342516066E-002  0.11056946451432878        0.0000000000000000     
   8.8869934291247260E-002  0.11729513178256241        0.0000000000000000     
   9.1252579404256767E-002  0.12429310963322010        0.0000000000000000     
   9.3826957681544546E-002  0.13156339806630191        0.0000000000000000     
   9.6593069123110623E-002  0.13910599708180774        0.0000000000000000     
   8.0142428084107514E-002  0.10989133734059048        0.0000000000000000     
   8.2171539845979802E-002  0.11662081851734013        0.0000000000000000     
   8.4366198187866739E-002  0.12359787143922794        0.0000000000000000     
   8.6726403109768313E-002  0.13082249610625393        0.0000000000000000     
   8.9252154611684550E-002  0.13829469251841803        0.0000000000000000     
   7.3819227010352456E-002  0.10924873049023844        0.0000000000000000     
   7.5700684626873530E-002  0.11598481073884778        0.0000000000000000     
   7.7724525537575181E-002  0.12295895660939916        0.0000000000000000     
   7.9890749742457412E-002  0.13017116810189261        0.0000000000000000     
   8.2199357241520207E-002  0.13762144521632808        0.0000000000000000     
   6.7709419121250891E-002  0.10864164396327264        0.0000000000000000     
   6.9457368633928471E-002  0.11538710844708532        0.0000000000000000     
   7.1327561453382121E-002  0.12237636514373376        0.0000000000000000     
   7.3319997579611815E-002  0.12960941405321796        0.0000000000000000     
   7.5434677012617551E-002  0.13708625517553794        0.0000000000000000     
   6.1813004416802833E-002  0.10807007775969313        0.0000000000000000     
   6.3441591867144639E-002  0.11482771164205277        0.0000000000000000     
   6.5175305935287545E-002  0.12185009704223172        0.0000000000000000     
   6.7014146621231535E-002  0.12913723396023000        0.0000000000000000     
   6.8958113924976638E-002  0.13668912239604752        0.0000000000000000     
   9.6593069123110623E-002  0.13910599708180774        0.0000000000000000     
   9.9148026224107275E-002  0.14668243069886885        0.0000000000000000     
  0.10108894147968682       0.15405422293661647        0.0000000000000000     
  0.10241581488984923       0.16122137379505058        0.0000000000000000     
  0.10312864645459452       0.16818388327417116        0.0000000000000000     
   8.9252154611684550E-002  0.13829469251841803        0.0000000000000000     
   9.1622335499981541E-002  0.14584844150896878        0.0000000000000000     
   9.3515828581025376E-002  0.15331772391115470        0.0000000000000000     
   9.4932633854816040E-002  0.16070253972497572        0.0000000000000000     
   9.5872751321353561E-002  0.16800288895043192        0.0000000000000000     
   8.2199357241520207E-002  0.13762144521632808        0.0000000000000000     
   8.4390867338502859E-002  0.14518103594657619        0.0000000000000000     
   8.6205799337144645E-002  0.15272118828650755        0.0000000000000000     
   8.7644153237445580E-002  0.16024190223612211        0.0000000000000000     
   8.8705929039405676E-002  0.16774317779541992        0.0000000000000000     
   7.5434677012617551E-002  0.13708625517553794        0.0000000000000000     
   7.7453621739671213E-002  0.14468021401169112        0.0000000000000000     
   7.9158853748044669E-002  0.15226461606267511        0.0000000000000000     
   8.0550373037737891E-002  0.15983946132848978        0.0000000000000000     
   8.1628179608750906E-002  0.16740474980913519        0.0000000000000000     
   6.8958113924976638E-002  0.13668912239604752        0.0000000000000000     
   7.0810598703486660E-002  0.14434597570431357        0.0000000000000000     
   7.2374991813725434E-002  0.15194800723965726        0.0000000000000000     
   7.3651293255692932E-002  0.15949521700207864        0.0000000000000000     
   7.4639503029389209E-002  0.16698760499157769        0.0000000000000000     
   0.0000000000000000        0.0000000000000000        0.0000000000000000     
   2.8801706140113240E-003   1.7447105792798277E-003   0.0000000000000000     
   5.8727792746027987E-003   3.8644260584909003E-003   0.0000000000000000     
   8.9778259817744240E-003   6.3591464376332183E-003   0.0000000000000000     
   1.2195310735526202E-002   9.2288717167067821E-003   0.0000000000000000     
   0.0000000000000000        0.0000000000000000        0.0000000000000000     
   2.6103764048072591E-003   1.5888807586968430E-003   0.0000000000000000     
   5.2897684124928526E-003   3.5565909549157590E-003   0.0000000000000000     
   8.0381760230567815E-003   5.9031305886567487E-003   0.0000000000000000     
   1.0855599236499045E-002   8.6284996599198110E-003   0.0000000000000000     
   0.0000000000000000        0.0000000000000000        0.0000000000000000     
   2.3401375739560593E-003   1.4589635327251541E-003   0.0000000000000000     
   4.7201844526539669E-003   3.2997745561514575E-003   0.0000000000000000     
   7.1401406360937216E-003   5.5224330702789096E-003   0.0000000000000000     
   9.6000061242753273E-003   8.1269390751075119E-003   0.0000000000000000     
   0.0000000000000000        0.0000000000000000        0.0000000000000000     
   2.0694541214577237E-003   1.3549589013647618E-003   0.0000000000000000     
   4.1640273950861399E-003   3.0939768621979957E-003   0.0000000000000000     
   6.2837198208852488E-003   5.2170538824997037E-003   0.0000000000000000     
   8.4285313988550492E-003   7.7241899622698847E-003   0.0000000000000000     
   0.0000000000000000        0.0000000000000000        0.0000000000000000     
   1.7983260473122529E-003   1.2768668646156653E-003   0.0000000000000000     
   3.6212972397893718E-003   2.9391978730553747E-003   0.0000000000000000     
   5.4689135774313577E-003   4.9869930253191291E-003   0.0000000000000000     
   7.3411750602382104E-003   7.4202523214069284E-003   0.0000000000000000     
   1.2195310735526202E-002   9.2288717167067821E-003   0.0000000000000000     
   1.5427589876561848E-002   1.2371464010826885E-002   0.0000000000000000     
   1.8577019745585087E-002   1.5684785435108824E-002   0.0000000000000000     
   2.1643600342595912E-002   1.9168835989552602E-002   0.0000000000000000     
   2.4627331667594326E-002   2.2823615674158207E-002   0.0000000000000000     
   1.0855599236499045E-002   8.6284996599198110E-003   0.0000000000000000     
   1.3688806123622613E-002   1.1650446926748489E-002   0.0000000000000000     
   1.6484564755230458E-002   1.4886721147186331E-002   0.0000000000000000     
   1.9242875131322581E-002   1.8337322321233331E-002   0.0000000000000000     
   2.1963737251898978E-002   2.2002250448889496E-002   0.0000000000000000     
   9.6000061242753273E-003   8.1269390751075119E-003   0.0000000000000000     
   1.2076356018796600E-002   1.1045959062586876E-002   0.0000000000000000     
   1.4545765421255359E-002   1.4212159524666614E-002   0.0000000000000000     
   1.7008234331651603E-002   1.7625540461346730E-002   0.0000000000000000     
   1.9463762749985333E-002   2.1286101872627219E-002   0.0000000000000000     
   8.4285313988550492E-003   7.7241899622698847E-003   0.0000000000000000     
   1.0590239562083806E-002   1.0558000418342040E-002   0.0000000000000000     
   1.2760621743659785E-002   1.3661100567549675E-002   0.0000000000000000     
   1.4939677943582974E-002   1.7033490409892785E-002   0.0000000000000000     
   1.7127408161853385E-002   2.0675169945371375E-002   0.0000000000000000     
   7.3411750602382104E-003   7.4202523214069284E-003   0.0000000000000000     
   9.2304567534842331E-003   1.0186570994013985E-002   0.0000000000000000     
   1.1129133722443731E-002   1.3233544275835511E-002   0.0000000000000000     
   1.3037205967116697E-002   1.6561172166871505E-002   0.0000000000000000     
   1.4954673487503144E-002   2.0169454667121965E-002   0.0000000000000000     
   2.4627331667594326E-002   2.2823615674158207E-002   0.0000000000000000     
   2.7532250679475231E-002   2.6671939486021295E-002   0.0000000000000000     
   3.0362394337133509E-002   3.0736622422237504E-002   0.0000000000000000     
   3.3117762640569176E-002   3.5017664482806833E-002   0.0000000000000000     
   3.5798355589782220E-002   3.9515065667729284E-002   0.0000000000000000     
   2.1963737251898978E-002   2.2002250448889496E-002   0.0000000000000000     
   2.4630299284187116E-002   2.5879477763252241E-002   0.0000000000000000     
   2.7225709395414452E-002   2.9966976497418966E-002   0.0000000000000000     
   2.9749967585580985E-002   3.4264746651389691E-002   0.0000000000000000     
   3.2203073854686716E-002   3.8772788225164397E-002   0.0000000000000000     
   1.9463762749985333E-002   2.1286101872627219E-002   0.0000000000000000     
   2.1883607924578934E-002   2.5174996746557293E-002   0.0000000000000000     
   2.4239027103754789E-002   2.9273378071186164E-002   0.0000000000000000     
   2.6530020287512897E-002   3.3581245846513827E-002   0.0000000000000000     
   2.8756587475853263E-002   3.8098600072540276E-002   0.0000000000000000     
   1.7127408161853385E-002   2.0675169945371375E-002   0.0000000000000000     
   1.9292176600650687E-002   2.4558496435936474E-002   0.0000000000000000     
   2.1402347462154522E-002   2.8655827143539089E-002   0.0000000000000000     
   2.3457920746364921E-002   3.2967162068179227E-002   0.0000000000000000     
   2.5458896453281858E-002   3.7492501209856914E-002   0.0000000000000000     
   1.4954673487503144E-002   2.0169454667121965E-002   0.0000000000000000     
   1.6856005312402365E-002   2.4029976831389761E-002   0.0000000000000000     
   1.8715670470613666E-002   2.8114323714477751E-002   0.0000000000000000     
   2.0533668962137045E-002   3.2422495316385934E-002   0.0000000000000000     
   2.2310000786972501E-002   3.6954491637114312E-002   0.0000000000000000     
   3.5798355589782220E-002   3.9515065667729284E-002   0.0000000000000000     
   3.8404045305631365E-002   4.4219423905978515E-002   0.0000000000000000     
   4.0934703908975321E-002   4.9121337126528178E-002   0.0000000000000000     
   4.3390331399814103E-002   5.4220805329378279E-002   0.0000000000000000     
   4.5770927778147688E-002   5.9517828514528810E-002   0.0000000000000000     
   3.2203073854686716E-002   3.8772788225164397E-002   0.0000000000000000     
   3.4588006409522441E-002   4.3486929350258191E-002   0.0000000000000000     
   3.6907743456878979E-002   4.8402998158186140E-002   0.0000000000000000     
   3.9162284996756294E-002   5.3520994648948259E-002   0.0000000000000000     
   4.1351631029154415E-002   5.8840918822544559E-002   0.0000000000000000     
   2.8756587475853263E-002   3.8098600072540276E-002   0.0000000000000000     
   3.0922353834097298E-002   4.2822999836551759E-002   0.0000000000000000     
   3.3030944527566428E-002   4.7752004225834511E-002   0.0000000000000000     
   3.5082359556260628E-002   5.2885613240388513E-002   0.0000000000000000     
   3.7076598920179935E-002   5.8223826880213769E-002   0.0000000000000000     
   2.5458896453281858E-002   3.7492501209856914E-002   0.0000000000000000     
   2.7407087579355918E-002   4.2227635364859212E-002   0.0000000000000000     
   2.9304307121037671E-002   4.7168355329473236E-002   0.0000000000000000     
   3.1150555078327116E-002   5.2314661103698999E-002   0.0000000000000000     
   3.2945831451224254E-002   5.7666552687536482E-002   0.0000000000000000     
   2.2310000786972501E-002   3.6954491637114312E-002   0.0000000000000000     
   2.4042207645298304E-002   4.1700835935180570E-002   0.0000000000000000     
   2.5727831237292716E-002   4.6652051469102382E-002   0.0000000000000000     
   2.7366871562955745E-002   5.1808138238879739E-002   0.0000000000000000     
   2.8959328622287377E-002   5.7169096244512663E-002   0.0000000000000000     
   4.5770927778147688E-002   5.9517828514528810E-002   0.0000000000000000     
   4.8077494332206407E-002   6.5005095720218939E-002   0.0000000000000000     
   5.0311032350220518E-002   7.0675295984687803E-002   0.0000000000000000     
   5.2471541832190050E-002   7.6528429307935394E-002   0.0000000000000000     
   5.4559022778114995E-002   8.2564495689961714E-002   0.0000000000000000     
   4.1351631029154415E-002   5.8840918822544559E-002   0.0000000000000000     
   4.3472834289450348E-002   6.4352997462450351E-002   0.0000000000000000     
   4.5522947513021113E-002   7.0047457352140963E-002   0.0000000000000000     
   4.7501970699866711E-002   7.5924298491616402E-002   0.0000000000000000     
   4.9409903849987148E-002   8.1983520880876695E-002   0.0000000000000000     
   3.7076598920179935E-002   5.8223826880213769E-002   0.0000000000000000     
   3.9008714016721624E-002   6.3755483119673453E-002   0.0000000000000000     
   4.0873756243282974E-002   6.9469419933130674E-002   0.0000000000000000     
   4.2671725599864006E-002   7.5365637320585460E-002   0.0000000000000000     
   4.4402622086464713E-002   8.1444135282037797E-002   0.0000000000000000     
   3.2945831451224254E-002   5.7666552687536482E-002   0.0000000000000000     
   3.4685133514020215E-002   6.3212552691888288E-002   0.0000000000000000     
   3.6363458541006116E-002   6.8941183727656952E-002   0.0000000000000000     
   3.7980806532181922E-002   7.4852445794842543E-002   0.0000000000000000     
   3.9537177487547696E-002   8.0946338893445033E-002   0.0000000000000000     
   2.8959328622287377E-002   5.7169096244512663E-002   0.0000000000000000     
   3.0502092781346125E-002   6.2724206179094799E-002   0.0000000000000000     
   3.1992054406190490E-002   6.8462748735719794E-002   0.0000000000000000     
   3.3429213496820487E-002   7.4384723914387677E-002   0.0000000000000000     
   3.4813570053236098E-002   8.0490131715098404E-002   0.0000000000000000     
   5.4559022778114995E-002   8.2564495689961714E-002   0.0000000000000000     
   5.6550621638959978E-002   8.8754244252881725E-002   0.0000000000000000     
   5.8423484865689608E-002   9.5068424118810280E-002   0.0000000000000000     
   6.0177612458303886E-002  0.10150703528774742        0.0000000000000000     
   6.1813004416802833E-002  0.10807007775969313        0.0000000000000000     
   4.9409903849987148E-002   8.1983520880876695E-002   0.0000000000000000     
   5.1231638898174066E-002   8.8193745556044048E-002   0.0000000000000000     
   5.2952067779219146E-002   9.4523593553240748E-002   0.0000000000000000     
   5.4571190493122389E-002  0.10097306487246681        0.0000000000000000     
   5.6089007039883773E-002  0.10754215951372220        0.0000000000000000     
   4.4402622086464713E-002   8.1444135282037797E-002   0.0000000000000000     
   4.6056506440604154E-002   8.7672731566972639E-002   0.0000000000000000     
   4.7623439399801390E-002   9.4019243924874971E-002   0.0000000000000000     
   4.9103420964056427E-002  0.10048367235574480        0.0000000000000000     
   5.0496451133369258E-002  0.10706601685958214        0.0000000000000000     
   3.9537177487547696E-002   8.0946338893445033E-002   0.0000000000000000     
   4.1025224266250215E-002   8.7191202285667471E-002   0.0000000000000000     
   4.2437599727436319E-002   9.3555375233712934E-002   0.0000000000000000     
   4.3774303871106007E-002  0.10003885773758144        0.0000000000000000     
   4.5035336697259280E-002  0.10664164979727297        0.0000000000000000     
   3.4813570053236098E-002   8.0490131715098404E-002   0.0000000000000000     
   3.6137792375112276E-002   8.6749157712128544E-002   0.0000000000000000     
   3.7394548762123954E-002   9.3131987479754652E-002   0.0000000000000000     
   3.8583839214271144E-002   9.9638621017976700E-002   0.0000000000000000     
   3.9705663731553834E-002  0.10626905832679470        0.0000000000000000     
   6.1813004416802833E-002  0.10807007775969313        0.0000000000000000     
   6.3441591867144639E-002  0.11482771164205277        0.0000000000000000     
   6.5175305935287545E-002  0.12185009704223172        0.0000000000000000     
   6.7014146621231535E-002  0.12913723396023000        0.0000000000000000     
   6.8958113924976638E-002  0.13668912239604752        0.0000000000000000     
   5.6089007039883773E-002  0.10754215951372220        0.0000000000000000     
   5.7601155760035258E-002  0.11431449112405398        0.0000000000000000     
   5.9203274994108761E-002  0.12137367335050933        0.0000000000000000     
   6.0895364742104288E-002  0.12871970619308817        0.0000000000000000     
   6.2677425004021833E-002  0.13635258965179059        0.0000000000000000     
   5.0496451133369258E-002  0.10706601685958214        0.0000000000000000     
   5.1883861746113570E-002  0.11385531769339283        0.0000000000000000     
   5.3346984640663071E-002  0.12094061511418282        0.0000000000000000     
   5.4885819817017727E-002  0.12832190912195215        0.0000000000000000     
   5.6500367275177557E-002  0.13599919971670071        0.0000000000000000     
   4.5035336697259280E-002  0.10664164979727297        0.0000000000000000     
   4.6289709825379603E-002  0.11345019135006928        0.0000000000000000     
   4.7606434874950462E-002  0.12055092233325225        0.0000000000000000     
   4.8985511845971851E-002  0.12794384274682180        0.0000000000000000     
   5.0426940738443796E-002  0.13562895259077792        0.0000000000000000     
   3.9705663731553834E-002  0.10626905832679470        0.0000000000000000     
   4.0818699997833337E-002  0.11309911209408342        0.0000000000000000     
   4.1981625696970962E-002  0.12020459500771757        0.0000000000000000     
   4.3194440828966701E-002  0.12758550706769720        0.0000000000000000     
   4.4457145393820556E-002  0.13524184827402225        0.0000000000000000     
   6.8958113924976638E-002  0.13668912239604752        0.0000000000000000     
   7.0810598703486660E-002  0.14434597570431357        0.0000000000000000     
   7.2374991813725434E-002  0.15194800723965726        0.0000000000000000     
   7.3651293255692932E-002  0.15949521700207864        0.0000000000000000     
   7.4639503029389209E-002  0.16698760499157769        0.0000000000000000     
   6.2677425004021833E-002  0.13635258965179059        0.0000000000000000     
   6.4366595860438275E-002  0.14407420808896745        0.0000000000000000     
   6.5780017391930526E-002  0.15168644586696978        0.0000000000000000     
   6.6917689598498531E-002  0.15918930298579764        0.0000000000000000     
   6.7779612480142304E-002  0.16658277944545086        0.0000000000000000     
   5.6500367275177557E-002  0.13599919971670071        0.0000000000000000     
   5.8026410841015258E-002  0.14376079823017671        0.0000000000000000     
   5.9299734340403552E-002  0.15139501599412830        0.0000000000000000     
   6.0320337773342433E-002  0.15890185300855544        0.0000000000000000     
   6.1088221139831901E-002  0.16628130927345816        0.0000000000000000     
   5.0426940738443796E-002  0.13562895259077792        0.0000000000000000     
   5.1790043645217575E-002  0.14340574612794138        0.0000000000000000     
   5.2934142659144555E-002  0.15107371762113278        0.0000000000000000     
   5.3859237780224674E-002  0.15863286707035218        0.0000000000000000     
   5.4565329008457994E-002  0.16608319447559952        0.0000000000000000     
   4.4457145393820556E-002  0.13524184827402225        0.0000000000000000     
   4.5657494273045246E-002  0.14300905178226139        0.0000000000000000     
   4.6683242348153485E-002  0.15072255074798321        0.0000000000000000     
   4.7534389619145259E-002  0.15838234517118774        0.0000000000000000     
   4.8210936086020575E-002  0.16598843505187499        0.0000000000000000     
   0.0000000000000000        0.0000000000000000        0.0000000000000000     
   1.7983260473122529E-003   1.2768668646156653E-003   0.0000000000000000     
   3.6212972397893718E-003   2.9391978730553747E-003   0.0000000000000000     
   5.4689135774313577E-003   4.9869930253191291E-003   0.0000000000000000     
   7.3411750602382104E-003   7.4202523214069284E-003   0.0000000000000000     
   0.0000000000000000        0.0000000000000000        0.0000000000000000     
   1.5350191974588842E-003   1.2175866450041329E-003   0.0000000000000000     
   3.0993319315158370E-003   2.8209358542366290E-003   0.0000000000000000     
   4.6929382021708571E-003   4.8100476276974882E-003   0.0000000000000000     
   6.3158380094239458E-003   7.1849219653867102E-003   0.0000000000000000     
   0.0000000000000000        0.0000000000000000        0.0000000000000000     
   1.2877994178368555E-003   1.1700174650564326E-003   0.0000000000000000     
   2.6054694150177060E-003   2.7246890712547931E-003   0.0000000000000000     
   3.9530099915425516E-003   4.6640148185950808E-003   0.0000000000000000     
   5.3304211474113914E-003   6.9879947070772969E-003   0.0000000000000000     
   0.0000000000000000        0.0000000000000000        0.0000000000000000     
   1.0566667084461660E-003   1.1341593247725643E-003   0.0000000000000000     
   2.1397096902949792E-003   2.6504575241098676E-003   0.0000000000000000     
   3.2491289455464398E-003   4.5488945980119086E-003   0.0000000000000000     
   4.3849244742005479E-003   6.8294705464786894E-003   0.0000000000000000     
   0.0000000000000000        0.0000000000000000        0.0000000000000000     
   8.4162106928681638E-004   1.1100122241525284E-003   0.0000000000000000     
   1.7020527573476571E-003   2.5982412128018519E-003   0.0000000000000000     
   2.5812950641825230E-003   4.4646869659479716E-003   0.0000000000000000     
   3.4793479897914127E-003   6.7093494835908851E-003   0.0000000000000000     
   7.3411750602382104E-003   7.4202523214069284E-003   0.0000000000000000     
   9.2304567534842331E-003   1.0186570994013985E-002   0.0000000000000000     
   1.1129133722443731E-002   1.3233544275835511E-002   0.0000000000000000     
   1.3037205967116697E-002   1.6561172166871505E-002   0.0000000000000000     
   1.4954673487503144E-002   2.0169454667121965E-002   0.0000000000000000     
   6.3158380094239458E-003   7.1849219653867102E-003   0.0000000000000000     
   7.9553328280051270E-003   9.8959617062979004E-003   0.0000000000000000     
   9.5987241326444227E-003   1.2893569689424659E-002   0.0000000000000000     
   1.1246011923341834E-002   1.6177745914766988E-002   0.0000000000000000     
   1.2897196200097358E-002   1.9748490382324884E-002   0.0000000000000000     
   5.3304211474113914E-003   6.9879947070772969E-003   0.0000000000000000     
   6.7231930206537336E-003   9.6504634718889756E-003   0.0000000000000000     
   8.1168157492990788E-003   1.2605255848217657E-002   0.0000000000000000     
   9.5112893333474322E-003   1.5852371836063344E-002   0.0000000000000000     
   1.0906613772798791E-002   1.9391811435426030E-002   0.0000000000000000     
   4.3849244742005479E-003   6.8294705464786894E-003   0.0000000000000000     
   5.5340373314300513E-003   9.4500762907872207E-003   0.0000000000000000     
   6.6834085724077038E-003   1.2368602752214514E-002   0.0000000000000000     
   7.8330381971334993E-003   1.5585049930760571E-002   0.0000000000000000     
   8.9829262056074412E-003   1.9099417826425387E-002   0.0000000000000000     
   3.4793479897914127E-003   6.7093494835908851E-003   0.0000000000000000     
   4.3878657603340825E-003   9.2948001629926252E-003   0.0000000000000000     
   5.2985026019702897E-003   1.2183610401415216E-002   0.0000000000000000     
   6.2112585147000299E-003   1.5375780198858666E-002   0.0000000000000000     
   7.1261334985233075E-003   1.8871309555322967E-002   0.0000000000000000     
   1.4954673487503144E-002   2.0169454667121965E-002   0.0000000000000000     
   1.6856005312402365E-002   2.4029976831389761E-002   0.0000000000000000     
   1.8715670470613666E-002   2.8114323714477751E-002   0.0000000000000000     
   2.0533668962137045E-002   3.2422495316385934E-002   0.0000000000000000     
   2.2310000786972501E-002   3.6954491637114312E-002   0.0000000000000000     
   1.2897196200097358E-002   1.9748490382324884E-002   0.0000000000000000     
   1.4535906155243182E-002   2.3579999425926982E-002   0.0000000000000000     
   1.6145770981111481E-002   2.7646469379401906E-002   0.0000000000000000     
   1.7726790677702255E-002   3.1947900242749662E-002   0.0000000000000000     
   1.9278965245015510E-002   3.6484292015970234E-002   0.0000000000000000     
   1.0906613772798791E-002   1.9391811435426030E-002   0.0000000000000000     
   1.2292691224582340E-002   2.3199125712557941E-002   0.0000000000000000     
   1.3659423845627256E-002   2.7249865733711312E-002   0.0000000000000000     
   1.5006811635933540E-002   3.1544031498886148E-002   0.0000000000000000     
   1.6334854595501193E-002   3.6081623008082438E-002   0.0000000000000000     
   8.9829262056074412E-003   1.9099417826425387E-002   0.0000000000000000     
   1.0126360520419838E-002   2.2887355691282637E-002   0.0000000000000000     
   1.1256629064160988E-002   2.6924512777405974E-002   0.0000000000000000     
   1.2373731836830892E-002   3.1210889084795405E-002   0.0000000000000000     
   1.3477668838429553E-002   3.5746484613450938E-002   0.0000000000000000     
   7.1261334985233075E-003   1.8871309555322967E-002   0.0000000000000000     
   8.0369140427556714E-003   2.2644689362101064E-002   0.0000000000000000     
   8.9373866367126725E-003   2.6670410510485885E-002   0.0000000000000000     
   9.8275512803943123E-003   3.0948473000477435E-002   0.0000000000000000     
   1.0707407973800589E-002   3.5478876832075713E-002   0.0000000000000000     
   2.2310000786972501E-002   3.6954491637114312E-002   0.0000000000000000     
   2.4042207645298304E-002   4.1700835935180570E-002   0.0000000000000000     
   2.5727831237292716E-002   4.6652051469102382E-002   0.0000000000000000     
   2.7366871562955745E-002   5.1808138238879739E-002   0.0000000000000000     
   2.8959328622287377E-002   5.7169096244512663E-002   0.0000000000000000     
   1.9278965245015510E-002   3.6484292015970234E-002   0.0000000000000000     
   2.0795440143973758E-002   4.1240148252201840E-002   0.0000000000000000     
   2.2269360835499529E-002   4.6199972504582715E-002   0.0000000000000000     
   2.3700727319592815E-002   5.1363764773112830E-002   0.0000000000000000     
   2.5089539596253624E-002   5.6731525057792179E-002   0.0000000000000000     
   1.6334854595501193E-002   3.6081623008082438E-002   0.0000000000000000     
   1.7634511187431579E-002   4.0843119020609116E-002   0.0000000000000000     
   1.8896739874826068E-002   4.5808998295775068E-002   0.0000000000000000     
   2.0121540657684650E-002   5.0979260833580328E-002   0.0000000000000000     
   2.1308913536007331E-002   5.6353906634024876E-002   0.0000000000000000     
   1.3477668838429553E-002   3.5746484613450938E-002   0.0000000000000000     
   1.4559420775671766E-002   4.0509748240402356E-002   0.0000000000000000     
   1.5609968355272332E-002   4.5479128842679475E-002   0.0000000000000000     
   1.6629311577231239E-002   5.0654626420282275E-002   0.0000000000000000     
   1.7617450441548506E-002   5.6036240973210763E-002   0.0000000000000000     
   1.0707407973800589E-002   3.5478876832075713E-002   0.0000000000000000     
   1.1570168908694320E-002   4.0240035911581575E-002   0.0000000000000000     
   1.2409046276838321E-002   4.5210364145295889E-002   0.0000000000000000     
   1.3224040078232597E-002   5.0389861533218644E-002   0.0000000000000000     
   1.4015150312877141E-002   5.5778528075349838E-002   0.0000000000000000     
   2.8959328622287377E-002   5.7169096244512663E-002   0.0000000000000000     
   3.0502092781346125E-002   6.2724206179094799E-002   0.0000000000000000     
   3.1992054406190490E-002   6.8462748735719794E-002   0.0000000000000000     
   3.3429213496820487E-002   7.4384723914387677E-002   0.0000000000000000     
   3.4813570053236098E-002   8.0490131715098404E-002   0.0000000000000000     
   2.5089539596253624E-002   5.6731525057792179E-002   0.0000000000000000     
   2.6435190344291822E-002   6.2293473789990388E-002   0.0000000000000000     
   2.7737072242517265E-002   6.8039831401077042E-002   0.0000000000000000     
   2.8995185290929981E-002   7.3970597891052134E-002   0.0000000000000000     
   3.0209529489529943E-002   8.0085773259915671E-002   0.0000000000000000     
   2.1308913536007331E-002   5.6353906634024876E-002   0.0000000000000000     
   2.2460024728449754E-002   6.1923385733272392E-002   0.0000000000000000     
   2.3576040453667547E-002   6.7678148167486504E-002   0.0000000000000000     
   2.4656960711660715E-002   7.3618193936667242E-002   0.0000000000000000     
   2.5702785502429257E-002   7.9743523040814598E-002   0.0000000000000000     
   1.7617450441548506E-002   5.6036240973210763E-002   0.0000000000000000     
   1.8576595933819932E-002   6.1613942008940797E-002   0.0000000000000000     
   1.9508959039641328E-002   6.7377699034948224E-002   0.0000000000000000     
   2.0414539759012702E-002   7.3327512051233001E-002   0.0000000000000000     
   2.1293338091934042E-002   7.9463381057795157E-002   0.0000000000000000     
   1.4015150312877141E-002   5.5778528075349838E-002   0.0000000000000000     
   1.4784903960402346E-002   6.1365142616995626E-002   0.0000000000000000     
   1.5535828000438606E-002   6.7138484003462146E-002   0.0000000000000000     
   1.6267922432985922E-002   7.3098552234749398E-002   0.0000000000000000     
   1.6981187258044293E-002   7.9245347310857361E-002   0.0000000000000000     
   3.4813570053236098E-002   8.0490131715098404E-002   0.0000000000000000     
   3.6137792375112276E-002   8.6749157712128544E-002   0.0000000000000000     
   3.7394548762123954E-002   9.3131987479754652E-002   0.0000000000000000     
   3.8583839214271144E-002   9.9638621017976700E-002   0.0000000000000000     
   3.9705663731553834E-002  0.10626905832679470        0.0000000000000000     
   3.0209529489529943E-002   8.0085773259915671E-002   0.0000000000000000     
   3.1371243768695246E-002   8.6357434609257031E-002   0.0000000000000000     
   3.2471467058803945E-002   9.2757659040665547E-002   0.0000000000000000     
   3.3510199359856052E-002   9.9286446554141247E-002   0.0000000000000000     
   3.4487440671851576E-002  0.10594379714968409        0.0000000000000000     
   2.5702785502429257E-002   7.9743523040814598E-002   0.0000000000000000     
   2.6702611448504051E-002   8.6026869739954034E-002   0.0000000000000000     
   2.7645535172415966E-002   9.2440968294111067E-002   0.0000000000000000     
   2.8531556674164994E-002   9.8985818703285669E-002   0.0000000000000000     
   2.9360675953751143E-002  0.10566142096747785        0.0000000000000000     
   2.1293338091934042E-002   7.9463381057795157E-002   0.0000000000000000     
   2.2131895414538697E-002   8.5757463104219583E-002   0.0000000000000000     
   2.2916753102959996E-002   9.2181915240091228E-002   0.0000000000000000     
   2.3647911157197950E-002   9.8736737465409993E-002   0.0000000000000000     
   2.4325369577252547E-002  0.10542192978017600        0.0000000000000000     
   1.6981187258044293E-002   7.9245347310857361E-002   0.0000000000000000     
   1.7659095666799181E-002   8.5549214702053691E-002   0.0000000000000000     
   1.8285120850436057E-002   9.1980499878605987E-002   0.0000000000000000     
   1.8859262808954926E-002   9.8539202840514262E-002   0.0000000000000000     
   1.9381521542355777E-002  0.10522532358777852        0.0000000000000000     
   3.9705663731553834E-002  0.10626905832679470        0.0000000000000000     
   4.0818699997833337E-002  0.11309911209408342        0.0000000000000000     
   4.1981625696970962E-002  0.12020459500771757        0.0000000000000000     
   4.3194440828966701E-002  0.12758550706769720        0.0000000000000000     
   4.4457145393820556E-002  0.13524184827402225        0.0000000000000000     
   3.4487440671851576E-002  0.10594379714968409        0.0000000000000000     
   3.5454226170777599E-002  0.11279422420337419        0.0000000000000000     
   3.6461591032621227E-002  0.11990224109129152        0.0000000000000000     
   3.7509535257382466E-002  0.12726784781343614        0.0000000000000000     
   3.8598058845061317E-002  0.13489104436980806        0.0000000000000000     
   2.9360675953751143E-002  0.10566142096747785        0.0000000000000000     
   3.0179682251515197E-002  0.11252767195588056        0.0000000000000000     
   3.1035364807797946E-002  0.11964446853768680        0.0000000000000000     
   3.1927723622599380E-002  0.12701181071289655        0.0000000000000000     
   3.2856758695919509E-002  0.13462969848150980        0.0000000000000000     
   2.4325369577252547E-002  0.10542192978017600        0.0000000000000000     
   2.4995068240046148E-002  0.11229945535160264        0.0000000000000000     
   2.5702947022501119E-002  0.11943127734690343        0.0000000000000000     
   2.6449005924617457E-002  0.12681739576607834        0.0000000000000000     
   2.7233244946395164E-002  0.13445781060912748        0.0000000000000000     
   1.9381521542355777E-002  0.10522532358777852        0.0000000000000000     
   1.9900384136370443E-002  0.11210957439054034        0.0000000000000000     
   2.0464337676730740E-002  0.11926266751894136        0.0000000000000000     
   2.1073382163436686E-002  0.12668460297298156        0.0000000000000000     
   2.1727517596488263E-002  0.13437538075266101        0.0000000000000000     
   4.4457145393820556E-002  0.13524184827402225        0.0000000000000000     
   4.5657494273045246E-002  0.14300905178226139        0.0000000000000000     
   4.6683242348153485E-002  0.15072255074798321        0.0000000000000000     
   4.7534389619145259E-002  0.15838234517118774        0.0000000000000000     
   4.8210936086020575E-002  0.16598843505187499        0.0000000000000000     
   3.8598058845061317E-002  0.13489104436980806        0.0000000000000000     
   3.9640144304251911E-002  0.14264443812591818        0.0000000000000000     
   4.0548774143548384E-002  0.15040063644727741        0.0000000000000000     
   4.1323948362950759E-002  0.15815963933388583        0.0000000000000000     
   4.1965666962459014E-002  0.16592144678574336        0.0000000000000000     
   3.2856758695919509E-002  0.13462969848150980        0.0000000000000000     
   3.3749375318591186E-002  0.14238562809169314        0.0000000000000000     
   3.4532478781447273E-002  0.15016709579161322        0.0000000000000000     
   3.5206069084487764E-002  0.15797410158126993        0.0000000000000000     
   3.5770146227712664E-002  0.16580664546066334        0.0000000000000000     
   2.7233244946395164E-002  0.13445781060912748        0.0000000000000000     
   2.7985187316063108E-002  0.14223262167958631        0.0000000000000000     
   2.8634356261850142E-002  0.15002192878099049        0.0000000000000000     
   2.9180751783756283E-002  0.15782573191334009        0.0000000000000000     
   2.9624373881781522E-002  0.16564403107663503        0.0000000000000000     
   2.1727517596488263E-002  0.13437538075266101        0.0000000000000000     
   2.2347580296667644E-002  0.14218541888959760        0.0000000000000000     
   2.2854406584756990E-002  0.14996513541540935        0.0000000000000000     
   2.3247996460756308E-002  0.15771453033009630        0.0000000000000000     
   2.3528349924665591E-002  0.16543360363365833        0.0000000000000000     
   0.0000000000000000        0.0000000000000000        0.0000000000000000     
   8.4162106928681638E-004   1.1100122241525284E-003   0.0000000000000000     
   1.7020527573476571E-003   2.5982412128018519E-003   0.0000000000000000     
   2.5812950641825230E-003   4.4646869659479716E-003   0.0000000000000000     
   3.4793479897914127E-003   6.7093494835908851E-003   0.0000000000000000     
   0.0000000000000000        0.0000000000000000        0.0000000000000000     
   6.3376817441677382E-004   1.0940070909635188E-003   0.0000000000000000     
   1.2779703072092145E-003   2.5621836060775978E-003   0.0000000000000000     
   1.9326063983773219E-003   4.4045295453422366E-003   0.0000000000000000     
   2.5976764479210962E-003   6.6210449087574369E-003   0.0000000000000000     
   0.0000000000000000        0.0000000000000000        0.0000000000000000     
   4.2421369789400636E-004   1.0825748529727306E-003   0.0000000000000000     
   8.5293403091312597E-004   2.5364281726839568E-003   0.0000000000000000     
   1.2861609990573591E-003   4.3615599591336780E-003   0.0000000000000000     
   1.7238946023267049E-003   6.5579702123218942E-003   0.0000000000000000     
   0.0000000000000000        0.0000000000000000        0.0000000000000000     
   2.1295763971851389E-004   1.0757155101801638E-003   0.0000000000000000     
   4.2694392845939183E-004   2.5209749126209277E-003   0.0000000000000000     
   6.4195886622263375E-004   4.3357782073222923E-003   0.0000000000000000     
   8.5800245300823971E-004   6.5201253942842562E-003   0.0000000000000000     
   0.0000000000000000        0.0000000000000000        0.0000000000000000     
  -1.0970361446517585E-013   1.0734290625858181E-003   0.0000000000000000     
  -1.5198817681846832E-013   2.5158238258885116E-003   0.0000000000000000     
  -1.2685365995482312E-013   4.3271842899080806E-003   0.0000000000000000     
  -3.4300172294457476E-014   6.5075104546445254E-003   0.0000000000000000     
   3.4793479897914127E-003   6.7093494835908851E-003   0.0000000000000000     
   4.3878657603340825E-003   9.2948001629926252E-003   0.0000000000000000     
   5.2985026019702897E-003   1.2183610401415216E-002   0.0000000000000000     
   6.2112585147000299E-003   1.5375780198858666E-002   0.0000000000000000     
   7.1261334985233075E-003   1.8871309555322967E-002   0.0000000000000000     
   2.5976764479210962E-003   6.6210449087574369E-003   0.0000000000000000     
   3.2701145162952676E-003   9.1786696369201594E-003   0.0000000000000000     
   3.9468546639545672E-003   1.2044343670427369E-002   0.0000000000000000     
   4.6278968908989929E-003   1.5218067009279064E-002   0.0000000000000000     
   5.3132411971285485E-003   1.8699839653475245E-002   0.0000000000000000     
   1.7238946023267049E-003   6.5579702123218942E-003   0.0000000000000000     
   2.1662198082430459E-003   9.0957192609847932E-003   0.0000000000000000     
   2.6132215843282618E-003   1.1944867433858560E-002   0.0000000000000000     
   3.0648999305823532E-003   1.5105414730943189E-002   0.0000000000000000     
   3.5212548470053198E-003   1.8577361152238694E-002   0.0000000000000000     
   8.5800245300823971E-004   6.5201253942842562E-003   0.0000000000000000     
   1.0761816361774172E-003   9.0459490351865231E-003   0.0000000000000000     
   1.2976033630913736E-003   1.1885181691708786E-002   0.0000000000000000     
   1.5222676337501091E-003   1.5037823363851050E-002   0.0000000000000000     
   1.7501744481536240E-003   1.8503874051613311E-002   0.0000000000000000     
  -3.4300172294457476E-014   6.5075104546445254E-003   0.0000000000000000     
   9.8382131434593401E-014   9.0293589595253493E-003   0.0000000000000000     
   2.4390306262297642E-013   1.1865286443978050E-002   0.0000000000000000     
   4.0226260602409854E-013   1.5015292908002636E-002   0.0000000000000000     
   5.7346033303928845E-013   1.8479378351599102E-002   0.0000000000000000     
   7.1261334985233075E-003   1.8871309555322967E-002   0.0000000000000000     
   8.0369140427556714E-003   2.2644689362101064E-002   0.0000000000000000     
   8.9373866367126725E-003   2.6670410510485885E-002   0.0000000000000000     
   9.8275512803943123E-003   3.0948473000477435E-002   0.0000000000000000     
   1.0707407973800589E-002   3.5478876832075713E-002   0.0000000000000000     
   5.3132411971285485E-003   1.8699839653475245E-002   0.0000000000000000     
   5.9963536417998592E-003   2.2462589189443365E-002   0.0000000000000000     
   6.6707002840695551E-003   2.6479243203610885E-002   0.0000000000000000     
   7.3362811239376380E-003   3.0749801695977790E-002   0.0000000000000000     
   7.9930961614041052E-003   3.5274264666544083E-002   0.0000000000000000     
   3.5212548470053198E-003   1.8577361152238694E-002   0.0000000000000000     
   3.9766811677624100E-003   2.2332517637739687E-002   0.0000000000000000     
   4.4255737270188725E-003   2.6342695127440797E-002   0.0000000000000000     
   4.8679325247747048E-003   3.0607893621342017E-002   0.0000000000000000     
   5.3037575610299093E-003   3.5128113119443354E-002   0.0000000000000000     
   1.7501744481536240E-003   1.8503874051613311E-002   0.0000000000000000     
   1.9778966206433252E-003   2.2254474706990025E-002   0.0000000000000000     
   2.2020069655606213E-003   2.6260766281975628E-002   0.0000000000000000     
   2.4225054829055122E-003   3.0522748776570140E-002   0.0000000000000000     
   2.6393921726779964E-003   3.5040422190773537E-002   0.0000000000000000     
   5.7346033303928845E-013   1.8479378351599102E-002   0.0000000000000000     
   4.4260509970625583E-013   2.2228460397194373E-002   0.0000000000000000     
  -3.0519488845859311E-013   2.6233456667215382E-002   0.0000000000000000     
  -1.6699398482956929E-012   3.0494367161662126E-002   0.0000000000000000     
  -3.6516299966454779E-012   3.5011191880534608E-002   0.0000000000000000     
   1.0707407973800589E-002   3.5478876832075713E-002   0.0000000000000000     
   1.1570168908694320E-002   4.0240035911581575E-002   0.0000000000000000     
   1.2409046276838321E-002   4.5210364145295889E-002   0.0000000000000000     
   1.3224040078232597E-002   5.0389861533218644E-002   0.0000000000000000     
   1.4015150312877141E-002   5.5778528075349838E-002   0.0000000000000000     
   7.9930961614041052E-003   3.5274264666544083E-002   0.0000000000000000     
   8.6372839056319522E-003   4.0031888196082638E-002   0.0000000000000000     
   9.2649828657841663E-003   4.5001928365366331E-002   0.0000000000000000     
   9.8761930418607546E-003   5.0184385174395156E-002   0.0000000000000000     
   1.0470914433861710E-002   5.5579258623169113E-002   0.0000000000000000     
   5.3037575610299093E-003   3.5128113119443354E-002   0.0000000000000000     
   5.7312940856173739E-003   3.9883211255841419E-002   0.0000000000000000     
   6.1487873483699936E-003   4.4853045664632815E-002   0.0000000000000000     
   6.5562373492877649E-003   5.0037616345817541E-002   0.0000000000000000     
   6.9536440883706911E-003   5.5436923299395605E-002   0.0000000000000000     
   2.6393921726779964E-003   3.5040422190773537E-002   0.0000000000000000     
   2.8521994486505882E-003   3.9794005090857898E-002   0.0000000000000000     
   3.0604597245957998E-003   4.4763716043095321E-002   0.0000000000000000     
   3.2641730005136299E-003   4.9949555047485793E-002   0.0000000000000000     
   3.4633392764040804E-003   5.5351522104029313E-002   0.0000000000000000     
  -3.6516299966454779E-012   3.5011191880534608E-002   0.0000000000000000     
  -5.2684072382458424E-012   3.9764269701132095E-002   0.0000000000000000     
  -5.5384143451964185E-012   4.4733939500753862E-002   0.0000000000000000     
  -4.4616515343376406E-012   4.9920201279399910E-002   0.0000000000000000     
  -2.0381196730312467E-012   5.5323055037070232E-002   0.0000000000000000     
   1.4015150312877141E-002   5.5778528075349838E-002   0.0000000000000000     
   1.4784903960402346E-002   6.1365142616995626E-002   0.0000000000000000     
   1.5535828000438606E-002   6.7138484003462146E-002   0.0000000000000000     
   1.6267922432985922E-002   7.3098552234749398E-002   0.0000000000000000     
   1.6981187258044293E-002   7.9245347310857361E-002   0.0000000000000000     
   1.0470914433861710E-002   5.5579258623169113E-002   0.0000000000000000     
   1.1051479790870728E-002   6.1173975044148787E-002   0.0000000000000000     
   1.1620221861971498E-002   6.6955960769794792E-002   0.0000000000000000     
   1.2177140647164018E-002   7.2925215800107093E-002   0.0000000000000000     
   1.2722236146448294E-002   7.9081740135085732E-002   0.0000000000000000     
   6.9536440883706911E-003   5.5436923299395605E-002   0.0000000000000000     
   7.3428544078987940E-003   6.1037426777112221E-002   0.0000000000000000     
   7.7257151501521010E-003   6.6825587030712619E-002   0.0000000000000000     
   8.1022263151306131E-003   7.2801404060196806E-002   0.0000000000000000     
   8.4723879028343295E-003   7.8964877865564748E-002   0.0000000000000000     
   3.4633392764040804E-003   5.5351522104029313E-002   0.0000000000000000     
   3.6590278114865460E-003   6.0955497815885912E-002   0.0000000000000000     
   3.8523078649804207E-003   6.6747362786215639E-002   0.0000000000000000     
   4.0431794368857065E-003   7.2727117015018480E-002   0.0000000000000000     
   4.2316425272024023E-003   7.8894760502294464E-002   0.0000000000000000     
  -2.0381196730312467E-012   5.5323055037070232E-002   0.0000000000000000     
   1.6339825542957542E-012   6.0928188160469875E-002   0.0000000000000000     
   6.4564552163838551E-012   6.6721288036303839E-002   0.0000000000000000     
   1.2429297622054171E-011   7.2702354664572144E-002   0.0000000000000000     
   1.9552509568018794E-011   7.8871388045274812E-002   0.0000000000000000     
   1.6981187258044293E-002   7.9245347310857361E-002   0.0000000000000000     
   1.7659095666799181E-002   8.5549214702053691E-002   0.0000000000000000     
   1.8285120850436057E-002   9.1980499878605987E-002   0.0000000000000000     
   1.8859262808954926E-002   9.8539202840514262E-002   0.0000000000000000     
   1.9381521542355777E-002  0.10522532358777852        0.0000000000000000     
   1.2722236146448294E-002   7.9081740135085732E-002   0.0000000000000000     
   1.3237520985796492E-002   8.5393754076823231E-002   0.0000000000000000     
   1.3705007791180789E-002   9.1829477927412084E-002   0.0000000000000000     
   1.4124696562601185E-002   9.8388911686852376E-002   0.0000000000000000     
   1.4496587300057678E-002  0.10507205535514405        0.0000000000000000     
   8.4723879028343295E-003   7.8964877865564748E-002   0.0000000000000000     
   8.8204801520416157E-003   8.5282710771895073E-002   0.0000000000000000     
   9.1307833015308384E-003   9.1721605104266246E-002   0.0000000000000000     
   9.4032973513019941E-003   9.8281560862678335E-002   0.0000000000000000     
   9.6380223013550880E-003  0.10496257804713130        0.0000000000000000     
   4.2316425272024023E-003   7.8894760502294464E-002   0.0000000000000000     
   4.4079731655345539E-003   8.5216084787269220E-002   0.0000000000000000     
   4.5624473814862036E-003   9.1656881409168431E-002   0.0000000000000000     
   4.6950651750573549E-003   9.8217150367992084E-002   0.0000000000000000     
   4.8058265462480034E-003  0.10489689166374019        0.0000000000000000     
   1.9552509568018794E-011   7.8871388045274812E-002   0.0000000000000000     
   2.6275302680150991E-011   8.5193876122945683E-002   0.0000000000000000     
   3.1046887337491530E-011   9.1635306842118638E-002   0.0000000000000000     
   3.3867261656239135E-011   9.8195680202793692E-002   0.0000000000000000     
   3.4736428577292200E-011  0.10487499620497080        0.0000000000000000     
   1.9381521542355777E-002  0.10522532358777852        0.0000000000000000     
   1.9900384136370443E-002  0.11210957439054034        0.0000000000000000     
   2.0464337676730740E-002  0.11926266751894136        0.0000000000000000     
   2.1073382163436686E-002  0.12668460297298156        0.0000000000000000     
   2.1727517596488263E-002  0.13437538075266101        0.0000000000000000     
   1.4496587300057678E-002  0.10507205535514405        0.0000000000000000     
   1.4869320767648657E-002  0.11196020039438555        0.0000000000000000     
   1.5291537729472511E-002  0.11913463826667527        0.0000000000000000     
   1.5763238185529237E-002  0.12659536897201323        0.0000000000000000     
   1.6284422135818842E-002  0.13434239251039945        0.0000000000000000     
   9.6380223013550880E-003  0.10496257804713130        0.0000000000000000     
   9.8755689610413727E-003  0.11185350468483013        0.0000000000000000     
   1.0156548139712104E-002  0.11904318880297984        0.0000000000000000     
   1.0480959837367286E-002  0.12653163040158036        0.0000000000000000     
   1.0848804054006915E-002  0.13431882948063179        0.0000000000000000     
   4.8058265462480034E-003  0.10489689166374019        0.0000000000000000     
   4.9191287165485835E-003  0.11178948726187407        0.0000000000000000     
   5.0593689074495260E-003  0.11898831912785500        0.0000000000000000     
   5.2265471189508290E-003  0.12649338726168294        0.0000000000000000     
   5.4206633510524935E-003  0.13430469166335798        0.0000000000000000     
   3.4736428577292200E-011  0.10487499620497080        0.0000000000000000     
   3.4170296366736741E-011  0.11176814812551739        0.0000000000000000     
   3.2684774700121599E-011  0.11897002924130079        0.0000000000000000     
   3.0279867399259433E-011  0.12648063955232097        0.0000000000000000     
   2.6955570154446606E-011  0.13429997905857802        0.0000000000000000     
   2.1727517596488263E-002  0.13437538075266101        0.0000000000000000     
   2.2347580296667644E-002  0.14218541888959760        0.0000000000000000     
   2.2854406584756990E-002  0.14996513541540935        0.0000000000000000     
   2.3247996460756308E-002  0.15771453033009630        0.0000000000000000     
   2.3528349924665591E-002  0.16543360363365833        0.0000000000000000     
   1.6284422135818842E-002  0.13434239251039945        0.0000000000000000     
   1.6770119133144763E-002  0.14219040553353823        0.0000000000000000     
   1.7135358730310447E-002  0.14995410469313392        0.0000000000000000     
   1.7380140927315900E-002  0.15763348998918644        0.0000000000000000     
   1.7504465724161113E-002  0.16522856142169590        0.0000000000000000     
   1.0848804054006915E-002  0.13431882948063179        0.0000000000000000     
   1.1186368698234394E-002  0.14219396742321933        0.0000000000000000     
   1.1419941678653123E-002  0.14994622561242829        0.0000000000000000     
   1.1549522995263101E-002  0.15757560404825863        0.0000000000000000     
   1.1575112648064325E-002  0.16508210273071042        0.0000000000000000     
   5.4206633510524935E-003  0.13430469166335798        0.0000000000000000     
   5.5963289919365479E-003  0.14219610455864082        0.0000000000000000     
   5.7081554297850230E-003  0.14994149817329244        0.0000000000000000     
   5.7561426645979180E-003  0.15754087250731277        0.0000000000000000     
   5.7402906963752338E-003  0.16499422756070181        0.0000000000000000     
   2.6955570154446606E-011  0.13429997905857802        0.0000000000000000     
   1.4251218911562336E-011  0.14219681693980282        0.0000000000000000     
  -1.6293854503482419E-011  0.14993992237572648        0.0000000000000000     
  -6.4679649819637114E-011  0.15752929536634891        0.0000000000000000     
  -1.3090616785005338E-010  0.16496493591167016        0.0000000000000000     
   0.0000000000000000        0.0000000000000000        0.0000000000000000     
  -1.0970361446517585E-013   1.0734290625858181E-003   0.0000000000000000     
  -1.5198817681846832E-013   2.5158238258885116E-003   0.0000000000000000     
  -1.2685365995482312E-013   4.3271842899080806E-003   0.0000000000000000     
  -3.4300172294457476E-014   6.5075104546445254E-003   0.0000000000000000     
   0.0000000000000000        0.0000000000000000        0.0000000000000000     
  -2.1295763992506774E-004   1.0757155101587313E-003   0.0000000000000000     
  -4.2694392874120021E-004   2.5209749124481132E-003   0.0000000000000000     
  -6.4195886644839760E-004   4.3357782068681452E-003   0.0000000000000000     
  -8.5800245304665972E-004   6.5201253934188278E-003   0.0000000000000000     
   0.0000000000000000        0.0000000000000000        0.0000000000000000     
  -4.2421369806199986E-004   1.0825748528679414E-003   0.0000000000000000     
  -8.5293403112843052E-004   2.5364281722611379E-003   0.0000000000000000     
  -1.2861609991992921E-003   4.3615599581795887E-003   0.0000000000000000     
  -1.7238946022745843E-003   6.5579702106232938E-003   0.0000000000000000     
   0.0000000000000000        0.0000000000000000        0.0000000000000000     
  -6.3376817452049999E-004   1.0940070907134486E-003   0.0000000000000000     
  -1.2779703073136789E-003   2.5621836053275845E-003   0.0000000000000000     
  -1.9326063983795369E-003   4.4045295438424094E-003   0.0000000000000000     
  -2.5976764477180733E-003   6.6210449062579215E-003   0.0000000000000000     
   0.0000000000000000        0.0000000000000000        0.0000000000000000     
  -8.4162106930056818E-004   1.1100122236952521E-003   0.0000000000000000     
  -1.7020527572969453E-003   2.5982412116474550E-003   0.0000000000000000     
  -2.5812950639891316E-003   4.4646869638566089E-003   0.0000000000000000     
  -3.4793479893771274E-003   6.7093494803227138E-003   0.0000000000000000     
  -3.4300172294457476E-014   6.5075104546445254E-003   0.0000000000000000     
   9.8382131434593401E-014   9.0293589595253493E-003   0.0000000000000000     
   2.4390306262297642E-013   1.1865286443978050E-002   0.0000000000000000     
   4.0226260602409854E-013   1.5015292908002636E-002   0.0000000000000000     
   5.7346033303928845E-013   1.8479378351599102E-002   0.0000000000000000     
  -8.5800245304665972E-004   6.5201253934188278E-003   0.0000000000000000     
  -1.0761816359396205E-003   9.0459490340315044E-003   0.0000000000000000     
  -1.2976033625309131E-003   1.1885181690637518E-002   0.0000000000000000     
  -1.5222676328205387E-003   1.5037823363236872E-002   0.0000000000000000     
  -1.7501744468084953E-003   1.8503874051829558E-002   0.0000000000000000     
  -1.7238946022745843E-003   6.5579702106232938E-003   0.0000000000000000     
  -2.1662198078821514E-003   9.0957192587352246E-003   0.0000000000000000     
  -2.6132215835498376E-003   1.1944867431658351E-002   0.0000000000000000     
  -3.0648999292776425E-003   1.5105414729392679E-002   0.0000000000000000     
  -3.5212548450655667E-003   1.8577361151938202E-002   0.0000000000000000     
  -2.5976764477180733E-003   6.6210449062579215E-003   0.0000000000000000     
  -3.2701145157292100E-003   9.1786696336365083E-003   0.0000000000000000     
  -3.9468546628128702E-003   1.2044343667040552E-002   0.0000000000000000     
  -4.6278968889690497E-003   1.5218067006470055E-002   0.0000000000000000     
  -5.3132411941977532E-003   1.8699839651925017E-002   0.0000000000000000     
  -3.4793479893771274E-003   6.7093494803227138E-003   0.0000000000000000     
  -4.3878657594807980E-003   9.2948001587353554E-003   0.0000000000000000     
  -5.2985026003200099E-003   1.2183610396784117E-002   0.0000000000000000     
  -6.2112585118947617E-003   1.5375780194469004E-002   0.0000000000000000     
  -7.1261334942050569E-003   1.8871309551790005E-002   0.0000000000000000     
   5.7346033303928845E-013   1.8479378351599102E-002   0.0000000000000000     
   4.4260509970625583E-013   2.2228460397194373E-002   0.0000000000000000     
  -3.0519488845859311E-013   2.6233456667215382E-002   0.0000000000000000     
  -1.6699398482956929E-012   3.0494367161662126E-002   0.0000000000000000     
  -3.6516299966454779E-012   3.5011191880534608E-002   0.0000000000000000     
  -1.7501744468084953E-003   1.8503874051829558E-002   0.0000000000000000     
  -1.9778966194403638E-003   2.2254474707823581E-002   0.0000000000000000     
  -2.2020069656617227E-003   2.6260766282626941E-002   0.0000000000000000     
  -2.4225054854725724E-003   3.0522748776239620E-002   0.0000000000000000     
  -2.6393921788729130E-003   3.5040422188661643E-002   0.0000000000000000     
  -3.5212548450655667E-003   1.8577361151938202E-002   0.0000000000000000     
  -3.9766811656061938E-003   2.2332517638348509E-002   0.0000000000000000     
  -4.4255737255921067E-003   2.6342695127677198E-002   0.0000000000000000     
  -4.8679325250233080E-003   3.0607893619924255E-002   0.0000000000000000     
  -5.3037575638997941E-003   3.5128113115089683E-002   0.0000000000000000     
  -5.3132411941977532E-003   1.8699839651925017E-002   0.0000000000000000     
  -5.9963536380548852E-003   2.2462589188769137E-002   0.0000000000000000     
  -6.6707002800963488E-003   2.6479243202366141E-002   0.0000000000000000     
  -7.3362811203221438E-003   3.0749801692716003E-002   0.0000000000000000     
  -7.9930961587322755E-003   3.5274264659818748E-002   0.0000000000000000     
  -7.1261334942050569E-003   1.8871309551790005E-002   0.0000000000000000     
  -8.0369140367864359E-003   2.2644689359085486E-002   0.0000000000000000     
  -8.9373866291744455E-003   2.6670410506693779E-002   0.0000000000000000     
  -9.8275512713690838E-003   3.0948472994614895E-002   0.0000000000000000     
  -1.0707407963370354E-002   3.5478876822848823E-002   0.0000000000000000     
  -3.6516299966454779E-012   3.5011191880534608E-002   0.0000000000000000     
  -5.2684072382458424E-012   3.9764269701132095E-002   0.0000000000000000     
  -5.5384143451964185E-012   4.4733939500753862E-002   0.0000000000000000     
  -4.4616515343376406E-012   4.9920201279399910E-002   0.0000000000000000     
  -2.0381196730312467E-012   5.5323055037070232E-002   0.0000000000000000     
  -2.6393921788729130E-003   3.5040422188661643E-002   0.0000000000000000     
  -2.8521994577235879E-003   3.9794005086916120E-002   0.0000000000000000     
  -3.0604597338854417E-003   4.4763716038026209E-002   0.0000000000000000     
  -3.2641730073584754E-003   4.9949555041991896E-002   0.0000000000000000     
  -3.4633392781426879E-003   5.5351522098813187E-002   0.0000000000000000     
  -5.3037575638997941E-003   3.5128113115089683E-002   0.0000000000000000     
  -5.7312940902989294E-003   3.9883211248462107E-002   0.0000000000000000     
  -6.1487873522980763E-003   4.4853045655330132E-002   0.0000000000000000     
  -6.5562373498972339E-003   5.0037616335693758E-002   0.0000000000000000     
  -6.9536440830964023E-003   5.5436923289552971E-002   0.0000000000000000     
  -7.9930961587322755E-003   3.5274264659818748E-002   0.0000000000000000     
  -8.6372839029944352E-003   4.0031888185770061E-002   0.0000000000000000     
  -9.2649828607763197E-003   4.5001928352665636E-002   0.0000000000000000     
  -9.8761930320779307E-003   5.0184385160505489E-002   0.0000000000000000     
  -1.0470914416899263E-002   5.5579258609289597E-002   0.0000000000000000     
  -1.0707407963370354E-002   3.5478876822848823E-002   0.0000000000000000     
  -1.1570168895810102E-002   4.0240035898839968E-002   0.0000000000000000     
  -1.2409046259320169E-002   4.5210364130032731E-002   0.0000000000000000     
  -1.3224040053900559E-002   5.0389861516427090E-002   0.0000000000000000     
  -1.4015150279551272E-002   5.5778528058023059E-002   0.0000000000000000     
  -2.0381196730312467E-012   5.5323055037070232E-002   0.0000000000000000     
   1.6339825542957542E-012   6.0928188160469875E-002   0.0000000000000000     
   6.4564552163838551E-012   6.6721288036303839E-002   0.0000000000000000     
   1.2429297622054171E-011   7.2702354664572144E-002   0.0000000000000000     
   1.9552509568018794E-011   7.8871388045274812E-002   0.0000000000000000     
  -3.4633392781426879E-003   5.5351522098813187E-002   0.0000000000000000     
  -3.6590278057616961E-003   6.0955497811011353E-002   0.0000000000000000     
  -3.8523078497391173E-003   6.6747362781107683E-002   0.0000000000000000     
  -4.0431794100749523E-003   7.2727117009102157E-002   0.0000000000000000     
  -4.2316424867691986E-003   7.8894760494994789E-002   0.0000000000000000     
  -6.9536440830964023E-003   5.5436923289552971E-002   0.0000000000000000     
  -7.3428543948032944E-003   6.1037426767657631E-002   0.0000000000000000     
  -7.7257151279256199E-003   6.6825587020757568E-002   0.0000000000000000     
  -8.1022262824633796E-003   7.2801404048852825E-002   0.0000000000000000     
  -8.4723878584165770E-003   7.8964877851943324E-002   0.0000000000000000     
  -1.0470914416899263E-002   5.5579258609289597E-002   0.0000000000000000     
  -1.1051479765490813E-002   6.1173975030408716E-002   0.0000000000000000     
  -1.1620221828103051E-002   6.6955960755253563E-002   0.0000000000000000     
  -1.2177140604735988E-002   7.2925215783824118E-002   0.0000000000000000     
  -1.2722236095389623E-002   7.9081740116120458E-002   0.0000000000000000     
  -1.4015150279551272E-002   5.5778528058023059E-002   0.0000000000000000     
  -1.4784903917824242E-002   6.1365142599264580E-002   0.0000000000000000     
  -1.5535827950271412E-002   6.7138483984595598E-002   0.0000000000000000     
  -1.6267922376892778E-002   7.3098552214016108E-002   0.0000000000000000     
  -1.6981187197688343E-002   7.9245347287526122E-002   0.0000000000000000     
   1.9552509568018794E-011   7.8871388045274812E-002   0.0000000000000000     
   2.6275302680150991E-011   8.5193876122945683E-002   0.0000000000000000     
   3.1046887337491530E-011   9.1635306842118638E-002   0.0000000000000000     
   3.3867261656239135E-011   9.8195680202793692E-002   0.0000000000000000     
   3.4736428577292200E-011  0.10487499620497080        0.0000000000000000     
  -4.2316424867691986E-003   7.8894760494994789E-002   0.0000000000000000     
  -4.4079731122594308E-003   8.5216084779560469E-002   0.0000000000000000     
  -4.5624473189832164E-003   9.1656881403574045E-002   0.0000000000000000     
  -4.6950651069405571E-003   9.8217150367035558E-002   0.0000000000000000     
  -4.8058264761314529E-003  0.10489689166994495        0.0000000000000000     
  -8.4723878584165770E-003   7.8964877851943324E-002   0.0000000000000000     
  -8.8204800965929423E-003   8.5282710757749514E-002   0.0000000000000000     
  -9.1307832378002118E-003   9.1721605093991784E-002   0.0000000000000000     
  -9.4032972820383785E-003   9.8281560860670095E-002   0.0000000000000000     
  -9.6380222293074493E-003  0.10496257805778447        0.0000000000000000     
  -1.2722236095389623E-002   7.9081740116120458E-002   0.0000000000000000     
  -1.3237520926725236E-002   8.5393754057512872E-002   0.0000000000000000     
  -1.3705007725404094E-002   9.1829477913371857E-002   0.0000000000000000     
  -1.4124696491426204E-002   9.8388911683697358E-002   0.0000000000000000     
  -1.4496587224791567E-002  0.10507205536848943        0.0000000000000000     
  -1.6981187197688343E-002   7.9245347287526122E-002   0.0000000000000000     
  -1.7659095602656303E-002   8.5549214678850530E-002   0.0000000000000000     
  -1.8285120781794870E-002   9.1980499861714263E-002   0.0000000000000000     
  -1.8859262735104031E-002   9.8539202836117321E-002   0.0000000000000000     
  -1.9381521462583796E-002  0.10522532360205972        0.0000000000000000     
   3.4736428577292200E-011  0.10487499620497080        0.0000000000000000     
   3.4170296366736741E-011  0.11176814812551739        0.0000000000000000     
   3.2684774700121599E-011  0.11897002924130079        0.0000000000000000     
   3.0279867399259433E-011  0.12648063955232097        0.0000000000000000     
   2.6955570154446606E-011  0.13429997905857802        0.0000000000000000     
  -4.8058264761314529E-003  0.10489689166994495        0.0000000000000000     
  -4.9191286471281723E-003  0.11178948727436964        0.0000000000000000     
  -5.0593688405029856E-003  0.11898831914237706        0.0000000000000000     
  -5.2265470562558964E-003  0.12649338727396714        0.0000000000000000     
  -5.4206632943869003E-003  0.13430469166913991        0.0000000000000000     
  -9.6380222293074493E-003  0.10496257805778447        0.0000000000000000     
  -9.8755688883814981E-003  0.11185350470704049        0.0000000000000000     
  -1.0156548068034602E-002  0.11904318883014370        0.0000000000000000     
  -1.0480959768266756E-002  0.12653163042709409        0.0000000000000000     
  -1.0848803989077966E-002  0.13431882949789165        0.0000000000000000     
  -1.4496587224791567E-002  0.10507205536848943        0.0000000000000000     
  -1.4869320689589682E-002  0.11196020042352989        0.0000000000000000     
  -1.5291537649910066E-002  0.11913463830460067        0.0000000000000000     
  -1.5763238105752714E-002  0.12659536901170176        0.0000000000000000     
  -1.6284422057117623E-002  0.13434239254483321        0.0000000000000000     
  -1.9381521462583796E-002  0.10522532360205972        0.0000000000000000     
  -1.9900384050752725E-002  0.11210957442383780        0.0000000000000000     
  -2.0464337586129384E-002  0.11926266756574799        0.0000000000000000     
  -2.1073382068713765E-002  0.12668460302779028        0.0000000000000000     
  -2.1727517498505881E-002  0.13437538080996464        0.0000000000000000     
   2.6955570154446606E-011  0.13429997905857802        0.0000000000000000     
   1.4251218911562336E-011  0.14219681693980282        0.0000000000000000     
  -1.6293854503482419E-011  0.14993992237572648        0.0000000000000000     
  -6.4679649819637114E-011  0.15752929536634891        0.0000000000000000     
  -1.3090616785005338E-010  0.16496493591167016        0.0000000000000000     
  -5.4206632943869003E-003  0.13430469166913991        0.0000000000000000     
  -5.5963289588784344E-003  0.14219610456878887        0.0000000000000000     
  -5.7081554537129382E-003  0.14994149821380753        0.0000000000000000     
  -5.7561427788904111E-003  0.15754087260419591        0.0000000000000000     
  -5.7402909344108537E-003  0.16499422773995398        0.0000000000000000     
  -1.0848803989077966E-002  0.13431882949789165        0.0000000000000000     
  -1.1186368651509257E-002  0.14219396744768251        0.0000000000000000     
  -1.1419941676601658E-002  0.14994622568161284        0.0000000000000000     
  -1.1549523064355173E-002  0.15757560419968267        0.0000000000000000     
  -1.1575112814769802E-002  0.16508210300189188        0.0000000000000000     
  -1.6284422057117623E-002  0.13434239254483321        0.0000000000000000     
  -1.6770119063641238E-002  0.14219040557648385        0.0000000000000000     
  -1.7135358684960012E-002  0.14995410477914251        0.0000000000000000     
  -1.7380140921073942E-002  0.15763349015280917        0.0000000000000000     
  -1.7504465771983016E-002  0.16522856169748390        0.0000000000000000     
  -2.1727517498505881E-002  0.13437538080996464        0.0000000000000000     
  -2.2347580195274400E-002  0.14218541895519277        0.0000000000000000     
  -2.2854406478788010E-002  0.14996513550639634        0.0000000000000000     
  -2.3247996349046705E-002  0.15771453046357542        0.0000000000000000     
  -2.3528349806050491E-002  0.16543360382672995        0.0000000000000000     
   0.0000000000000000        0.0000000000000000        0.0000000000000000     
  -8.4162106930056818E-004   1.1100122236952521E-003   0.0000000000000000     
  -1.7020527572969453E-003   2.5982412116474550E-003   0.0000000000000000     
  -2.5812950639891316E-003   4.4646869638566089E-003   0.0000000000000000     
  -3.4793479893771274E-003   6.7093494803227138E-003   0.0000000000000000     
   0.0000000000000000        0.0000000000000000        0.0000000000000000     
  -1.0566667083824087E-003   1.1341593240738082E-003   0.0000000000000000     
  -2.1397096901103244E-003   2.6504575225104092E-003   0.0000000000000000     
  -3.2491289451837468E-003   4.5488945953098018E-003   0.0000000000000000     
  -4.3849244736026763E-003   6.8294705424719890E-003   0.0000000000000000     
   0.0000000000000000        0.0000000000000000        0.0000000000000000     
  -1.2877994177462253E-003   1.1700174641095737E-003   0.0000000000000000     
  -2.6054694147859083E-003   2.7246890692061089E-003   0.0000000000000000     
  -3.9530099911190492E-003   4.6640148152896060E-003   0.0000000000000000     
  -5.3304211467456487E-003   6.9879947023600650E-003   0.0000000000000000     
   0.0000000000000000        0.0000000000000000        0.0000000000000000     
  -1.5350191973920182E-003   1.2175866438025481E-003   0.0000000000000000     
  -3.0993319313236986E-003   2.8209358517345541E-003   0.0000000000000000     
  -4.6929382017950414E-003   4.8100476237960214E-003   0.0000000000000000     
  -6.3158380088060460E-003   7.1849219599869453E-003   0.0000000000000000     
   0.0000000000000000        0.0000000000000000        0.0000000000000000     
  -1.7983260473197872E-003   1.2768668631527309E-003   0.0000000000000000     
  -3.6212972397236939E-003   2.9391978700957456E-003   0.0000000000000000     
  -5.4689135772117200E-003   4.9869930208290445E-003   0.0000000000000000     
  -7.3411750597838672E-003   7.4202523153526273E-003   0.0000000000000000     
  -3.4793479893771274E-003   6.7093494803227138E-003   0.0000000000000000     
  -4.3878657594807980E-003   9.2948001587353554E-003   0.0000000000000000     
  -5.2985026003200099E-003   1.2183610396784117E-002   0.0000000000000000     
  -6.2112585118947617E-003   1.5375780194469004E-002   0.0000000000000000     
  -7.1261334942050569E-003   1.8871309551790005E-002   0.0000000000000000     
  -4.3849244736026763E-003   6.8294705424719890E-003   0.0000000000000000     
  -5.5340373303295635E-003   9.4500762856043613E-003   0.0000000000000000     
  -6.6834085703268552E-003   1.2368602746314320E-002   0.0000000000000000     
  -7.8330381935945523E-003   1.5585049924601864E-002   0.0000000000000000     
  -8.9829262001326557E-003   1.9099417820466990E-002   0.0000000000000000     
  -5.3304211467456487E-003   6.9879947023600650E-003   0.0000000000000000     
  -6.7231930194681516E-003   9.6504634658161267E-003   0.0000000000000000     
  -8.1168157470889995E-003   1.2605255841056436E-002   0.0000000000000000     
  -9.5112893296081923E-003   1.5852371828080986E-002   0.0000000000000000     
  -1.0906613767025732E-002   1.9391811426889782E-002   0.0000000000000000     
  -6.3158380088060460E-003   7.1849219599869453E-003   0.0000000000000000     
  -7.9553328268965624E-003   9.8959616993706499E-003   0.0000000000000000     
  -9.5987241306064435E-003   1.2893569681010460E-002   0.0000000000000000     
  -1.1246011919935683E-002   1.6177745904906365E-002   0.0000000000000000     
  -1.2897196194884289E-002   1.9748490371058382E-002   0.0000000000000000     
  -7.3411750597838672E-003   7.4202523153526273E-003   0.0000000000000000     
  -9.2304567526148001E-003   1.0186570986267931E-002   0.0000000000000000     
  -1.1129133720879187E-002   1.3233544266176392E-002   0.0000000000000000     
  -1.3037205964577029E-002   1.6561172155078005E-002   0.0000000000000000     
  -1.4954673483708323E-002   2.0169454652972783E-002   0.0000000000000000     
  -7.1261334942050569E-003   1.8871309551790005E-002   0.0000000000000000     
  -8.0369140367864359E-003   2.2644689359085486E-002   0.0000000000000000     
  -8.9373866291744455E-003   2.6670410506693779E-002   0.0000000000000000     
  -9.8275512713690838E-003   3.0948472994614895E-002   0.0000000000000000     
  -1.0707407963370354E-002   3.5478876822848823E-002   0.0000000000000000     
  -8.9829262001326557E-003   1.9099417820466990E-002   0.0000000000000000     
  -1.0126360512555100E-002   2.2887355685274023E-002   0.0000000000000000     
  -1.1256629053475820E-002   2.6924512770387283E-002   0.0000000000000000     
  -1.2373731822894814E-002   3.1210889075806766E-002   0.0000000000000000     
  -1.3477668820812085E-002   3.5746484601532479E-002   0.0000000000000000     
  -1.0906613767025732E-002   1.9391811426889782E-002   0.0000000000000000     
  -1.2292691216115131E-002   2.3199125703311254E-002   0.0000000000000000     
  -1.3659423833649893E-002   2.7249865723173818E-002   0.0000000000000000     
  -1.5006811619630021E-002   3.1544031486477483E-002   0.0000000000000000     
  -1.6334854574055514E-002   3.6081622993222262E-002   0.0000000000000000     
  -1.2897196194884289E-002   1.9748490371058382E-002   0.0000000000000000     
  -1.4535906147466526E-002   2.3579999413197158E-002   0.0000000000000000     
  -1.6145770969696664E-002   2.7646469365053390E-002   0.0000000000000000     
  -1.7726790661574707E-002   3.1947900226627073E-002   0.0000000000000000     
  -1.9278965223100651E-002   3.6484291997918188E-002   0.0000000000000000     
  -1.4954673483708323E-002   2.0169454652972783E-002   0.0000000000000000     
  -1.6856005306609283E-002   2.4029976814931762E-002   0.0000000000000000     
  -1.8715670461616138E-002   2.8114323696026004E-002   0.0000000000000000     
  -2.0533668948728871E-002   3.2422495296255488E-002   0.0000000000000000     
  -2.2310000767947494E-002   3.6954491615620248E-002   0.0000000000000000     
  -1.0707407963370354E-002   3.5478876822848823E-002   0.0000000000000000     
  -1.1570168895810102E-002   4.0240035898839968E-002   0.0000000000000000     
  -1.2409046259320169E-002   4.5210364130032731E-002   0.0000000000000000     
  -1.3224040053900559E-002   5.0389861516427090E-002   0.0000000000000000     
  -1.4015150279551272E-002   5.5778528058023059E-002   0.0000000000000000     
  -1.3477668820812085E-002   3.5746484601532479E-002   0.0000000000000000     
  -1.4559420753276493E-002   4.0509748225366592E-002   0.0000000000000000     
  -1.5609968326336895E-002   4.5479128825111348E-002   0.0000000000000000     
  -1.6629311539993297E-002   5.0654626400766685E-002   0.0000000000000000     
  -1.7617450394245702E-002   5.6036240952332644E-002   0.0000000000000000     
  -1.6334854574055514E-002   3.6081622993222262E-002   0.0000000000000000     
  -1.7634511159924173E-002   4.0843119003044714E-002   0.0000000000000000     
  -1.8896739840233771E-002   4.5808998275581422E-002   0.0000000000000000     
  -2.0121540614984328E-002   5.0979260810832400E-002   0.0000000000000000     
  -2.1308913484175827E-002   5.6353906608797633E-002   0.0000000000000000     
  -1.9278965223100651E-002   3.6484291997918188E-002   0.0000000000000000     
  -2.0795440115753138E-002   4.1240148231874302E-002   0.0000000000000000     
  -2.2269360801010801E-002   4.6199972481442982E-002   0.0000000000000000     
  -2.3700727278873634E-002   5.1363764746624220E-002   0.0000000000000000     
  -2.5089539549341650E-002   5.6731525027418024E-002   0.0000000000000000     
  -2.2310000767947494E-002   3.6954491615620248E-002   0.0000000000000000     
  -2.4042207620763395E-002   4.1700835911855381E-002   0.0000000000000000     
  -2.5727831208667975E-002   4.6652051442696019E-002   0.0000000000000000     
  -2.7366871531661237E-002   5.1808138208142167E-002   0.0000000000000000     
  -2.8959328589743170E-002   5.7169096208193812E-002   0.0000000000000000     
  -1.4015150279551272E-002   5.5778528058023059E-002   0.0000000000000000     
  -1.4784903917824242E-002   6.1365142599264580E-002   0.0000000000000000     
  -1.5535827950271412E-002   6.7138483984595598E-002   0.0000000000000000     
  -1.6267922376892778E-002   7.3098552214016108E-002   0.0000000000000000     
  -1.6981187197688343E-002   7.9245347287526122E-002   0.0000000000000000     
  -1.7617450394245702E-002   5.6036240952332644E-002   0.0000000000000000     
  -1.8576595877046624E-002   6.1613941986833988E-002   0.0000000000000000     
  -1.9508958976348596E-002   6.7377699011295478E-002   0.0000000000000000     
  -2.0414539692151623E-002   7.3327512025717148E-002   0.0000000000000000     
  -2.1293338024455689E-002   7.9463381030098965E-002   0.0000000000000000     
  -2.1308913484175827E-002   5.6353906608797633E-002   0.0000000000000000     
  -2.2460024668400986E-002   6.1923385705725649E-002   0.0000000000000000     
  -2.3576040388252506E-002   6.7678148137864991E-002   0.0000000000000000     
  -2.4656960643730391E-002   7.3618193905215637E-002   0.0000000000000000     
  -2.5702785434834639E-002   7.9743523007777595E-002   0.0000000000000000     
  -2.5089539549341650E-002   5.6731525027418024E-002   0.0000000000000000     
  -2.6435190291887324E-002   6.2293473755939577E-002   0.0000000000000000     
  -2.7737072185983137E-002   6.8039831364304082E-002   0.0000000000000000     
  -2.8995185231629091E-002   7.3970597852511588E-002   0.0000000000000000     
  -3.0209529428825176E-002   8.0085773220562012E-002   0.0000000000000000     
  -2.8959328589743170E-002   5.7169096208193812E-002   0.0000000000000000     
  -3.0502092747505642E-002   6.2724206137475771E-002   0.0000000000000000     
  -3.1992054369540487E-002   6.8462748690612835E-002   0.0000000000000000     
  -3.3429213455847713E-002   7.4384723867604960E-002   0.0000000000000000     
  -3.4813570006427319E-002   8.0490131668452231E-002   0.0000000000000000     
  -1.6981187197688343E-002   7.9245347287526122E-002   0.0000000000000000     
  -1.7659095602656303E-002   8.5549214678850530E-002   0.0000000000000000     
  -1.8285120781794870E-002   9.1980499861714263E-002   0.0000000000000000     
  -1.8859262735104031E-002   9.8539202836117321E-002   0.0000000000000000     
  -1.9381521462583796E-002  0.10522532360205972        0.0000000000000000     
  -2.1293338024455689E-002   7.9463381030098965E-002   0.0000000000000000     
  -2.2131895346725678E-002   8.5757463077404852E-002   0.0000000000000000     
  -2.2916753032426466E-002   9.2181915220598737E-002   0.0000000000000000     
  -2.3647911081558042E-002   9.8736737459680576E-002   0.0000000000000000     
  -2.4325369494120414E-002  0.10542192979465041        0.0000000000000000     
  -2.5702785434834639E-002   7.9743523007777595E-002   0.0000000000000000     
  -2.6702611381272900E-002   8.6026869708818260E-002   0.0000000000000000     
  -2.7645535102752822E-002   9.2440968271604959E-002   0.0000000000000000     
  -2.8531556599274421E-002   9.8985818696137720E-002   0.0000000000000000     
  -2.9360675870837686E-002  0.10566142098241653        0.0000000000000000     
  -3.0209529428825176E-002   8.0085773220562012E-002   0.0000000000000000     
  -3.1371243706297951E-002   8.6357434573090697E-002   0.0000000000000000     
  -3.2471466992773951E-002   9.2757659014732957E-002   0.0000000000000000     
  -3.3510199288253162E-002   9.9286446545488710E-002   0.0000000000000000     
  -3.4487440592735605E-002  0.10594379716535800        0.0000000000000000     
  -3.4813570006427319E-002   8.0490131668452231E-002   0.0000000000000000     
  -3.6137792321800845E-002   8.6749157670222232E-002   0.0000000000000000     
  -3.7394548702489830E-002   9.3131987449982676E-002   0.0000000000000000     
  -3.8583839148494274E-002   9.9638621007733574E-002   0.0000000000000000     
  -3.9705663659814178E-002  0.10626905834347491        0.0000000000000000     
  -1.9381521462583796E-002  0.10522532360205972        0.0000000000000000     
  -1.9900384050752725E-002  0.11210957442383780        0.0000000000000000     
  -2.0464337586129384E-002  0.11926266756574799        0.0000000000000000     
  -2.1073382068713765E-002  0.12668460302779028        0.0000000000000000     
  -2.1727517498505881E-002  0.13437538080996464        0.0000000000000000     
  -2.4325369494120414E-002  0.10542192979465041        0.0000000000000000     
  -2.4995068148483651E-002  0.11229945538791239        0.0000000000000000     
  -2.5702946923017823E-002  0.11943127740187059        0.0000000000000000     
  -2.6449005817722936E-002  0.12681739583652513        0.0000000000000000     
  -2.7233244832598983E-002  0.13445781069187587        0.0000000000000000     
  -2.9360675870837686E-002  0.10566142098241653        0.0000000000000000     
  -3.0179682159395472E-002  0.11252767199570167        0.0000000000000000     
  -3.1035364706900659E-002  0.11964446860125344        0.0000000000000000     
  -3.1927723513353233E-002  0.12701181079907184        0.0000000000000000     
  -3.2856758578753198E-002  0.13462969858915691        0.0000000000000000     
  -3.4487440592735605E-002  0.10594379716535800        0.0000000000000000     
  -3.5454226083488194E-002  0.11279422424720568        0.0000000000000000     
  -3.6461590937777878E-002  0.11990224116389651        0.0000000000000000     
  -3.7509535155604644E-002  0.12726784791543055        0.0000000000000000     
  -3.8598058736968505E-002  0.13489104450180778        0.0000000000000000     
  -3.9705663659814178E-002  0.10626905834347491        0.0000000000000000     
  -4.0818699920761828E-002  0.11309911214242442        0.0000000000000000     
  -4.1981625615649505E-002  0.12020459508979983        0.0000000000000000     
  -4.3194440744477203E-002  0.12758550718560119        0.0000000000000000     
  -4.4457145307244927E-002  0.13524184842982845        0.0000000000000000     
  -2.1727517498505881E-002  0.13437538080996464        0.0000000000000000     
  -2.2347580195274400E-002  0.14218541895519277        0.0000000000000000     
  -2.2854406478788010E-002  0.14996513550639634        0.0000000000000000     
  -2.3247996349046705E-002  0.15771453046357542        0.0000000000000000     
  -2.3528349806050491E-002  0.16543360382672995        0.0000000000000000     
  -2.7233244832598983E-002  0.13445781069187587        0.0000000000000000     
  -2.7985187188331574E-002  0.14223262177069163        0.0000000000000000     
  -2.8634356105606287E-002  0.15002192887574106        0.0000000000000000     
  -2.9180751584423143E-002  0.15782573200702424        0.0000000000000000     
  -2.9624373624782124E-002  0.16564403116454107        0.0000000000000000     
  -3.2856758578753198E-002  0.13462969858915691        0.0000000000000000     
  -3.3749375184735600E-002  0.14238562820986264        0.0000000000000000     
  -3.4532478612935513E-002  0.15016709589954308        0.0000000000000000     
  -3.5206068863352917E-002  0.15797410165819831        0.0000000000000000     
  -3.5770145935987818E-002  0.16580664548582821        0.0000000000000000     
  -3.8598058736968505E-002  0.13489104450180778        0.0000000000000000     
  -3.9640144184486505E-002  0.14264443827270581        0.0000000000000000     
  -4.0548774000775667E-002  0.15040063657780248        0.0000000000000000     
  -4.1323948185836019E-002  0.15815963941709762        0.0000000000000000     
  -4.1965666739667555E-002  0.16592144679059134        0.0000000000000000     
  -4.4457145307244927E-002  0.13524184842982845        0.0000000000000000     
  -4.5657494187584260E-002  0.14300905195922123        0.0000000000000000     
  -4.6683242269126769E-002  0.15072255091051917        0.0000000000000000     
  -4.7534389551872475E-002  0.15838234528372228        0.0000000000000000     
  -4.8210936035821356E-002  0.16598843507883052        0.0000000000000000     
   0.0000000000000000        0.0000000000000000        0.0000000000000000     
  -1.7983260473197872E-003   1.2768668631527309E-003   0.0000000000000000     
  -3.6212972397236939E-003   2.9391978700957456E-003   0.0000000000000000     
  -5.4689135772117200E-003   4.9869930208290445E-003   0.0000000000000000     
  -7.3411750597838672E-003   7.4202523153526273E-003   0.0000000000000000     
   0.0000000000000000        0.0000000000000000        0.0000000000000000     
  -2.0694541215527107E-003   1.3549588996794992E-003   0.0000000000000000     
  -4.1640273951769318E-003   3.0939768588465941E-003   0.0000000000000000     
  -6.2837198208726634E-003   5.2170538775012845E-003   0.0000000000000000     
  -8.4285313986399053E-003   7.7241899556435688E-003   0.0000000000000000     
   0.0000000000000000        0.0000000000000000        0.0000000000000000     
  -2.3401375741139673E-003   1.4589635309022297E-003   0.0000000000000000     
  -4.7201844528744477E-003   3.2997745525440115E-003   0.0000000000000000     
  -7.1401406362814404E-003   5.5224330649253448E-003   0.0000000000000000     
  -9.6000061243349463E-003   8.1269390680462298E-003   0.0000000000000000     
   0.0000000000000000        0.0000000000000000        0.0000000000000000     
  -2.6103764050035569E-003   1.5888807568209223E-003   0.0000000000000000     
  -5.2897684128162415E-003   3.5565909511879978E-003   0.0000000000000000     
  -8.0381760234380564E-003   5.9031305831012256E-003   0.0000000000000000     
  -1.0855599236868997E-002   8.6284996525606093E-003   0.0000000000000000     
   0.0000000000000000        0.0000000000000000        0.0000000000000000     
  -2.8801706142214793E-003   1.7447105774355768E-003   0.0000000000000000     
  -5.8727792750023150E-003   3.8644260547785535E-003   0.0000000000000000     
  -8.9778259823425060E-003   6.3591464320289295E-003   0.0000000000000000     
  -1.2195310736242054E-002   9.2288717091867055E-003   0.0000000000000000     
  -7.3411750597838672E-003   7.4202523153526273E-003   0.0000000000000000     
  -9.2304567526148001E-003   1.0186570986267931E-002   0.0000000000000000     
  -1.1129133720879187E-002   1.3233544266176392E-002   0.0000000000000000     
  -1.3037205964577029E-002   1.6561172155078005E-002   0.0000000000000000     
  -1.4954673483708323E-002   2.0169454652972783E-002   0.0000000000000000     
  -8.4285313986399053E-003   7.7241899556435688E-003   0.0000000000000000     
  -1.0590239561565955E-002   1.0558000409868411E-002   0.0000000000000000     
  -1.2760621742738110E-002   1.3661100556770771E-002   0.0000000000000000     
  -1.4939677942156374E-002   1.7033490396350645E-002   0.0000000000000000     
  -1.7127408159820747E-002   2.0675169928608034E-002   0.0000000000000000     
  -9.6000061243349463E-003   8.1269390680462298E-003   0.0000000000000000     
  -1.2076356018693116E-002   1.1045959053532537E-002   0.0000000000000000     
  -1.4545765421014092E-002   1.4212159513010128E-002   0.0000000000000000     
  -1.7008234331297879E-002   1.7625540446479005E-002   0.0000000000000000     
  -1.9463762749544478E-002   2.1286101853939178E-002   0.0000000000000000     
  -1.0855599236868997E-002   8.6284996525606093E-003   0.0000000000000000     
  -1.3688806123996283E-002   1.1650446917260304E-002   0.0000000000000000     
  -1.6484564755707132E-002   1.4886721134894467E-002   0.0000000000000000     
  -1.9242875132001541E-002   1.8337322305463102E-002   0.0000000000000000     
  -2.1963737252879513E-002   2.2002250428966207E-002   0.0000000000000000     
  -1.2195310736242054E-002   9.2288717091867055E-003   0.0000000000000000     
  -1.5427589877475461E-002   1.2371464001051711E-002   0.0000000000000000     
  -1.8577019746817230E-002   1.5684785422423787E-002   0.0000000000000000     
  -2.1643600344267360E-002   1.9168835973302923E-002   0.0000000000000000     
  -2.4627331669825850E-002   2.2823615653689129E-002   0.0000000000000000     
  -1.4954673483708323E-002   2.0169454652972783E-002   0.0000000000000000     
  -1.6856005306609283E-002   2.4029976814931762E-002   0.0000000000000000     
  -1.8715670461616138E-002   2.8114323696026004E-002   0.0000000000000000     
  -2.0533668948728871E-002   3.2422495296255488E-002   0.0000000000000000     
  -2.2310000767947494E-002   3.6954491615620248E-002   0.0000000000000000     
  -1.7127408159820747E-002   2.0675169928608034E-002   0.0000000000000000     
  -1.9292176597376729E-002   2.4558496416094640E-002   0.0000000000000000     
  -2.1402347456469826E-002   2.8655827121362169E-002   0.0000000000000000     
  -2.3457920737100027E-002   3.2967162044410601E-002   0.0000000000000000     
  -2.5458896439267346E-002   3.7492501185239967E-002   0.0000000000000000     
  -1.9463762749544478E-002   2.1286101853939178E-002   0.0000000000000000     
  -2.1883607923602170E-002   2.5174996724265392E-002   0.0000000000000000     
  -2.4239027101319241E-002   2.9273378046332413E-002   0.0000000000000000     
  -2.6530020282695698E-002   3.3581245820140236E-002   0.0000000000000000     
  -2.8756587467731524E-002   3.8098600045688873E-002   0.0000000000000000     
  -2.1963737252879513E-002   2.2002250428966207E-002   0.0000000000000000     
  -2.4630299285285609E-002   2.5879477739444011E-002   0.0000000000000000     
  -2.7225709396164394E-002   2.9966976470936733E-002   0.0000000000000000     
  -2.9749967585515864E-002   3.4264746623444385E-002   0.0000000000000000     
  -3.2203073853340029E-002   3.8772788196966959E-002   0.0000000000000000     
  -2.4627331669825850E-002   2.2823615653689129E-002   0.0000000000000000     
  -2.7532250682427047E-002   2.6671939461630496E-002   0.0000000000000000     
  -3.0362394341005274E-002   3.0736622395175137E-002   0.0000000000000000     
  -3.3117762645560544E-002   3.5017664454323048E-002   0.0000000000000000     
  -3.5798355596092860E-002   3.9515065639074226E-002   0.0000000000000000     
  -2.2310000767947494E-002   3.6954491615620248E-002   0.0000000000000000     
  -2.4042207620763395E-002   4.1700835911855381E-002   0.0000000000000000     
  -2.5727831208667975E-002   4.6652051442696019E-002   0.0000000000000000     
  -2.7366871531661237E-002   5.1808138208142167E-002   0.0000000000000000     
  -2.8959328589743170E-002   5.7169096208193812E-002   0.0000000000000000     
  -2.5458896439267346E-002   3.7492501185239967E-002   0.0000000000000000     
  -2.7407087561286372E-002   4.2227635338811499E-002   0.0000000000000000     
  -2.9304307101471708E-002   4.7168355300086437E-002   0.0000000000000000     
  -3.1150555059823344E-002   5.2314661069064808E-002   0.0000000000000000     
  -3.2945831436341298E-002   5.7666552645746584E-002   0.0000000000000000     
  -2.8756587467731524E-002   3.8098600045688873E-002   0.0000000000000000     
  -3.0922353823653503E-002   4.2822999808566214E-002   0.0000000000000000     
  -3.3030944517688392E-002   4.7752004194360161E-002   0.0000000000000000     
  -3.5082359549836198E-002   5.2885613203070725E-002   0.0000000000000000     
  -3.7076598920096918E-002   5.8223826834697893E-002   0.0000000000000000     
  -3.2203073853340029E-002   3.8772788196966959E-002   0.0000000000000000     
  -3.4588006407864788E-002   4.3486929321119534E-002   0.0000000000000000     
  -3.6907743457318037E-002   4.8402998125517183E-002   0.0000000000000000     
  -3.9162285001699784E-002   5.3520994610159918E-002   0.0000000000000000     
  -4.1351631041010042E-002   5.8840918775047726E-002   0.0000000000000000     
  -3.5798355596092860E-002   3.9515065639074226E-002   0.0000000000000000     
  -3.8404045313920221E-002   4.4219423876471445E-002   0.0000000000000000     
  -4.0934703920360645E-002   4.9121337093557503E-002   0.0000000000000000     
  -4.3390331415414131E-002   5.4220805290332387E-002   0.0000000000000000     
  -4.5770927799080673E-002   5.9517828466796110E-002   0.0000000000000000     
  -2.8959328589743170E-002   5.7169096208193812E-002   0.0000000000000000     
  -3.0502092747505642E-002   6.2724206137475771E-002   0.0000000000000000     
  -3.1992054369540487E-002   6.8462748690612835E-002   0.0000000000000000     
  -3.3429213455847713E-002   7.4384723867604960E-002   0.0000000000000000     
  -3.4813570006427319E-002   8.0490131668452231E-002   0.0000000000000000     
  -3.2945831436341298E-002   5.7666552645746584E-002   0.0000000000000000     
  -3.4685133501884666E-002   6.3212552643193254E-002   0.0000000000000000     
  -3.6363458527312549E-002   6.8941183674466264E-002   0.0000000000000000     
  -3.7980806512624969E-002   7.4852445739565635E-002   0.0000000000000000     
  -3.9537177457821919E-002   8.0946338838491352E-002   0.0000000000000000     
  -3.7076598920096918E-002   5.8223826834697893E-002   0.0000000000000000     
  -3.9008714021653103E-002   6.3755483065951038E-002   0.0000000000000000     
  -4.0873756247687319E-002   6.9469419873539509E-002   0.0000000000000000     
  -4.2671725598199567E-002   7.5365637257463355E-002   0.0000000000000000     
  -4.4402622073189832E-002   8.1444135217722508E-002   0.0000000000000000     
  -4.1351631041010042E-002   5.8840918775047726E-002   0.0000000000000000     
  -4.3472834306810981E-002   6.4352997405749124E-002   0.0000000000000000     
  -4.5522947530664798E-002   7.0047457287832585E-002   0.0000000000000000     
  -4.7501970712571499E-002   7.5924298421298123E-002   0.0000000000000000     
  -4.9409903852531058E-002   8.1983520806145752E-002   0.0000000000000000     
  -4.5770927799080673E-002   5.9517828466796110E-002   0.0000000000000000     
  -4.8077494357358287E-002   6.5005095662587511E-002   0.0000000000000000     
  -5.0311032376244985E-002   7.0675295917345463E-002   0.0000000000000000     
  -5.2471541855740760E-002   7.6528429231069978E-002   0.0000000000000000     
  -5.4559022795845624E-002   8.2564495603761029E-002   0.0000000000000000     
  -3.4813570006427319E-002   8.0490131668452231E-002   0.0000000000000000     
  -3.6137792321800845E-002   8.6749157670222232E-002   0.0000000000000000     
  -3.7394548702489830E-002   9.3131987449982676E-002   0.0000000000000000     
  -3.8583839148494274E-002   9.9638621007733574E-002   0.0000000000000000     
  -3.9705663659814178E-002  0.10626905834347491        0.0000000000000000     
  -3.9537177457821919E-002   8.0946338838491352E-002   0.0000000000000000     
  -4.1025224225350404E-002   8.7191202236431911E-002   0.0000000000000000     
  -4.2437599677657450E-002   9.3555375198575846E-002   0.0000000000000000     
  -4.3774303814743065E-002  0.10003885772492312        0.0000000000000000     
  -4.5035336636607248E-002  0.10664164981547378        0.0000000000000000     
  -4.4402622073189832E-002   8.1444135217722508E-002   0.0000000000000000     
  -4.6056506414515468E-002   8.7672731507938806E-002   0.0000000000000000     
  -4.7623439364033807E-002   9.4019243881734035E-002   0.0000000000000000     
  -4.9103420921744870E-002  0.10048367233910815        0.0000000000000000     
  -5.0496451087648643E-002  0.10706601688006119        0.0000000000000000     
  -4.9409903852531058E-002   8.1983520806145752E-002   0.0000000000000000     
  -5.1231638889296022E-002   8.8193745484742944E-002   0.0000000000000000     
  -5.2952067761618898E-002   9.4523593499457270E-002   0.0000000000000000     
  -5.4571190469499674E-002  0.10097306485028867        0.0000000000000000     
  -5.6089007012938369E-002  0.10754215953723720        0.0000000000000000     
  -5.4559022795845624E-002   8.2564495603761029E-002   0.0000000000000000     
  -5.6550621649692094E-002   8.8754244166844326E-002   0.0000000000000000     
  -5.8423484870412712E-002   9.5068424051745537E-002   0.0000000000000000     
  -6.0177612458007491E-002  0.10150703525846469        0.0000000000000000     
  -6.1813004412476419E-002  0.10807007778700176        0.0000000000000000     
  -3.9705663659814178E-002  0.10626905834347491        0.0000000000000000     
  -4.0818699920761828E-002  0.11309911214242442        0.0000000000000000     
  -4.1981625615649505E-002  0.12020459508979983        0.0000000000000000     
  -4.3194440744477203E-002  0.12758550718560119        0.0000000000000000     
  -4.4457145307244927E-002  0.13524184842982845        0.0000000000000000     
  -4.5035336636607248E-002  0.10664164981547378        0.0000000000000000     
  -4.6289709762552866E-002  0.11345019140470361        0.0000000000000000     
  -4.7606434811882821E-002  0.12055092242708852        0.0000000000000000     
  -4.8985511784597098E-002  0.12794384288262844        0.0000000000000000     
  -5.0426940680695718E-002  0.13562895277132345        0.0000000000000000     
  -5.0496451087648643E-002  0.10706601688006119        0.0000000000000000     
  -5.1883861700197834E-002  0.11385531775738908        0.0000000000000000     
  -5.3346984597845142E-002  0.12094061522388773        0.0000000000000000     
  -5.4885819780590574E-002  0.12832190927955714        0.0000000000000000     
  -5.6500367248434123E-002  0.13599919992439732        0.0000000000000000     
  -5.6089007012938369E-002  0.10754215953723720        0.0000000000000000     
  -5.7601155733696709E-002  0.11431449120048082        0.0000000000000000     
  -5.9203274973536453E-002  0.12137367348019747        0.0000000000000000     
  -6.0895364732457616E-002  0.12871970637638722        0.0000000000000000     
  -6.2677425010460169E-002  0.13635258988905008        0.0000000000000000     
  -6.1813004412476419E-002  0.10807007778700176        0.0000000000000000     
  -6.3441591863049512E-002  0.11482771173397875        0.0000000000000000     
  -6.5175305938956776E-002  0.12185009719601775        0.0000000000000000     
  -6.7014146640198211E-002  0.12913723417311873        0.0000000000000000     
  -6.8958113966773815E-002  0.13668912266528169        0.0000000000000000     
  -4.4457145307244927E-002  0.13524184842982845        0.0000000000000000     
  -4.5657494187584260E-002  0.14300905195922123        0.0000000000000000     
  -4.6683242269126769E-002  0.15072255091051917        0.0000000000000000     
  -4.7534389551872475E-002  0.15838234528372228        0.0000000000000000     
  -4.8210936035821356E-002  0.16598843507883052        0.0000000000000000     
  -5.0426940680695718E-002  0.13562895277132345        0.0000000000000000     
  -5.1790043603438120E-002  0.14340574633672895        0.0000000000000000     
  -5.2934142656083788E-002  0.15107371782240037        0.0000000000000000     
  -5.3859237838632709E-002  0.15863286722833775        0.0000000000000000     
  -5.4565329151084883E-002  0.16608319455454110        0.0000000000000000     
  -5.6500367248434123E-002  0.13599919992439732        0.0000000000000000     
  -5.8026410841457321E-002  0.14376079847254905        0.0000000000000000     
  -5.9299734399741670E-002  0.15139501623815318        0.0000000000000000     
  -6.0320337923287157E-002  0.15890185322120970        0.0000000000000000     
  -6.1088221412093816E-002  0.16628130942171859        0.0000000000000000     
  -6.2677425010460169E-002  0.13635258988905008        0.0000000000000000     
  -6.4366595901641843E-002  0.14407420836668167        0.0000000000000000     
  -6.5780017500100429E-002  0.15168644615777768        0.0000000000000000     
  -6.6917689805835845E-002  0.15918930326233807        0.0000000000000000     
  -6.7779612818848159E-002  0.16658277968036286        0.0000000000000000     
  -6.8958113966773815E-002  0.13668912266528169        0.0000000000000000     
  -7.0810598783991721E-002  0.14434597601912669        0.0000000000000000     
  -7.2374991957160031E-002  0.15194800758127372        0.0000000000000000     
  -7.3651293486278774E-002  0.15949521735172287        0.0000000000000000     
  -7.4639503371347907E-002  0.16698760533047408        0.0000000000000000     
   0.0000000000000000        0.0000000000000000        0.0000000000000000     
  -2.8801706142214793E-003   1.7447105774355768E-003   0.0000000000000000     
  -5.8727792750023150E-003   3.8644260547785535E-003   0.0000000000000000     
  -8.9778259823425060E-003   6.3591464320289295E-003   0.0000000000000000     
  -1.2195310736242054E-002   9.2288717091867055E-003   0.0000000000000000     
   0.0000000000000000        0.0000000000000000        0.0000000000000000     
  -3.2833428675736165E-003   1.9991948316689947E-003   0.0000000000000000     
  -6.6771548797811553E-003   4.3306848342477217E-003   0.0000000000000000     
  -1.0181436036622618E-002   6.9944700077361815E-003   0.0000000000000000     
  -1.3796186338098001E-002   9.9905503521343746E-003   0.0000000000000000     
   0.0000000000000000        0.0000000000000000        0.0000000000000000     
  -3.9537158308658501E-003   2.4250753584439768E-003   0.0000000000000000     
  -7.9108330675012536E-003   5.0627722605275484E-003   0.0000000000000000     
  -1.1871351709906212E-002   7.9130907062507135E-003   0.0000000000000000     
  -1.5835271758080725E-002   1.0976030695613473E-002   0.0000000000000000     
   0.0000000000000000        0.0000000000000000        0.0000000000000000     
  -4.8912895040981808E-003   3.0223521577605245E-003   0.0000000000000000     
  -9.5738138381626110E-003   6.0606883336180323E-003   0.0000000000000000     
  -1.4047573002193291E-002   9.1150085275725247E-003   0.0000000000000000     
  -1.8312566996190223E-002   1.2185312739624001E-002   0.0000000000000000     
   0.0000000000000000        0.0000000000000000        0.0000000000000000     
  -6.0960638872706073E-003   3.7910252296186357E-003   0.0000000000000000     
  -1.1666097191765225E-002   7.3244330535191735E-003   0.0000000000000000     
  -1.6710099913483857E-002   1.0600223471701614E-002   0.0000000000000000     
  -2.1228072052426498E-002   1.3618396484165959E-002   0.0000000000000000     
  -1.2195310736242054E-002   9.2288717091867055E-003   0.0000000000000000     
  -1.5427589877475461E-002   1.2371464001051711E-002   0.0000000000000000     
  -1.8577019746817230E-002   1.5684785422423787E-002   0.0000000000000000     
  -2.1643600344267360E-002   1.9168835973302923E-002   0.0000000000000000     
  -2.4627331669825850E-002   2.2823615653689129E-002   0.0000000000000000     
  -1.3796186338098001E-002   9.9905503521343746E-003   0.0000000000000000     
  -1.7404398434097353E-002   1.3220862226691067E-002   0.0000000000000000     
  -2.0889064974510721E-002   1.6587341990655032E-002   0.0000000000000000     
  -2.4250185959338089E-002   2.0089989644026265E-002   0.0000000000000000     
  -2.7487761388579477E-002   2.3728805186804768E-002   0.0000000000000000     
  -1.5835271758080725E-002   1.0976030695613473E-002   0.0000000000000000     
  -1.9730922948828673E-002   1.4210493515962671E-002   0.0000000000000000     
  -2.3486635018953931E-002   1.7575380454645153E-002   0.0000000000000000     
  -2.7102407968456498E-002   2.1070691511660921E-002   0.0000000000000000     
  -3.0578241797336377E-002   2.4696426687009970E-002   0.0000000000000000     
  -1.8312566996190223E-002   1.2185312739624001E-002   0.0000000000000000     
  -2.2407163421669415E-002   1.5340357868866523E-002   0.0000000000000000     
  -2.6369729880146863E-002   1.8648900814394149E-002   0.0000000000000000     
  -3.0200266371622573E-002   2.2110941576206886E-002   0.0000000000000000     
  -3.3898772896096552E-002   2.5726480154304728E-002   0.0000000000000000     
  -2.1228072052426498E-002   1.3618396484165959E-002   0.0000000000000000     
  -2.5433119852619576E-002   1.6610455285402621E-002   0.0000000000000000     
  -2.9538349558089524E-002   1.9807903069902023E-002   0.0000000000000000     
  -3.3543761168836325E-002   2.3210739837664161E-002   0.0000000000000000     
  -3.7449354684859992E-002   2.6818965588689035E-002   0.0000000000000000     
  -2.4627331669825850E-002   2.2823615653689129E-002   0.0000000000000000     
  -2.7532250682427047E-002   2.6671939461630496E-002   0.0000000000000000     
  -3.0362394341005274E-002   3.0736622395175137E-002   0.0000000000000000     
  -3.3117762645560544E-002   3.5017664454323048E-002   0.0000000000000000     
  -3.5798355596092860E-002   3.9515065639074226E-002   0.0000000000000000     
  -2.7487761388579477E-002   2.3728805186804768E-002   0.0000000000000000     
  -3.0624841674996475E-002   2.7546398448599102E-002   0.0000000000000000     
  -3.3684477231350672E-002   3.1585379259017818E-002   0.0000000000000000     
  -3.6666668057642071E-002   3.5845747618060905E-002   0.0000000000000000     
  -3.9571414153870672E-002   4.0327503525728385E-002   0.0000000000000000     
  -3.0578241797336377E-002   2.4696426687009970E-002   0.0000000000000000     
  -3.3943451822963891E-002   2.8496871258124064E-002   0.0000000000000000     
  -3.7227353362709353E-002   3.2516310502434961E-002   0.0000000000000000     
  -4.0429946416572771E-002   3.6754744419942649E-002   0.0000000000000000     
  -4.3551230984554143E-002   4.1212173010647155E-002   0.0000000000000000     
  -3.3898772896096552E-002   2.5726480154304728E-002   0.0000000000000000     
  -3.7488081126329308E-002   2.9523357890205382E-002   0.0000000000000000     
  -4.0991022735081331E-002   3.3529416125426564E-002   0.0000000000000000     
  -4.4407597722352657E-002   3.7744654859968280E-002   0.0000000000000000     
  -4.7737806088143243E-002   4.2169074093830514E-002   0.0000000000000000     
  -3.7449354684859992E-002   2.6818965588689035E-002   0.0000000000000000     
  -4.1258729585092691E-002   3.0625858344843059E-002   0.0000000000000000     
  -4.4975485348466591E-002   3.4624696127992648E-002   0.0000000000000000     
  -4.8599621974981695E-002   3.8815478938137790E-002   0.0000000000000000     
  -5.2131139464638002E-002   4.3198206775278497E-002   0.0000000000000000     
  -3.5798355596092860E-002   3.9515065639074226E-002   0.0000000000000000     
  -3.8404045313920221E-002   4.4219423876471445E-002   0.0000000000000000     
  -4.0934703920360645E-002   4.9121337093557503E-002   0.0000000000000000     
  -4.3390331415414131E-002   5.4220805290332387E-002   0.0000000000000000     
  -4.5770927799080673E-002   5.9517828466796110E-002   0.0000000000000000     
  -3.9571414153870672E-002   4.0327503525728385E-002   0.0000000000000000     
  -4.2395364305017690E-002   4.5017202254942337E-002   0.0000000000000000     
  -4.5135167296064295E-002   4.9901399078624856E-002   0.0000000000000000     
  -4.7790823127010516E-002   5.4980093996775968E-002   0.0000000000000000     
  -5.0362331797856333E-002   6.0253287009395626E-002   0.0000000000000000     
  -4.3551230984554143E-002   4.1212173010647155E-002   0.0000000000000000     
  -4.6586857144355037E-002   4.5876983236852548E-002   0.0000000000000000     
  -4.9532474973677076E-002   5.0737562060862988E-002   0.0000000000000000     
  -5.2388084472520240E-002   5.5793909482678428E-002   0.0000000000000000     
  -5.5153685640884527E-002   6.1046025502298908E-002   0.0000000000000000     
  -4.7737806088143243E-002   4.2169074093830514E-002   0.0000000000000000     
  -5.0978523831932313E-002   4.6798766822202111E-002   0.0000000000000000     
  -5.4126626953198996E-002   5.1629826040271873E-002   0.0000000000000000     
  -5.7182115451943322E-002   5.6662251748039821E-002   0.0000000000000000     
  -6.0144989328165262E-002   6.1896043945505949E-002   0.0000000000000000     
  -5.2131139464638002E-002   4.3198206775278497E-002   0.0000000000000000     
  -5.5570364367749460E-002   4.7782553010990998E-002   0.0000000000000000     
  -5.8917623234630040E-002   5.2578191016851544E-002   0.0000000000000000     
  -6.2172916065279742E-002   5.7585120792860128E-002   0.0000000000000000     
  -6.5336242859698551E-002   6.2803342339016743E-002   0.0000000000000000     
  -4.5770927799080673E-002   5.9517828466796110E-002   0.0000000000000000     
  -4.8077494357358287E-002   6.5005095662587511E-002   0.0000000000000000     
  -5.0311032376244985E-002   7.0675295917345463E-002   0.0000000000000000     
  -5.2471541855740760E-002   7.6528429231069978E-002   0.0000000000000000     
  -5.4559022795845624E-002   8.2564495603761029E-002   0.0000000000000000     
  -5.0362331797856333E-002   6.0253287009395626E-002   0.0000000000000000     
  -5.2854167547869015E-002   6.5714934310309212E-002   0.0000000000000000     
  -5.5270804616315831E-002   7.1358992093342039E-002   0.0000000000000000     
  -5.7612243003196777E-002   7.7185460358494121E-002   0.0000000000000000     
  -5.9878482708511864E-002   8.3194339105765458E-002   0.0000000000000000     
  -5.5153685640884527E-002   6.1046025502298908E-002   0.0000000000000000     
  -5.7834327252917136E-002   6.6485669822757221E-002   0.0000000000000000     
  -6.0435058082765288E-002   7.2104602147086194E-002   0.0000000000000000     
  -6.2955878130428952E-002   7.7902822475285821E-002   0.0000000000000000     
  -6.5396787395908165E-002   8.3880330807356088E-002   0.0000000000000000     
  -6.0144989328165262E-002   6.1896043945505949E-002   0.0000000000000000     
  -6.3017973472502667E-002   6.7317302199931539E-002   0.0000000000000000     
  -6.5803792775593339E-002   7.2912126078577916E-002   0.0000000000000000     
  -6.8502447237437314E-002   7.8680515581445051E-002   0.0000000000000000     
  -7.1113936858034535E-002   8.4622470708532987E-002   0.0000000000000000     
  -6.5336242859698551E-002   6.2803342339016743E-002   0.0000000000000000     
  -6.8405106206625599E-002   6.8209831441832194E-002   0.0000000000000000     
  -7.1377008694800029E-002   7.3781563887817217E-002   0.0000000000000000     
  -7.4251950324221813E-002   7.9518539676971853E-002   0.0000000000000000     
  -7.7029931094890952E-002   8.5420758809296060E-002   0.0000000000000000     
  -5.4559022795845624E-002   8.2564495603761029E-002   0.0000000000000000     
  -5.6550621649692094E-002   8.8754244166844326E-002   0.0000000000000000     
  -5.8423484870412712E-002   9.5068424051745537E-002   0.0000000000000000     
  -6.0177612458007491E-002  0.10150703525846469        0.0000000000000000     
  -6.1813004412476419E-002  0.10807007778700176        0.0000000000000000     
  -5.9878482708511864E-002   8.3194339105765458E-002   0.0000000000000000     
  -6.2039396509611267E-002   8.9359858652578589E-002   0.0000000000000000     
  -6.4064857183845178E-002   9.5656249316356148E-002   0.0000000000000000     
  -6.5954864731213619E-002  0.10208351109709811        0.0000000000000000     
  -6.7709419151716591E-002  0.10864164399480444        0.0000000000000000     
  -6.5396787395908165E-002   8.3880330807356088E-002   0.0000000000000000     
  -6.7723905282961169E-002   9.0016220040281480E-002   0.0000000000000000     
  -6.9903351195346269E-002   9.6289583071046403E-002   0.0000000000000000     
  -7.1935125133063410E-002  0.10270041989965085        0.0000000000000000     
  -7.3819227096112661E-002  0.10924873052609486        0.0000000000000000     
  -7.1113936858034535E-002   8.4622470708532987E-002   0.0000000000000000     
  -7.3604147969741823E-002   9.0723328329952932E-002   0.0000000000000000     
  -7.5938966904915917E-002   9.6968425315816259E-002   0.0000000000000000     
  -7.8118393663556884E-002  0.10335776166612295        0.0000000000000000     
  -8.0142428245664643E-002  0.10989133738087301        0.0000000000000000     
  -7.7029931094890952E-002   8.5420758809296060E-002   0.0000000000000000     
  -7.9680124569953187E-002   9.1481183521592985E-002   0.0000000000000000     
  -8.2171704312554189E-002   9.7692776050665786E-002   0.0000000000000000     
  -8.4504670322693973E-002  0.10405553639651441        0.0000000000000000     
  -8.6679022600372552E-002  0.11056946455913889        0.0000000000000000     
  -6.1813004412476419E-002  0.10807007778700176        0.0000000000000000     
  -6.3441591863049512E-002  0.11482771173397875        0.0000000000000000     
  -6.5175305938956776E-002  0.12185009719601775        0.0000000000000000     
  -6.7014146640198211E-002  0.12913723417311873        0.0000000000000000     
  -6.8958113966773815E-002  0.13668912266528169        0.0000000000000000     
  -6.7709419151716591E-002  0.10864164399480444        0.0000000000000000     
  -6.9457368665907820E-002  0.11538710855437154        0.0000000000000000     
  -7.1327561494341024E-002  0.12237636532069580        0.0000000000000000     
  -7.3319997637016229E-002  0.12960941429377718        0.0000000000000000     
  -7.5434677093933450E-002  0.13708625547361572        0.0000000000000000     
  -7.3819227096112661E-002  0.10924873052609486        0.0000000000000000     
  -7.5700684719923167E-002  0.11598481085814774        0.0000000000000000     
  -7.7724525639924130E-002  0.12295895680357884        0.0000000000000000     
  -7.9890749856115509E-002  0.13017116836238815        0.0000000000000000     
  -8.2199357368497358E-002  0.13762144553457567        0.0000000000000000     
  -8.0142428245664643E-002  0.10989133738087301        0.0000000000000000     
  -8.2171540025095621E-002  0.11662081864530734        0.0000000000000000     
  -8.4366198375706067E-002  0.12359787164466687        0.0000000000000000     
  -8.6726403297496063E-002  0.13082249637895166        0.0000000000000000     
  -8.9252154790465582E-002  0.13829469284816157        0.0000000000000000     
  -8.6679022600372552E-002  0.11056946455913889        0.0000000000000000     
  -8.8869934581425128E-002  0.11729513191585036        0.0000000000000000     
  -9.1252579701686903E-002  0.12429310984395990        0.0000000000000000     
  -9.3826957961157892E-002  0.13156339834346759        0.0000000000000000     
  -9.6593069359838080E-002  0.13910599741437335        0.0000000000000000     
  -6.8958113966773815E-002  0.13668912266528169        0.0000000000000000     
  -7.0810598783991721E-002  0.14434597601912669        0.0000000000000000     
  -7.2374991957160031E-002  0.15194800758127372        0.0000000000000000     
  -7.3651293486278774E-002  0.15949521735172287        0.0000000000000000     
  -7.4639503371347907E-002  0.16698760533047408        0.0000000000000000     
  -7.5434677093933450E-002  0.13708625547361572        0.0000000000000000     
  -7.7453621855041649E-002  0.14468021435967132        0.0000000000000000     
  -7.9158853910289831E-002  0.15226461645140393        0.0000000000000000     
  -8.0550373259677996E-002  0.15983946174881355        0.0000000000000000     
  -8.1628179903206130E-002  0.16740475025190019        0.0000000000000000     
  -8.2199357368497358E-002  0.13762144553457567        0.0000000000000000     
  -8.4390867481326320E-002  0.14518103631810275        0.0000000000000000     
  -8.6205799498859065E-002  0.15272118871093074        0.0000000000000000     
  -8.7644153421095605E-002  0.16024190271305963        0.0000000000000000     
  -8.8705929248035900E-002  0.16774317832448937        0.0000000000000000     
  -8.9252154790465582E-002  0.13829469284816157        0.0000000000000000     
  -9.1622335662845764E-002  0.14584844189442095        0.0000000000000000     
  -9.3515828722867761E-002  0.15331772435985408        0.0000000000000000     
  -9.4932633970531574E-002  0.16070254024446096        0.0000000000000000     
  -9.5872751405837231E-002  0.16800288954824161        0.0000000000000000     
  -9.6593069359838080E-002  0.13910599741437335        0.0000000000000000     
  -9.9148026399599937E-002  0.14668243108862594        0.0000000000000000     
 -0.10108894158231588       0.15405422339817407        0.0000000000000000     
 -0.10241581490798596       0.16122137434301770        0.0000000000000000     
 -0.10312864637661009       0.16818388392315686        0.0000000000000000     
 </DataArray>
 <DataArray  type="Float64" Name="stress" NumberOfComponents="3" format="ascii">
   13416958270.417973        4025087481.1253915        2894646597.2629175     
   11766302736.862732        1889498101.6590142        1716067782.9865217     
   10313185689.867491        412370344.05931425        810582998.02736187     
   9057607129.4322548       -406295791.67370653        178192242.38543844     
   7999567055.5570259       -566500305.54004765       -181104483.93924978     
   10540319134.807844        3162095740.4423532        2225989033.9746952     
   9667546948.1970615        1588952208.3227208        1446771795.4799898     
   8943597637.8147697        511884930.29806137        863037137.46838295     
   8368471203.6609726       -69106093.631622791        474785059.93987638     
   7942167645.7356663       -154020863.46633434        282015562.89446980     
   8338317633.2133408        2501495289.9640021        1712318465.1478319     
   8021681796.8780556        1424273506.1904263        1275627923.7147188     
   7805153226.4397526        680742608.74012017        956808513.93056929     
   7688731921.8984308        270902597.61308241        755860235.79538298     
   7672417883.2540894        194753472.80931568        672783089.30916023     
   6810953765.6344614        2043286129.6903384        1353634890.7823277     
   6828707282.9057150        1395461995.2621315        1202636167.6907110     
   6897852455.7424393        918943379.38548970        1091897127.4139216     
   7018389284.1446323        613730282.06041145        1021417769.9519591     
   7190317768.1122932        479822703.28689837        991198095.30482447     
   5958227532.0712061        1787468259.6213617        1149938310.8781824     
   6088623406.2800379        1502517675.5378358        1227796527.4079654     
   6221695325.7228270        1226487242.2341700        1268302977.9184389     
   6357443290.3995752        959376959.71036303        1271457662.4096038     
   6495867300.3102808        701186827.96641541        1237260580.8814595     
   7999567055.5570259       -566500305.54004765       -181104483.93924978     
   7918574912.3822279       -197638307.43100595       -78322055.593572006     
   7795617117.4377041        31338184.778945923       -8300167.4107905459     
   7630693670.7234535        120429171.08980560        28961180.609090369     
   7423804572.2394762        69634651.501576900        33461988.466073535     
   7942167645.7356663       -154020863.46633434        282015562.89446980     
   7740315799.9151783        18131440.977641582        281129048.47341865     
   7514738810.1610794        111199932.30958366        265428616.87205821     
   7265436676.4733772        125184610.52950764        234914268.09038541     
   6992409398.8520613        60085475.637392998        189586002.12840548     
   7672417883.2540894        194753472.80931568        672783089.30916023     
   7400982400.4524460        185578903.28758478        589508224.59685266     
   7124062281.5533113        158122213.44088554        509366065.68682414     
   6841657526.5566883        112383403.26922226        432356612.57907039     
   6553768135.4625750        48362472.772587061        358479865.27359378     
   7190317768.1122932        479822703.28689837        991198095.30482447     
   6900574713.9940319        304704079.49882245        846815472.77673197     
   6623587531.6143961        172105028.17283964        723512179.03350282     
   6359356220.9733896        82025549.308954000        621288214.07514095     
   6107880782.0710144        34465642.907161236        540143577.90164375     
   6495867300.3102808        701186827.96641541        1237260580.8814595     
   6239092740.5399351        375506969.61135578        1053050793.0130527     
   6013314560.3443356        153148376.50545001        907866956.91209996     
   5818532759.7234831        34111048.648702860        801709072.57859743     
   5654747338.6773777        18394986.041110516        734577140.01254916     
   7423804572.2394762        69634651.501576900        33461988.466073535     
   7217750757.5659924       -24448911.804590225        14183803.181066405     
   7024955147.0615158       -74338461.214059353       -36138.296863650845     
   6845417740.7260561       -80033996.726816177       -9197835.9677131064     
   6679138538.5596027       -41535518.342879295       -13301289.831491891     
   6992409398.8520613        60085475.637392998        189586002.12840548     
   6808144571.2017355       -1384229.3322105408        180058416.82112402     
   6632440510.5165844       -34318044.417887211        174707071.95460171     
   6465297216.7966156       -38715969.619633436        173531967.52883700     
   6306714690.0418215       -14578004.937452316        176533103.54383898     
   6553768135.4625750        48362472.772587061        358479865.27359378     
   6388772285.2173567        18750623.254137993        353222536.53956842     
   6227639764.7334824        2016539.6068396568        351259444.87998408     
   6070370574.0109596       -1839778.1693055630        352590590.29484582     
   5916964713.0497780        7181669.9257006645        357215972.78414726     
   6107880782.0710144        34465642.907161236        540143577.90164375     
   5959633899.6128578        35955645.954447746        533676162.33640045     
   5810552909.7122107        34665290.860110521        529620980.47928292     
   5660637812.3690805        30594577.624152184        527978032.33029306     
   5509888607.5834618        23743506.246567965        528747317.88942701     
   5654747338.6773777        18394986.041110516        734577140.01254916     
   5520729414.3882332        50230838.768720627        721419294.21161938     
   5381179945.4527674        63628209.341933489        709791678.75249696     
   5236098931.8709822        58587097.760743856        699694293.63518310     
   5085486373.6428776        35107504.025159836        691127138.85967708     
   6679138538.5596027       -41535518.342879295       -13301289.831491891     
   6517040458.0120125        6720157.9984974861       -1429174.1146801659     
   6347290455.5844908        29469428.073447704        8762184.0026423745     
   6169888531.2770472        26712291.881981611        17272784.520476695     
   5984834685.0896788       -1551250.5758965015        24102627.438819908     
   6306714690.0418215       -14578004.937452316        176533103.54383898     
   6136773545.9386520        11685082.398677349        176213438.14647844     
   5961919574.1176434        21572077.342000723        176616617.38398844     
   5782152774.5787964        15082979.892532825        177742641.25637212     
   5597473147.3221045       -7782209.9497492313        179591509.76362500     
   5916964713.0497780        7181669.9257006645        357215972.78414726     
   5746047940.3463554        13512398.743180752        347900136.12837332     
   5572957434.0871754        12597349.041474342        341710746.34183341     
   5397693194.2722435        4436520.8205862045        338647803.42453706     
   5220255220.9015579       -10970085.919488192        338711307.37647384     
   5509888607.5834618        23743506.246567965        528747317.88942701     
   5344863641.2351093        12202107.031992197        513630919.83100921     
   5180404035.4930840        2545243.1718506813        504044570.87619281     
   5016509790.3573933       -5227085.3338513374        499988271.02497560     
   4853180905.8280306       -11114878.485124350        501462020.27735603     
   5085486373.6428776        35107504.025159836        691127138.85967708     
   4933220648.6049166        7754207.2651274204        673405789.25438631     
   4784259378.3353710       -8584240.2668507099        663618090.98705244     
   4638602562.8342409       -13907838.570779562        661764044.05768383     
   4496250202.1015253       -8216587.6466536522        667843648.46627450     
   5984834685.0896788       -1551250.5758965015        24102627.438819908     
   5788461598.9283009       -35578638.483608007        173380.36930133385     
   5598179067.5319242       -49304177.174657822       -15583311.959126050     
   5413987090.9005527       -42727866.649018288       -23167449.546456154     
   5235885669.0341845       -15849706.906702995       -22579032.392695714     
   5597473147.3221045       -7782209.9497492313        179591509.76362500     
   5424057977.7088051       -27977748.635872841        164419640.80025905     
   5255087710.8879385       -33356944.680547476        155543187.69702595     
   5090562346.8595057       -23919798.083781958        152962150.45393193     
   4930481885.6235056        333691.15443491936        156676529.07096529     
   5220255220.9015579       -10970085.919488192        338711307.37647384     
   5064434713.8907394       -18942751.567699909        330376889.21792608     
   4911413457.6997900       -17584581.149685144        326460748.03855425     
   4761191452.3286991       -6895574.6654667854        326962883.83836156     
   4613768697.7774782        13124267.884974957        331883296.61734855     
   4853180905.8280306       -11114878.485124350        501462020.27735603     
   4709591807.4741001       -8473647.2790980339        498045125.62229681     
   4567156307.9674692       -1987086.5820844173        497169369.06546247     
   4425874407.3081369        8344803.6059184074        498834750.60684431     
   4285746105.4960995        22522023.284919024        503041270.24644703     
   4496250202.1015253       -8216587.6466536522        667843648.46627450     
   4359529258.4588928        3429564.2299311161        667424350.01337898     
   4222316261.6909871        13435539.022269011        667669050.77774060     
   4084611211.7978106        21801336.730381727        668577750.75936854     
   3946414108.7793636        28526957.354242802        670150449.95825624     
   5235885669.0341845       -15849706.906702995       -22579032.392695714     
   4928530239.6237288       -25239907.233686447       -27939619.634022627     
   4616737777.7739296       -49420215.691827059       -32582248.285573527     
   4300508283.4848022       -88390632.281061649       -36506918.347349696     
   3979841756.7563267       -142151157.00144434       -39713629.819349863     
   4930481885.6235056        333691.15443491936        156676529.07096529     
   4626504745.7110863       -18413514.973255634        143902293.36969352     
   4318193675.4701920       -51607155.529193163        135168092.33883065     
   4005548674.9008131       -99247230.513408184        130473925.97838144     
   3688569744.0029716       -161333739.92583275        129819794.28834304     
   4613768697.7774782        13124267.884974957        331883296.61734855     
   4322661493.3077631       -12132450.260026217        311815698.25213569     
   4027323460.6204300       -51491929.130406618        299110210.63796782     
   3727754599.7154975       -104954168.72613215        293766833.77485240     
   3423954910.5929537       -172519169.04722357        295785567.66278100     
   4285746105.4960995        22522023.284919024        503041270.24644703     
   4017000482.4137545       -6396713.0940103531        475800595.01330733     
   3744127133.2246661       -49074536.495410919        459244106.61184764     
   3467126057.9288440       -105511446.91927433        453371805.04207391     
   3185997256.5262756       -175707444.36561048        458183690.30398482     
   3946414108.7793636        28526957.354242802        670150449.95825624     
   3709521713.0290670       -1206303.4751932621        635856983.65320337     
   3468604693.2828989       -44354977.624204159        615569780.26046371     
   3223663049.5408478       -100919065.09281814        609288839.78004658     
   2974696781.8029280       -170898565.88100493        617014162.21194470     
   3979841756.7563267       -142151157.00144434       -39713629.819349863     
   4385910283.8734474       -15681651.325434446        36670893.118218884     
   4771499039.6339102        42521949.828400850        92601335.948645249     
   5136608024.0377121        32459646.460015535        128077698.67193948     
   5481237237.0848503       -45868561.430572033        143099981.28808877     
   3688569744.0029716       -161333739.92583275        129819794.28834304     
   4041150372.5483937       -45563090.201519012        198381944.95892397     
   4382893035.5786247        34081007.805475712        248722605.13188577     
   4713797733.0936680        77598554.095195055        280841774.80723393     
   5033864465.0935154        84989548.667587280        294739453.98495847     
   3423954910.5929537       -172519169.04722357        295785567.66278100     
   3729426468.0224533       -65533727.037891388        367774119.54809493     
   4033701865.7782292        37464516.059045792        423773770.54530913     
   4336781103.8602905        136475560.24358177        463784520.65442520     
   4638664182.2686205        231499405.51568770        487806369.87544549     
   3185997256.5262756       -175707444.36561048        458183690.30398482     
   3450738570.2956195       -75593561.834520578        544847416.88574481     
   3723925530.2327161        52672474.589056492        617754832.18892121     
   4005558136.3375683        209090664.90515494        676905936.21352482     
   4295636388.6101580        393661009.11372018        722300728.95954716     
   2974696781.8029280       -170898565.88100493        617014162.21194470     
   3205086679.3679047       -75742594.591418028        729601836.97186506     
   3453564028.9420953        79704883.395556688        830665790.06271827     
   3720128830.5255070        295443868.07992673        920206021.48452604     
   4004781084.1181355        571474359.46168399        998222531.23727286     
   5481237237.0848503       -45868561.430572033        143099981.28808877     
   4162289674.9544315       -512492624.52903676       -146724242.24854323     
   2936861781.3314776       -667384459.26930881       -321366039.10963631     
   1804953556.2160025       -510544065.65131247       -380825409.29517126     
   766564999.60799253       -41971443.675089359       -325102352.80518270     
   5033864465.0935154        84989548.667587280        294739453.98495847     
   4022775079.0185609       -234506438.49539375        98168310.325742215     
   3070299386.1645603       -358623448.25519860       -10723911.336082328     
   2176437386.5314956       -287361480.61186481       -31937211.000511978     
   1341189080.1193895       -20720535.565379798        34528411.332451344     
   4638664182.2686205        231499405.51568770        487806369.87544549     
   3856851530.3115492        35557061.706923485        343764668.25937885     
   3098746596.2889061       -81359555.653748393        259898383.96254548     
   2364349380.2006989       -119250446.56631720        236207516.98495099     
   1653659882.0469131       -78115611.030792356        272692067.32659644     
   4295636388.6101580        393661009.11372018        722300728.95954716     
   3664519028.8333902        297697876.07789505        590064831.55235469     
   3022203411.7045350        164407218.53509951        490500846.78624463     
   2368689537.2235837       -6210963.5146585703        423608774.66122144     
   1703977405.3905518       -214156670.07138360        389388615.17727631     
   4004781084.1181355        571474359.46168399        998222531.23727286     
   3445777574.5840826        551916004.61750889        837068800.20467746     
   2840669832.4114327        378676874.31133479        681083477.13500524     
   2189457857.6001663        51756968.543097734        530266562.02827984     
   1492141650.1502941       -428843712.68715721        384618054.88447624     
   5958227532.0712061        1787468259.6213617        1149938310.8781824     
   6088623406.2800379        1502517675.5378358        1227796527.4079654     
   6221695325.7228270        1226487242.2341700        1268302977.9184389     
   6357443290.3995752        959376959.71036303        1271457662.4096038     
   6495867300.3102808        701186827.96641541        1237260580.8814595     
   5434799690.6227875        1630439907.1868362        1033451844.8756722     
   5489980798.4454861        1372677074.8411591        1113805999.3331056     
   5547327473.4569035        1122132799.7912054        1167380310.6502423     
   5606839715.6570377        878807082.03697503        1194174778.8270836     
   5668517525.0458851        642699921.57846665        1194189403.8636277     
   4895330999.3884163        1468599299.8165247        936398612.21507406     
   4905502834.7650213        1247085867.3907080        1018653146.8807096     
   4917329759.2851000        1031089398.7764778        1084699761.2850621     
   4930811772.9486561        820609893.97383404        1134538455.4281306     
   4945948875.7556887        615647352.98277700        1168169229.3099165     
   4339821458.3680935        1301946437.5104280        858778612.89638770     
   4335189515.2386389        1125744053.1864824        942337970.05077755     
   4331702183.2074194        953357039.18998671        1020261329.8228976     
   4329359462.2744370        784785395.52094162        1092548692.2127473     
   4328161352.4396858        620029122.17934537        1159200057.2203264     
   3768271067.5618172        1130481320.2685452        800591846.91961312     
   3779040839.8663411        1008651632.2284817        884860468.84331012     
   3790444745.2238603        888935721.03173184        974065016.26374948     
   3802482783.6343737        771333586.67829585        1068205489.1809320     
   3815154955.0978799        655845229.16817319        1167281887.5948567     
   6495867300.3102808        701186827.96641541        1237260580.8814595     
   6239092740.5399351        375506969.61135578        1053050793.0130527     
   6013314560.3443356        153148376.50545001        907866956.91209996     
   5818532759.7234831        34111048.648702860        801709072.57859743     
   5654747338.6773777        18394986.041110516        734577140.01254916     
   5668517525.0458851        642699921.57846665        1194189403.8636277     
   5518748871.3066320        383139911.08158088        1073349278.5850852     
   5393175807.8951788        204231868.34403419        980537010.51881254     
   5291798334.8115263        105975793.36582398        915752599.66480803     
   5214616452.0556793        88371686.146953821        878996046.02307415     
   4945948875.7556887        615647352.98277700        1168169229.3099165     
   4871763000.7470016        412780252.15390801        1102764512.4998012     
   4814971926.8191700        267895821.59455943        1054389558.3467722     
   4775575653.9721947        180994061.30473375        1023044366.8508301     
   4753574182.2060766        152074971.28442693        1008728938.0119735     
   4328161352.4396858        620029122.17934537        1159200057.2203264     
   4298135128.8610439        464427992.82833672        1141296494.7572029     
   4278702917.1163120        344140236.25703216        1129424600.3959816     
   4269864717.2054911        259165852.46543050        1123584374.1366649     
   4271620529.1285834        209504841.45353317        1123775815.9792500     
   3815154955.0978799        655845229.16817319        1167281887.5948567     
   3797865255.6487584        538083133.10486734        1188945225.3572881     
   3784368778.7866030        432965112.33144867        1205642136.6664395     
   3774665524.5114121        340491166.84791648        1217372621.5223124     
   3768755492.8231878        260661296.65426767        1224136679.9249027     
   5654747338.6773777        18394986.041110516        734577140.01254916     
   5520729414.3882332        50230838.768720627        721419294.21161938     
   5381179945.4527674        63628209.341933489        709791678.75249696     
   5236098931.8709822        58587097.760743856        699694293.63518310     
   5085486373.6428776        35107504.025159836        691127138.85967708     
   5214616452.0556793        88371686.146953821        878996046.02307415     
   5077333789.9002409        86135107.084628344        855169216.11070979     
   4937876039.8190413        76648234.936424494        835163687.91091478     
   4796243201.8120747        59911069.702331543        818979461.42368937     
   4652435275.8793449        35923611.382359028        806616536.64903045     
   4753574182.2060766        152074971.28442693        1008728938.0119735     
   4619572700.3865242        117729735.89282203        978148990.16215706     
   4486752587.3617611        87322396.483847857        953681415.39566898     
   4355113843.1317883        60852953.057506323        935326213.71251082     
   4224656467.6966028        38321405.613796711        923083385.11268151     
   4271620529.1285834        209504841.45353317        1123775815.9792500     
   4147446145.8470826        145014725.19329643        1090358616.3659613     
   4027809588.0809278        95650693.984206438        1065344861.2067606     
   3912710855.8301167        61412747.826263905        1048734550.5016513     
   3802149949.0946512        42300886.719470501        1040527684.2506293     
   3768755492.8231878        260661296.65426767        1224136679.9249027     
   3660954126.2819152        167990074.98605359        1191798094.7221224     
   3561047041.9765410        101633127.43749833        1170154025.3441911     
   3469034239.9070673        61590454.008609295        1159204471.7911088     
   3384915720.0734916        47862054.699383855        1158949434.0628753     
   5085486373.6428776        35107504.025159836        691127138.85967708     
   4933220648.6049166        7754207.2651274204        673405789.25438631     
   4784259378.3353710       -8584240.2668507099        663618090.98705244     
   4638602562.8342409       -13907838.570779562        661764044.05768383     
   4496250202.1015253       -8216587.6466536522        667843648.46627450     
   4652435275.8793449        35923611.382359028        806616536.64903045     
   4521222731.9886398        15799712.946914911        793299124.24160635     
   4392241283.8952951        3112800.5026645660        786574492.53458798     
   4265490931.5993094       -2137125.9503815174        786442641.52798104     
   4140971675.1006861        49933.587776422501        792903571.22178113     
   4224656467.6966028        38321405.613796711        923083385.11268151     
   4110666045.9887128        24277587.813600779        912917657.77022672     
   3997833361.1071315        14092892.767758369        908003840.49062717     
   3886158413.0518503        7767320.4762582779        908341933.27388287     
   3775641201.8228784        5300870.9391126633        913931936.11999285     
   3802149949.0946512        42300886.719470501        1040527684.2506293     
   3701550590.6051397        33187831.865196228        1032261389.8402481     
   3601035609.9708776        24356036.528419256        1027906134.8551685     
   3500605007.1918640        15805500.709138393        1027461919.2953880     
   3400258782.2681012        7536224.4073605537        1030928743.1609070     
   3384915720.0734916        47862054.699383855        1158949434.0628753     
   3293876365.8379159        42530445.101695776        1151330320.4516690     
   3201848030.4865379        33902231.784662724        1146281375.6282098     
   3108830714.0193491        21977414.748261094        1143802599.5924988     
   3014824416.4363561        6755993.9925147295        1143893992.3445320     
   4496250202.1015253       -8216587.6466536522        667843648.46627450     
   4359529258.4588928        3429564.2299311161        667424350.01337898     
   4222316261.6909871        13435539.022269011        667669050.77774060     
   4084611211.7978106        21801336.730381727        668577750.75936854     
   3946414108.7793636        28526957.354242802        670150449.95825624     
   4140971675.1006861        49933.587776422501        792903571.22178113     
   4005027907.2032242        1880275.6373069286        789326109.82583082     
   3868877638.6277590        3022282.0934948921        787947663.59206963     
   3732520869.3742943        3475952.9563529491        788768232.52049661     
   3595957599.4428282        3241288.2258694172        791787816.61111498     
   3775641201.8228784        5300870.9391126633        913931936.11999285     
   3644860369.5132332       -1368868.8856163025        907529456.30280602     
   3514158588.9728575       -7775102.8127791882        904861007.59273648     
   3383535860.2017517       -13917830.842381716        905926589.98978138     
   3252992183.1999125       -19797052.974421978        910726203.49394250     
   3400258782.2681012        7536224.4073605537        1030928743.1609070     
   3279026645.3889246       -6317869.3388285637        1022034389.4443026     
   3158159112.7262836       -18956615.696562648        1018409082.7797395     
   3037656184.2801833       -30380014.665820241        1020052823.1672167     
   2917517860.0506248       -40588066.246621609        1026965610.6067376     
   3014824416.4363561        6755993.9925147295        1143893992.3445320     
   2907526734.8302889       -12966725.722349048        1132840909.2503192     
   2800879209.8880367       -30522256.557837605        1128591889.1530781     
   2694881841.6095881       -45910598.513970971        1131146932.0528047     
   2589534629.9949512       -59131751.590740204        1140506037.9495001     
   3946414108.7793636        28526957.354242802        670150449.95825624     
   3709521713.0290670       -1206303.4751932621        635856983.65320337     
   3468604693.2828989       -44354977.624204159        615569780.26046371     
   3223663049.5408478       -100919065.09281814        609288839.78004658     
   2974696781.8029280       -170898565.88100493        617014162.21194470     
   3595957599.4428282        3241288.2258694172        791787816.61111498     
   3394507382.9900103       -19899963.575711250        755430451.94150972     
   3190995203.6230931       -49914425.090958238        730808806.35121202     
   2985421061.3420763       -86802096.319875598        717922879.84022856     
   2777784956.1469517       -130562977.26247513        716772672.40856528     
   3252992183.1999125       -19797052.974421978        910726203.49394250     
   3080496877.9502802       -38292476.176437140        874594711.72184813     
   2907902270.8683205       -57118905.486205816        847928395.19606590     
   2735208361.9540348       -76276340.903730392        830727253.91659117     
   2562415151.2074194       -95764782.429012179        822991287.88343310     
   2917517860.0506248       -40588066.246621609        1026965610.6067376     
   2767490197.9098721       -56383841.277370214        993349762.99423051     
   2619325895.0185766       -65968418.809938192        966928546.79502988     
   2473024951.3767238       -69341798.844364524        947701962.00913525     
   2328587366.9843163       -66503981.380627036        935670008.63654876     
   2589534629.9949512       -59131751.590740204        1140506037.9495001     
   2455487342.8687963       -74174058.878490210        1111695605.7586472     
   2325266076.0738587       -76462965.062175155        1087809261.1480999     
   2198870829.6101513       -65998470.141766191        1068847004.1178586     
   2076301603.4776597       -42780574.117298007        1054808834.6679183     
   2974696781.8029280       -170898565.88100493        617014162.21194470     
   3205086679.3679047       -75742594.591418028        729601836.97186506     
   3453564028.9420953        79704883.395556688        830665790.06271827     
   3720128830.5255070        295443868.07992673        920206021.48452604     
   4004781084.1181355        571474359.46168399        998222531.23727286     
   2777784956.1469517       -130562977.26247513        716772672.40856528     
   2977634921.8043103       -40207714.172236681        839550910.43301511     
   3187373436.8221831        83109380.119721055        951468470.55128086     
   3407000501.2005887        239388305.61344850        1052525352.7633522     
   3636516114.9395142        428629062.30890608        1142721557.0692420     
   2562415151.2074194       -95764782.429012179        822991287.88343310     
   2733619595.7082062       -9641904.3128267527        946394702.74894357     
   2906513686.9208188        82113129.509455204        1059600483.4711336     
   3081097424.8452630        179500319.03784132        1162608630.0500135     
   3257370809.4815364        282519664.27232790        1255419142.4855661     
   2328587366.9843163       -66503981.380627036        935670008.63654876     
   2473040701.0795908        15954834.986845613        1050133213.9196483     
   2610984779.2379923        76716131.564751148        1155061828.8222933     
   2742419601.4595332        115779908.35311294        1250455853.3444848     
   2867345167.7442112        133146165.35193861        1336315287.4862337     
   2076301603.4776597       -42780574.117298007        1054808834.6679183     
   2195898237.9184647        36582503.726749897        1150766443.9451246     
   2300786713.7737117        66918386.285610199        1237852506.6047435     
   2390967031.0434027        48227073.559277654        1316067022.6467848     
   2466439189.7275367       -19491434.452242017        1385409992.0712454     
   4004781084.1181355        571474359.46168399        998222531.23727286     
   3445777574.5840826        551916004.61750889        837068800.20467746     
   2840669832.4114327        378676874.31133479        681083477.13500524     
   2189457857.6001663        51756968.543097734        530266562.02827984     
   1492141650.1502941       -428843712.68715721        384618054.88447624     
   3636516114.9395142        428629062.30890608        1142721557.0692420     
   3087865472.3526559        364589266.53441036        941416007.15366077     
   2516251109.6983337        224003737.20168269        753170740.98767638     
   1921673026.9765239        6872474.3106740713        577985758.57128823     
   1304131224.1872358       -286804522.13860637        415861059.90449870     
   3257370809.4815364        282519664.27232790        1255419142.4855661     
   2741621250.3752174        180762892.52751482        1040959038.3533128     
   2226048483.7725554        79595429.128226638        847451093.75732720     
   1710652509.6735444       -20982725.925567508        674895308.69760323     
   1195433328.0781841       -120971572.63384014        523291683.17415833     
   2867345167.7442112        133146165.35193861        1336315287.4862337     
   2407044908.6517639        436882.59680485725        1135697893.8036268     
   1970061954.6341038       -54548049.909041166        963924535.44395185     
   1556396305.6912336       -31808632.165593386        820995212.40723073     
   1166047961.8231423        68655135.827118993        706909924.69342470     
   2466439189.7275367       -19491434.452242017        1385409992.0712454     
   2084136447.1822977       -176388763.25770223        1225632573.5046129     
   1748291522.2829814       -178426699.91009033        1102591066.0475774     
   1458904415.0295765       -25605244.409438014        1016285469.7001560     
   1215975125.4220960        282075603.24428350        966715784.46233785     
   3768271067.5618172        1130481320.2685452        800591846.91961312     
   3779040839.8663411        1008651632.2284817        884860468.84331012     
   3790444745.2238603        888935721.03173184        974065016.26374948     
   3802482783.6343737        771333586.67829585        1068205489.1809320     
   3815154955.0978799        655845229.16817319        1167281887.5948567     
   3207818751.6339698        962345625.49019098        756705498.74950242     
   3235808821.0792794        868167222.74692070        853074175.29645467     
   3263542538.0273914        773134311.67965877        951372242.92493105     
   3291019902.4783058        677246892.28840590        1051599701.6349320     
   3318240914.4320235        580504964.57316113        1153756551.4264574     
   2685603435.2489309        805681030.57467926        721986752.85080779     
   2722223703.5058308        736576883.62944365        829416584.21245837     
   2757697133.7153411        663649943.19291139        935769272.24041522     
   2792023725.8774633        586900209.26508319        1041044816.9346781     
   2825203479.9921966        506327681.84595841        1145243218.2952473     
   2201625118.4067006        660487535.52201021        696435609.22352862     
   2238285487.1459951        613880614.87605047        813887695.59132123     
   2272908532.2877097        560482615.57148957        927256104.21020150     
   2305494253.8318439        500293537.60832751        1036540835.0801699     
   2336042651.7783966        433313380.98656374        1141741888.2012255     
   1755883801.1072788        526765140.33218366        680052067.86766565     
   1783994171.9997733        500078416.48674148        806487509.43304324     
   1809176733.7444959        463632328.81539309        925832738.83429039     
   1831431486.3414471        417426877.31813872        1038087756.0714067     
   1850758429.7906256        361462061.99497759        1143252561.1443934     
   3815154955.0978799        655845229.16817319        1167281887.5948567     
   3797865255.6487584        538083133.10486734        1188945225.3572881     
   3784368778.7866030        432965112.33144867        1205642136.6664395     
   3774665524.5114121        340491166.84791648        1217372621.5223124     
   3768755492.8231878        260661296.65426767        1224136679.9249027     
   3318240914.4320235        580504964.57316113        1153756551.4264574     
   3293595287.8237967        473415365.10713243        1182049473.6765954     
   3272642708.0981297        378635921.91630280        1207187533.0428693     
   3255383175.2550216        296166635.00067079        1229170729.5252776     
   3241816689.2944741        226007504.36023855        1247999063.1238215     
   2825203479.9921966        506327681.84595841        1145243218.2952473     
   2798377822.1374779        411463347.75099039        1180048853.3779523     
   2775145035.4609127        328575250.91653371        1213511189.1462073     
   2755505119.9625015        257663391.34258866        1245630225.6000118     
   2739458075.6422420        198727769.02915311        1276405962.7393665     
   2336042651.7783966        433313380.98656374        1141741888.2012255     
   2312212858.5898013        352227081.03644121        1182943364.4613562     
   2291875760.8749518        282783099.33214217        1224613104.9764524     
   2275031358.6338496        224981435.87366545        1266751109.7465122     
   2261679651.8664961        178822090.66101348        1309357378.7715380     
   1850758429.7906256        361462061.99497759        1143252561.1443934     
   1835100397.1807661        295706564.96348387        1190733006.9268095     
   1822834884.3402479        241259467.16312659        1240493280.5336049     
   1813961891.2690699        198120768.59390569        1292533381.9647803     
   1808481417.9672322        166290469.25581855        1346853311.2203355     
   3768755492.8231878        260661296.65426767        1224136679.9249027     
   3660954126.2819152        167990074.98605359        1191798094.7221224     
   3561047041.9765410        101633127.43749833        1170154025.3441911     
   3469034239.9070673        61590454.008609295        1159204471.7911088     
   3384915720.0734916        47862054.699383855        1158949434.0628753     
   3241816689.2944741        226007504.36023855        1247999063.1238215     
   3164117217.0879025        151618091.04782104        1231260889.5718145     
   3092621146.2637129        97906682.343334913        1222764624.6780057     
   3027328476.8219008        64873278.246774554        1222510268.4423966     
   2968239208.7624650        52517878.758142948        1230497820.8649862     
   2739458075.6422420        198727769.02915311        1276405962.7393665     
   2684853048.7228036        140517929.35826492        1273295506.5090249     
   2634760542.3322229        97349824.783570051        1275974351.7702327     
   2589180556.4705009        69223455.305069208        1284442498.5229881     
   2548113091.1376371        56138820.922762632        1298699946.7672951     
   2261679651.8664961        178822090.66101348        1309357378.7715380     
   2223161621.1866159        134689589.91738176        1317901945.5337541     
   2187465230.1820769        99962554.758210421        1329783206.6208696     
   2154590478.8528738        74640985.183495998        1345001162.0328858     
   2124537367.1990080        58724881.193240643        1363555811.7698007     
   1808481417.9672322        166290469.25581855        1346853311.2203355     
   1779042934.4793425        134133072.72517222        1365080206.6460025     
   1750735209.8132706        105744872.26725179        1384191189.2299213     
   1723558243.9690146        81125867.882052243        1404186258.9720881     
   1697512036.9465773        60276059.569580555        1425065415.8725038     
   3384915720.0734916        47862054.699383855        1158949434.0628753     
   3293876365.8379159        42530445.101695776        1151330320.4516690     
   3201848030.4865379        33902231.784662724        1146281375.6282098     
   3108830714.0193491        21977414.748261094        1143802599.5924988     
   3014824416.4363561        6755993.9925147295        1143893992.3445320     
   2968239208.7624650        52517878.758142948        1230497820.8649862     
   2883249775.2396469        41566694.583295941        1221409488.2753544     
   2798105906.2373977        30100725.477009535        1215701596.9640572     
   2712807601.7557154        18119971.439279914        1213374146.9310951     
   2627354861.7945981        5624432.4701063633        1214427138.1764638     
   2548113091.1376371        56138820.922762632        1298699946.7672951     
   2471488642.5863976        40262581.448402643        1289116031.7750053     
   2395544304.1921020        26653375.830515027        1283722830.5516396     
   2320280075.9547458        15311204.069094419        1282520343.0971932     
   2245695957.8743277        6236066.1641417742        1285508569.4116709     
   2124537367.1990080        58724881.193240643        1363555811.7698007     
   2058592967.8781717        38618105.697017550        1354449950.9506235     
   1994163224.3506494        23560182.845174074        1350345076.3909557     
   1931248136.6164412        13551112.637712002        1351241188.0907986     
   1869847704.6755459        8590895.0746243000        1357138286.0501511     
   1697512036.9465773        60276059.569580555        1425065415.8725038     
   1644562751.1149654        36633267.329135954        1417411245.8022079     
   1593962666.7130384        20821146.520980239        1415568334.4820094     
   1545711783.7408018        12839697.145123422        1419536681.9119072     
   1499810102.1982510        12688919.201552749        1429316288.0919037     
   3014824416.4363561        6755993.9925147295        1143893992.3445320     
   2907526734.8302889       -12966725.722349048        1132840909.2503192     
   2800879209.8880367       -30522256.557837605        1128591889.1530781     
   2694881841.6095881       -45910598.513970971        1131146932.0528047     
   2589534629.9949512       -59131751.590740204        1140506037.9495001     
   2627354861.7945981        5624432.4701063633        1214427138.1764638     
   2539555002.2156525       -6921127.3248244524        1205995676.4511347     
   2452340862.7708201       -17514286.672718048        1204102208.6912506     
   2365712443.4600925       -26155045.573583722        1208746734.8968139     
   2279669744.2834797       -32843404.027415633        1219929255.0678229     
   2245695957.8743277        6236066.1641417742        1285508569.4116709     
   2176633723.0895872        639607.11927294731        1279623553.1039014     
   2108092771.9092548       -3219239.9108998775        1280010461.7300596     
   2040073104.3333330       -5340474.9263710976        1286669295.2901456     
   1972574720.3618157       -5724097.9271554947        1299600053.7841539     
   1869847704.6755459        8590895.0746243000        1357138286.0501511     
   1818762897.4520872        9715477.6099342108        1353724539.2086277     
   1768134937.3033409        12362883.727612138        1356316648.2695100     
   1717963824.2293005        16533113.427650928        1364914613.2327969     
   1668249558.2299719        22226166.710057318        1379518434.0984907     
   1499810102.1982510        12688919.201552749        1429316288.0919037     
   1465942525.3031621        20306484.147177041        1428298634.7653093     
   1432467358.9530795        29232084.242822647        1433020768.3095992     
   1399384603.1480086        39465719.488508046        1443482688.7247701     
   1366694257.8879409        51007389.884204149        1459684396.0108259     
   2589534629.9949512       -59131751.590740204        1140506037.9495001     
   2455487342.8687963       -74174058.878490210        1111695605.7586472     
   2325266076.0738587       -76462965.062175155        1087809261.1480999     
   2198870829.6101513       -65998470.141766191        1068847004.1178586     
   2076301603.4776597       -42780574.117298007        1054808834.6679183     
   2279669744.2834797       -32843404.027415633        1219929255.0678229     
   2157627615.9525065       -46108168.501779675        1195091023.0676825     
   2037784441.8121183       -52043085.674209356        1174153238.8342915     
   1920140221.8623090       -50648155.544702172        1157115902.3676543     
   1804694956.1030822       -41923378.113259673        1143979013.6677625     
   1972574720.3618157       -5724097.9271554947        1299600053.7841539     
   1859613065.6444535       -18088725.142596602        1276835778.1439738     
   1747223298.9770284       -28547058.858248711        1256948310.4569883     
   1635405420.3595414       -37099099.074112535        1239937650.7232013     
   1524159429.7919893       -43744845.790180862        1225803798.9426126     
   1668249558.2299719        22226166.710057318        1379518434.0984907     
   1561443691.9446373        9884271.1990635991        1356929870.9875171     
   1453582647.5685933       -5974884.6142914295        1336194476.0161908     
   1344666425.1018450       -25351300.729996324        1317312249.1845040     
   1234695024.5443909       -48244977.148052812        1300283190.4924653     
   1366694257.8879409        51007389.884204149        1459684396.0108259     
   1263119494.8530507        37810820.523179173        1435373301.5983155     
   1156862487.5868101        15673437.057659745        1411891735.5118940     
   1047923236.0892168       -15404760.512370229        1389239697.7515645     
   936301740.36028206       -55423772.186874688        1367417188.3173227     
   2076301603.4776597       -42780574.117298007        1054808834.6679183     
   2195898237.9184647        36582503.726749897        1150766443.9451246     
   2300786713.7737117        66918386.285610199        1237852506.6047435     
   2390967031.0434027        48227073.559277654        1316067022.6467848     
   2466439189.7275367       -19491434.452242017        1385409992.0712454     
   1804694956.1030822       -41923378.113259673        1143979013.6677625     
   1901768776.4136796        21948100.249376655        1225634287.4914334     
   1990967362.3866057        59568797.486439466        1302410850.7897754     
   2072290714.0218661        70938713.597944617        1374308703.5627925     
   2145738831.3194566        56057848.583890796        1441327845.8104780     
   1524159429.7919893       -43744845.790180862        1225803798.9426126     
   1610118539.0931027        8057464.0272431970        1301128482.2686174     
   1695035338.3044429        56385406.878748775        1375567291.1615527     
   1778909827.4259968        101238982.76430541        1449120225.6214144     
   1861742006.4577742        142618191.68393964        1521787285.6481988     
   1234695024.5443909       -48244977.148052812        1300283190.4924653     
   1320947525.9567504       -5089404.9396032095        1377249028.2766786     
   1412990641.5272186        57368214.462539375        1457321827.7200725     
   1510824371.2557945        139127881.05837303        1540501588.8226492     
   1614448715.1424782        240189594.84790602        1626788311.5844014     
   936301740.36028206       -55423772.186874688        1367417188.3173227     
   1034255737.0046082       -17492506.651206493        1453995925.5156126     
   1144833272.0549390        62517220.237817585        1547674460.4653375     
   1268034345.5112579        184605408.48012871        1648452793.1664977     
   1403858957.3735816        348772058.07579553        1756330923.6190910     
   2466439189.7275367       -19491434.452242017        1385409992.0712454     
   2084136447.1822977       -176388763.25770223        1225632573.5046129     
   1748291522.2829814       -178426699.91009033        1102591066.0475774     
   1458904415.0295765       -25605244.409438014        1016285469.7001560     
   1215975125.4220960        282075603.24428350        966715784.46233785     
   2145738831.3194566        56057848.583890796        1441327845.8104780     
   1860594135.8944442       -40308502.177169800        1329774691.5748813     
   1600528427.3805857       -53078229.901043534        1242253898.3119097     
   1365541705.7778814        17748665.412259042        1178765466.0215678     
   1155633971.0863237        172172183.76271909        1139309394.7038579     
   1861742006.4577742        142618191.68393964        1521787285.6481988     
   1637459500.6187556        95894061.707015097        1433516426.5530818     
   1416877150.9561288        61503785.651388347        1356574378.2936087     
   1199994957.4698911        39447363.517057538        1290961140.8697896     
   986812920.16003156        29724795.304005325        1236676714.2816162     
   1614448715.1424782        240189594.84790602        1626788311.5844014     
   1414732541.3552353        232218928.39484912        1536857778.4392080     
   1197337693.0096130        165319346.74720091        1445552505.9926772     
   962264170.10561454        39490849.904975235        1352872494.2448196     
   709511972.64323819       -145266562.13186207        1258817743.1956255     
   1403858957.3735816        348772058.07579553        1756330923.6190910     
   1192413258.1038809        368666097.88633275        1639798747.2332523     
   941910053.54103720        258368453.38639960        1509188281.4091079     
   652349343.68505406        17879124.576005429        1364499526.1466451     
   323731128.53592426       -352801888.54488564        1205732481.4458852     
   1755883801.1072788        526765140.33218366        680052067.86766565     
   1783994171.9997733        500078416.48674148        806487509.43304324     
   1809176733.7444959        463632328.81539309        925832738.83429039     
   1831431486.3414471        417426877.31813872        1038087756.0714067     
   1850758429.7906256        361462061.99497759        1143252561.1443934     
   1326173950.3731492        397852185.11194479        669727295.17900717     
   1339504980.2429278        375511617.74027258        791917378.96053708     
   1350640153.2397497        345851527.45874530        908825991.85631526     
   1359579469.3636155        308871914.26736343        1020453133.8663415     
   1366322928.6145246        264572778.16612613        1126798804.9906161     
   890290033.22679508        267087009.96803853        662352457.55334139     
   894009554.29779625        250642948.73731798        781151127.87164176     
   896265170.77065635        229319205.51279348        896477068.58256888     
   897056882.64537549        203115780.29446530        1008330279.6861229     
   896384689.92195356        172032673.08233324        1116710761.1823030     
   448232049.66821676        134469614.90046501        657927554.99066854     
   447507894.16437942        125472409.47787771        774188756.16635764     
   446051786.33721638        114035362.97753777        888785969.01305127     
   443863726.18672734        100158475.39944494        1001719193.5307506     
   440943713.71291280        83841746.743599892        1112988429.7194550     
 -0.30258602400247248       -9.0775807200741743E-002   656452587.49098861     
 -0.15732311287042222       -3.8048210415642103E-002   771030263.84468365     
  -6.0570782020993467E-002 -0.14702233106551291        885752693.14776266     
  -1.2328758378210430E-002 -0.41769767089392723        1000619875.4002253     
  -1.2597243532191382E-002 -0.85007470671155483        1115631810.6020715     
   1850758429.7906256        361462061.99497759        1143252561.1443934     
   1835100397.1807661        295706564.96348387        1190733006.9268095     
   1822834884.3402479        241259467.16312659        1240493280.5336049     
   1813961891.2690699        198120768.59390569        1292533381.9647803     
   1808481417.9672322        166290469.25581855        1346853311.2203355     
   1366322928.6145246        264572778.16612613        1126798804.9906161     
   1360303063.3119519        216973253.06606647        1182148729.6906691     
   1356827587.8717124        177855027.50711906        1238442961.7416160     
   1355896502.2938080        147218101.48928678        1295681501.1434584     
   1357509806.5782373        125062475.01256657        1353864347.8961945     
   896384689.92195356        172032673.08233324        1116710761.1823030     
   896187219.14528167        141444388.07929158        1178940679.9084847     
   897686008.32393765        116510302.92734146        1240779385.5120764     
   900881057.45792031        97230417.626481593        1302226877.9930780     
   905772366.54723048        83604732.176712304        1363283157.3514888     
   440943713.71291280        83841746.743599892        1112988429.7194550     
   442752864.68075693        69119970.003160715        1181108857.5802579     
   445410145.69692147        57225293.423789665        1247502551.8449857     
   448915556.76140630        48157717.005486533        1312169512.5136375     
   453269097.87421256        41917240.748254538        1375109739.5862150     
  -1.2597243532191382E-002 -0.85007470671155483        1115631810.6020715     
  -8.1623049665345226E-002  -1.1623272056376495        1188653262.7059872     
  -9.3347462314875007E-003  -1.0035326293056186        1258612460.7403431     
  0.20426700195090680      -0.37369325882917576        1325509404.7051392     
  0.55918259949179128       0.72719227617556759        1389344094.6003747     
   1808481417.9672322        166290469.25581855        1346853311.2203355     
   1779042934.4793425        134133072.72517222        1365080206.6460025     
   1750735209.8132706        105744872.26725179        1384191189.2299213     
   1723558243.9690146        81125867.882052243        1404186258.9720881     
   1697512036.9465773        60276059.569580555        1425065415.8725038     
   1357509806.5782373        125062475.01256657        1353864347.8961945     
   1333247545.9860351        100289408.40889144        1373232249.2833376     
   1309833354.4343765        78343238.607027590        1393993697.2949970     
   1287267231.9232616        59223965.606978595        1416148691.9311738     
   1265549178.4526923        42931589.408744752        1439697233.1918671     
   905772366.54723048        83604732.176712304        1363283157.3514888     
   888141927.32576525        66652675.042518616        1383462259.9552863     
   871076867.36357200        51585215.439231277        1405544368.6498699     
   854577186.66064930        38402353.366847098        1429529483.4352379     
   838642885.21699917        27104088.825369418        1455417604.3113894     
   453269097.87421256        41917240.748254538        1375109739.5862150     
   443726078.49853528        33222872.626059353        1395770238.6618512     
   434465748.60085678        25470802.763859600        1418843203.2945392     
   425488108.18117744        18661031.161658466        1444328633.4842799     
   416793157.23949677        12793557.819450617        1472226529.2310727     
  0.55918259949179128       0.72719227617556759        1389344094.6003747     
 -0.49565566852337239        1.1595118409380367        1410156185.4030294     
  -1.8537676430526766       0.58091870370867615        1433890201.2290044     
  -3.5151543134603891       -1.0085900864487130        1460546142.0783002     
  -5.4798149534501972       -3.6090117616017268        1490124007.9509158     
   1697512036.9465773        60276059.569580555        1425065415.8725038     
   1644562751.1149654        36633267.329135954        1417411245.8022079     
   1593962666.7130384        20821146.520980239        1415568334.4820094     
   1545711783.7408018        12839697.145123422        1419536681.9119072     
   1499810102.1982510        12688919.201552749        1429316288.0919037     
   1265549178.4526923        42931589.408744752        1439697233.1918671     
   1228841467.4194429        26100770.715279698        1435860507.9674976     
   1193895657.5260262        15142955.821255267        1437134049.1732388     
   1160711748.7724442        10058144.726678550        1443517856.8090882     
   1129289741.1586933        10846337.431540251        1455011930.8750491     
   838642885.21699917        27104088.825369418        1455417604.3113894     
   816173913.78214991        16484393.118893415        1454713140.2614501     
   794879543.19727874        9780033.5790114403        1458417950.3216324     
   774759773.46238685        6991010.2057261765        1466532034.4919376     
   755814604.57747173        8117322.9990312457        1479055392.7723665     
   416793157.23949677        12793557.819450617        1472226529.2310727     
   406560090.20308340        7784134.5399745405        1473969142.6840658     
   396914323.72679442        4732379.7942473143        1479420037.9271932     
   387855857.81062841        3638293.5822622180        1488579214.9604559     
   379384692.45458609        4501875.9040233195        1501446673.7838552     
  -5.4798149534501972       -3.6090117616017268        1490124007.9509158     
  -3.3177564633342143       -5.0214776018616467        1493628515.2353437     
 -0.88542737702197016       -5.5330407609113088        1500140311.9899199     
   1.8171699779070136       -5.1437107320725897        1509659398.2146437     
   4.7900354012923358       -3.8534857539339620        1522185773.9095161     
   1499810102.1982510        12688919.201552749        1429316288.0919037     
   1465942525.3031621        20306484.147177041        1428298634.7653093     
   1432467358.9530795        29232084.242822647        1433020768.3095992     
   1399384603.1480086        39465719.488508046        1443482688.7247701     
   1366694257.8879409        51007389.884204149        1459684396.0108259     
   1129289741.1586933        10846337.431540251        1455011930.8750491     
   1108739526.4823890        18014651.656645238        1452794803.9835529     
   1088483619.6590075        26163992.058159471        1455185688.2480514     
   1068522020.6885475        35294358.636077762        1462184583.6685419     
   1048854729.5710100        45405751.390405416        1473791490.2450271     
   755814604.57747173        8117322.9990312457        1479055392.7723665     
   745348107.22027087        13866293.033720344        1475524339.1752019     
   735077815.02390230        20269280.271184832        1475469521.0191412     
   725003727.98837101        27326284.711439550        1478890938.3041852     
   715125846.11367488        35037306.354477227        1485788591.0303330     
   379384692.45458609        4501875.9040233195        1501446673.7838552     
   375768267.51680106        7861408.2783805430        1496487240.3402529     
   372249945.04776585        11547948.881904826        1493872266.6228650     
   368829725.04747689        15561497.714582637        1493601752.6316931     
   365507607.51593864        19902054.776429504        1495675698.3667345     
   4.7900354012923358       -3.8534857539339620        1522185773.9095161     
   7.3719855311812994       -2.6093529809395304        1515683507.4787078     
   9.7305945810079741       -2.1096918625981806        1510393925.0592272     
   11.865867308871035       -2.3544846303851665        1506317026.6510730     
   13.777802708249608       -3.3437348128424160        1503452812.2542429     
   1366694257.8879409        51007389.884204149        1459684396.0108259     
   1263119494.8530507        37810820.523179173        1435373301.5983155     
   1156862487.5868101        15673437.057659745        1411891735.5118940     
   1047923236.0892168       -15404760.512370229        1389239697.7515645     
   936301740.36028206       -55423772.186874688        1367417188.3173227     
   1048854729.5710100        45405751.390405416        1473791490.2450271     
   952425985.77748156        29884022.780951142        1443368225.5638666     
   853985559.03588784        7656684.3446106911        1418148945.6457629     
   753533449.34622049       -21276263.918640792        1398133650.4907148     
   651069656.70848763       -56914822.008777946        1383322340.0987265     
   715125846.11367488        35037306.354477227        1485788591.0303330     
   638341568.52427948        20939952.585439891        1450035477.5776806     
   560216169.27009332        2372193.2670999169        1423860805.3250508     
   480749648.35111552       -20665971.600543976        1407264574.2724459     
   399942005.76734847       -48174542.017488003        1400246784.4198685     
   365507607.51593864        19902054.776429504        1495675698.3667345     
   320866243.09343934        10978609.936633870        1455375057.6397505     
   275554318.28942770       -180036.17487050593        1429027314.5497553     
   229571833.10390165       -13573883.558088124        1416632469.0967567     
   182918787.53686890       -29202932.212996811        1418190521.2807486     
   13.777802708249608       -3.3437348128424160        1503452812.2542429     
   9.4849630896706696       -5.1654629749366698        1459386965.7500823     
   6.0938878485474852       -3.9813098788450820        1433648473.3198814     
   3.6045854373678452       0.20875282386400762        1426237334.9636450     
   2.0170458709871739        7.4046913289582932        1437153550.6813660     
   936301740.36028206       -55423772.186874688        1367417188.3173227     
   1034255737.0046082       -17492506.651206493        1453995925.5156126     
   1144833272.0549390        62517220.237817585        1547674460.4653375     
   1268034345.5112579        184605408.48012871        1648452793.1664977     
   1403858957.3735816        348772058.07579553        1756330923.6190910     
   651069656.70848763       -56914822.008777946        1383322340.0987265     
   757587183.50956130       -18550762.428926677        1490868087.2131011     
   873572363.70157731        51372141.787398517        1597801491.9171915     
   999025197.28453779        152853890.64020565        1704122554.2109950     
   1133945684.2584341        285894484.12946522        1809831274.0945199     
   399942005.76734847       -48174542.017488003        1400246784.4198685     
   492988376.54882681       -15988094.246364772        1525077675.5994308     
   592346515.70619357        37237581.444385797        1641584084.2069876     
   698016423.23944366        111502485.05474697        1749766010.2425392     
   809998099.14858091        206806616.58473489        1849623453.7060883     
   182918787.53686890       -29202932.212996811        1418190521.2807486     
   240459316.12241167       -9804502.1034995914        1556624690.6745977     
   301155728.06878203        20113539.208756596        1679022237.3347254     
   365008023.37598330        60551191.723783441        1785383161.2611277     
   432016202.04401696        111508455.44158222        1875707462.4538043     
   2.0170458709871739        7.4046913289582932        1437153550.6813660     
   2.2303092523007031        13.999652764889952        1585509132.4386058     
  0.78934615254356633        15.080525930586056        1710115951.3004014     
  -2.3058395394535895        10.647323441870736        1810974007.2667556     
  -7.0552523530346951       0.70003124176497344        1888083300.3376627     
   1403858957.3735816        348772058.07579553        1756330923.6190910     
   1192413258.1038809        368666097.88633275        1639798747.2332523     
   941910053.54103720        258368453.38639960        1509188281.4091079     
   652349343.68505406        17879124.576005429        1364499526.1466451     
   323731128.53592426       -352801888.54488564        1205732481.4458852     
   1133945684.2584341        285894484.12946522        1809831274.0945199     
   900396822.41208422        278325639.00047177        1643261754.2035184     
   637554834.22608197        173113039.40597263        1480105679.8317628     
   345419719.70044124       -29743314.653988048        1320363050.9792409     
   23991478.835155055       -330243423.17943907        1164033867.6459808     
   809998099.14858091        206806616.58473489        1849623453.7060883     
   604322460.31858397        186767802.19408303        1644408365.7556729     
   379118074.10244030        101633163.18294600        1460098458.2820535     
   134384940.50014782       -48597300.448685832        1296693731.2852275     
  -129876940.48829135       -263923588.70080885        1154194184.7652030     
   432016202.04401696        111508455.44158222        1875707462.4538043     
   304190171.82338530        93992587.467189774        1643238581.8897197     
   166599773.17010465        43928824.717298068        1449166616.7599847     
   19245006.084173046       -38682832.808091298        1293491567.0645933     
  -137874129.43440443       -153842385.10897532        1176213432.8035617     
  -7.0552523530346951       0.70003124176497344        1888083300.3376627     
  -43.073508724990404       -5.1802021234830189        1639752402.6056576     
  -68.570915292041576        24.009063167061374        1447310155.2655511     
  -83.547475622762221        88.267817299819626        1310756558.3173478     
  -88.003188070118213        187.59606368323745        1230091611.7610519     
 -0.30258602400247248       -9.0775807200741743E-002   656452587.49098861     
 -0.15732311287042222       -3.8048210415642103E-002   771030263.84468365     
  -6.0570782020993467E-002 -0.14702233106551291        885752693.14776266     
  -1.2328758378210430E-002 -0.41769767089392723        1000619875.4002253     
  -1.2597243532191382E-002 -0.85007470671155483        1115631810.6020715     
  -448232050.24253595       -134469615.07276079        657927555.02282310     
  -447507894.49483585       -125472409.67761232        774188756.12153232     
  -446051786.49129713       -114035363.42966820        888785968.88602042     
  -443863726.23191977       -100158476.32892886        1001719193.3162864     
  -440943713.71670353       -83841748.375393182        1112988429.4123318     
  -890290033.70855618       -267087010.11256686        662352457.55469358     
  -894009554.59729111       -250642949.04665911        781151127.75349128     
  -896265170.92583799       -229319206.11345869        896477068.33446205     
  -897056882.69419730       -203115781.31296572        1008330279.2976063     
  -896384689.90236878       -172032674.64517999        1116710760.6429236     
  -1326173950.7006464       -397852185.21019393        669727295.08660007     
  -1339504980.4646883       -375511618.14518845        791917378.74055982     
  -1350640153.3641932       -345851528.19839334        908825991.49308765     
  -1359579469.3991613       -308871915.36980873        1020453133.3441837     
  -1366322928.5695922       -264572779.65943405        1126798804.2938473     
  -1755883801.2188070       -526765140.36564207        680052067.61854255     
  -1783994172.0970278       -500078416.97320050        806487509.08273864     
  -1809176733.8063626       -463632329.68447232        925832738.36189735     
  -1831431486.3468122       -417426878.49945754        1038087755.4560190     
  -1850758429.7183747       -361462063.41815555        1143252560.3651032     
  -1.2597243532191382E-002 -0.85007470671155483        1115631810.6020715     
  -8.1623049665345226E-002  -1.1623272056376495        1188653262.7059872     
  -9.3347462314875007E-003  -1.0035326293056186        1258612460.7403431     
  0.20426700195090680      -0.37369325882917576        1325509404.7051392     
  0.55918259949179128       0.72719227617556759        1389344094.6003747     
  -440943713.71670353       -83841748.375393182        1112988429.4123318     
  -442752864.76092166       -69119972.186794370        1181108857.5648582     
  -445410145.66346633       -57225295.525950730        1247502552.1519852     
  -448915556.42433655       -48157718.392859146        1312169513.1737123     
  -453269097.04353404       -41917240.787524566        1375109740.6300397     
  -896384689.90236878       -172032674.64517999        1116710760.6429236     
  -896187219.05274940       -141444390.09502131        1178940679.8444810     
  -897686008.06109679       -116510305.07141691        1240779385.9847991     
  -900881056.92741024       -97230419.574366629        1302226879.0638778     
  -905772365.65169013       -83604733.603871644        1363283159.0817173     
  -1366322928.5695922       -264572779.65943405        1126798804.2938473     
  -1360303062.9571061       -216973254.88700604        1182148729.5448551     
  -1356827587.2022266       -177855029.63993338        1238442962.2387841     
  -1355896501.3049531       -147218103.91821396        1295681502.3756347     
  -1357509805.2652862       -125062477.72185105        1353864349.9554052     
  -1850758429.7183747       -361462063.41815555        1143252560.3651032     
  -1835100396.4739923       -295706566.56275016        1190733006.6659813     
  -1822834883.0868559       -241259469.23150021        1240493280.9139416     
  -1813961889.5569658       -198120771.42440295        1292533383.1089828     
  -1808481415.8843226       -166290473.14146340        1346853313.2511055     
  0.55918259949179128       0.72719227617556759        1389344094.6003747     
 -0.49565566852337239        1.1595118409380367        1410156185.4030294     
  -1.8537676430526766       0.58091870370867615        1433890201.2290044     
  -3.5151543134603891       -1.0085900864487130        1460546142.0783002     
  -5.4798149534501972       -3.6090117616017268        1490124007.9509158     
  -453269097.04353404       -41917240.787524566        1375109740.6300397     
  -443726079.83154672       -33222872.441493869        1395770239.2917838     
  -434465752.50320721       -25470803.707622737        1418843203.6169083     
  -425488115.05851531       -18661034.585910738        1444328633.6054149     
  -416793167.49747336       -12793565.076364264        1472226529.2573032     
  -905772365.65169013       -83604733.603871644        1363283159.0817173     
  -888141928.34413028       -66652676.795504808        1383462261.0921137     
  -871076870.50059342       -51585218.200547487        1405544369.4059520     
  -854577192.12107861       -38402357.818995446        1429529484.0232337     
  -838642893.20558524       -27104095.650851637        1455417604.9439576     
  -1357509805.2652862       -125062477.72185105        1353864349.9554052     
  -1333247546.0334089       -100289411.90252638        1373232250.8040175     
  -1309833355.8459270       -78343242.897855878        1393993698.5961332     
  -1287267234.7028418       -59223970.707839310        1416148693.3317537     
  -1265549182.6041524       -42931595.332475305        1439697235.0108783     
  -1808481415.8843226       -166290473.14146340        1346853313.2511055     
  -1779042932.8993790       -134133077.76255441        1365080208.4274981     
  -1750735208.5392082       -105744877.79954958        1384191191.1874552     
  -1723558242.8038049       -81125873.252441764        1404186261.5309784     
  -1697512035.6931736       -60276064.121237755        1425065419.4580650     
  -5.4798149534501972       -3.6090117616017268        1490124007.9509158     
  -3.3177564633342143       -5.0214776018616467        1493628515.2353437     
 -0.88542737702197016       -5.5330407609113088        1500140311.9899199     
   1.8171699779070136       -5.1437107320725897        1509659398.2146437     
   4.7900354012923358       -3.8534857539339620        1522185773.9095161     
  -416793167.49747336       -12793565.076364264        1472226529.2573032     
  -406560095.80327845       -7784143.3041677922        1473969143.7541077     
  -396914324.32035798       -4732388.9028860182        1479420039.9936411     
  -387855853.04871190       -3638301.8725203127        1488579217.9759011     
  -379384681.98834121       -4501882.2130710781        1501446677.7008855     
  -838642893.20558524       -27104095.650851637        1455417604.9439576     
  -816173916.91474390       -16484400.174642920        1454713142.7580051     
  -794879541.31672013       -9780040.3411606550        1458417954.5873587     
  -774759766.41151512       -6991016.1504079700        1466532040.4320192     
  -755814592.19912815       -8117327.6023820043        1479055400.2919848     
  -1265549182.6041524       -42931595.332475305        1439697235.0108783     
  -1228841466.6521521       -26100775.632899046        1435860512.2470343     
  -1193895651.8745151       -15142959.847869396        1437134055.7710767     
  -1160711738.2712374       -10058147.977368772        1443517865.5830035     
  -1129289725.8423238       -10846340.021413386        1455011941.6828158     
  -1697512035.6931736       -60276064.121237755        1425065419.4580650     
  -1644562745.0155034       -36633269.678940713        1417411252.2211962     
  -1593962655.9937396       -20821147.422999680        1415568343.5447922     
  -1545711768.6278808       -12839697.353407979        1419536693.4288514     
  -1499810082.9179282       -12688919.470169306        1429316301.8733745     
   4.7900354012923358       -3.8534857539339620        1522185773.9095161     
   7.3719855311812994       -2.6093529809395304        1515683507.4787078     
   9.7305945810079741       -2.1096918625981806        1510393925.0592272     
   11.865867308871035       -2.3544846303851665        1506317026.6510730     
   13.777802708249608       -3.3437348128424160        1503452812.2542429     
  -379384681.98834121       -4501882.2130710781        1501446677.7008855     
  -375768252.59614885       -7861412.8785872012        1496487244.0088189     
  -372249925.95389938       -11547952.710579872        1493872269.6770687     
  -368829702.06159395       -15561501.709052444        1493601754.7056367     
  -365507580.91922915       -19902059.873993963        1495675699.0945234     
  -755814592.19912815       -8117327.6023820043        1479055400.2919848     
  -745348092.14242899       -13866297.021267712        1475524346.3909509     
  -735077797.36227560       -20269284.028637797        1475469527.1992295     
  -725003707.85867167       -27326288.624506861        1478890942.7168171     
  -715125823.63161266       -35037310.808860302        1485788592.9437172     
  -1129289725.8423238       -10846340.021413386        1455011941.6828158     
  -1108739511.2668529       -18014655.037387490        1452794814.6251101     
  -1088483604.4945316       -26163996.063862085        1455185697.6257093     
  -1068522005.5253639       -35294363.100844920        1462184590.6846106     
  -1048854714.3593467       -45405756.148330927        1473791493.8018153     
  -1499810082.9179282       -12688919.470169306        1429316301.8733745     
  -1465942509.9694223       -20306486.926954329        1428298648.7112935     
  -1432467347.3506665       -29232088.816241562        1433020780.9565086     
  -1399384595.0616734       -39465725.138069212        1443482698.6090188     
  -1366694253.1024327       -51007395.892407238        1459684401.6688268     
   13.777802708249608       -3.3437348128424160        1503452812.2542429     
   9.4849630896706696       -5.1654629749366698        1459386965.7500823     
   6.0938878485474852       -3.9813098788450820        1433648473.3198814     
   3.6045854373678452       0.20875282386400762        1426237334.9636450     
   2.0170458709871739        7.4046913289582932        1437153550.6813660     
  -365507580.91922915       -19902059.873993963        1495675699.0945234     
  -320866224.28785723       -10978617.874670759        1455375059.3394482     
  -275554305.88397586        180030.03301811218        1429027317.6472564     
  -229571825.70758066        13573883.849086702        1416632474.0179467     
  -182918783.75867549        29202943.573520698        1418190528.4515204     
  -715125823.63161266       -35037310.808860302        1485788592.9437172     
  -638341551.82196581       -20939958.712263376        1450035480.9535923     
  -560216157.36906528       -2372197.8048215806        1423860811.0152724     
  -480749640.27290767        20665971.913475662        1407264583.1287603     
  -399942000.53349549        48174550.442625463        1400246797.2940509     
  -1048854714.3593467       -45405756.148330927        1473791493.8018153     
  -952425973.11736119       -29884027.678237855        1443368230.5925121     
  -853985548.36137748       -7656687.4948214293        1418148953.4239366     
  -753533440.09139526        21276264.401924759        1398133662.2960854     
  -651069648.30741549        56914828.011996090        1383322357.2089629     
  -1366694253.1024327       -51007395.892407238        1459684401.6688268     
  -1263119488.1740458       -37810824.772605777        1435373308.2562094     
  -1156862478.8609192       -15673439.037002742        1411891744.8732417     
  -1047923225.1630480        15404761.314412832        1389239711.5199230     
  -936301727.08043373        55423776.281640530        1367417208.1962519     
   2.0170458709871739        7.4046913289582932        1437153550.6813660     
   2.2303092523007031        13.999652764889952        1585509132.4386058     
  0.78934615254356633        15.080525930586056        1710115951.3004014     
  -2.3058395394535895        10.647323441870736        1810974007.2667556     
  -7.0552523530346951       0.70003124176497344        1888083300.3376627     
  -182918783.75867549        29202943.573520698        1418190528.4515204     
  -240459312.43738216        9804524.5309684724        1556624695.3404250     
  -301155726.56687474       -20113512.680867240        1679022239.5857613     
  -365008026.14715123       -60551168.061983325        1785383161.1875279     
  -432016211.17820787       -111508441.61236954        1875707460.1457231     
  -399942000.53349549        48174550.442625463        1400246797.2940509     
  -492988371.67024606        15988111.692727417        1525077684.8853025     
  -592346512.05433869       -37237557.881639570        1641584090.0848608     
  -698016421.68577302       -111502458.28047968        1749766012.8927286     
  -809998100.56454504       -206806589.50378147        1849623453.3088973     
  -651069648.30741549        56914828.011996090        1383322357.2089629     
  -757587175.46828079        18550775.484935939        1490868101.0732434     
  -873572355.67304420       -51372120.521784514        1597801502.7977054     
  -999025188.92170763       -152853860.00817168        1704122562.3823495     
  -1133945675.2142684       -285894442.97421765        1809831279.8271785     
  -936301727.08043373        55423776.281640530        1367417208.1962519     
  -1034255723.8314838        17492515.907595694        1453995943.9042468     
  -1144833257.4229875       -62517200.601291776        1547674477.7242973     
  -1268034327.8549559       -184605373.24506372        1648452809.6564052     
  -1403858935.1273692       -348772002.02365029        1756330939.7005708     
  -7.0552523530346951       0.70003124176497344        1888083300.3376627     
  -43.073508724990404       -5.1802021234830189        1639752402.6056576     
  -68.570915292041576        24.009063167061374        1447310155.2655511     
  -83.547475622762221        88.267817299819626        1310756558.3173478     
  -88.003188070118213        187.59606368323745        1230091611.7610519     
  -432016211.17820787       -111508441.61236954        1875707460.1457231     
  -304190249.10290873       -93992587.166370913        1643238601.4426405     
  -166599906.72111583       -43928798.365393646        1449166661.5751004     
  -19245184.032834951        38682924.790545136        1293491640.5431073     
   137873918.96193427        153842582.30144513        1176213538.3466692     
  -809998100.56454504       -206806589.50378147        1849623453.3088973     
  -604322516.27098441       -186767787.49412745        1644408398.3846431     
  -379118181.88529539       -101633151.84404334        1460098530.7395837     
  -134385097.40747055        48597317.446488634        1296693850.3737156     
   129876737.16248076        263923620.37744713        1154194357.2870448     
  -1133945675.2142684       -285894442.97421765        1809831279.8271785     
  -900396844.57774448       -278325606.16349679        1643261793.4316730     
  -637554894.06345141       -173113036.42687973        1480105762.7590086     
  -345419823.67138374        29743266.235649571        1320363187.8091750     
  -23991633.401545823        330243301.82408392        1164034068.5822005     
  -1403858935.1273692       -348772002.02365029        1756330939.7005708     
  -1192413234.0231826       -368666043.17446280        1639798786.5837250     
  -941910043.25558841       -258368452.11391962        1509188357.6333644     
  -652349362.82457173       -17879228.841967553        1364499652.8494914     
  -323731192.73014873        352801626.64134109        1205732672.2321079     
  -1755883801.2188070       -526765140.36564207        680052067.61854255     
  -1783994172.0970278       -500078416.97320050        806487509.08273864     
  -1809176733.8063626       -463632329.68447232        925832738.36189735     
  -1831431486.3468122       -417426878.49945754        1038087755.4560190     
  -1850758429.7183747       -361462063.41815555        1143252560.3651032     
  -2201625118.3324590       -660487535.49973774        696435608.78208888     
  -2238285487.1061392       -613880615.33409297        813887695.03929305     
  -2272908532.2553763       -560482616.42030478        927256103.53736544     
  -2305494253.7801700       -500293538.75837338        1036540834.2763059     
  -2336042651.6805215       -433313382.34829909        1141741887.2561142     
  -2685603435.1110249       -805681030.53330743        721986752.20880687     
  -2722223703.4204340       -736576884.08654034        829416583.45716894     
  -2757697133.6498432       -663649944.03977334        935769271.37230480     
  -2792023725.7992530       -586900210.39300680        1041044815.9542137     
  -2825203479.8686628       -506327683.14624023        1145243217.2028961     
  -3207818751.5545034       -962345625.46635115        756705497.89869654     
  -3235808821.0399137       -868167223.23054314        853074174.33636630     
  -3263542537.9897656       -773134312.54287863        951372241.86671519     
  -3291019902.4040613       -677246893.40335751        1051599700.4897426     
  -3318240914.2828002       -580504965.81198072        1153756550.2054491     
  -3768271067.6628966       -1130481320.2988689        800591845.85175788     
  -3779040839.9645767       -1008651632.7661010        884860467.67688549     
  -3790444745.2751422       -888935721.92961991        974065015.02059686     
  -3802482783.5945940       -771333587.78942609        1068205487.8828926     
  -3815154954.9229326       -655845230.34551942        1167281886.2637722     
  -1850758429.7183747       -361462063.41815555        1143252560.3651032     
  -1835100396.4739923       -295706566.56275016        1190733006.6659813     
  -1822834883.0868559       -241259469.23150021        1240493280.9139416     
  -1813961889.5569658       -198120771.42440295        1292533383.1089828     
  -1808481415.8843226       -166290473.14146340        1346853313.2511055     
  -2336042651.6805215       -433313382.34829909        1141741887.2561142     
  -2312212857.5999432       -352227082.48244143        1182943363.8849158     
  -2291875759.1032562       -282783101.22955245        1224613104.8228357     
  -2275031356.1904593       -224981438.58963269        1266751110.0698731     
  -2261679648.8615537       -178822094.56268358        1309357379.6260288     
  -2825203479.8686628       -506327683.14624023        1145243217.2028961     
  -2798377821.0603561       -411463349.10247052        1180048852.4785361     
  -2775145033.5625863       -328575252.76048493        1213511188.4253302     
  -2755505117.3753510       -257663394.12028289        1245630225.0432789     
  -2739458072.4986496       -198727773.18186307        1276405962.3323824     
  -3318240914.2828002       -580504965.81198072        1153756550.2054491     
  -3293595286.8552327       -473415366.42283928        1182049472.4468417     
  -3272642706.4648452       -378635923.82429528        1207187531.7214258     
  -3255383173.1116371       -296166638.01634920        1229170728.0292006     
  -3241816686.7956066       -226007508.99900162        1247999061.3701673     
  -3815154954.9229326       -655845230.34551942        1167281886.2637722     
  -3797865254.9845715       -538083134.44354618        1188945223.7898335     
  -3784368777.8100343       -432965114.42098534        1205642134.7111220     
  -3774665523.3993216       -340491170.27783716        1217372619.0276384     
  -3768755491.7524309       -260661302.01410007        1224136676.7393820     
  -1808481415.8843226       -166290473.14146340        1346853313.2511055     
  -1779042932.8993790       -134133077.76255441        1365080208.4274981     
  -1750735208.5392082       -105744877.79954958        1384191191.1874552     
  -1723558242.8038049       -81125873.252441764        1404186261.5309784     
  -1697512035.6931736       -60276064.121237755        1425065419.4580650     
  -2261679648.8615537       -178822094.56268358        1309357379.6260288     
  -2223161617.6619964       -134689594.84186387        1317901946.0645893     
  -2187465225.9119492       -99962559.952745557        1329783207.1596160     
  -2154590473.6114135       -74640989.895329833        1345001162.9111099     
  -2124537360.7603886       -58724884.669618607        1363555813.3190699     
  -2739458072.4986496       -198727773.18186307        1276405962.3323824     
  -2684853044.3047571       -140517934.48521304        1273295505.7375803     
  -2634760536.3851175       -97349830.036068559        1275974350.8721459     
  -2589180548.7397285       -69223459.834429741        1284442497.7360792     
  -2548113081.3685904       -56138823.880295277        1298699946.3293822     
  -3241816686.7956066       -226007508.99900162        1247999061.3701673     
  -3164117212.8276625       -151618096.69260740        1231260887.4464705     
  -3092621139.9587097       -97906688.049518466        1222764622.3250437     
  -3027328468.1887517       -64873283.069741726        1222510266.0058863     
  -2968239197.5177822       -52517881.753269076        1230497818.4889996     
  -3768755491.7524309       -260661302.01410007        1224136676.7393820     
  -3660954123.2307143       -167990081.46404529        1191798091.1912615     
  -3561047036.6327300       -101633133.99309683        1170154021.5183110     
  -3469034231.9584808       -61590459.601264715        1159204467.7205319     
  -3384915709.2079630       -47862058.288540363        1158949429.7979245     
  -1697512035.6931736       -60276064.121237755        1425065419.4580650     
  -1644562745.0155034       -36633269.678940713        1417411252.2211962     
  -1593962655.9937396       -20821147.422999680        1415568343.5447922     
  -1545711768.6278808       -12839697.353407979        1419536693.4288514     
  -1499810082.9179282       -12688919.470169306        1429316301.8733745     
  -2124537360.7603886       -58724884.669618607        1363555813.3190699     
  -2058592957.4646740       -38618107.202849507        1354449954.2639239     
  -1994163210.2528684       -23560183.349108815        1350345081.0411613     
  -1931248119.1249695       -13551113.108392239        1351241193.6507826     
  -1869847684.0809824       -8590896.4807095528        1357138292.0927877     
  -2548113081.3685904       -56138823.880295277        1298699946.3293822     
  -2471488630.3922057       -40262582.870265365        1289116031.9566214     
  -2395544289.9277306       -26653376.899939656        1283722830.6881649     
  -2320280059.9751663       -15311205.969313741        1282520342.5240111     
  -2245695940.5345120       -6236070.0783890486        1285508567.4641623     
  -2968239197.5177822       -52517881.753269076        1230497818.4889996     
  -2883249763.7980976       -41566696.681189895        1221409485.2992895     
  -2798105895.0183272       -30100728.075489998        1215701592.4858036     
  -2712807591.1784663       -18119975.936160564        1213374140.0485401     
  -2627354852.2785215       -5624440.2632132769        1214427127.9874992     
  -3384915709.2079630       -47862058.288540363        1158949429.7979245     
  -3293876357.6823511       -42530448.635623455        1151330314.2919283     
  -3201848025.5246544       -33902236.875759959        1146281366.4340751     
  -3108830712.7348742       -21977423.008946300        1143802586.2243640     
  -3014824419.3130069       -6756007.0351822376        1143893973.6627965     
  -1499810082.9179282       -12688919.470169306        1429316301.8733745     
  -1465942509.9694223       -20306486.926954329        1428298648.7112935     
  -1432467347.3506665       -29232088.816241562        1433020780.9565086     
  -1399384595.0616734       -39465725.138069212        1443482698.6090188     
  -1366694253.1024327       -51007395.892407238        1459684401.6688268     
  -1869847684.0809824       -8590896.4807095528        1357138292.0927877     
  -1818762883.6901038       -9715482.9044064283        1353724544.6348670     
  -1768134930.0650671       -12362891.880907059        1356316652.6407635     
  -1717963823.2058754       -16533123.410218596        1364914616.1104755     
  -1668249563.1125207       -22226177.492328763        1379518435.0440021     
  -2245695940.5345120       -6236070.0783890486        1285508567.4641623     
  -2176633712.5397816       -639615.42056512833        1279623549.8683045     
  -2108092767.7469752        3219228.5641801357        1280010457.7927797     
  -2040073106.1560974        5340461.8758260012        1286669291.2375922     
  -1972574727.7671459        5724084.5143884420        1299600050.2027402     
  -2627354852.2785215       -5624440.2632132769        1214427127.9874992     
  -2539554996.5184488        6921115.5245848894        1205995664.4116020     
  -2452340860.3963900        17514272.519012690        1204102196.4125600     
  -2365712443.9123435        26155030.720063210        1208746723.9903741     
  -2279669747.0663071        32843390.127741575        1219929247.1450431     
  -3014824419.3130069       -6756007.0351822376        1143893973.6627965     
  -2907526735.6261125        12966709.931031823        1132840888.2647624     
  -2800879208.0133119        30522239.983595848        1128591868.5001016     
  -2694881836.4746108        45910583.122494817        1131146914.3688169     
  -2589534621.0100060        59131739.347740173        1140506025.8709080     
  -1366694253.1024327       -51007395.892407238        1459684401.6688268     
  -1263119488.1740458       -37810824.772605777        1435373308.2562094     
  -1156862478.8609192       -15673439.037002742        1411891744.8732417     
  -1047923225.1630480        15404761.314412832        1389239711.5199230     
  -936301727.08043373        55423776.281640530        1367417208.1962519     
  -1668249563.1125207       -22226177.492328763        1379518435.0440021     
  -1561443691.2321329       -9884278.6006298661        1356929875.1568620     
  -1453582641.0885181        5974881.1684956551        1336194484.1788676     
  -1344666412.6816714        25351301.815060318        1317312262.1100185     
  -1234695006.0115950        48244983.339054227        1300283208.9503129     
  -1972574727.7671459        5724084.5143884420        1299600050.2027402     
  -1859613066.4219098        18088715.931845903        1276835780.0326450     
  -1747223292.9349568        28547054.488351464        1256948317.6511929     
  -1635405407.3062887        37099100.183909535        1239937663.0583787     
  -1524159409.5359051        43744853.018516600        1225803816.2542109     
  -2279669747.0663071        32843390.127741575        1219929247.1450431     
  -2157627613.7433748        46108158.824805140        1195091022.8835597     
  -2037784434.4002385        52043080.922553062        1174153245.2902133     
  -1920140209.0369034        50648156.420957804        1157115914.3650041     
  -1804694937.6533670        41923385.320033550        1143979030.1079338     
  -2589534621.0100060        59131739.347740173        1140506025.8709080     
  -2455487333.1965303        74174050.078270674        1111695603.7096004     
  -2325266065.4843650        76462960.471094489        1087809267.0959332     
  -2198870817.8735127        65998470.526211023        1068847016.0298951     
  -2076301590.3639750        42780580.243613243        1054808850.5114923     
  -936301727.08043373        55423776.281640530        1367417208.1962519     
  -1034255723.8314838        17492515.907595694        1453995943.9042468     
  -1144833257.4229875       -62517200.601291776        1547674477.7242973     
  -1268034327.8549559       -184605373.24506372        1648452809.6564052     
  -1403858935.1273692       -348772002.02365029        1756330939.7005708     
  -1234695006.0115950        48244983.339054227        1300283208.9503129     
  -1320947506.6425495        5089416.9965416789        1377249045.6285934     
  -1412990620.0485098       -57368191.929315627        1457321844.1260748     
  -1510824346.2294688       -139127843.43850535        1540501604.4427552     
  -1614448685.1854308       -240189537.53103989        1626788326.5786366     
  -1524159409.5359051        43744853.018516600        1225803816.2542109     
  -1610118517.7406425       -8057450.4006263018        1301128498.6458037     
  -1695035314.6549234       -56385382.851593196        1375567306.5637438     
  -1778909800.2787557       -101238944.33439231        1449120240.0080264     
  -1861741974.6121340       -142618134.84901029        1521787298.9786563     
  -1804694937.6533670        41923385.320033550        1143979030.1079338     
  -1901768757.1257529       -21948086.283891559        1225634302.9558744     
  -1990967341.2422395       -59568773.368148208        1302410865.0373051     
  -2072290690.0028162       -70938675.932708144        1374308716.3522224     
  -2145738803.4074855       -56057793.977577686        1441327856.9006317     
  -2076301590.3639750        42780580.243613243        1054808850.5114923     
  -2195898224.7978926       -36582490.653277278        1150766458.5588107     
  -2300786699.8104529       -66918363.478977680        1237852519.5467575     
  -2390967015.4016457       -48227038.233452678        1316067033.4753404     
  -2466439171.5714822        19491485.083261251        1385410000.3445532     
  -1403858935.1273692       -348772002.02365029        1756330939.7005708     
  -1192413234.0231826       -368666043.17446280        1639798786.5837250     
  -941910043.25558841       -258368452.11391962        1509188357.6333644     
  -652349362.82457173       -17879228.841967553        1364499652.8494914     
  -323731192.73014873        352801626.64134109        1205732672.2321079     
  -1614448685.1854308       -240189537.53103989        1626788326.5786366     
  -1414732479.9363611       -232218859.49782971        1536857794.8568580     
  -1197337612.1117010       -165319306.21264806        1445552530.0375741     
  -962264081.71144652       -39490877.675483763        1352872532.1207907     
  -709511888.73559678        145266426.11365691        1258817801.1064949     
  -1861741974.6121340       -142618134.84901029        1521787298.9786563     
  -1637459428.8295846       -95893986.715203464        1433516423.7161562     
  -1416877047.5592663       -61503720.288832843        1356574358.0921595     
  -1199994830.8011675       -39447335.569863915        1290961102.1066701     
  -986812778.55529547       -29724832.558315873        1236676655.7596853     
  -2145738803.4074855       -56057793.977577686        1441327856.9006317     
  -1860594080.7028573        40308575.173397899        1329774673.1616147     
  -1600528349.5982711        53078305.657570779        1242253841.7971196     
  -1365541610.0937350       -17748602.525099635        1178765362.8071327     
  -1155633862.1892381       -172172149.37455183        1139309236.1916668     
  -2466439171.5714822        19491485.083261251        1385410000.3445532     
  -2084136435.5561736        176388826.16799641        1225632543.1932404     
  -1748291518.2287271        178426771.62651742        1102590981.1524532     
  -1458904419.5891483        25605321.458823800        1016285314.2221960     
  -1215975139.6374240       -282075524.33506739        966715542.40245295     
  -3768271067.6628966       -1130481320.2988689        800591845.85175788     
  -3779040839.9645767       -1008651632.7661010        884860467.67688549     
  -3790444745.2751422       -888935721.92961991        974065015.02059686     
  -3802482783.5945940       -771333587.78942609        1068205487.8828926     
  -3815154954.9229326       -655845230.34551942        1167281886.2637722     
  -4339821458.6731367       -1301946437.6019411        858778611.64482570     
  -4335189515.4483500       -1125744053.5949860        942337968.75781429     
  -4331702183.2989607       -953357039.83935285        1020261328.4939194     
  -4329359462.2249660       -784785396.33504128        1092548690.8531406     
  -4328161352.2263689       -620029123.08205211        1159200055.8354781     
  -4895330999.8221588       -1468599299.9466476        936398610.85473514     
  -4905502835.0579557       -1247085867.6616209        1018653145.5113225     
  -4917329759.4356585       -1031089399.1829503        1084699759.8955586     
  -4930811772.9552708       -820609894.51063645        1134538454.0074434     
  -4945948875.6167870       -615647353.64467907        1168169227.8469768     
  -5434799691.1099625       -1630439907.3329887        1033451843.4814861     
  -5489980798.7933931       -1372677074.9660048        1113805997.9374099     
  -5547327473.6852427       -1122132799.9604130        1167380309.2255151     
  -5606839715.7855072       -878807082.31621122        1194174777.3458011     
  -5668517525.0941944       -642699922.03340340        1194189402.2982683     
  -5958227532.5365477       -1787468259.7609644        1149938309.5250785     
  -6088623406.6546640       -1502517675.5081391        1227796526.0360770     
  -6221695326.0477076       -1226487242.1717396        1268302976.4837887     
  -6357443290.7156792       -959376959.75176692        1271457660.8682141     
  -6495867300.6585798       -701186828.24822021        1237260579.1893523     
  -3815154954.9229326       -655845230.34551942        1167281886.2637722     
  -3797865254.9845715       -538083134.44354618        1188945223.7898335     
  -3784368777.8100343       -432965114.42098534        1205642134.7111220     
  -3774665523.3993216       -340491170.27783716        1217372619.0276384     
  -3768755491.7524309       -260661302.01410007        1224136676.7393820     
  -4328161352.2263689       -620029123.08205211        1159200055.8354781     
  -4298135128.5297508       -464427993.98490500        1141296492.9411266     
  -4278702916.7897692       -344140238.07654405        1129424598.0359361     
  -4269864717.0064211       -259165855.35696816        1123584371.1199059     
  -4271620529.1797094       -209504845.82617640        1123775812.1930375     
  -4945948875.6167870       -615647353.64467907        1168169227.8469768     
  -4871763000.7506752       -412780253.12898755        1102764510.4739325     
  -4814971927.0340109       -267895823.11145401        1054389555.6839823     
  -4775575654.4667921       -180994063.59207821        1023044363.4771259     
  -4753574183.0490236       -152074974.57086158        1008728933.8533633     
  -5668517525.0941944       -642699922.03340340        1194189402.2982683     
  -5518748871.6473484       -383139911.87579513        1073349276.3882512     
  -5393175808.5427628       -204231869.52571726        980537007.65526032     
  -5291798335.7804346       -105975794.98317099        915752596.09929669     
  -5214616453.3603687       -88371688.248157024        878996041.72036028     
  -6495867300.6585798       -701186828.24822021        1237260579.1893523     
  -6239092741.2197657       -375506970.22532463        1053050790.6840804     
  -6013314561.3160219       -153148377.31933355        907866953.94976926     
  -5818532760.9473505       -34111049.530245543        801709068.98641789     
  -5654747340.1137514       -18394986.858063459        734577135.79402745     
  -3768755491.7524309       -260661302.01410007        1224136676.7393820     
  -3660954123.2307143       -167990081.46404529        1191798091.1912615     
  -3561047036.6327300       -101633133.99309683        1170154021.5183110     
  -3469034231.9584808       -61590459.601264715        1159204467.7205319     
  -3384915709.2079630       -47862058.288540363        1158949429.7979245     
  -4271620529.1797094       -209504845.82617640        1123775812.1930375     
  -4147446143.8406911       -145014730.19192648        1090358612.5887690     
  -4027809583.7869458       -95650698.841929436        1065344857.3339796     
  -3912710849.0184793       -61412751.776193619        1048734546.4286697     
  -3802149939.5352883       -42300888.994708061        1040527679.8728374     
  -4753574183.0490236       -152074974.57086158        1008728933.8533633     
  -4619572699.5375328       -117729739.44586825        978148986.27114689     
  -4486752584.6728640       -87322399.810273886        953681411.51271760     
  -4355113838.4550123       -60852955.664078712        935326209.57807565     
  -4224656460.8839850       -38321407.007286787        923083380.46722007     
  -5214616453.3603687       -88371688.248157024        878996041.72036028     
  -5077333790.3212461       -86135109.225871086        855169212.23839581     
  -4937876039.2904854       -76648236.898127794        835163684.05452418     
  -4796243200.2680912       -59911071.264930964        818979457.16875041     
  -4652435273.2540588       -35923612.326279402        806616531.58106971     
  -5654747340.1137514       -18394986.858063459        734577135.79402745     
  -5520729416.1918287       -50230839.531935453        721419290.49051356     
  -5381179947.6398134       -63628210.105494738        709791674.95940256     
  -5236098934.4577017       -58587098.578741789        699694289.20069456     
  -5085486376.6455021       -35107504.951681137        691127133.21438777     
  -3384915709.2079630       -47862058.288540363        1158949429.7979245     
  -3293876357.6823511       -42530448.635623455        1151330314.2919283     
  -3201848025.5246544       -33902236.875759959        1146281366.4340751     
  -3108830712.7348742       -21977423.008946300        1143802586.2243640     
  -3014824419.3130069       -6756007.0351822376        1143893973.6627965     
  -3802149939.5352883       -42300888.994708061        1040527679.8728374     
  -3701550586.2235899       -33187835.024680376        1032261382.8761965     
  -3601035611.1167278       -24356041.737440825        1027906124.7629142     
  -3500605014.2147040       -15805509.132997990        1027461905.5329907     
  -3400258795.5175190       -7536237.2113475800        1030928725.1864268     
  -4224656460.8839850       -38321407.007286787        923083380.46722007     
  -4110666045.1141558       -24277590.518533230        912917650.00352335     
  -3997833366.3860846       -14092897.502312660        908003829.65840328     
  -3886158424.6997738       -7767327.9586248398        908341919.43185782     
  -3775641220.0552192       -5300881.8874676228        913931919.32388985     
  -4652435273.2540588       -35923612.326279402        806616531.58106971     
  -4521222734.3540459       -15799715.117183685        793299115.67391026     
  -4392241291.3327169       -3112804.1703662872        786574481.12054276     
  -4265490944.1900735        2137120.5141792297        786442627.92096651     
  -4140971692.9261065       -49941.063542604446        792903556.07518268     
  -5085486376.6455021       -35107504.951681137        691127133.21438777     
  -4933220653.9432650       -7754208.8206341267        673405779.88735485     
  -4784259385.9566326        8584238.2583987713        663618079.14933252     
  -4638602572.6856041        13907836.285417795        661764031.00031543     
  -4496250214.1301794        8216585.2604229450        667843635.44030762     
  -3014824419.3130069       -6756007.0351822376        1143893973.6627965     
  -2907526735.6261125        12966709.931031823        1132840888.2647624     
  -2800879208.0133119        30522239.983595848        1128591868.5001016     
  -2694881836.4746108        45910583.122494817        1131146914.3688169     
  -2589534621.0100060        59131739.347740173        1140506025.8709080     
  -3400258795.5175190       -7536237.2113475800        1030928725.1864268     
  -3279026650.4742103        6317856.1939885616        1022034370.9189709     
  -3158159109.4811110        18956602.765295863        1018409065.1909695     
  -3037656172.5382175        30380002.502573252        1020052808.0024197     
  -2917517839.6455340        40588055.405825615        1026965599.3533266     
  -3775641220.0552192       -5300881.8874676228        913931919.32388985     
  -3644860376.7809877        1368859.0193386078        907529440.21488261     
  -3514158585.5330749        7775093.1717436314        904860992.55140722     
  -3383535846.3114815        13917820.569754362        905926576.33346546     
  -3252992159.1162047        19797041.213365078        910726191.56105280     
  -4140971692.9261065       -49941.063542604446        792903556.07518268     
  -4005027914.5464392       -1880281.5929143429        789326096.15249610     
  -3868877636.1692080       -3022288.7970581055        787947650.58141994     
  -3732520857.7943974       -3475962.6759550571        788768219.36195338     
  -3595957579.4220304       -3241303.2296385765        791787802.49409950     
  -4496250214.1301794        8216585.2604229450        667843635.44030762     
  -4359529263.7705688       -3429565.6427633762        667424338.73181093     
  -4222316261.3895049       -13435543.141108751        667669039.28100300     
  -4084611206.9869776       -21801347.234573603        668577737.08788383     
  -3946414100.5629921       -28526977.923182964        670150432.15245712     
  -2589534621.0100060        59131739.347740173        1140506025.8709080     
  -2455487333.1965303        74174050.078270674        1111695603.7096004     
  -2325266065.4843650        76462960.471094489        1087809267.0959332     
  -2198870817.8735127        65998470.526211023        1068847016.0298951     
  -2076301590.3639750        42780580.243613243        1054808850.5114923     
  -2917517839.6455340        40588055.405825615        1026965599.3533266     
  -2767490182.1755447        56383829.555254102        993349760.25964415     
  -2619325882.9368949        65968409.600213647        966928551.48820877     
  -2473024941.9295764        69341795.540730596        947701973.03901911     
  -2328587359.1536078        66503987.376762509        935670024.91207278     
  -3252992159.1162047        19797041.213365078        910726191.56105280     
  -3080496861.2051001        38292460.017071486        874594707.71663380     
  -2907902259.6553597        57118890.949562192        847928398.96906996     
  -2735208354.4669852        76276334.010836363        830727265.31836498     
  -2562415145.6399746        95764789.200891376        822991306.76451254     
  -3595957579.4220304       -3241303.2296385765        791787802.49409950     
  -3394507370.2851992        19899941.463732958        755430446.08057761     
  -3190995195.6397662        49914404.519124866        730808809.53851926     
  -2985421055.4857235        86802085.936541557        717922892.86793137     
  -2777784949.8230739        130562985.71599388        716772696.06881034     
  -3946414100.5629921       -28526977.923182964        670150432.15245712     
  -3709521709.4158440        1206273.8952186108        635856975.35146523     
  -3468604690.8901129        44354950.308901548        615569783.19655359     
  -3223663044.9858036        100919051.31785119        609288855.68772054     
  -2974696771.7029037        170898576.92209065        617014192.82496572     
  -2076301590.3639750        42780580.243613243        1054808850.5114923     
  -2195898224.7978926       -36582490.653277278        1150766458.5588107     
  -2300786699.8104529       -66918363.478977680        1237852519.5467575     
  -2390967015.4016457       -48227038.233452678        1316067033.4753404     
  -2466439171.5714822        19491485.083261251        1385410000.3445532     
  -2328587359.1536078        66503987.376762509        935670024.91207278     
  -2473040693.5766225       -15954817.706897974        1050133230.3429230     
  -2610984772.0276356       -76716102.883902431        1155061844.5769370     
  -2742419594.5066552       -115779868.15425837        1250455867.6141138     
  -2867345161.0136862       -133146113.51797557        1336315299.4544585     
  -2562415145.6399746        95764789.200891376        822991306.76451254     
  -2733619591.8734183        9641926.3840622902        946394722.22130287     
  -2906513685.5842357       -82113094.690673351        1059600502.3437918     
  -3081097426.7724171       -179500274.02329993        1162608647.1319764     
  -3257370815.4379759       -282519611.61383486        1255419156.5858531     
  -2777784949.8230739        130562985.71599388        716772696.06881034     
  -2977634919.6882915        40207741.619595766        839550934.19394875     
  -3187373440.4802370       -83109338.899250865        951468492.84731281     
  -3407000512.1989198       -239388255.84054887        1052525372.0289072     
  -3636516134.8443470       -428629009.20431685        1142721571.7387266     
  -2974696771.7029037        170898576.92209065        617014192.82496572     
  -3205086677.0212278        75742627.999716878        729601866.26085937     
  -3453564036.7156534       -79704835.509657741        830665816.08751023     
  -3720128850.7861838       -295443813.60604894        920206042.30492401     
  -4004781119.2328115       -571474306.28943360        998222544.91308975     
  -2466439171.5714822        19491485.083261251        1385410000.3445532     
  -2084136435.5561736        176388826.16799641        1225632543.1932404     
  -1748291518.2287271        178426771.62651742        1102590981.1524532     
  -1458904419.5891483        25605321.458823800        1016285314.2221960     
  -1215975139.6374240       -282075524.33506739        966715542.40245295     
  -2867345161.0136862       -133146113.51797557        1336315299.4544585     
  -2407044945.6419005       -436830.89784240723        1135697869.7368128     
  -1970062034.5364840        54548104.167713523        963924465.59776378     
  -1556396427.6974390        31808691.678692698        820995087.03730643     
  -1166048125.1247773       -68655068.364905357        706909734.05544460     
  -3257370815.4379759       -282519611.61383486        1255419156.5858531     
  -2741621319.3723679       -180762847.05709839        1040959021.1269444     
  -2226048613.1516428       -79595381.983303547        847451041.71470225     
  -1710652696.7758026        20982783.607543230        674895218.34912610     
  -1195433570.2448401        120971649.71545047        523291551.03021640     
  -3636516134.8443470       -428629009.20431685        1142721571.7387266     
  -3087865556.7475786       -364589222.30977988        941415997.36363292     
  -2516251254.0742030       -224003686.82655144        753170709.50326896     
  -1921673226.8242130       -6872402.7546221018        577985708.15764260     
  -1304131474.9976301        286804629.90597814        415860993.32675314     
  -4004781119.2328115       -571474306.28943360        998222544.91308975     
  -3445777657.7675333       -551915956.65588140        837068798.44687974     
  -2840669957.3041577       -378676810.36200267        681083468.96346879     
  -2189458017.8426924       -51756867.407807708        530266556.46286380     
  -1492141839.3831241        428843872.20670789        384618060.94506931     
  -5958227532.5365477       -1787468259.7609644        1149938309.5250785     
  -6088623406.6546640       -1502517675.5081391        1227796526.0360770     
  -6221695326.0477076       -1226487242.1717396        1268302976.4837887     
  -6357443290.7156792       -959376959.75176692        1271457660.8682141     
  -6495867300.6585798       -701186828.24822021        1237260579.1893523     
  -6810953765.8162384       -2043286129.7448714        1353634889.5119717     
  -6828707283.1422958       -1395461995.1746244        1202636166.4996989     
  -6897852456.0783844       -918943379.30447960        1091897126.2405839     
  -7018389284.6245050       -613730282.13443899        1021417768.7346259     
  -7190317768.7806540       -479822703.66449857        991198093.98182619     
  -8338317632.6633635       -2501495289.7990088        1712318463.9686251     
  -8021681796.5789490       -1424273505.9258163        1275627922.7087944     
  -7805153226.4396687       -680742608.53640294        956808513.01856530     
  -7688731922.2455244       -270902597.63076925        755860234.89793789     
  -7672417883.9965076       -194753473.20890999        672783088.34691358     
  -10540319133.077919       -3162095739.9233756        2225989032.8950386     
  -9667546946.9646206       -1588952207.7617140        1446771794.6633635     
  -8943597637.1315594       -511884929.86750650        863037136.81773400     
  -8368471203.5787373        69106093.759243488        474785059.35815078     
  -7942167646.3061476        154020863.11854219        282015562.28461415     
  -13416958267.059906       -4025087480.1179714        2894646596.2912130     
  -11766302734.299311       -1889498100.6823173        1716067782.3634057     
  -10313185688.154057       -412370343.29779434        810582997.63808930     
  -9057607128.6241436        406295792.03559780        178192242.11526361     
  -7999567055.7095671        566500305.31786060       -181104484.20507160     
  -6495867300.6585798       -701186828.24822021        1237260579.1893523     
  -6239092741.2197657       -375506970.22532463        1053050790.6840804     
  -6013314561.3160219       -153148377.31933355        907866953.94976926     
  -5818532760.9473505       -34111049.530245543        801709068.98641789     
  -5654747340.1137514       -18394986.858063459        734577135.79402745     
  -7190317768.7806540       -479822703.66449857        991198093.98182619     
  -6900574715.0130215       -304704080.18938684        846815470.95413411     
  -6623587532.9135761       -172105028.94156003        723512176.68867624     
  -6359356222.4823179       -82025549.921018839        621288211.18545294     
  -6107880783.7192411       -34465643.127763748        540143574.44446230     
  -7672417883.9965076       -194753473.20890999        672783088.34691358     
  -7400982401.6392775       -185578904.00334597        589508223.30816877     
  -7124062283.0833483       -158122214.13545084        509366064.02292979     
  -6841657528.3287201       -112383403.60522223        432356610.49120009     
  -6553768137.3753891       -48362472.412661076        358479862.71297753     
  -7942167646.3061476        154020863.11854219        282015562.28461415     
  -7740315801.0985355       -18131441.667208195        281129047.74618149     
  -7514738811.8253384       -111199932.90100622        265428615.95253083     
  -7265436678.4865580       -125184610.58285713        234914266.90365875     
  -6992409401.0821886       -60085474.712753296        189586000.59957173     
  -7999567055.7095671        566500305.31786060       -181104484.20507160     
  -7918574913.3907928        197638306.81903076       -78322055.731825277     
  -7795617119.1395464       -31338185.238230228       -8300167.5225228444     
  -7630693672.9558296       -120429170.85391903        28961180.422834340     
  -7423804574.8396435       -69634650.028043270        33461988.104245663     
  -5654747340.1137514       -18394986.858063459        734577135.79402745     
  -5520729416.1918287       -50230839.531935453        721419290.49051356     
  -5381179947.6398134       -63628210.105494738        709791674.95940256     
  -5236098934.4577017       -58587098.578741789        699694289.20069456     
  -5085486376.6455021       -35107504.951681137        691127133.21438777     
  -6107880783.7192411       -34465643.127763748        540143574.44446230     
  -5959633902.9342833       -35955646.246464968        533676159.38813370     
  -5810552914.7790623       -34665291.464292049        529620977.63362318     
  -5660637819.2535839       -30594578.781250715        527978029.18092823     
  -5509888616.3578358       -23743508.197339535        528747314.03005004     
  -6553768137.3753891       -48362472.412661076        358479862.71297753     
  -6388772289.6433496       -18750622.950975418        353222534.43402869     
  -6227639771.8008842       -2016539.7878601551        351259442.98631293     
  -6070370583.8479891        1839777.0766801834        352590588.36982924     
  -5916964725.7846642       -7181672.3573477268        357215970.58457631     
  -6992409401.0821886       -60085474.712753296        189586000.59957173     
  -6808144576.3190289        1384230.3545317650        180058415.62819582     
  -6632440518.7052717        34318044.923799038        174707071.01747328     
  -6465297228.2409220        38715968.995056868        173531966.76739460     
  -6306714704.9259739        14578002.568300009        176533102.87796199     
  -7423804574.8396435       -69634650.028043270        33461988.104245663     
  -7217750762.9613209        24448913.670047760        14183802.970645621     
  -7024955155.4922352        74338462.670688629       -36138.272894843140     
  -6845417752.4323883        80033996.973870754       -9197835.6263704877     
  -6679138553.7817717        41535516.579602718       -13301289.089790318     
  -5085486376.6455021       -35107504.951681137        691127133.21438777     
  -4933220653.9432650       -7754208.8206341267        673405779.88735485     
  -4784259385.9566326        8584238.2583987713        663618079.14933252     
  -4638602572.6856041        13907836.285417795        661764031.00031543     
  -4496250214.1301794        8216585.2604229450        667843635.44030762     
  -5509888616.3578358       -23743508.197339535        528747314.03005004     
  -5344863649.1385880       -12202108.775712729        513630912.90891850     
  -5180404042.3397093       -2545244.0886502266        504044561.91403985     
  -5016509795.9611979        5227085.8638446331        499988261.04541308     
  -4853180910.0030613        11114881.081770182        501462010.30303955     
  -5916964725.7846642       -7181672.3573477268        357215970.58457631     
  -5746047949.6562738       -13512400.327499628        347900131.68045133     
  -5572957439.6530151       -12597348.714764833        341710740.43982136     
  -5397693195.7748947       -4436517.5191521645        338647796.86269099     
  -5220255218.0219116        10970093.259331942        338711300.94905686     
  -6306714704.9259739        14578002.568300009        176533102.87796199     
  -6136773555.4963121       -11685083.475991249        176213436.20194793     
  -5961919577.8965578       -21572075.619961023        176616614.72667825     
  -5782152772.1267014       -15082973.863592863        177742638.45215029     
  -5597473138.1867447        7782221.7930979729        179591507.37836418     
  -6679138553.7817717        41535516.579602718       -13301289.089790318     
  -6517040466.6587181       -6720158.2211925983       -1429173.5265839275     
  -6347290457.0703259       -29469424.804204702        8762184.7746078800     
  -6169888525.0166063       -26712283.169451952        17272785.813789185     
  -5984834670.4975548        1551266.6830680370        24102629.590957351     
  -4496250214.1301794        8216585.2604229450        667843635.44030762     
  -4359529263.7705688       -3429565.6427633762        667424338.73181093     
  -4222316261.3895049       -13435543.141108751        667669039.28100300     
  -4084611206.9869776       -21801347.234573603        668577737.08788383     
  -3946414100.5629921       -28526977.923182964        670150432.15245712     
  -4853180910.0030613        11114881.081770182        501462010.30303955     
  -4709591810.5409260        8473650.6006455421        498045115.71233207     
  -4567156310.9333267        1987087.2710978985        497169356.92232084     
  -4425874411.1802444       -8344808.9068641663        498834733.93300104     
  -4285746111.2816911       -22522037.933240891        503041246.74438006     
  -5220255218.0219116        10970093.259331942        338711300.94905686     
  -5064434716.4772425        18942759.094278097        330376881.28749073     
  -4911413466.6630926        17584585.827510834        326460735.96962869     
  -4761191468.5794430        6895573.4590704441        326962864.99546480     
  -4613768722.2263050       -13124278.011078119        331883268.36500382     
  -5597473138.1867447        7782221.7930979729        179591507.37836418     
  -5424057981.5795307        27977759.838107347        164419635.45729133     
  -5255087728.5788078        33356952.528137922        155543176.42292890     
  -5090562379.1845722        23919799.863210440        152962130.27527541     
  -4930481933.3968239       -333698.15667963028        156676497.01432645     
  -5984834670.4975548        1551266.6830680370        24102629.590957351     
  -5788461605.8477650        35578652.832165241        173378.22173651558     
  -5598179096.6804600        49304187.372990131       -15583321.717774745     
  -5413987142.9956207        42727870.305594444       -23167470.227570750     
  -5235885744.7932606        15849701.629934072       -22579067.307649974     
  -3946414100.5629921       -28526977.923182964        670150432.15245712     
  -3709521709.4158440        1206273.8952186108        635856975.35146523     
  -3468604690.8901129        44354950.308901548        615569783.19655359     
  -3223663044.9858036        100919051.31785119        609288855.68772054     
  -2974696771.7029037        170898576.92209065        617014192.82496572     
  -4285746111.2816911       -22522037.933240891        503041246.74438006     
  -4017000488.7583475        6396691.8721640110        475800582.39567262     
  -3744127137.5600224        49074517.260823727        459244105.69326961     
  -3467126057.6867323        105511438.23271394        453371816.63717079     
  -3185997249.1384602        175707454.78786600        458183715.22738248     
  -4613768722.2263050       -13124278.011078119        331883268.36500382     
  -4322661516.8975430        12132435.210092306        311815681.31436944     
  -4027323481.5974092        51491915.002499580        299110204.91026747     
  -3727754616.3259230        104954161.36609149        293766839.15269583     
  -3423954921.0830679        172519174.30091262        295785584.04165202     
  -4930481933.3968239       -333698.15667963028        156676497.01432645     
  -4626504793.8334293        18413503.909029961        143902272.10755786     
  -4318193723.0022831        51607143.533921242        135168080.84754375     
  -4005548720.9033813        99247220.717995644        130473923.23428088     
  -3688569787.5367198        161333735.46125269        129819799.26778090     
  -5235885744.7932606        15849701.629934072       -22579067.307649974     
  -4928530319.5660238        25239897.968924999       -27939645.224768814     
  -4616737861.7746286        49420202.855117321       -32582266.494903404     
  -4300508371.4191046        88390616.288405657       -36506931.118061669     
  -3979841848.4994230        142151138.26888394       -39713639.094238408     
  -2974696771.7029037        170898576.92209065        617014192.82496572     
  -3205086677.0212278        75742627.999716878        729601866.26085937     
  -3453564036.7156534       -79704835.509657741        830665816.08751023     
  -3720128850.7861838       -295443813.60604894        920206042.30492401     
  -4004781119.2328115       -571474306.28943360        998222544.91308975     
  -3185997249.1384602        175707454.78786600        458183715.22738248     
  -3450738572.7019696        75593587.391632080        544847434.71422553     
  -3723925544.2708831       -52672440.022634745        617754844.96182871     
  -4005558163.8452110       -209090627.45493579        676905945.97019279     
  -4295636431.4249477       -393660974.90528047        722300737.73932099     
  -3423954921.0830679        172519174.30091262        295785584.04165202     
  -3729426478.9774532        65533743.605141401        367774123.67858410     
  -4033701878.5065770       -37464492.539735794        423773768.44627565     
  -4336781119.6704159       -136475534.13366914        463784518.34473145     
  -4638664202.4689798       -231499381.17669559        487806373.37395144     
  -3688569787.5367198        161333735.46125269        129819799.26778090     
  -4041150395.8477092        45563096.640204430        198381933.15393564     
  -4382893039.4227352       -34080993.060973406        248722586.54085794     
  -4713797718.2618055       -77598533.642285347        280841759.42854095     
  -5033864432.3648958       -84989525.103682756        294739451.81699169     
  -3979841848.4994230        142151138.26888394       -39713639.094238408     
  -4385910323.3127184        15681646.496840954        36670863.140278243     
  -4771499027.0193701       -42521941.586379766        92601299.245570689     
  -5136607959.6193581       -32459625.980719328        128077669.22161220     
  -5481237121.1126957        45868593.313764811        143099973.06843561     
  -4004781119.2328115       -571474306.28943360        998222544.91308975     
  -3445777657.7675333       -551915956.65588140        837068798.44687974     
  -2840669957.3041577       -378676810.36200267        681083468.96346879     
  -2189458017.8426924       -51756867.407807708        530266556.46286380     
  -1492141839.3831241        428843872.20670789        384618060.94506931     
  -4295636431.4249477       -393660974.90528047        722300737.73932099     
  -3664519096.2604623       -297697841.86112165        590064842.01364720     
  -3022203497.9227209       -164407164.90611637        490500866.74826407     
  -2368689636.4117231        6211055.9597443342        423608811.94317126     
  -1703977511.7274709        214156820.73645687        389388677.59838498     
  -4638664202.4689798       -231499381.17669559        487806373.37395144     
  -3856851555.0981750       -35557033.169808626        343764689.92650622     
  -3098746620.3789573        81359605.998466969        259898430.41683367     
  -2364349398.3113270        119250536.32811415        236207594.84495100     
  -1653659888.8952789        78115757.819160581        272692183.21084607     
  -5033864432.3648958       -84989525.103682756        294739451.81699169     
  -4022775034.2806687        234506469.41807246        98168342.185452119     
  -3070299324.6728725        358623502.35173404       -10723840.030819833     
  -2176437303.5414925        287361573.69733691       -31937094.831817802     
  -1341188970.8865466        20720683.454823256        34528577.782447755     
  -5481237121.1126957        45868593.313764811        143099973.06843561     
  -4162289533.8079324        512492665.90253639       -146724201.20950952     
  -2936861610.8044405        667384524.15374517       -321365944.59469748     
  -1804953352.1022167        510544168.06737268       -380825257.08712882     
  -766564757.70126343        41971597.643464357       -325102138.68680328     
 </DataArray>
 <DataArray  type="Float64" Name="VM" NumberOfComponents="1" format="ascii">
   12936328863.357864     
   11341002706.738142     
   10210295335.255589     
   9272575061.2510490     
   8303261368.6430550     
   10130782804.619194     
   9322253425.4393578     
   8826458595.4670601     
   8443379705.5835419     
   8035148237.0325918     
   7982660015.9733934     
   7735149954.0538616     
   7669222556.1372442     
   7669489123.9502058     
   7666003281.9339142     
   6491869091.3127584     
   6586983915.3651543     
   6757426107.6307964     
   6961101762.6714239     
   7171348737.6114378     
   5657954565.2454519     
   5890932269.1167297     
   6116266105.2972326     
   6331517866.0330229     
   6536480673.7852459     
   8303261368.6430550     
   8020368215.9673605     
   7780008644.7354250     
   7571363630.0213261     
   7389460628.5781174     
   8035148237.0325918     
   7746584729.9426546     
   7473913527.3855381     
   7215142033.6639347     
   6970300264.5198088     
   7666003281.9339142     
   7380926341.9050312     
   7101348808.2056570     
   6827357886.0717239     
   6559175459.6586180     
   7171348737.6114378     
   6910819924.4401445     
   6658227153.7231083     
   6409719742.9795446     
   6162154553.7923851     
   6536480673.7852459     
   6328602438.0708828     
   6142893804.9506140     
   5965418937.2372494     
   5787166626.7108994     
   7389460628.5781174     
   7230047955.5913162     
   7062417814.3671188     
   6885802017.7241163     
   6700042467.8335161     
   6970300264.5198088     
   6815975465.9397278     
   6656547522.9074955     
   6491703729.3542852     
   6321415492.4073963     
   6559175459.6586180     
   6408686910.5157242     
   6256284233.9787569     
   6101928449.1836615     
   5945657159.4706326     
   6162154553.7923851     
   6013208567.6547489     
   5865475039.6855097     
   5718990650.0990171     
   5573807794.1404333     
   5787166626.7108994     
   5636044972.2422695     
   5489095006.6445465     
   5346224176.5562849     
   5207478816.6845951     
   6700042467.8335161     
   6513683449.3199368     
   6332625354.6857090     
   6156648537.8694572     
   5985756042.6759024     
   6321415492.4073963     
   6138531658.1481447     
   5959020025.2404575     
   5782826596.9488974     
   5609998773.6310434     
   5945657159.4706326     
   5770850036.2481623     
   5598044968.3667583     
   5427265566.4029522     
   5258576576.5712719     
   5573807794.1404333     
   5412388363.9305334     
   5252198572.9317551     
   5093288165.5579424     
   4935769791.4908943     
   5207478816.6845951     
   5065461375.9422064     
   4924575883.5080786     
   4784886106.2272682     
   4646646386.6392546     
   5985756042.6759024     
   5806332680.3216076     
   5623058056.3849220     
   5435625097.5983591     
   5243974317.6115141     
   5609998773.6310434     
   5445552505.0718822     
   5278724680.7031174     
   5109437801.3523540     
   4937777747.3175259     
   5258576576.5712719     
   5106098196.7156229     
   4952614095.4555578     
   4798180585.1861849     
   4642943147.8719034     
   4935769791.4908943     
   4792116552.9438896     
   4648604970.2624569     
   4505331195.0996351     
   4362425335.4573383     
   4646646386.6392546     
   4508538745.6068449     
   4371355844.2032614     
   4235146124.0219188     
   4099966316.3278718     
   5243974317.6115141     
   4941435508.9270458     
   4641988264.9489985     
   4345837929.7628288     
   4053371188.0167098     
   4937777747.3175259     
   4642434603.1087008     
   4350531099.7103910     
   4062373708.6234980     
   3778521618.4054151     
   4642943147.8719034     
   4362302275.9390364     
   4086289402.8412189     
   3815404300.5085979     
   3550548585.1633945     
   4362425335.4573383     
   4103801653.5744386     
   3851928484.7849174     
   3607569158.7057791     
   3372099041.0247831     
   4099966316.3278718     
   3870138229.3811626     
   3650180026.9263043     
   3441106776.4092526     
   3244767804.7188778     
   4053371188.0167098     
   4394231162.7175198     
   4753087710.2083216     
   5125258513.6248760     
   5509892454.0313845     
   3778521618.4054151     
   4078623029.3980484     
   4387154917.2067432     
   4700717288.1552896     
   5017948071.1320534     
   3550548585.1633945     
   3816162087.0918608     
   4081640144.5283022     
   4345079922.7789049     
   4605520006.8512354     
   3372099041.0247831     
   3614518060.4980102     
   3849559776.0671172     
   4077412784.4910212     
   4299022150.0811949     
   3244767804.7188778     
   3481096905.4912705     
   3705159701.8961945     
   3920190519.5253124     
   4131049435.1933303     
   5509892454.0313845     
   4448036735.2110147     
   3367551550.3524728     
   2207963968.6972661     
   968830201.74378908     
   5017948071.1320534     
   4148492535.1474223     
   3264471696.6434417     
   2334082377.3431115     
   1352990864.2808909     
   4605520006.8512354     
   3885093585.1117511     
   3172318395.3419485     
   2460426864.0481901     
   1758679219.4854312     
   4299022150.0811949     
   3670277063.4759030     
   3063599905.4304428     
   2482694851.5722685     
   1941440363.5759530     
   4131049435.1933303     
   3518276155.5515728     
   2920398843.8741484     
   2350879127.6783047     
   1869246464.1024456     
   5657954565.2454519     
   5890932269.1167297     
   6116266105.2972326     
   6331517866.0330229     
   6536480673.7852459     
   5151537228.0527773     
   5311294771.3529882     
   5467679249.7429562     
   5617809470.0427494     
   5760231188.8531551     
   4643522036.3208971     
   4755476912.5506954     
   4868551267.1767921     
   4980116959.7378159     
   5088254087.2480125     
   4134174868.9925232     
   4224317286.7934208     
   4320378944.4373465     
   4420702582.9863453     
   4523833003.0050955     
   3625015409.4258718     
   3719640603.7613916     
   3825522750.9219656     
   3942592679.8668246     
   4070753018.2404008     
   6536480673.7852459     
   6328602438.0708828     
   6142893804.9506140     
   5965418937.2372494     
   5787166626.7108994     
   5760231188.8531551     
   5652005694.0607548     
   5559762231.0985870     
   5474428411.2232695     
   5390464914.5743456     
   5088254087.2480125     
   5053885972.4196415     
   5030012324.9597187     
   5011425962.1383963     
   4994927112.2327948     
   4523833003.0050955     
   4538849825.9476748     
   4558514791.7188435     
   4580353048.6618690     
   4602643294.4015961     
   4070753018.2404008     
   4112240139.9998560     
   4151039035.4773674     
   4186261110.6608362     
   4217182165.3965745     
   5787166626.7108994     
   5636044972.2422695     
   5489095006.6445465     
   5346224176.5562849     
   5207478816.6845951     
   5390464914.5743456     
   5248175315.8205357     
   5109061597.8441420     
   4973165209.5149460     
   4840578781.1847486     
   4994927112.2327948     
   4866289910.3712864     
   4740812664.4046869     
   4618463327.6070414     
   4499282702.1331596     
   4602643294.4015961     
   4493055060.5329981     
   4387711860.4870911     
   4286294426.8992929     
   4188722104.7959900     
   4217182165.3965745     
   4132426637.8956618     
   4054287398.4243040     
   3981908784.7572317     
   3915025869.5285406     
   5207478816.6845951     
   5065461375.9422064     
   4924575883.5080786     
   4784886106.2272682     
   4646646386.6392546     
   4840578781.1847486     
   4717864040.3696499     
   4597196897.1888685     
   4478728550.7680454     
   4362743157.9999857     
   4499282702.1331596     
   4393019876.6471195     
   4289515366.4468255     
   4188956637.1611652     
   4091612780.9205117     
   4188722104.7959900     
   4095903135.9660368     
   4006259701.0373392     
   3919973265.4843860     
   3837269040.3813725     
   3915025869.5285406     
   3832495902.7520347     
   3753173770.8129082     
   3677205530.5229554     
   3604764093.1017175     
   4646646386.6392546     
   4508538745.6068449     
   4371355844.2032614     
   4235146124.0219188     
   4099966316.3278718     
   4362743157.9999857     
   4231055263.1076326     
   4101111439.4678931     
   3973061291.9402041     
   3847083293.5502687     
   4091612780.9205117     
   3969990864.6210022     
   3851365253.2823162     
   3736001748.1780605     
   3624226314.5440941     
   3837269040.3813725     
   3729133277.0723004     
   3625695453.6816926     
   3527334030.7899842     
   3434523163.2822132     
   3604764093.1017175     
   3513056579.1690650     
   3428192536.4755220     
   3350626763.3449030     
   3280940711.1777496     
   4099966316.3278718     
   3870138229.3811626     
   3650180026.9263043     
   3441106776.4092526     
   3244767804.7188778     
   3847083293.5502687     
   3647280145.2815013     
   3456365586.0970564     
   3275004443.9888377     
   3104368054.7629290     
   3624226314.5440941     
   3450164475.9951830     
   3283626359.8949952     
   3125082056.5456324     
   2975310977.0132089     
   3434523163.2822132     
   3283055606.6052437     
   3137334092.5153155     
   2997759450.0396748     
   2864967247.8583889     
   3280940711.1777496     
   3150341997.9954500     
   3023324761.6192083     
   2900312498.4732733     
   2782004481.2766967     
   3244767804.7188778     
   3481096905.4912705     
   3705159701.8961945     
   3920190519.5253124     
   4131049435.1933303     
   3104368054.7629290     
   3331994519.0980449     
   3552074424.2820649     
   3764676872.3846431     
   3970729593.6420927     
   2975310977.0132089     
   3191569388.1070399     
   3403551233.2294240     
   3609335148.6356473     
   3807655750.4080286     
   2864967247.8583889     
   3063505705.9822564     
   3259651164.7144156     
   3450749583.9332366     
   3635221567.0047812     
   2782004481.2766967     
   2952247638.8220625     
   3121052566.5151072     
   3286310556.7751470     
   3448167508.8125277     
   4131049435.1933303     
   3518276155.5515728     
   2920398843.8741484     
   2350879127.6783047     
   1869246464.1024456     
   3970729593.6420927     
   3346763839.3638158     
   2742233790.9572711     
   2163763022.2218275     
   1635807775.9360933     
   3807655750.4080286     
   3210041444.4333143     
   2634191350.1204796     
   2080653135.3183615     
   1552356585.9620790     
   3635221567.0047812     
   3108414854.0811672     
   2603657842.8747940     
   2120138557.6013584     
   1668379789.0880935     
   3448167508.8125277     
   3041197394.5080647     
   2654698174.5036268     
   2294541739.1326528     
   2004690364.7055640     
   3625015409.4258718     
   3719640603.7613916     
   3825522750.9219656     
   3942592679.8668246     
   4070753018.2404008     
   3137991322.2868333     
   3255481000.0003638     
   3382398155.3713627     
   3518270618.8759742     
   3662637846.6216936     
   2694743513.7501745     
   2830497474.9778037     
   2973578916.8738050     
   3122904411.7787504     
   3277561560.5430975     
   2298764596.7699919     
   2449483783.0197024     
   2604945275.3864136     
   2763227136.9551201     
   2922899388.5043039     
   1955270698.4446199     
   2119396837.8820329     
   2284902918.9076743     
   2448831625.2084160     
   2609226300.0946589     
   4070753018.2404008     
   4112240139.9998560     
   4151039035.4773674     
   4186261110.6608362     
   4217182165.3965745     
   3662637846.6216936     
   3701942231.7010503     
   3739828951.5901999     
   3775404674.9630852     
   3807923965.1217198     
   3277561560.5430975     
   3320592794.0776467     
   3363833513.3521395     
   3406462985.5748219     
   3447804145.8025637     
   2922899388.5043039     
   2975572759.0998206     
   3030443667.8892093     
   3086830029.2799015     
   3144198489.2899985     
   2609226300.0946589     
   2676923586.2902293     
   2749113986.4124126     
   2825288248.7113338     
   2905093089.9885874     
   4217182165.3965745     
   4132426637.8956618     
   4054287398.4243040     
   3981908784.7572317     
   3915025869.5285406     
   3807923965.1217198     
   3755382607.8398719     
   3708984089.8393283     
   3668259477.6715760     
   3633137922.3191576     
   3447804145.8025637     
   3422682505.1935124     
   3402833858.0953188     
   3388036807.9874229     
   3378290763.5559444     
   3144198489.2899985     
   3141933921.4242702     
   3143453858.8292027     
   3148665595.1106491     
   3157562000.5393863     
   2905093089.9885874     
   2921418980.6219039     
   2939231230.5738182     
   2958483803.9211912     
   2979143383.7303462     
   3915025869.5285406     
   3832495902.7520347     
   3753173770.8129082     
   3677205530.5229554     
   3604764093.1017175     
   3633137922.3191576     
   3559569258.7517529     
   3489966879.0747113     
   3424518635.1612644     
   3363442826.3105025     
   3378290763.5559444     
   3315995944.3982310     
   3258730809.7126780     
   3206709072.1605282     
   3160186982.0073891     
   3157562000.5393863     
   3108601198.8601670     
   3066032399.2709765     
   3030064468.2888570     
   3000968770.0993528     
   2979143383.7303462     
   2944969753.8189759     
   2918812001.7481933     
   2900826861.2451644     
   2891261928.0059042     
   3604764093.1017175     
   3513056579.1690650     
   3428192536.4755220     
   3350626763.3449030     
   3280940711.1777496     
   3363442826.3105025     
   3290933121.4196997     
   3225960298.1543989     
   3168968408.7561831     
   3120501098.9841347     
   3160186982.0073891     
   3106227920.8289795     
   3060413746.7479887     
   3023139986.3859525     
   2994871600.4134274     
   3000968770.0993528     
   2964461688.3360729     
   2936559092.1827631     
   2917575270.4392900     
   2907866078.1195846     
   2891261928.0059042     
   2870495196.3654685     
   2858599099.1958075     
   2855789542.0150189     
   2862303102.2892289     
   3280940711.1777496     
   3150341997.9954500     
   3023324761.6192083     
   2900312498.4732733     
   2782004481.2766967     
   3120501098.9841347     
   3006941105.2188563     
   2897798127.7418184     
   2793475774.4491663     
   2694513743.5865746     
   2994871600.4134274     
   2895350548.4749947     
   2800578412.2023902     
   2710891999.4814720     
   2626677475.1916862     
   2907866078.1195846     
   2818961935.4209428     
   2734569478.7962112     
   2654956536.6920371     
   2580421737.0674977     
   2862303102.2892289     
   2780293235.7452860     
   2701991724.4232163     
   2627638528.2789598     
   2557560442.8044267     
   2782004481.2766967     
   2952247638.8220625     
   3121052566.5151072     
   3286310556.7751470     
   3448167508.8125277     
   2694513743.5865746     
   2842886597.5122151     
   2989602318.1813631     
   3133462733.9606004     
   3274038788.6277981     
   2626677475.1916862     
   2767377665.3289347     
   2908144592.7818274     
   3048691976.7830081     
   3188795163.8741417     
   2580421737.0674977     
   2728020484.3264332     
   2879259217.8484979     
   3034993326.2100286     
   3196198139.1378865     
   2557560442.8044267     
   2725875106.6258516     
   2903251373.2978172     
   3091940182.7673874     
   3294985596.7307673     
   3448167508.8125277     
   3041197394.5080647     
   2654698174.5036268     
   2294541739.1326528     
   2004690364.7055640     
   3274038788.6277981     
   2973774582.5313158     
   2697970719.7795658     
   2451376489.6799259     
   2249498344.5513949     
   3188795163.8741417     
   2949297319.7754703     
   2728564164.4447956     
   2528625981.9995422     
   2352330414.2349248     
   3196198139.1378865     
   2968612742.1748285     
   2744425458.0898132     
   2525926203.8779531     
   2319794023.2286510     
   3294985596.7307673     
   3030673443.5076957     
   2746549975.7208481     
   2449447440.6858296     
   2169068099.4641862     
   1955270698.4446199     
   2119396837.8820329     
   2284902918.9076743     
   2448831625.2084160     
   2609226300.0946589     
   1653785492.0078187     
   1820352243.4821589     
   1988621430.2789774     
   2155897974.1375060     
   2320424936.9228759     
   1393663964.2534342     
   1571174412.2675755     
   1749674581.4427450     
   1927161259.7327492     
   2102384853.2174249     
   1207197771.4626200     
   1399271752.6133664     
   1590887198.6679957     
   1781267537.9017103     
   1969954578.1704683     
   1137009234.2944460     
   1335463591.1522288     
   1534168667.4728904     
   1733124463.2564297     
   1932330978.5028467     
   2609226300.0946589     
   2676923586.2902293     
   2749113986.4124126     
   2825288248.7113338     
   2905093089.9885874     
   2320424936.9228759     
   2407234781.4717221     
   2496501114.4636054     
   2587834547.0047212     
   2680959898.7789822     
   2102384853.2174249     
   2205924018.2044425     
   2309421053.4245386     
   2412640030.6827159     
   2515414354.8289208     
   1969954578.1704683     
   2086925730.6081433     
   2201127905.5054946     
   2312486126.0510383     
   2420948270.4045777     
   1932330978.5028467     
   2058807843.5892861     
   2179980729.0415630     
   2295849634.8596783     
   2406414561.0436296     
   2905093089.9885874     
   2921418980.6219039     
   2939231230.5738182     
   2958483803.9211912     
   2979143383.7303462     
   2680959898.7789822     
   2703922485.5906224     
   2729256268.0512214     
   2756947349.3685555     
   2786989446.7913747     
   2515414354.8289208     
   2544787830.2625413     
   2577434028.6748075     
   2613354695.7187824     
   2652554820.9454546     
   2420948270.4045777     
   2455153440.0971522     
   2493529860.2013574     
   2536080424.9766273     
   2582808704.4538865     
   2406414561.0436296     
   2442462159.7255645     
   2483570681.0037971     
   2529740124.8783283     
   2580970491.3491559     
   2979143383.7303462     
   2944969753.8189759     
   2918812001.7481933     
   2900826861.2451644     
   2891261928.0059042     
   2786989446.7913747     
   2768346995.5764217     
   2757462577.5978556     
   2754434557.5886765     
   2759409984.3802805     
   2652554820.9454546     
   2646040139.9931154     
   2646715689.6968813     
   2654624992.7040749     
   2669831639.0401077     
   2582808704.4538865     
   2584558392.0681982     
   2592631090.6748490     
   2607036345.6953869     
   2627788311.7937803     
   2580970491.3491559     
   2587040476.0212803     
   2598319238.8487682     
   2614806779.8316188     
   2636503098.9698339     
   2891261928.0059042     
   2870495196.3654685     
   2858599099.1958075     
   2855789542.0150189     
   2862303102.2892289     
   2759409984.3802805     
   2746177804.9419885     
   2740382861.9030709     
   2742120251.0453444     
   2751493768.6760669     
   2669831639.0401077     
   2660247561.0829420     
   2656479185.3087306     
   2658556129.8080583     
   2666510775.7089214     
   2627788311.7937803     
   2618536176.2532983     
   2613305894.9020009     
   2612101944.7486577     
   2614929240.8332624     
   2636503098.9698339     
   2625240843.1473246     
   2616079017.6459608     
   2609017622.4657412     
   2604056657.6066613     
   2862303102.2892289     
   2780293235.7452860     
   2701991724.4232163     
   2627638528.2789598     
   2557560442.8044267     
   2751493768.6760669     
   2670108892.3577237     
   2599278853.4717016     
   2539415450.2824540     
   2490969409.3517747     
   2666510775.7089214     
   2588891704.2325082     
   2528766027.4154267     
   2486496171.5953507     
   2462440778.8354521     
   2614929240.8332624     
   2540453244.1491623     
   2490449160.6283126     
   2465065174.7363238     
   2464436431.1112599     
   2604056657.6066613     
   2527732372.5829234     
   2483151995.9835887     
   2470315527.8086643     
   2489222968.0581393     
   2557560442.8044267     
   2725875106.6258516     
   2903251373.2978172     
   3091940182.7673874     
   3294985596.7307673     
   2490969409.3517747     
   2693770452.6697302     
   2894788301.5798864     
   3095288646.9201112     
   3296945158.2554212     
   2462440778.8354521     
   2688635500.2178693     
   2900792718.7381501     
   3099495513.3513951     
   3285524873.2069387     
   2464436431.1112599     
   2707307828.3962545     
   2922736566.9620667     
   3110880057.2648554     
   3271961816.5807662     
   2489222968.0581393     
   2746182373.2481170     
   2962007714.4862790     
   3136698991.7726297     
   3270256205.1071596     
   3294985596.7307673     
   3030673443.5076957     
   2746549975.7208481     
   2449447440.6858296     
   2169068099.4641862     
   3296945158.2554212     
   2956096016.1447792     
   2626445070.1142230     
   2315285972.4252009     
   2045112190.7582998     
   3285524873.2069387     
   2898181583.3990493     
   2551703620.8211455     
   2251931538.3547101     
   2012147792.9211850     
   3271961816.5807662     
   2858928777.8525996     
   2514481724.5751824     
   2240975788.6616349     
   2042522946.9038815     
   3270256205.1071596     
   2840134473.1461363     
   2506814723.2303367     
   2270296955.3597693     
   2130581169.5344458     
   1137009234.2944460     
   1335463591.1522288     
   1534168667.4728904     
   1733124463.2564297     
   1932330978.5028467     
   1207197771.6836565     
   1399271752.6158035     
   1590887198.4617929     
   1781267537.4863379     
   1969954577.5375025     
   1393663964.4984884     
   1571174412.1992159     
   1749674581.0555823     
   1927161259.0133626     
   2102384852.1450911     
   1653785492.1030238     
   1820352243.2699246     
   1988621429.7321343     
   2155897973.2262421     
   2320424935.6145444     
   1955270698.2638040     
   2119396837.4625657     
   2284902918.2084279     
   2448831624.1889863     
   2609226298.7164755     
   1932330978.5028467     
   2058807843.5892861     
   2179980729.0415630     
   2295849634.8596783     
   2406414561.0436296     
   1969954577.5375025     
   2086925730.4383645     
   2201127905.8631015     
   2312486127.0069776     
   2420948272.0319381     
   2102384852.1450911     
   2205924017.7869873     
   2309421053.7823992     
   2412640031.9440417     
   2515414357.1250157     
   2320424935.6145444     
   2407234780.7220058     
   2496501114.4358478     
   2587834547.8673820     
   2680959900.7049055     
   2609226298.7164755     
   2676923585.1251884     
   2749113985.6469836     
   2825288248.5323229     
   2905093090.5890212     
   2406414561.0436296     
   2442462159.7255645     
   2483570681.0037971     
   2529740124.8783283     
   2580970491.3491559     
   2420948272.0319381     
   2455153441.4175944     
   2493529861.3390760     
   2536080426.0500727     
   2582808705.5791011     
   2515414357.1250157     
   2544787832.1987257     
   2577434030.5292020     
   2613354697.7666497     
   2652554823.4623446     
   2680959900.7049055     
   2703922487.1982718     
   2729256269.7956352     
   2756947351.7135582     
   2786989450.2098188     
   2905093090.5890212     
   2921418980.8908186     
   2939231231.1548672     
   2958483805.4848371     
   2979143386.9695983     
   2580970491.3491559     
   2587040476.0212803     
   2598319238.8487682     
   2614806779.8316188     
   2636503098.9698339     
   2582808705.5791011     
   2584558394.1085010     
   2592631093.6220689     
   2607036349.5504775     
   2627788316.5613208     
   2652554823.4623446     
   2646040144.0229816     
   2646715695.1967545     
   2654624999.6484017     
   2669831647.4144297     
   2786989450.2098188     
   2768347000.8533807     
   2757462584.6328392     
   2754434566.3040719     
   2759409994.7188907     
   2979143386.9695983     
   2944969759.0922704     
   2918812008.8785892     
   2900826870.0787411     
   2891261938.4171762     
   2636503098.9698339     
   2625240843.1473246     
   2616079017.6459608     
   2609017622.4657412     
   2604056657.6066613     
   2627788316.5613208     
   2618536180.1080041     
   2613305897.2063351     
   2612101944.8709455     
   2614929238.1482286     
   2669831647.4144297     
   2660247568.3666902     
   2656479190.2954330     
   2658556131.2926111     
   2666510772.4868655     
   2759409994.7188907     
   2746177815.0774226     
   2740382870.1338673     
   2742120255.6454287     
   2751493767.8900452     
   2891261938.4171762     
   2870495208.7164202     
   2858599111.3617001     
   2855789551.7905674     
   2862303107.3757563     
   2604056657.6066613     
   2527732372.5829234     
   2483151995.9835887     
   2470315527.8086643     
   2489222968.0581393     
   2614929238.1482286     
   2540453244.2687755     
   2490449164.2471118     
   2465065182.5266738     
   2464436443.7442007     
   2666510772.4868655     
   2588891705.1485214     
   2528766033.8980074     
   2486496185.0697947     
   2462440800.7456040     
   2751493767.8900452     
   2670108895.2490296     
   2599278862.2032843     
   2539415467.0723619     
   2490969436.4874310     
   2862303107.3757563     
   2780293242.1606107     
   2701991734.9752340     
   2627638545.8922276     
   2557560470.5223756     
   2489222968.0581393     
   2746182373.2481170     
   2962007714.4862790     
   3136698991.7726297     
   3270256205.1071596     
   2464436443.7442007     
   2707307837.1876445     
   2922736571.8760772     
   3110880058.3639050     
   3271961814.1033964     
   2462440800.7456040     
   2688635516.8137612     
   2900792730.0981951     
   3099495519.5694413     
   3285524874.4742527     
   2490969436.4874310     
   2693770475.3190637     
   2894788320.0763988     
   3095288661.3544025     
   3296945168.4862647     
   2557560470.5223756     
   2725875132.8266330     
   2903251398.7357235     
   3091940207.5493941     
   3294985620.1534243     
   3270256205.1071596     
   2840134473.1461363     
   2506814723.2303367     
   2270296955.3597693     
   2130581169.5344458     
   3271961814.1033964     
   2858928818.5264511     
   2514481810.1544166     
   2240975920.9438257     
   2042523131.1551771     
   3285524874.4742527     
   2898181649.3889008     
   2551703759.4609323     
   2251931756.0037284     
   2012148093.1467600     
   3296945168.4862647     
   2956096089.1814513     
   2626445223.0309949     
   2315286218.4651995     
   2045112527.8487051     
   3294985620.1534243     
   3030673503.4793372     
   2746550098.4280739     
   2449447644.3349233     
   2169068370.2827206     
   1955270698.2638040     
   2119396837.4625657     
   2284902918.2084279     
   2448831624.1889863     
   2609226298.7164755     
   2298764596.3126025     
   2449483782.3435297     
   2604945274.4554930     
   2763227135.7404990     
   2922899386.9835081     
   2694743513.1255760     
   2830497474.1419649     
   2973578915.7971168     
   3122904410.4434061     
   3277561558.9415503     
   3137991321.6071601     
   3255480999.1003551     
   3382398154.2272887     
   3518270617.4799452     
   3662637844.9796271     
   3625015408.8013663     
   3719640602.8881226     
   3825522749.7810287     
   3942592678.4588394     
   4070753016.5834455     
   2609226298.7164755     
   2676923585.1251884     
   2749113985.6469836     
   2825288248.5323229     
   2905093090.5890212     
   2922899386.9835081     
   2975572757.3110781     
   3030443665.9053001     
   3086830027.1633320     
   3144198487.1000924     
   3277561558.9415503     
   3320592791.8757653     
   3363833510.5180583     
   3406462982.0558300     
   3447804141.5329947     
   3662637844.9796271     
   3701942229.3062243     
   3739828948.3223252     
   3775404670.6741695     
   3807923959.6450405     
   4070753016.5834455     
   4112240137.6273313     
   4151039032.1997256     
   4186261106.2595744     
   4217182159.6350837     
   2905093090.5890212     
   2921418980.8908186     
   2939231231.1548672     
   2958483805.4848371     
   2979143386.9695983     
   3144198487.1000924     
   3141933918.1427398     
   3143453854.9671273     
   3148665591.2111278     
   3157561997.1693225     
   3447804141.5329947     
   3422682499.1572080     
   3402833850.6821628     
   3388036799.6253128     
   3378290754.6974387     
   3807923959.6450405     
   3755382600.0957808     
   3708984080.1098313     
   3668259466.2823067     
   3633137909.6192813     
   4217182159.6350837     
   4132426629.5935621     
   4054287387.7702131     
   3981908771.9892006     
   3915025854.9053488     
   2979143386.9695983     
   2944969759.0922704     
   2918812008.8785892     
   2900826870.0787411     
   2891261938.4171762     
   3157561997.1693225     
   3108601195.8797994     
   3066032396.1400089     
   3030064464.4700136     
   3000968765.0607610     
   3378290754.6974387     
   3315995935.0828519     
   3258730799.0620656     
   3206709059.2701960     
   3160186965.9427705     
   3633137909.6192813     
   3559569245.6621895     
   3489966864.4289699     
   3424518617.7370176     
   3363442804.8175220     
   3915025854.9053488     
   3832495888.7570968     
   3753173756.0525622     
   3677205513.5237398     
   3604764072.2905207     
   2891261938.4171762     
   2870495208.7164202     
   2858599111.3617001     
   2855789551.7905674     
   2862303107.3757563     
   3000968765.0607610     
   2964461685.7422500     
   2936559091.4763737     
   2917575270.9958510     
   2907866079.2372398     
   3160186965.9427705     
   3106227906.5319433     
   3060413735.0185461     
   3023139978.0167809     
   2994871596.1928549     
   3363442804.8175220     
   3290933099.2034173     
   3225960277.1371384     
   3168968390.9486108     
   3120501086.5162935     
   3604764072.2905207     
   3513056552.9348006     
   3428192507.6198087     
   3350626734.8692355     
   3280940686.3570080     
   2862303107.3757563     
   2780293242.1606107     
   2701991734.9752340     
   2627638545.8922276     
   2557560470.5223756     
   2907866079.2372398     
   2818961939.0244346     
   2734569486.3868484     
   2654956549.8671770     
   2580421757.5263872     
   2994871596.1928549     
   2895350548.4599848     
   2800578416.6810360     
   2710892008.7934318     
   2626677489.7233863     
   3120501086.5162935     
   3006941099.7769856     
   2897798128.5546169     
   2793475780.7428498     
   2694513754.5510516     
   3280940686.3570080     
   3150341984.5366721     
   3023324757.8793821     
   2900312502.7658544     
   2782004491.7905126     
   2557560470.5223756     
   2725875132.8266330     
   2903251398.7357235     
   3091940207.5493941     
   3294985620.1534243     
   2580421757.5263872     
   2728020504.1782575     
   2879259237.5133772     
   3034993345.7499318     
   3196198158.1953926     
   2626677489.7233863     
   2767377679.9611769     
   2908144607.6190825     
   3048691991.8440723     
   3188795179.1279202     
   2694513754.5510516     
   2842886609.2484498     
   2989602330.4816980     
   3133462746.7777619     
   3274038802.1794143     
   2782004491.7905126     
   2952247650.9332132     
   3121052579.6876016     
   3286310570.8515244     
   3448167524.1406865     
   3294985620.1534243     
   3030673503.4793372     
   2746550098.4280739     
   2449447644.3349233     
   2169068370.2827206     
   3196198158.1953926     
   2968612751.8328919     
   2744425469.6277437     
   2525926226.8977561     
   2319794059.8946562     
   3188795179.1279202     
   2949297295.3278298     
   2728564097.2849331     
   2528625869.7003345     
   2352330256.0832224     
   3274038802.1794143     
   2973774546.7493744     
   2697970618.7673612     
   2451376304.8910785     
   2249498058.1299577     
   3448167524.1406865     
   3041197374.7611995     
   2654698094.3526011     
   2294541560.8212814     
   2004690034.9732196     
   3625015408.8013663     
   3719640602.8881226     
   3825522749.7810287     
   3942592678.4588394     
   4070753016.5834455     
   4134174868.4655461     
   4224317286.0146613     
   4320378943.3952675     
   4420702581.6801167     
   4523833001.4429436     
   4643522035.8591700     
   4755476911.8657827     
   4868551266.2649965     
   4980116958.5955734     
   5088254085.8721972     
   5151537227.6197433     
   5311294770.7573309     
   5467679248.9875193     
   5617809469.1206284     
   5760231187.7513399     
   5657954564.8075562     
   5890932268.6061325     
   6116266104.7218828     
   6331517865.3833618     
   6536480673.0420284     
   4070753016.5834455     
   4112240137.6273313     
   4151039032.1997256     
   4186261106.2595744     
   4217182159.6350837     
   4523833001.4429436     
   4538849823.8516684     
   4558514788.9539347     
   4580353045.0776901     
   4602643289.8445244     
   5088254085.8721972     
   5053885970.7065601     
   5030012322.8399010     
   5011425959.5273991     
   4994927109.0389166     
   5760231187.7513399     
   5652005692.7964087     
   5559762229.6700687     
   5474428409.6107922     
   5390464912.7390308     
   6536480673.0420284     
   6328602437.2921257     
   6142893804.1982031     
   5965418936.5543156     
   5787166626.1091928     
   4217182159.6350837     
   4132426629.5935621     
   4054287387.7702131     
   3981908771.9892006     
   3915025854.9053488     
   4602643289.8445244     
   4493055053.8176775     
   4387711851.6474333     
   4286294415.9942727     
   4188722091.8949819     
   4994927109.0389166     
   4866289905.6287737     
   4740812658.0285082     
   4618463319.5212193     
   4499282692.2638111     
   5390464912.7390308     
   5248175313.3308201     
   5109061594.5275240     
   4973165205.1984024     
   4840578775.6911125     
   5787166626.1091928     
   5636044972.2050123     
   5489095006.9390469     
   5346224176.9428291     
   5207478816.9128981     
   3915025854.9053488     
   3832495888.7570968     
   3753173756.0525622     
   3677205513.5237398     
   3604764072.2905207     
   4188722091.8949819     
   4095903125.3567462     
   4006259691.9861426     
   3919973257.1926236     
   3837269031.9739242     
   4499282692.2638111     
   4393019869.7385817     
   4289515362.2885041     
   4188956635.4948440     
   4091612781.4407153     
   4840578775.6911125     
   4717864037.2779455     
   4597196896.6837969     
   4478728553.0030956     
   4362743163.1129723     
   5207478816.9128981     
   5065461376.6462584     
   4924575885.1540909     
   4784886109.2597637     
   4646646391.5139914     
   3604764072.2905207     
   3513056552.9348006     
   3428192507.6198087     
   3350626734.8692355     
   3280940686.3570080     
   3837269031.9739242     
   3729133260.5151253     
   3625695430.3256626     
   3527334002.1291041     
   3434523131.0008674     
   4091612781.4407153     
   3969990855.7293000     
   3851365235.1206326     
   3736001720.9479823     
   3624226278.5233192     
   4362743163.1129723     
   4231055259.5883517     
   4101111426.4932094     
   3973061268.6723208     
   3847083259.1287723     
   4646646391.5139914     
   4508538745.0487318     
   4371355836.6680346     
   4235146107.9084125     
   4099966289.9604082     
   3280940686.3570080     
   3150341984.5366721     
   3023324757.8793821     
   2900312502.7658544     
   2782004491.7905126     
   3434523131.0008674     
   3283055585.5825300     
   3137334082.6025534     
   2997759451.1586738     
   2864967259.9250937     
   3624226278.5233192     
   3450164450.5120149     
   3283626346.1009150     
   3125082055.8092017     
   2975310990.9307103     
   3847083259.1287723     
   3647280119.3703489     
   3456365570.8975058     
   3275004442.1324129     
   3104368069.4978423     
   4099966289.9604082     
   3870138207.6400466     
   3650180012.8132601     
   3441106773.6689272     
   3244767818.2999115     
   2782004491.7905126     
   2952247650.9332132     
   3121052579.6876016     
   3286310570.8515244     
   3448167524.1406865     
   2864967259.9250937     
   3063505723.7187648     
   3259651186.5834899     
   3450749608.6618524     
   3635221593.5618253     
   2975310990.9307103     
   3191569411.6579194     
   3403551263.7575579     
   3609335183.7143149     
   3807655787.8466277     
   3104368069.4978423     
   3331994547.7505445     
   3552074462.9682474     
   3764676917.5041695     
   3970729642.0471611     
   3244767818.2999115     
   3481096937.8277497     
   3705159747.8489156     
   3920190574.3919048     
   4131049495.1375618     
   3448167524.1406865     
   3041197374.7611995     
   2654698094.3526011     
   2294541560.8212814     
   2004690034.9732196     
   3635221593.5618253     
   3108414876.3527217     
   2603657848.2590370     
   2120138525.1752512     
   1668379678.3343427     
   3807655787.8466277     
   3210041501.5179763     
   2634191425.7662091     
   2080653226.4675672     
   1552356683.9356802     
   3970729642.0471611     
   3346763919.9556966     
   2742233910.5933881     
   2163763190.5406308     
   1635808008.9553826     
   4131049495.1375618     
   3518276245.2045979     
   2920398974.3525076     
   2350879316.2567968     
   1869246740.8731868     
   5657954564.8075562     
   5890932268.6061325     
   6116266104.7218828     
   6331517865.3833618     
   6536480673.0420284     
   6491869090.6687670     
   6586983914.9598207     
   6757426107.4124298     
   6961101762.5674334     
   7171348737.5465927     
   7982660014.7607174     
   7735149953.3620253     
   7669222555.8814011     
   7669489124.0184593     
   7666003282.2243652     
   10130782802.485622     
   9322253424.0813618     
   8826458594.7968998     
   8443379705.4678535     
   8035148237.3591747     
   12936328859.954140     
   11341002704.353209     
   10210295333.820616     
   9272575060.6210003     
   8303261368.6904249     
   6536480673.0420284     
   6328602437.2921257     
   6142893804.1982031     
   5965418936.5543156     
   5787166626.1091928     
   7171348737.5465927     
   6910819924.4508419     
   6658227153.8718500     
   6409719743.3308830     
   6162154554.4042721     
   7666003282.2243652     
   7380926342.4305325     
   7101348809.0325813     
   6827357887.2734060     
   6559175461.3201265     
   8035148237.3591747     
   7746584730.7016029     
   7473913528.6600113     
   7215142035.5318346     
   6970300267.0784636     
   8303261368.6904249     
   8020368216.6624174     
   7780008646.2093582     
   7571363632.3664198     
   7389460631.8995075     
   5787166626.1091928     
   5636044972.2050123     
   5489095006.9390469     
   5346224176.9428291     
   5207478816.9128981     
   6162154554.4042721     
   6013208570.0087090     
   5865475043.6234093     
   5718990655.4561548     
   5573807800.7412710     
   6559175461.3201265     
   6408686914.7235641     
   6256284240.6036634     
   6101928458.0937796     
   5945657170.5329018     
   6970300267.0784636     
   6815975471.4679012     
   6656547531.2684965     
   6491703740.4103603     
   6321415506.0310268     
   7389460631.8995075     
   7230047961.9228020     
   7062417823.5372705     
   6885802029.5541306     
   6700042482.1611395     
   5207478816.9128981     
   5065461376.6462584     
   4924575885.1540909     
   4784886109.2597637     
   4646646391.5139914     
   5573807800.7412710     
   5412388368.8987474     
   5252198576.6511946     
   5093288168.4027309     
   4935769793.8431149     
   5945657170.5329018     
   5770850043.9176846     
   5598044972.9824848     
   5427265568.3074970     
   5258576576.1261034     
   6321415506.0310268     
   6138531666.9900599     
   5959020029.6332998     
   5782826597.2401047     
   5609998770.2055502     
   6700042482.1611395     
   6513683457.8550749     
   6332625357.7979269     
   6156648535.9478531     
   5985756036.1666517     
   4646646391.5139914     
   4508538745.0487318     
   4371355836.6680346     
   4235146107.9084125     
   4099966289.9604082     
   4935769793.8431149     
   4792116554.5088291     
   4648604969.6196136     
   4505331190.7675238     
   4362425325.8762722     
   5258576576.1261034     
   5106098201.5069685     
   4952614104.3096352     
   4798180596.8710079     
   4642943161.0713978     
   5609998770.2055502     
   5445552514.0898695     
   5278724701.3298721     
   5109437832.7161512     
   4937777788.4716797     
   5985756036.1666517     
   5806332694.4809008     
   5623058090.7794409     
   5435625151.8049917     
   5243974391.1689615     
   4099966289.9604082     
   3870138207.6400466     
   3650180012.8132601     
   3441106773.6689272     
   3244767818.2999115     
   4362425325.8762722     
   4103801644.9814935     
   3851928479.1048145     
   3607569158.4128485     
   3372099049.4782066     
   4642943161.0713978     
   4362302288.2166986     
   4086289415.2498393     
   3815404314.4101582     
   3550548602.4162250     
   4937777788.4716797     
   4642434643.6271420     
   4350531140.0046701     
   4062373749.2116084     
   3778521659.9756532     
   5243974391.1689615     
   4941435584.6312017     
   4641988342.8032484     
   4345838009.7578192     
   4053371270.1235619     
   3244767818.2999115     
   3481096937.8277497     
   3705159747.8489156     
   3920190574.3919048     
   4131049495.1375618     
   3372099049.4782066     
   3614518083.6168466     
   3849559811.9464521     
   4077412832.1424956     
   4299022209.2856827     
   3550548602.4162250     
   3816162107.4659886     
   4081640167.8006101     
   4345079949.7808771     
   4605520038.8345995     
   3778521659.9756532     
   4078623054.1525688     
   4387154925.1207733     
   4700717280.5654802     
   5017948049.6149855     
   4053371270.1235619     
   4394231198.9750061     
   4753087699.5193968     
   5125258457.1926365     
   5509892353.6633234     
   4131049495.1375618     
   3518276245.2045979     
   2920398974.3525076     
   2350879316.2567968     
   1869246740.8731868     
   4299022209.2856827     
   3670277147.4144197     
   3063600021.3324795     
   2482695009.7446871     
   1941440583.0682330     
   4605520038.8345995     
   3885093629.2599435     
   3172318456.4795427     
   2460426951.7936649     
   1758679355.5136492     
   5017948049.6149855     
   4148492509.5033507     
   3264471666.1112394     
   2334082344.9404984     
   1352990843.4724991     
   5509892353.6633234     
   4448036615.0642347     
   3367551398.8304057     
   2207963765.0261631     
   968829857.13304639     
 </DataArray>
 <DataArray  type="Float64" Name="strain" NumberOfComponents="3" format="ascii">
  0.20349053376800591        0.0000000000000000       0.12543468588139309     
  0.18665755510608378       -2.7339878656663423E-002   7.4362937262749271E-002
  0.16982457644416160       -4.4693089381682219E-002   3.5125263247852347E-002
  0.15299159778223945       -5.2059632175056381E-002   7.7216638367023326E-003
  0.13615861912031732       -4.9439507036785915E-002  -7.8478609707008234E-003
  0.15986150687791897        0.0000000000000000        9.6459524805570129E-002
  0.15318102142833742       -2.1855197935606627E-002   6.2693444470799553E-002
  0.14650053597875587       -3.6186572684106161E-002   3.7398275956963260E-002
  0.13982005052917432       -4.2994124245498574E-002   2.0574019264061310E-002
  0.13313956507959276       -4.2277852619783896E-002   1.2220674392093692E-002
  0.12646448410373567        0.0000000000000000        7.4200466823072714E-002
  0.12657332908368213       -1.6370517214549841E-002   5.5277210027637816E-002
  0.12668217406362861       -2.7680055986530096E-002   4.1461702270324668E-002
  0.12679101904357509       -3.3928616315940775E-002   3.2753943551133265E-002
  0.12689986402352157       -3.5116198202781855E-002   2.9153933870063608E-002
  0.10329946544545600        0.0000000000000000        5.8657511933900869E-002
  0.10683447807211792       -1.0885836493493048E-002   5.2114233933264149E-002
  0.11036949069877988       -1.9173539288954034E-002   4.7315542187936606E-002
  0.11390450332544180       -2.4863108386382966E-002   4.4261436697918231E-002
  0.11743951595210374       -2.7954543785779832E-002   4.2951917463209061E-002
   9.0366450903079959E-002   0.0000000000000000        4.9830660138054567E-002
   9.3964468393644779E-002  -5.4011557724362568E-003   5.3204516187678505E-002
   9.7562485884209613E-002  -1.0667022591377976E-002   5.4959795709799024E-002
  0.10116050337477445       -1.5797600456825159E-002   5.5096498704416172E-002
  0.10475852086533927       -2.0792889368777812E-002   5.3614625171529914E-002
  0.13615861912031732       -4.9439507036785915E-002  -7.8478609707008234E-003
  0.13296444007685884       -4.2886846352427913E-002  -3.3939557423881203E-003
  0.12977026103340034       -3.8455782507539421E-002  -3.5967392113425700E-004
  0.12657608198994186       -3.6146315502120503E-002   1.2549844930605826E-003
  0.12338190294648338       -3.5958445336171097E-002   1.4500195001965199E-003
  0.13313956507959276       -4.2277852619783896E-002   1.2220674392093692E-002
  0.12891460612703143       -3.8399388316615199E-002   1.2182258767181476E-002
  0.12468964717447008       -3.5720361845645671E-002   1.1501906731122523E-002
  0.12046468822190876       -3.4240773206875096E-002   1.0179618283916701E-002
  0.11623972926934739       -3.3960622400303758E-002   8.2153934255642380E-003
  0.12689986402352157       -3.5116198202781855E-002   2.9153933870063608E-002
  0.12242181215776951       -3.3911930280802478E-002   2.5545356399196948E-002
  0.11794376029201743       -3.2984941183751795E-002   2.2072529513095712E-002
  0.11346570842626537       -3.2335230911629743E-002   1.8735453211759717E-002
  0.10898765656051330       -3.1962799464436420E-002   1.5534127495189065E-002
  0.11743951595210374       -2.7954543785779832E-002   4.2951917463209061E-002
  0.11348605816907309       -2.9424472244989789E-002   3.6695337153658386E-002
  0.10953260038604240       -3.0249520521857989E-002   3.1352194424785124E-002
  0.10557914260301174       -3.0429688616384388E-002   2.6922489276589443E-002
  0.10162568481998110       -2.9964976528569054E-002   2.3406221709071230E-002
  0.10475852086533927       -2.0792889368777812E-002   5.3614625171529914E-002
  0.10210734416094214       -2.4937014209177079E-002   4.5632201030565617E-002
   9.9456167456545008E-002  -2.7514099859964176E-002   3.9340901466191000E-002
   9.6804990752147879E-002  -2.8524146321139039E-002   3.4740726478405891E-002
   9.4153814047750750E-002  -2.7967153592701716E-002   3.1831676067210463E-002
  0.12338190294648338       -3.5958445336171097E-002   1.4500195001965199E-003
  0.12041809051845614       -3.6496235651239800E-002   6.1463147117954420E-004
  0.11745427809042891       -3.6363750088875241E-002  -1.5659928640915366E-006
  0.11449046566240169       -3.5560988649077217E-002  -3.9857289193423462E-004
  0.11152665323437444       -3.4087951331846000E-002  -5.7638922603131526E-004
  0.11623972926934739       -3.3960622400303758E-002   8.2153934255642380E-003
  0.11347599733335664       -3.4063793344878857E-002   7.8025313955820408E-003
  0.11071226539736584       -3.3734169959547707E-002   7.5706397846994067E-003
  0.10794853346137509       -3.2971752244310301E-002   7.5197185929162698E-003
  0.10518480152538429       -3.1776540199166647E-002   7.6497678202330222E-003
  0.10898765656051330       -3.1962799464436420E-002   1.5534127495189065E-002
  0.10638578497068525       -3.1631351038517816E-002   1.5306309916714632E-002
  0.10378391338085718       -3.1104589830220089E-002   1.5221242611465978E-002
  0.10118204179102919       -3.0382515839543222E-002   1.5278925579443318E-002
   9.8580170201201134E-002  -2.9465129066487211E-002   1.5479358820646383E-002
  0.10162568481998110       -2.9964976528569054E-002   2.3406221709071230E-002
   9.9147453430442054E-002  -2.9198908732156824E-002   2.3125967034577352E-002
   9.6669222040902947E-002  -2.8475009700892541E-002   2.2950242487435595E-002
   9.4190990651363909E-002  -2.7793279434776198E-002   2.2879048067646034E-002
   9.1712759261824858E-002  -2.7153717933807844E-002   2.2912383775208503E-002
   9.4153814047750750E-002  -2.7967153592701716E-002   3.1831676067210463E-002
   9.1761002712626952E-002  -2.6766466425795825E-002   3.1261502749170174E-002
   8.9368191377503126E-002  -2.5845429571564944E-002   3.0757639412608201E-002
   8.6975380042379313E-002  -2.5204043030009178E-002   3.0320086057524599E-002
   8.4582568707255501E-002  -2.4842306801128394E-002   2.9948842683919341E-002
  0.11152665323437444       -3.4087951331846000E-002  -5.7638922603131526E-004
  0.10858374017687439       -3.2473199656751772E-002  -6.1930878302807191E-005
  0.10564082711937428       -3.1245295143364993E-002   3.7969464011450293E-004
  0.10269791406187420       -3.0404237791685537E-002   7.4848732922065675E-004
   9.9755001004374122E-002  -2.9950027601713336E-002   1.0444471890155294E-003
  0.10518480152538429       -3.1776540199166647E-002   7.6497678202330222E-003
  0.10222113368698416       -3.0489116356381976E-002   7.6359156530140665E-003
   9.9257465848584053E-002  -2.9450063248221539E-002   7.6533867533061656E-003
   9.6293798010183951E-002  -2.8659380874685104E-002   7.7021811211094582E-003
   9.3330130171783821E-002  -2.8117069235773007E-002   7.7822987564237500E-003
   9.8580170201201134E-002  -2.9465129066487211E-002   1.5479358820646383E-002
   9.5699903678723344E-002  -2.8505033056012097E-002   1.5075672565562845E-002
   9.2819637156245555E-002  -2.7654831353077974E-002   1.4807465674812781E-002
   8.9939370633767793E-002  -2.6914523957684781E-002   1.4674738148396607E-002
   8.7059104111290073E-002  -2.6284110869832594E-002   1.4677489986313866E-002
   9.1712759261824858E-002  -2.7153717933807844E-002   2.2912383775208503E-002
   8.9020050152091856E-002  -2.6520949755642342E-002   2.2257339859343733E-002
   8.6327341042358813E-002  -2.5859599457934576E-002   2.1841931404635022E-002
   8.3634631932625811E-002  -2.5169667040684487E-002   2.1666158411082277E-002
   8.0941922822892795E-002  -2.4451152503892223E-002   2.1730020878685429E-002
   8.4582568707255501E-002  -2.4842306801128394E-002   2.9948842683919341E-002
   8.2181573107089650E-002  -2.4536866455272463E-002   2.9180917534356740E-002
   7.9780577506923758E-002  -2.4064367562791032E-002   2.8756783942772271E-002
   7.7379581906757922E-002  -2.3424810123684199E-002   2.8676441909166302E-002
   7.4978586306592016E-002  -2.2618194137951853E-002   2.8939891433538562E-002
   9.9755001004374122E-002  -2.9950027601713336E-002   1.0444471890155294E-003
   9.6652253174556391E-002  -2.9535285302701636E-002   7.5131493363911339E-006
   9.3549505344738687E-002  -2.8812631623903920E-002  -6.7527685156212880E-004
   9.0446757514920970E-002  -2.7782066565319733E-002  -1.0039228136797668E-003
   8.7344009685103252E-002  -2.6443590126949301E-002  -9.7842473701681421E-004
   9.3330130171783821E-002  -2.8117069235773007E-002   7.7822987564237500E-003
   9.0540855038326123E-002  -2.7586585699141908E-002   7.1248511013445592E-003
   8.7751579904868371E-002  -2.6831387632448814E-002   6.7402048002044579E-003
   8.4962304771410674E-002  -2.5851475035693895E-002   6.6283598530037166E-003
   8.2173029637952921E-002  -2.4646847908876945E-002   6.7893162597418288E-003
   8.7059104111290073E-002  -2.6284110869832594E-002   1.4677489986313866E-002
   8.4501958989350826E-002  -2.5637886095582027E-002   1.4316331866110130E-002
   8.1944813867411592E-002  -2.4850143640993701E-002   1.4146632415004017E-002
   7.9387668745472317E-002  -2.3920883506067941E-002   1.4168391632995669E-002
   7.6830523623533098E-002  -2.2850105690804479E-002   1.4381609520085104E-002
   8.0941922822892795E-002  -2.4451152503892223E-002   2.1730020878685429E-002
   7.8535565027630497E-002  -2.3689186492022139E-002   2.1581955443632863E-002
   7.6129207232368254E-002  -2.2868899649538758E-002   2.1544005992836707E-002
   7.3722849437106025E-002  -2.1990291976442047E-002   2.1616172526296586E-002
   7.1316491641843727E-002  -2.1053363472731845E-002   2.1798455044012705E-002
   7.4978586306592016E-002  -2.2618194137951853E-002   2.8939891433538562E-002
   7.2641673153165220E-002  -2.1740486888462279E-002   2.8921721833913089E-002
   7.0304759999738439E-002  -2.0887655658083787E-002   2.8932325533702091E-002
   6.7967846846311603E-002  -2.0059700446816021E-002   2.8971702532905971E-002
   6.5630933692884835E-002  -1.9256621254659434E-002   2.9039852831524438E-002
   8.7344009685103252E-002  -2.6443590126949301E-002  -9.7842473701681421E-004
   8.2268370196563911E-002  -2.5063316318680084E-002  -1.2107168508076471E-003
   7.7192730708024626E-002  -2.3907359150400098E-002  -1.4118974257081862E-003
   7.2117091219485341E-002  -2.2975718622108371E-002  -1.5819664617184870E-003
   6.7041451730946000E-002  -2.2268394733805708E-002  -1.7209239588384939E-003
   8.2173029637952921E-002  -2.4646847908876945E-002   6.7893162597418288E-003
   7.7200480003384392E-002  -2.3439415644776362E-002   6.2357660460200526E-003
   7.2227930368815835E-002  -2.2451087636170847E-002   5.8572840013493277E-003
   6.7255380734247250E-002  -2.1681863883060863E-002   5.6538701257298624E-003
   6.2282831099678693E-002  -2.1131744385445406E-002   5.6255244191615317E-003
   7.6830523623533098E-002  -2.2850105690804479E-002   1.4381609520085104E-002
   7.2105020473096179E-002  -2.1815514970872585E-002   1.3512013590925881E-002
   6.7379517322659205E-002  -2.0994816121942261E-002   1.2961442460978606E-002
   6.2654014172222286E-002  -2.0388009144013022E-002   1.2729896130243605E-002
   5.7928511021785339E-002  -1.9995094037085159E-002   1.2817374598720510E-002
   7.1316491641843727E-002  -2.1053363472731845E-002   2.1798455044012705E-002
   6.6981991605699301E-002  -2.0191614296968946E-002   2.0618025783909984E-002
   6.2647491569554820E-002  -1.9538544607713509E-002   1.9900577953180065E-002
   5.8312991533410435E-002  -1.9094154404965459E-002   1.9646111551823203E-002
   5.3978491497265982E-002  -1.8858443688724885E-002   1.9854626579839343E-002
   6.5630933692884835E-002  -1.9256621254659434E-002   2.9039852831524438E-002
   6.1831393401193757E-002  -1.8567713623065224E-002   2.7553802624972146E-002
   5.8031853109502665E-002  -1.8082273093484563E-002   2.6674690477953428E-002
   5.4232312817811552E-002  -1.7800299665917875E-002   2.6402516390468686E-002
   5.0432772526120495E-002  -1.7721793340364722E-002   2.6737280362517601E-002
   6.7041451730946000E-002  -2.2268394733805708E-002  -1.7209239588384939E-003
   7.3176912987851284E-002  -2.2190912274791141E-002   1.5890720351228182E-003
   7.9312374244756512E-002  -2.3148796034362873E-002   4.0127245577746273E-003
   8.5447835501661795E-002  -2.5142046012521638E-002   5.5500336091173774E-003
   9.1583296758567023E-002  -2.8170662209267117E-002   6.2009991891505134E-003
   6.2282831099678693E-002  -2.1131744385445406E-002   5.6255244191615317E-003
   6.7580321660147491E-002  -2.0965136699433951E-002   8.5965509482200386E-003
   7.2877812220616373E-002  -2.1346448381135197E-002   1.0777979555715050E-002
   7.8175302781085157E-002  -2.2275679430548423E-002   1.2169810241646803E-002
   8.3472793341553997E-002  -2.3752829847674461E-002   1.2772043006014866E-002
   5.7928511021785339E-002  -1.9995094037085159E-002   1.2817374598720510E-002
   6.2484776435563674E-002  -1.9739361124077121E-002   1.5936878513750780E-002
   6.7041041849341926E-002  -1.9544100727907049E-002   1.8363530056963395E-002
   7.1597307263120274E-002  -1.9409312848575090E-002   2.0097329228358427E-002
   7.6153572676898568E-002  -1.9334997486081640E-002   2.1138276027935970E-002
   5.3978491497265982E-002  -1.8858443688724885E-002   1.9854626579839343E-002
   5.7890277314099597E-002  -1.8513585548720110E-002   2.3610054731715610E-002
   6.1802063130933317E-002  -1.7741753074679303E-002   2.6769376061519919E-002
   6.5713848947767037E-002  -1.6542946266601927E-002   2.9332590569252744E-002
   6.9625634764600708E-002  -1.4917165124488790E-002   3.1299698254913709E-002
   5.0432772526120495E-002  -1.7721793340364722E-002   2.6737280362517601E-002
   5.3796824295755497E-002  -1.7287809973363155E-002   3.1616079602114155E-002
   5.7160876065390470E-002  -1.5939405421451197E-002   3.5995517569384461E-002
   6.0524927835025485E-002  -1.3676579684628758E-002   3.9875594264329461E-002
   6.3888979604660501E-002  -1.0499332762895941E-002   4.3256309686948491E-002
   9.1583296758567023E-002  -2.8170662209267117E-002   6.2009991891505134E-003
   7.1933957705219043E-002  -2.9352992116922771E-002  -6.3580504974368734E-003
   5.2284618651871173E-002  -2.5807383227812536E-002  -1.3925861694750907E-002
   3.2635279598523276E-002  -1.7533835541935223E-002  -1.6502434402790755E-002
   1.2985940545175323E-002  -4.5323490592914517E-003  -1.4087768621557917E-002
   8.3472793341553997E-002  -2.3752829847674461E-002   1.2772043006014866E-002
   6.8218783509452985E-002  -2.4022316036682700E-002   4.2539601141154959E-003
   5.2964773677352001E-002  -2.1328554401742778E-002  -4.6470282456356760E-004
   3.7710763845250919E-002  -1.5671544942855227E-002  -1.3839458100221858E-003
   2.2456754013150060E-002  -7.0512876600199448E-003   1.4962311577395582E-003
   7.6153572676898568E-002  -1.9334997486081640E-002   2.1138276027935970E-002
   6.4103073529991200E-002  -1.8691639956442352E-002   1.4896468957906417E-002
   5.2052574383083847E-002  -1.6849725575673671E-002   1.1262263305043638E-002
   4.0002075236176569E-002  -1.3809254343775449E-002   1.0235659069347876E-002
   2.7951576089269181E-002  -9.5702262607477717E-003   1.1816656250819180E-002
   6.9625634764600708E-002  -1.4917165124488790E-002   3.1299698254913709E-002
   5.9586827766833689E-002  -1.3360963876202031E-002   2.5569476033935369E-002
   4.9548020769066753E-002  -1.2370896749604350E-002   2.1255036694070601E-002
   3.9509213771299685E-002  -1.1946963744695562E-002   1.8356380235319596E-002
   2.9470406773532784E-002  -1.2089164861475821E-002   1.6873506657681975E-002
   6.3888979604660501E-002  -1.0499332762895941E-002   4.3256309686948491E-002
   5.4670046219980506E-002  -8.0302877959619323E-003   3.6272981342202693E-002
   4.5451112835300539E-002  -7.8920679235349178E-003   2.9513617342516896E-002
   3.6232179450620614E-002  -1.0084673145615869E-002   2.2978217687892127E-002
   2.7013246065940688E-002  -1.4608103462204092E-002   1.6666782378327305E-002
   9.0366450903079959E-002   0.0000000000000000        4.9830660138054567E-002
   9.3964468393644779E-002  -5.4011557724362568E-003   5.3204516187678505E-002
   9.7562485884209613E-002  -1.0667022591377976E-002   5.4959795709799024E-002
  0.10116050337477445       -1.5797600456825159E-002   5.5096498704416172E-002
  0.10475852086533927       -2.0792889368777812E-002   5.3614625171529914E-002
   8.2427795307778939E-002   0.0000000000000000        4.4782913277945799E-002
   8.4636294599885642E-002  -4.5719527448747771E-003   4.8264926637767908E-002
   8.6844793891992358E-002  -9.0344240374310922E-003   5.0586480128177166E-002
   8.9053293184099089E-002  -1.3387413877668940E-002   5.1747573749173624E-002
   9.1261792476205764E-002  -1.7630922265588319E-002   5.1748207500757197E-002
   7.4245853490724309E-002   0.0000000000000000        4.0577273195986543E-002
   7.5522951242463471E-002  -3.7427497173133008E-003   4.4141636364830754E-002
   7.6800048994202619E-002  -7.4018254834842066E-003   4.7003656322352691E-002
   7.8077146745941767E-002  -1.0977227298512715E-002   4.9163333068552327E-002
   7.9354244497680929E-002  -1.4468955162398827E-002   5.0620666603429711E-002
   6.5820625451916082E-002   0.0000000000000000        3.7213739892176800E-002
   6.6624438321378238E-002  -2.9135466897518237E-003   4.0834645368867030E-002
   6.7428251190840394E-002  -5.7692269295373183E-003   4.4211324292325563E-002
   6.8232064060302577E-002  -8.5670407193564925E-003   4.7343776662552385E-002
   6.9035876929764706E-002  -1.1306988059209339E-002   5.0232002479547483E-002
   5.7152111191354230E-002   0.0000000000000000        3.4692313366516569E-002
   5.7940755836629949E-002  -2.0843436621903449E-003   3.8343953649876771E-002
   5.8729400481905683E-002  -4.1366283755904388E-003   4.2209484038095810E-002
   5.9518045127181417E-002  -6.1568541402002713E-003   4.6288904531173722E-002
   6.0306689772457137E-002  -8.1450209560198460E-003   5.0582215129110458E-002
  0.10475852086533927       -2.0792889368777812E-002   5.3614625171529914E-002
  0.10210734416094214       -2.4937014209177079E-002   4.5632201030565617E-002
   9.9456167456545008E-002  -2.7514099859964176E-002   3.9340901466191000E-002
   9.6804990752147879E-002  -2.8524146321139039E-002   3.4740726478405891E-002
   9.4153814047750750E-002  -2.7967153592701716E-002   3.1831676067210463E-002
   9.1261792476205764E-002  -1.7630922265588319E-002   5.1748207500757197E-002
   9.0063448299702628E-002  -2.1208079171840144E-002   4.6511802072020360E-002
   8.8865104123199479E-002  -2.3562014567075327E-002   4.2489937122481877E-002
   8.7666759946696329E-002  -2.4692728451293902E-002   3.9682612652141680E-002
   8.6468415770193208E-002  -2.4600220824495832E-002   3.8089828660999879E-002
   7.9354244497680929E-002  -1.4468955162398827E-002   5.0620666603429711E-002
   7.9132148751680481E-002  -1.7479144134503206E-002   4.7786462208324720E-002
   7.8910053005680034E-002  -1.9609929274186522E-002   4.5690214195026793E-002
   7.8687957259679586E-002  -2.0861310581448748E-002   4.4331922563535971E-002
   7.8465861513679139E-002  -2.1233288056289934E-002   4.3711587313852183E-002
   6.9035876929764706E-002  -1.1306988059209339E-002   5.0232002479547483E-002
   6.9313445516875710E-002  -1.3750209097166273E-002   4.9456181439478789E-002
   6.9591014103986715E-002  -1.5657843981297694E-002   4.8941732683825873E-002
   6.9868582691097705E-002  -1.7029892711603614E-002   4.8688656212588811E-002
   7.0146151278208724E-002  -1.7866355288084029E-002   4.8696952025767494E-002
   6.0306689772457137E-002  -8.1450209560198460E-003   5.0582215129110458E-002
   6.0607338595288301E-002  -1.0021274059829336E-002   5.1520959765482481E-002
   6.0907987418119473E-002  -1.1705758688408872E-002   5.2244492588879046E-002
   6.1208636240950624E-002  -1.3198474841758453E-002   5.2752813599300209E-002
   6.1509285063781796E-002  -1.4499422519878145E-002   5.3045922796745783E-002
   9.4153814047750750E-002  -2.7967153592701716E-002   3.1831676067210463E-002
   9.1761002712626952E-002  -2.6766466425795825E-002   3.1261502749170174E-002
   8.9368191377503126E-002  -2.5845429571564944E-002   3.0757639412608201E-002
   8.6975380042379313E-002  -2.5204043030009178E-002   3.0320086057524599E-002
   8.4582568707255501E-002  -2.4842306801128394E-002   2.9948842683919341E-002
   8.6468415770193208E-002  -2.4600220824495832E-002   3.8089828660999879E-002
   8.4191554296247528E-002  -2.3951083831424063E-002   3.7057332698130760E-002
   8.1914692822301904E-002  -2.3411909616821464E-002   3.6190426476139639E-002
   7.9637831348356253E-002  -2.2982698180688182E-002   3.5489109995026538E-002
   7.7360969874410615E-002  -2.2663449523024071E-002   3.4953383254791318E-002
   7.8465861513679139E-002  -2.1233288056289934E-002   4.3711587313852183E-002
   7.6404229660311296E-002  -2.1135701237052256E-002   4.2386456240360137E-002
   7.4342597806943439E-002  -2.0978389662078007E-002   4.1326194667145655E-002
   7.2280965953575610E-002  -2.0761353331367170E-002   4.0530802594208805E-002
   7.0219334100207725E-002  -2.0484592244919733E-002   4.0000280021549532E-002
   7.0146151278208724E-002  -1.7866355288084029E-002   4.8696952025767494E-002
   6.8399028804818227E-002  -1.8320318642680473E-002   4.7248873375858327E-002
   6.6651906331427757E-002  -1.8544869707334530E-002   4.6164943985626296E-002
   6.4904783858037288E-002  -1.8540008482046181E-002   4.5445163855071559E-002
   6.3157661384646832E-002  -1.8305734966815417E-002   4.5089532984193936E-002
   6.1509285063781796E-002  -1.4499422519878145E-002   5.3045922796745783E-002
   6.0175951729768321E-002  -1.5504936048308684E-002   5.1644584104625309E-002
   5.8842618395754866E-002  -1.6111349752591070E-002   5.0706674431581611E-002
   5.7509285061741411E-002  -1.6318663632725182E-002   5.0232193777614717E-002
   5.6175951727727935E-002  -1.6126877688711058E-002   5.0221142142724592E-002
   8.4582568707255501E-002  -2.4842306801128394E-002   2.9948842683919341E-002
   8.2181573107089650E-002  -2.4536866455272463E-002   2.9180917534356740E-002
   7.9780577506923758E-002  -2.4064367562791032E-002   2.8756783942772271E-002
   7.7379581906757922E-002  -2.3424810123684199E-002   2.8676441909166302E-002
   7.4978586306592016E-002  -2.2618194137951853E-002   2.8939891433538562E-002
   7.7360969874410615E-002  -2.2663449523024071E-002   3.4953383254791318E-002
   7.5274713635076096E-002  -2.2342785110827955E-002   3.4376295383802942E-002
   7.3188457395741591E-002  -2.1909326411098731E-002   3.4084894676498813E-002
   7.1102201156407072E-002  -2.1363073423836244E-002   3.4079181132879180E-002
   6.9015944917072553E-002  -2.0704026149040489E-002   3.4359154752943849E-002
   7.0219334100207725E-002  -2.0484592244919733E-002   4.0000280021549532E-002
   6.8389712827410548E-002  -2.0148703766383551E-002   3.9559765170043157E-002
   6.6560091554613399E-002  -1.9754285259406350E-002   3.9346833087927177E-002
   6.4730470281816208E-002  -1.9301336723988278E-002   3.9361483775201593E-002
   6.2900849009019072E-002  -1.8789858160129180E-002   3.9603717231866356E-002
   6.3157661384646832E-002  -1.8305734966815417E-002   4.5089532984193936E-002
   6.1526570684093014E-002  -1.7954622421939095E-002   4.4731326893077419E-002
   5.9895479983539196E-002  -1.7599244107714067E-002   4.4542599177057302E-002
   5.8264389282985371E-002  -1.7239600024140343E-002   4.4523349836133479E-002
   5.6633298582431553E-002  -1.6875690171217830E-002   4.4673578870305972E-002
   5.6175951727727935E-002  -1.6126877688711058E-002   5.0221142142724592E-002
   5.4685287205123459E-002  -1.5760541077494652E-002   4.9890980552905653E-002
   5.3194622682518983E-002  -1.5444202956021644E-002   4.9672192943889089E-002
   5.1703958159914506E-002  -1.5177863324292391E-002   4.9564779315674948E-002
   5.0213293637310030E-002  -1.4961522182306536E-002   4.9568739668263057E-002
   7.4978586306592016E-002  -2.2618194137951853E-002   2.8939891433538562E-002
   7.2641673153165220E-002  -2.1740486888462279E-002   2.8921721833913089E-002
   7.0304759999738439E-002  -2.0887655658083787E-002   2.8932325533702091E-002
   6.7967846846311603E-002  -2.0059700446816021E-002   2.8971702532905971E-002
   6.5630933692884835E-002  -1.9256621254659434E-002   2.9039852831524438E-002
   6.9015944917072553E-002  -2.0704026149040489E-002   3.4359154752943849E-002
   6.6741063741867196E-002  -1.9993801608727671E-002   3.4204131425786002E-002
   6.4466182566661839E-002  -1.9294016824913877E-002   3.4144398755656349E-002
   6.2191301391456469E-002  -1.8604671797598921E-002   3.4179956742554855E-002
   5.9916420216251126E-002  -1.7925766526782988E-002   3.4310805386481652E-002
   6.2900849009019072E-002  -1.8789858160129180E-002   3.9603717231866356E-002
   6.0754517169648636E-002  -1.8247116328993104E-002   3.9326276439788262E-002
   5.8608185330278187E-002  -1.7700377991743940E-002   3.9210643662351913E-002
   5.6461853490907772E-002  -1.7149643148381789E-002   3.9256818899557192E-002
   5.4315521651537323E-002  -1.6594911798906598E-002   3.9464802151404174E-002
   5.6633298582431553E-002  -1.6875690171217830E-002   4.4673578870305972E-002
   5.4682033436509556E-002  -1.6500431049258434E-002   4.4288156875919776E-002
   5.2730768290587537E-002  -1.6106739158574128E-002   4.4131060253788712E-002
   5.0779503144665492E-002  -1.5694614499164587E-002   4.4202289003912723E-002
   4.8828237998743522E-002  -1.5264057071030152E-002   4.4501843126291962E-002
   5.0213293637310030E-002  -1.4961522182306536E-002   4.9568739668263057E-002
   4.8523612542449898E-002  -1.4753745769523929E-002   4.9089772734180498E-002
   4.6833931447589794E-002  -1.4513100325404142E-002   4.8905648529966719E-002
   4.5144250352729662E-002  -1.4239585849947457E-002   4.9016367055621533E-002
   4.3454569257869557E-002  -1.3933202343153761E-002   4.9421928311145003E-002
   6.5630933692884835E-002  -1.9256621254659434E-002   2.9039852831524438E-002
   6.1831393401193757E-002  -1.8567713623065224E-002   2.7553802624972146E-002
   5.8031853109502665E-002  -1.8082273093484563E-002   2.6674690477953428E-002
   5.4232312817811552E-002  -1.7800299665917875E-002   2.6402516390468686E-002
   5.0432772526120495E-002  -1.7721793340364722E-002   2.6737280362517601E-002
   5.9916420216251126E-002  -1.7925766526782988E-002   3.4310805386481652E-002
   5.6674622867712063E-002  -1.7304202974545241E-002   3.2735319584132089E-002
   5.3432825519173013E-002  -1.6786883102964771E-002   3.1668381608552523E-002
   5.0191028170633985E-002  -1.6373806912041641E-002   3.1109991459743240E-002
   4.6949230822094901E-002  -1.6064974401776011E-002   3.1060149137704496E-002
   5.4315521651537323E-002  -1.6594911798906598E-002   3.9464802151404174E-002
   5.1533077013386858E-002  -1.6040692326025355E-002   3.7899104174613417E-002
   4.8750632375236372E-002  -1.5491493112445034E-002   3.6743563791829525E-002
   4.5968187737085900E-002  -1.4947314158165682E-002   3.5998181003052285E-002
   4.3185743098935386E-002  -1.4408155463187300E-002   3.5662955808282104E-002
   4.8828237998743522E-002  -1.5264057071030152E-002   4.4501843126291962E-002
   4.6406755838218051E-002  -1.4777181677505531E-002   4.3045156396416658E-002
   4.3985273677692636E-002  -1.4196103121925187E-002   4.1900237027784629E-002
   4.1563791517167221E-002  -1.3520821404289696E-002   4.1067085020395862E-002
   3.9142309356641744E-002  -1.2751336524598700E-002   4.0545700374250447E-002
   4.3454569257869557E-002  -1.3933202343153761E-002   4.9421928311145003E-002
   4.1295659342205721E-002  -1.3513671028985486E-002   4.8173476249541380E-002
   3.9136749426541856E-002  -1.2900713131405547E-002   4.7138401316417666E-002
   3.6977839510878019E-002  -1.2094328650413527E-002   4.6316703511773874E-002
   3.4818929595214154E-002  -1.1094517586009933E-002   4.5708382835609795E-002
   5.0432772526120495E-002  -1.7721793340364722E-002   2.6737280362517601E-002
   5.3796824295755497E-002  -1.7287809973363155E-002   3.1616079602114155E-002
   5.7160876065390470E-002  -1.5939405421451197E-002   3.5995517569384461E-002
   6.0524927835025485E-002  -1.3676579684628758E-002   3.9875594264329461E-002
   6.3888979604660501E-002  -1.0499332762895941E-002   4.3256309686948491E-002
   4.6949230822094901E-002  -1.6064974401776011E-002   3.1060149137704496E-002
   4.9828287267599691E-002  -1.5558303178558830E-002   3.6380539452097321E-002
   5.2707343713104454E-002  -1.4551710848782234E-002   4.1230300390555502E-002
   5.5586400158609231E-002  -1.3045197412445468E-002   4.5609431953078594E-002
   5.8465456604114036E-002  -1.1038762869549135E-002   4.9517934139667152E-002
   4.3185743098935386E-002  -1.4408155463187300E-002   3.5662955808282104E-002
   4.5608536116700904E-002  -1.3828796383754810E-002   4.1010437119120891E-002
   4.8031329134466373E-002  -1.3164016276113175E-002   4.5916020950415790E-002
   5.0454122152231842E-002  -1.2413815140262293E-002   5.0379707302167252E-002
   5.2876915169997304E-002  -1.1578192976202217E-002   5.4401496174374536E-002
   3.9142309356641744E-002  -1.2751336524598700E-002   4.0545700374250447E-002
   4.1137570843058947E-002  -1.2099289588950526E-002   4.5505772603184759E-002
   4.3132832329476116E-002  -1.1776321703444108E-002   5.0052679248966045E-002
   4.5128093815893319E-002  -1.1782432868079116E-002   5.4186420311594340E-002
   4.7123355302310488E-002  -1.2117623082855411E-002   5.7906995791070129E-002
   3.4818929595214154E-002  -1.1094517586009933E-002   4.5708382835609795E-002
   3.6415391446673995E-002  -1.0369782794146493E-002   4.9866545904288739E-002
   3.8011853298133808E-002  -1.0388627130775055E-002   5.3640275286205547E-002
   3.9608315149593662E-002  -1.1151050595895721E-002   5.7029570981360675E-002
   4.1204777001053489E-002  -1.2657053189508383E-002   6.0034432989753972E-002
   6.3888979604660501E-002  -1.0499332762895941E-002   4.3256309686948491E-002
   5.4670046219980506E-002  -8.0302877959619323E-003   3.6272981342202693E-002
   4.5451112835300539E-002  -7.8920679235349178E-003   2.9513617342516896E-002
   3.6232179450620614E-002  -1.0084673145615869E-002   2.2978217687892127E-002
   2.7013246065940688E-002  -1.4608103462204092E-002   1.6666782378327305E-002
   5.8465456604114036E-002  -1.1038762869549135E-002   4.9517934139667152E-002
   4.9641478206538886E-002  -9.3628395861897751E-003   4.0794693643325303E-002
   4.0817499808963820E-002  -8.8478599284636250E-003   3.2637398776132642E-002
   3.1993521411388698E-002  -9.4938238963713853E-003   2.5046049538089157E-002
   2.3169543013813632E-002  -1.1300731489912952E-002   1.8020645929194945E-002
   5.2876915169997304E-002  -1.1578192976202217E-002   5.4401496174374536E-002
   4.4789873043616049E-002  -1.0695391376417507E-002   4.5108224995310225E-002
   3.6702830917234787E-002  -9.8036519333923322E-003   3.6722880729484181E-002
   2.8615788790853577E-002  -8.9029746471271792E-003   2.9245463376896139E-002
   2.0528746664472269E-002  -7.9933595176215899E-003   2.2675972937546862E-002
   4.7123355302310488E-002  -1.2117623082855411E-002   5.7906995791070129E-002
   4.0115230731212037E-002  -1.2027943166645405E-002   4.9213575398157162E-002
   3.3107106160113600E-002  -1.0759443938321206E-002   4.1770063202571248E-002
   2.6098981589015191E-002  -8.3121253978827234E-003   3.5576459204313335E-002
   1.9090857017916775E-002  -4.6859875453303945E-003   3.0632763403381738E-002
   4.1204777001053489E-002  -1.2657053189508383E-002   6.0034432989753972E-002
   3.5617551269326808E-002  -1.3360494956873192E-002   5.3110744851866565E-002
   3.0030325537600142E-002  -1.1715235943249747E-002   4.7778946195395022E-002
   2.4443099805873468E-002  -7.7212761486385173E-003   4.4039037020340094E-002
   1.8855874074146850E-002  -1.3786155730390881E-003   4.1891017326701308E-002
   5.7152111191354230E-002   0.0000000000000000        3.4692313366516569E-002
   5.7940755836629949E-002  -2.0843436621903449E-003   3.8343953649876771E-002
   5.8729400481905683E-002  -4.1366283755904388E-003   4.2209484038095810E-002
   5.9518045127181417E-002  -6.1568541402002713E-003   4.6288904531173722E-002
   6.0306689772457137E-002  -8.1450209560198460E-003   5.0582215129110458E-002
   4.8651917733115210E-002   0.0000000000000000        3.2790571612478440E-002
   4.9589310904253392E-002  -1.7095903929477199E-003   3.6966547596179705E-002
   5.0526704075391567E-002  -3.4321408288093113E-003   4.1226130526747014E-002
   5.1464097246529741E-002  -5.1676513075847655E-003   4.5569320404180387E-002
   5.2401490417667923E-002  -6.9161218292740989E-003   4.9996117228479825E-002
   4.0731652101275453E-002   0.0000000000000000        3.1286092623535003E-002
   4.1687510640283296E-002  -1.3348371237050941E-003   3.5941385315873195E-002
   4.2643369179291131E-002  -2.7276532820281829E-003   4.0550001797084657E-002
   4.3599227718298973E-002  -4.1784484749692631E-003   4.5111942067169383E-002
   4.4555086257306815E-002  -5.6872227025283415E-003   4.9627206126127379E-002
   3.3391314295834959E-002   0.0000000000000000        3.0178876399686243E-002
   3.4235355044719668E-002  -9.6008385446246826E-004   3.5268466808957254E-002
   3.5079395793604383E-002  -2.0231657352470559E-003   4.0181097849108734E-002
   3.5923436542489091E-002  -3.1892456423537599E-003   4.4916769520140697E-002
   3.6767477291373793E-002  -4.4583235757825876E-003   4.9475481822053108E-002
   2.6630904316793731E-002   0.0000000000000000        2.9468922940932181E-002
   2.7232844117562514E-002  -5.8533058521984243E-004   3.4947792075431874E-002
   2.7834783918331302E-002  -1.3186781884659288E-003   4.0119418682819249E-002
   2.8436723719100093E-002  -2.2000428097382566E-003   4.4983802763094292E-002
   2.9038663519868873E-002  -3.2294244490368345E-003   4.9540944316257045E-002
   6.0306689772457137E-002  -8.1450209560198460E-003   5.0582215129110458E-002
   6.0607338595288301E-002  -1.0021274059829336E-002   5.1520959765482481E-002
   6.0907987418119473E-002  -1.1705758688408872E-002   5.2244492588879046E-002
   6.1208636240950624E-002  -1.3198474841758453E-002   5.2752813599300209E-002
   6.1509285063781796E-002  -1.4499422519878145E-002   5.3045922796745783E-002
   5.2401490417667923E-002  -6.9161218292740989E-003   4.9996117228479825E-002
   5.2526177971527616E-002  -8.5777203540001092E-003   5.1222143859319141E-002
   5.2650865525387315E-002  -1.0052614841885603E-002   5.2311459765191005E-002
   5.2775553079247008E-002  -1.1340805292930594E-002   5.3264064946095369E-002
   5.2900240633106707E-002  -1.2442291707135060E-002   5.4079959402032265E-002
   4.4555086257306815E-002  -5.6872227025283415E-003   4.9627206126127379E-002
   4.4582313630203013E-002  -7.1341666481708841E-003   5.1135450313044603E-002
   4.4609541003099211E-002  -8.3994709953623351E-003   5.2585484863002317E-002
   4.4636768375995416E-002  -9.4831357441026980E-003   5.3977309776000508E-002
   4.4663995748891600E-002  -1.0385160894391992E-002   5.5310925052039217E-002
   3.6767477291373793E-002  -4.4583235757825876E-003   4.9475481822053108E-002
   3.6775745571314480E-002  -5.6906129423416529E-003   5.1260879126658769E-002
   3.6784013851255154E-002  -6.7463271488390564E-003   5.3066567882312933E-002
   3.6792282131195835E-002  -7.6254661952748241E-003   5.4892548089015523E-002
   3.6800550411136536E-002  -8.3280300816489222E-003   5.6738819746766651E-002
   2.9038663519868873E-002  -3.2294244490368345E-003   4.9540944316257045E-002
   2.9106473794862017E-002  -4.2470592365124338E-003   5.1598430300161750E-002
   2.9174284069855165E-002  -5.0931833023157959E-003   5.3754708823122881E-002
   2.9242094344848302E-002  -5.7677966464469215E-003   5.6009779885140477E-002
   2.9309904619841447E-002  -6.2708992689058524E-003   5.8363643486214534E-002
   6.1509285063781796E-002  -1.4499422519878145E-002   5.3045922796745783E-002
   6.0175951729768321E-002  -1.5504936048308684E-002   5.1644584104625309E-002
   5.8842618395754866E-002  -1.6111349752591070E-002   5.0706674431581611E-002
   5.7509285061741411E-002  -1.6318663632725182E-002   5.0232193777614717E-002
   5.6175951727727935E-002  -1.6126877688711058E-002   5.0221142142724592E-002
   5.2900240633106707E-002  -1.2442291707135060E-002   5.4079959402032265E-002
   5.1977196496225939E-002  -1.3293617901309163E-002   5.3354638548111968E-002
   5.1054152359345205E-002  -1.3831327692262982E-002   5.2986467069380247E-002
   5.0131108222464471E-002  -1.4055421079996593E-002   5.2975444965837185E-002
   4.9208064085583703E-002  -1.3965898064509943E-002   5.3321572237482739E-002
   4.4663995748891600E-002  -1.0385160894391992E-002   5.5310925052039217E-002
   4.4044961165255400E-002  -1.1082299754309603E-002   5.5176138615391078E-002
   4.3425926581619201E-002  -1.1551305631934947E-002   5.5292221910043418E-002
   4.2806891997983001E-002  -1.1792178527268018E-002   5.5659174935996147E-002
   4.2187857414346802E-002  -1.1804918440308808E-002   5.6276997693249453E-002
   3.6800550411136536E-002  -8.3280300816489222E-003   5.6738819746766651E-002
   3.6379245736856691E-002  -8.8709816073100495E-003   5.7109084306462679E-002
   3.5957941062576895E-002  -9.2712835716068781E-003   5.7623938953571020E-002
   3.5536636388297085E-002  -9.5289359745394358E-003   5.8283383688091717E-002
   3.5115331714017262E-002  -9.6439388161076965E-003   5.9087418510024699E-002
   2.9309904619841447E-002  -6.2708992689058524E-003   5.8363643486214534E-002
   2.8980050211029847E-002  -6.6596634603105082E-003   5.9153475621326779E-002
   2.8650195802218250E-002  -6.9912615112788234E-003   5.9981618199963255E-002
   2.8320341393406646E-002  -7.2656934218108676E-003   6.0848071222123823E-002
   2.7990486984595053E-002  -7.4829591919065436E-003   6.1752834687808497E-002
   5.6175951727727935E-002  -1.6126877688711058E-002   5.0221142142724592E-002
   5.4685287205123459E-002  -1.5760541077494652E-002   4.9890980552905653E-002
   5.3194622682518983E-002  -1.5444202956021644E-002   4.9672192943889089E-002
   5.1703958159914506E-002  -1.5177863324292391E-002   4.9564779315674948E-002
   5.0213293637310030E-002  -1.4961522182306536E-002   4.9568739668263057E-002
   4.9208064085583703E-002  -1.3965898064509943E-002   5.3321572237482739E-002
   4.7846329447744307E-002  -1.3723470633143303E-002   5.2927744491932022E-002
   4.6484594809904911E-002  -1.3488850773236829E-002   5.2680402535109146E-002
   4.5122860172065522E-002  -1.3262038484790580E-002   5.2579546367014118E-002
   4.3761125534226106E-002  -1.3043033767804552E-002   5.2625175987646766E-002
   4.2187857414346802E-002  -1.1804918440308808E-002   5.6276997693249453E-002
   4.0990164469197954E-002  -1.1686400188791947E-002   5.5861694710250237E-002
   3.9792471524049126E-002  -1.1533498590451928E-002   5.5627989323904378E-002
   3.8594778578900285E-002  -1.1346213645288820E-002   5.5575881534211703E-002
   3.7397085633751423E-002  -1.1124545353302609E-002   5.5705371341172406E-002
   3.5115331714017262E-002  -9.6439388161076965E-003   5.9087418510024699E-002
   3.4116792269484442E-002  -9.6493297444405664E-003   5.8692831207860348E-002
   3.3118252824951622E-002  -9.5781464076670139E-003   5.8514953310274752E-002
   3.2119713380418795E-002  -9.4303888057870062E-003   5.8553784817267945E-002
   3.1121173935885978E-002  -9.2060569388006594E-003   5.8809325728839887E-002
   2.7990486984595053E-002  -7.4829591919065436E-003   6.1752834687808497E-002
   2.7226212848603742E-002  -7.6122593000892275E-003   6.1421153984762347E-002
   2.6461938712612404E-002  -7.6227942248821880E-003   6.1341294494220412E-002
   2.5697664576621076E-002  -7.5145639662852837E-003   6.1513256216182643E-002
   2.4933390440629755E-002  -7.2875685242987098E-003   6.1937039150649159E-002
   5.0213293637310030E-002  -1.4961522182306536E-002   4.9568739668263057E-002
   4.8523612542449898E-002  -1.4753745769523929E-002   4.9089772734180498E-002
   4.6833931447589794E-002  -1.4513100325404142E-002   4.8905648529966719E-002
   4.5144250352729662E-002  -1.4239585849947457E-002   4.9016367055621533E-002
   4.3454569257869557E-002  -1.3933202343153761E-002   4.9421928311145003E-002
   4.3761125534226106E-002  -1.3043033767804552E-002   5.2625175987646766E-002
   4.2360522340218337E-002  -1.2813127133158672E-002   5.2259812646215834E-002
   4.0959919146210590E-002  -1.2553609091732733E-002   5.2177762376620862E-002
   3.9559315952202800E-002  -1.2264479643526860E-002   5.2379025178861935E-002
   3.8158712758195074E-002  -1.1945738788540994E-002   5.2863601052938997E-002
   3.7397085633751423E-002  -1.1124545353302609E-002   5.5705371341172406E-002
   3.6274030682563421E-002  -1.0872508496793387E-002   5.5450353967835729E-002
   3.5150975731375413E-002  -1.0594117858061271E-002   5.5467120008302589E-002
   3.4027920780187404E-002  -1.0289373437106182E-002   5.5755669462572974E-002
   3.2904865828999375E-002  -9.9582752339283376E-003   5.6316002330646667E-002
   3.1121173935885978E-002  -9.2060569388006594E-003   5.8809325728839887E-002
   3.0264137569485115E-002  -8.9318898604281993E-003   5.8661396699040531E-002
   2.9407101203084290E-002  -8.6346266243898361E-003   5.8773721425012103E-002
   2.8550064836683424E-002  -8.3142672306856548E-003   5.9146299906754532E-002
   2.7693028470282578E-002  -7.9708116793155703E-003   5.9779132144267930E-002
   2.4933390440629755E-002  -7.2875685242987098E-003   6.1937039150649159E-002
   2.4330843000983482E-002  -6.9912712240628588E-003   6.1892940839830074E-002
   2.3728295561337209E-002  -6.6751353907183522E-003   6.2097566626749298E-002
   2.3125748121690933E-002  -6.3391610242649072E-003   6.2550916511406707E-002
   2.2523200682044664E-002  -5.9833481247029696E-003   6.3252990493802452E-002
   4.3454569257869557E-002  -1.3933202343153761E-002   4.9421928311145003E-002
   4.1295659342205721E-002  -1.3513671028985486E-002   4.8173476249541380E-002
   3.9136749426541856E-002  -1.2900713131405547E-002   4.7138401316417666E-002
   3.6977839510878019E-002  -1.2094328650413527E-002   4.6316703511773874E-002
   3.4818929595214154E-002  -1.1094517586009933E-002   4.5708382835609795E-002
   3.8158712758195074E-002  -1.1945738788540994E-002   5.2863601052938997E-002
   3.6191001108384011E-002  -1.1556607554792195E-002   5.1787277666266243E-002
   3.4223289458573017E-002  -1.1056306970297414E-002   5.0879973682819296E-002
   3.2255577808761995E-002  -1.0444837035056581E-002   5.0141689102598350E-002
   3.0287866158951002E-002  -9.7221977490697387E-003   4.9572423925603043E-002
   3.2904865828999375E-002  -9.9582752339283376E-003   5.6316002330646667E-002
   3.1083994719787206E-002  -9.5995440805988763E-003   5.5329550386238865E-002
   2.9263123610575051E-002  -9.2119008091892871E-003   5.4467760119802831E-002
   2.7442252501362917E-002  -8.7953454196995819E-003   5.3730631531338724E-002
   2.5621381392150727E-002  -8.3498779121296274E-003   5.3118164620846550E-002
   2.7693028470282578E-002  -7.9708116793155703E-003   5.9779132144267930E-002
   2.5974640176415306E-002  -7.6424806064054607E-003   5.8800294409459081E-002
   2.4256251882548013E-002  -7.3674946480811569E-003   5.7901760627368272E-002
   2.2537863588680734E-002  -7.1458538043424986E-003   5.7083530797995177E-002
   2.0819475294813448E-002  -6.9775580751895022E-003   5.6345604921340164E-002
   2.2523200682044664E-002  -5.9833481247029696E-003   6.3252990493802452E-002
   2.0862937478268284E-002  -5.6854171322122671E-003   6.2199509735927000E-002
   1.9202674274491870E-002  -5.5230884869730545E-003   6.1181975205515410E-002
   1.7542411070715466E-002  -5.4963621889855888E-003   6.0200386902567793E-002
   1.5882147866939075E-002  -5.6052382382493215E-003   5.9254744827083983E-002
   3.4818929595214154E-002  -1.1094517586009933E-002   4.5708382835609795E-002
   3.6415391446673995E-002  -1.0369782794146493E-002   4.9866545904288739E-002
   3.8011853298133808E-002  -1.0388627130775055E-002   5.3640275286205547E-002
   3.9608315149593662E-002  -1.1151050595895721E-002   5.7029570981360675E-002
   4.1204777001053489E-002  -1.2657053189508383E-002   6.0034432989753972E-002
   3.0287866158951002E-002  -9.7221977490697387E-003   4.9572423925603043E-002
   3.1586405772314446E-002  -9.1430422112454557E-003   5.3110819124628783E-002
   3.2884945385677898E-002  -8.9620235204923709E-003   5.6437803534223605E-002
   3.4183484999041377E-002  -9.1791416768102520E-003   5.9553377154387681E-002
   3.5482024612404822E-002  -9.7943966801991023E-003   6.2457539985120714E-002
   2.5621381392150727E-002  -8.3498779121296274E-003   5.3118164620846550E-002
   2.6795021664748828E-002  -7.9163016283447935E-003   5.6382234231640085E-002
   2.7968661937346970E-002  -7.5354199102097355E-003   5.9607915950333955E-002
   2.9142302209945084E-002  -7.2072327577248924E-003   6.2795209776927957E-002
   3.0315942482543205E-002  -6.9317401708898774E-003   6.5944115711421947E-002
   2.0819475294813448E-002  -6.9775580751895022E-003   5.6345604921340164E-002
   2.2041239123977190E-002  -6.6895610454438051E-003   5.9680791225322743E-002
   2.3263002953140946E-002  -6.1088162999271035E-003   6.3150612534536479E-002
   2.4484766782304712E-002  -5.2353238386394227E-003   6.6755068848981469E-002
   2.5706530611468444E-002  -4.0690836615806247E-003   7.0494160168657394E-002
   1.5882147866939075E-002  -5.6052382382493215E-003   5.9254744827083983E-002
   1.7325058149999503E-002  -5.4628204625431498E-003   6.3006490105676549E-002
   1.8767968433059896E-002  -4.6822126896444022E-003   6.7065893286831296E-002
   2.0210878716120321E-002  -3.2634149195541438E-003   7.1432954370548238E-002
   2.1653788999180718E-002  -1.2064271522713166E-003   7.6107673356827277E-002
   4.1204777001053489E-002  -1.2657053189508383E-002   6.0034432989753972E-002
   3.5617551269326808E-002  -1.3360494956873192E-002   5.3110744851866565E-002
   3.0030325537600142E-002  -1.1715235943249747E-002   4.7778946195395022E-002
   2.4443099805873468E-002  -7.7212761486385173E-003   4.4039037020340094E-002
   1.8855874074146850E-002  -1.3786155730390881E-003   4.1891017326701308E-002
   3.5482024612404822E-002  -9.7943966801991023E-003   6.2457539985120714E-002
   3.1211444775793254E-002  -9.9747790490917199E-003   5.7623569968244859E-002
   2.6940864939181644E-002  -8.8872793019203200E-003   5.3831002260182753E-002
   2.2670285102570062E-002  -6.5318974386850900E-003   5.1079836860934605E-002
   1.8399705265958466E-002  -2.9086334593863006E-003   4.9370073770500511E-002
   3.0315942482543205E-002  -6.9317401708898774E-003   6.5944115711421947E-002
   2.6811521368444183E-002  -6.5890631413101919E-003   6.2119045150633545E-002
   2.3307100254345205E-002  -6.0593226605908379E-003   5.8784889726056375E-002
   1.9802679140246228E-002  -5.3425187287318293E-003   5.5941649437690880E-002
   1.6298258026147164E-002  -4.4386513457334020E-003   5.3589324285536699E-002
   2.5706530611468444E-002  -4.0690836615806247E-003   7.0494160168657394E-002
   2.2417781047279678E-002  -3.2033472335286917E-003   6.6597170399032346E-002
   1.9129031483090881E-002  -3.2313660192613836E-003   6.2640608593016012E-002
   1.5840281918902032E-002  -4.1531400187784853E-003   5.8624474750608856E-002
   1.2551532354713280E-002  -5.9686692320805590E-003   5.4548768871810441E-002
   2.1653788999180718E-002  -1.2064271522713166E-003   7.6107673356827277E-002
   1.8030223812299684E-002   1.8236867425280856E-004   7.1057945713440929E-002
   1.4406658625418622E-002  -4.0340937793185982E-004   6.5398158861061345E-002
   1.0783093438537540E-002  -2.9637613088251795E-003   5.9128312799687957E-002
   7.1595282516564995E-003  -7.4986871184277160E-003   5.2248407529321694E-002
   2.6630904316793731E-002   0.0000000000000000        2.9468922940932181E-002
   2.7232844117562514E-002  -5.8533058521984243E-004   3.4947792075431874E-002
   2.7834783918331302E-002  -1.3186781884659288E-003   4.0119418682819249E-002
   2.8436723719100093E-002  -2.2000428097382566E-003   4.4983802763094292E-002
   2.9038663519868873E-002  -3.2294244490368345E-003   4.9540944316257045E-002
   2.0113638247326097E-002   0.0000000000000000        2.9021516124423642E-002
   2.0447524915347431E-002  -4.3899793887676192E-004   3.4316419754956605E-002
   2.0781411583368770E-002  -9.8900864188632663E-004   3.9382459647106995E-002
   2.1115298251390108E-002  -1.6500321090286872E-003   4.4219635800874797E-002
   2.1449184919411446E-002  -2.4220683403038540E-003   4.8827948216260027E-002
   1.3502732170606392E-002   0.0000000000000000        2.8701939827311462E-002
   1.3646944494610016E-002  -2.9266529253368185E-004   3.3849882207771145E-002
   1.3791156818613639E-002  -6.5933909530672356E-004   3.8847339638577984E-002
   1.3935369142617265E-002  -1.1000214083191221E-003   4.3694312119731994E-002
   1.4079581466620892E-002  -1.6147122315708800E-003   4.8390799651233128E-002
   6.7981860866346208E-003   0.0000000000000000        2.8510194049595636E-002
   6.8311028553502693E-003  -1.4633264619060200E-004   3.3548179433875495E-002
   6.8640196240659177E-003  -3.2966954872711918E-004   3.8514058657232224E-002
   6.8969363927815653E-003  -5.5001070760955480E-004   4.3407831719665863E-002
   6.9298531614972137E-003  -8.0735612283789932E-004   4.8229498621176384E-002
  -4.5892213640374990E-012   0.0000000000000000        2.8446278791276172E-002
  -2.4318108290954932E-012   1.5247872409140939E-013   3.3411311433269628E-002
  -2.7440137835565981E-013  -2.1475182743202481E-012   3.8382616703069715E-002
   1.8830090481661288E-012  -6.8999840563410686E-012   4.3360194600676430E-002
   4.0404194746879174E-012  -1.4104925560864956E-011   4.8344045126089766E-002
   2.9038663519868873E-002  -3.2294244490368345E-003   4.9540944316257045E-002
   2.9106473794862017E-002  -4.2470592365124338E-003   5.1598430300161750E-002
   2.9174284069855165E-002  -5.0931833023157959E-003   5.3754708823122881E-002
   2.9242094344848302E-002  -5.7677966464469215E-003   5.6009779885140477E-002
   2.9309904619841447E-002  -6.2708992689058524E-003   5.8363643486214534E-002
   2.1449184919411446E-002  -2.4220683403038540E-003   4.8827948216260027E-002
   2.1586851456535532E-002  -3.1852944321253177E-003   5.1226444953262326E-002
   2.1724517993659612E-002  -3.8198874809065777E-003   5.3665861675470029E-002
   2.1862184530783698E-002  -4.3258474866475927E-003   5.6146198382883192E-002
   2.1999851067907788E-002  -4.7031744493484101E-003   5.8667455075501765E-002
   1.4079581466620892E-002  -1.6147122315708800E-003   4.8390799651233128E-002
   1.4229231712024904E-002  -2.1235296277382154E-003   5.1087429462701006E-002
   1.4378881957428920E-002  -2.5465916594973313E-003   5.3767106705523308E-002
   1.4528532202832931E-002  -2.8838983268482418E-003   5.6429831379700049E-002
   1.4678182448236947E-002  -3.1354496297909470E-003   5.9075603485231179E-002
   6.9298531614972137E-003  -8.0735612283789932E-004   4.8229498621176384E-002
   7.0336145613301461E-003  -1.0617648233511062E-003   5.1181383828477846E-002
   7.1373759611630758E-003  -1.2732958380881128E-003   5.4058443913282711E-002
   7.2411373609960056E-003  -1.4419491670489227E-003   5.6860678875590959E-002
   7.3448987608289371E-003  -1.5677248102334874E-003   5.9588088715402651E-002
   4.0404194746879174E-012  -1.4104925560864956E-011   4.8344045126089766E-002
   4.4512518670991597E-012  -1.8964004845634097E-011   5.1508308050592783E-002
   4.8620840426699674E-012  -1.6678870090602871E-011   5.4539873298748202E-002
   5.2729163266609924E-012  -7.2495559902407969E-012   5.7438740870556032E-002
   5.6837486106520174E-012   9.3239582721338365E-012   6.0204910766016237E-002
   2.9309904619841447E-002  -6.2708992689058524E-003   5.8363643486214534E-002
   2.8980050211029847E-002  -6.6596634603105082E-003   5.9153475621326779E-002
   2.8650195802218250E-002  -6.9912615112788234E-003   5.9981618199963255E-002
   2.8320341393406646E-002  -7.2656934218108676E-003   6.0848071222123823E-002
   2.7990486984595053E-002  -7.4829591919065436E-003   6.1752834687808497E-002
   2.1999851067907788E-002  -4.7031744493484101E-003   5.8667455075501765E-002
   2.1719345391056126E-002  -4.9947475897819844E-003   5.9506730802277960E-002
   2.1438839714204468E-002  -5.2434461287214212E-003   6.0406393549449870E-002
   2.1158334037352802E-002  -5.4492700661666650E-003   6.1366443317017530E-002
   2.0877828360501147E-002  -5.6122194021177157E-003   6.2386880104980905E-002
   1.4678182448236947E-002  -3.1354496297909470E-003   5.9075603485231179E-002
   1.4469102080216829E-002  -3.3298317192535162E-003   5.9950031264729073E-002
   1.4260021712196709E-002  -3.4956307461640052E-003   6.0906922641494360E-002
   1.4050941344176587E-002  -3.6328467105224624E-003   6.1946277615526971E-002
   1.3841860976156473E-002  -3.7414796123288394E-003   6.3068096186826877E-002
   7.3448987608289371E-003  -1.5677248102334874E-003   5.9588088715402651E-002
   7.2293202785119574E-003  -1.6649158487250203E-003   6.0483377008680214E-002
   7.1137417961949813E-003  -1.7478153636066238E-003   6.1483205476096696E-002
   6.9981633138779982E-003  -1.8164233548782459E-003   6.2587574117652131E-002
   6.8825848315610264E-003  -1.8707398225399734E-003   6.3796482933346485E-002
   5.6837486106520174E-012   9.3239582721338365E-012   6.0204910766016237E-002
  -1.4058487013413057E-011   2.1803475691584140E-011   6.1106768034131273E-002
  -3.3800720902754655E-011   1.8950816610407983E-011   6.2135242053256858E-002
  -5.3542954792096253E-011   7.6593679315672958E-013   6.3290332823393011E-002
  -7.3285190416161328E-011  -3.2751121259444460E-011   6.4572040344539686E-002
   2.7990486984595053E-002  -7.4829591919065436E-003   6.1752834687808497E-002
   2.7226212848603742E-002  -7.6122593000892275E-003   6.1421153984762347E-002
   2.6461938712612404E-002  -7.6227942248821880E-003   6.1341294494220412E-002
   2.5697664576621076E-002  -7.5145639662852837E-003   6.1513256216182643E-002
   2.4933390440629755E-002  -7.2875685242987098E-003   6.1937039150649159E-002
   2.0877828360501147E-002  -5.6122194021177157E-003   6.2386880104980905E-002
   2.0350187270080984E-002  -5.7091944918425536E-003   6.2220622011924895E-002
   1.9822546179660831E-002  -5.7170956906092106E-003   6.2275808797507014E-002
   1.9294905089240678E-002  -5.6359229984175785E-003   6.2552440461727157E-002
   1.8767263998820519E-002  -5.4656764152677950E-003   6.3050517004585457E-002
   1.3841860976156473E-002  -3.7414796123288394E-003   6.3068096186826877E-002
   1.3520476597441364E-002  -3.8061296835958588E-003   6.3037569411329500E-002
   1.3199092218726257E-002  -3.8113971563362038E-003   6.3198111180604075E-002
   1.2877707840011150E-002  -3.7572820305498311E-003   6.3549721494650629E-002
   1.2556323461296041E-002  -3.6437843062368386E-003   6.4092400353469220E-002
   6.8825848315610264E-003  -1.8707398225399734E-003   6.3796482933346485E-002
   6.7370808306848502E-003  -1.9030648753491745E-003   6.3871996182976190E-002
   6.5915768298086715E-003  -1.9056986220631839E-003   6.4108201643511706E-002
   6.4460728289324953E-003  -1.8786410626821049E-003   6.4505099314953088E-002
   6.3005688280563183E-003  -1.8218921972058752E-003   6.5062689197300391E-002
  -7.3285190416161328E-011  -3.2751121259444460E-011   6.4572040344539686E-002
  -3.0188553046262001E-011  -6.7102511047689717E-011   6.4723902326864896E-002
   1.2908080854190374E-011  -8.7790209130078622E-011   6.5006080186229859E-002
   5.6004719958813176E-011  -9.4814362090744897E-011   6.5418573922634560E-002
   9.9101352124542075E-011  -8.8174939572027711E-011   6.5961383536079027E-002
   2.4933390440629755E-002  -7.2875685242987098E-003   6.1937039150649159E-002
   2.4330843000983482E-002  -6.9912712240628588E-003   6.1892940839830074E-002
   2.3728295561337209E-002  -6.6751353907183522E-003   6.2097566626749298E-002
   2.3125748121690933E-002  -6.3391610242649072E-003   6.2550916511406707E-002
   2.2523200682044664E-002  -5.9833481247029696E-003   6.3252990493802452E-002
   1.8767263998820519E-002  -5.4656764152677950E-003   6.3050517004585457E-002
   1.8388918849756589E-002  -5.2434534381345238E-003   6.2954441505953959E-002
   1.8010573700692662E-002  -5.0063515639923797E-003   6.3058046490748892E-002
   1.7632228551628736E-002  -4.7543707928414409E-003   6.3361331958970146E-002
   1.7253883402564806E-002  -4.4875111246816257E-003   6.3864297910617845E-002
   1.2556323461296041E-002  -3.6437843062368386E-003   6.4092400353469220E-002
   1.2353136988502579E-002  -3.4956356522060153E-003   6.3939388030925415E-002
   1.2149950515709116E-002  -3.3375677372664316E-003   6.3937012577496122E-002
   1.1946764042915652E-002  -3.1695805614178627E-003   6.4085273993181355E-002
   1.1743577570122194E-002  -2.9916741246604206E-003   6.4384172277981100E-002
   6.3005688280563183E-003  -1.8218921972058752E-003   6.5062689197300391E-002
   6.2234974172214481E-003  -1.7478178662776629E-003   6.4847780414744288E-002
   6.1464260063865735E-003  -1.6687839105404157E-003   6.4734464886990820E-002
   6.0693545955517016E-003  -1.5847903299943404E-003   6.4722742614040041E-002
   5.9922831847168305E-003  -1.4958371246392016E-003   6.4812613595891827E-002
   9.9101352124542075E-011  -8.8174939572027711E-011   6.5961383536079027E-002
   1.3591319042438599E-010  -8.0349144004898676E-011   6.5679618657410677E-002
   1.7272503566312380E-010  -8.3814503948342889E-011   6.5450403419233180E-002
   2.0953687829977641E-010  -9.8570747050774621E-011   6.5273737821546496E-002
   2.4634871920170553E-010  -1.2461792708862163E-010   6.5149621864350526E-002
   2.2523200682044664E-002  -5.9833481247029696E-003   6.3252990493802452E-002
   2.0862937478268284E-002  -5.6854171322122671E-003   6.2199509735927000E-002
   1.9202674274491870E-002  -5.5230884869730545E-003   6.1181975205515410E-002
   1.7542411070715466E-002  -5.4963621889855888E-003   6.0200386902567793E-002
   1.5882147866939075E-002  -5.6052382382493215E-003   5.9254744827083983E-002
   1.7253883402564806E-002  -4.4875111246816257E-003   6.3864297910617845E-002
   1.5724346315719936E-002  -4.2640628825382221E-003   6.2545956441100892E-002
   1.4194809228875078E-002  -4.1423163894359280E-003   6.1453120977983056E-002
   1.2665272142030214E-002  -4.1222716453751165E-003   6.0585791521264309E-002
   1.1135735055185350E-002  -4.2039286503554041E-003   5.9943968070944820E-002
   1.1743577570122194E-002  -2.9916741246604206E-003   6.4384172277981100E-002
   1.0534326379144126E-002  -2.8427086328640661E-003   6.2834870695032824E-002
   9.3250751881660560E-003  -2.7615442918988015E-003   6.1700634897418866E-002
   8.1158239971879792E-003  -2.7481811017646442E-003   6.0981464885139329E-002
   6.9065728062099145E-003  -2.8026190624615421E-003   6.0677360658194304E-002
   5.9922831847168305E-003  -1.4958371246392016E-003   6.4812613595891827E-002
   5.2928776685408196E-003  -1.4213543831899655E-003   6.3066252497722519E-002
   4.5934721523648147E-003  -1.3807721943616472E-003   6.1924516963822729E-002
   3.8940666361888020E-003  -1.3740905581543107E-003   6.1387406994192789E-002
   3.1946611200127989E-003  -1.4013094745676247E-003   6.1454922588832436E-002
   2.4634871920170553E-010  -1.2461792708862163E-010   6.5149621864350526E-002
   1.8391003303586118E-010  -1.3351586503063118E-010   6.3240101849170227E-002
   1.2147134687001682E-010  -9.6824603890155458E-011   6.2124767177194867E-002
   5.9032659836810719E-011  -1.4543713455772433E-011   6.1803617848424613E-002
  -3.4060254616719021E-012   1.1332629279436901E-010   6.2276653862859188E-002
   1.5882147866939075E-002  -5.6052382382493215E-003   5.9254744827083983E-002
   1.7325058149999503E-002  -5.4628204625431498E-003   6.3006490105676549E-002
   1.8767968433059896E-002  -4.6822126896444022E-003   6.7065893286831296E-002
   2.0210878716120321E-002  -3.2634149195541438E-003   7.1432954370548238E-002
   2.1653788999180718E-002  -1.2064271522713166E-003   7.6107673356827277E-002
   1.1135735055185350E-002  -4.2039286503554041E-003   5.9943968070944820E-002
   1.2719206870637323E-002  -4.0971152913632514E-003   6.4604283779234384E-002
   1.4302678686089296E-002  -3.5116594553845776E-003   6.9238064649744968E-002
   1.5886150501541269E-002  -2.4475611424192613E-003   7.3845310682476448E-002
   1.7469622316993241E-002  -9.0482035246775006E-004   7.8426021877429197E-002
   6.9065728062099145E-003  -2.8026190624615421E-003   6.0677360658194304E-002
   8.2964134137122718E-003  -2.7314101201835472E-003   6.6086699275975339E-002
   9.6862540212146308E-003  -2.3411062211245379E-003   7.1135310315636135E-002
   1.1076094628716993E-002  -1.6317073652847690E-003   7.5823193777176695E-002
   1.2465935236219340E-002  -6.0321355266398924E-004   8.0150349660597156E-002
   3.1946611200127989E-003  -1.4013094745676247E-003   6.1454922588832436E-002
   4.0566777792243594E-003  -1.3657049490037182E-003   6.7453736595899233E-002
   4.9186944384359173E-003  -1.1705529868646335E-003   7.2757630284504771E-002
   5.7807110976474717E-003  -8.1585358815019268E-004   7.7366603654648869E-002
   6.6427277568590383E-003  -3.0160675286038108E-004   8.1280656706331514E-002
  -3.4060254616719021E-012   1.1332629279436901E-010   6.2276653862859188E-002
  -3.2826442952771373E-011   2.2217599981999570E-010   6.8705395739006248E-002
  -6.2246860443870844E-011   2.4739536808038309E-010   7.4105024556350735E-002
  -9.1667276200246839E-011   1.8898458839511356E-010   7.8475540314892747E-002
  -1.2108769542606979E-010   4.6943449127923031E-011   8.1816943014632049E-002
   2.1653788999180718E-002  -1.2064271522713166E-003   7.6107673356827277E-002
   1.8030223812299684E-002   1.8236867425280856E-004   7.1057945713440929E-002
   1.4406658625418622E-002  -4.0340937793185982E-004   6.5398158861061345E-002
   1.0783093438537540E-002  -2.9637613088251795E-003   5.9128312799687957E-002
   7.1595282516564995E-003  -7.4986871184277160E-003   5.2248407529321694E-002
   1.7469622316993241E-002  -9.0482035246775006E-004   7.8426021877429197E-002
   1.3614985511865713E-002   1.3677653794744171E-004   7.1208009348819129E-002
   9.7603487067381700E-003  -3.0255684769753266E-004   6.4137912792709723E-002
   5.9057119016106274E-003  -2.2228205094020070E-003   5.7215732209100437E-002
   2.0510750964831126E-003  -5.6240144471664255E-003   5.0441467597992506E-002
   1.2465935236219340E-002  -6.0321355266398924E-004   8.0150349660597156E-002
   9.1382019943393178E-003   9.1184401641797308E-005   7.1257695849412495E-002
   5.8104687524592746E-003  -2.0170431746310141E-004   6.3270933192222323E-002
   2.4827355105792263E-003  -1.4818797099788363E-003   5.6190061689026530E-002
  -8.4499773130081168E-004  -3.7493417759053571E-003   5.0015081339825462E-002
   6.6427277568590383E-003  -3.0160675286038108E-004   8.1280656706331514E-002
   4.5998732597204734E-003   4.5592265336236171E-005   7.1207005215221192E-002
   2.5570187625819207E-003  -1.0085178722888874E-004   6.2797220059599340E-002
   5.1416426544334060E-004  -7.4093891055572025E-004   5.6051301239465716E-002
  -1.5286902316951970E-003  -1.8746691046442332E-003   5.0969248754821006E-002
  -1.2108769542606979E-010   4.6943449127923031E-011   8.1816943014632049E-002
  -6.9199080146575831E-010   1.2903084156690170E-010   7.1055937446245165E-002
  -1.2628939040359999E-009   7.4300562924456415E-010   6.2716773394840553E-002
  -1.8337970135451354E-009   1.8888676664441384E-009   5.6799450860418405E-002
  -2.4047001195848239E-009   3.5666170017378818E-009   5.3303969842978915E-002
  -4.5892213640374990E-012   0.0000000000000000        2.8446278791276172E-002
  -2.4318108290954932E-012   1.5247872409140939E-013   3.3411311433269628E-002
  -2.7440137835565981E-013  -2.1475182743202481E-012   3.8382616703069715E-002
   1.8830090481661288E-012  -6.8999840563410686E-012   4.3360194600676430E-002
   4.0404194746879174E-012  -1.4104925560864956E-011   4.8344045126089766E-002
  -6.7981860953451288E-003   0.0000000000000000        2.8510194050989000E-002
  -6.8311028598592033E-003   1.4633264451397419E-004   3.3548179431933070E-002
  -6.8640196243732778E-003   3.2966954196201551E-004   3.8514058651727551E-002
  -6.8969363888873514E-003   5.5001069234411788E-004   4.3407831710372415E-002
  -6.9298531534014258E-003   8.0735609566029778E-004   4.8229498607867710E-002
  -1.3502732177913103E-002   0.0000000000000000        2.8701939827370054E-002
  -1.3646944498054888E-002   2.9266528887547053E-004   3.3849882202651289E-002
  -1.3791156818196674E-002   6.5933908607154583E-004   3.8847339627826688E-002
  -1.3935369138338460E-002   1.1000213915882250E-003   4.3694312102896274E-002
  -1.4079581458480246E-002   1.6147122054255107E-003   4.8390799627860026E-002
  -2.0113638252293137E-002   0.0000000000000000        2.9021516120419338E-002
  -2.0447524917018862E-002   4.3899793323696687E-004   3.4316419745424258E-002
  -2.0781411581744586E-002   9.8900863018107615E-004   3.9382459631367134E-002
  -2.1115298246470311E-002   1.6500320908323278E-003   4.4219635778247959E-002
  -2.1449184911196035E-002   2.4220683151907271E-003   4.8827948186066721E-002
  -2.6630904318485239E-002   0.0000000000000000        2.9468922930136844E-002
  -2.7232844116751125E-002   5.8533057759846321E-004   3.4947792060252010E-002
  -2.7834783915017019E-002   1.3186781742906082E-003   4.0119418662348888E-002
  -2.8436723713282916E-002   2.2000427900764358E-003   4.4983802736427492E-002
  -2.9038663511548803E-002   3.2294244249559487E-003   4.9540944282487807E-002
   4.0404194746879174E-012  -1.4104925560864956E-011   4.8344045126089766E-002
   4.4512518670991597E-012  -1.8964004845634097E-011   5.1508308050592783E-002
   4.8620840426699674E-012  -1.6678870090602871E-011   5.4539873298748202E-002
   5.2729163266609924E-012  -7.2495559902407969E-012   5.7438740870556032E-002
   5.6837486106520174E-012   9.3239582721338365E-012   6.0204910766016237E-002
  -6.9298531534014258E-003   8.0735609566029778E-004   4.8229498607867710E-002
  -7.0336145517480558E-003   1.0617647873580353E-003   5.1181383827810525E-002
  -7.1373759500946848E-003   1.2732958028848192E-003   5.4058443926586021E-002
  -7.2411373484413139E-003   1.4419491422406974E-003   5.6860678904194197E-002
  -7.3448987467879439E-003   1.5677248054255938E-003   5.9588088760635052E-002
  -1.4079581458480246E-002   1.6147122054255107E-003   4.8390799627860026E-002
  -1.4229231700404051E-002   2.1235295936800585E-003   5.1087429459927509E-002
  -1.4378881942327863E-002   2.5465916224485362E-003   5.3767106726007964E-002
  -1.4528532184251670E-002   2.8838982917309404E-003   5.6429831426101369E-002
  -1.4678182426175478E-002   3.1354496015272570E-003   5.9075603560207746E-002
  -2.1449184911196035E-002   2.4220683151907271E-003   4.8827948186066721E-002
  -2.1586851441516740E-002   3.1852944000020974E-003   5.1226444946943721E-002
  -2.1724517971837443E-002   3.8198874420122429E-003   5.3665861697013977E-002
  -2.1862184502158148E-002   4.3258474412211992E-003   5.6146198436277502E-002
  -2.1999851032478847E-002   4.7031743976289134E-003   5.8667455164734227E-002
  -2.9038663511548803E-002   3.2294244249559487E-003   4.9540944282487807E-002
  -2.9106473775086121E-002   4.2470592063241263E-003   5.1598430288859194E-002
  -2.9174284038623433E-002   5.0931832615759426E-003   5.3754708839604134E-002
  -2.9242094302160748E-002   5.7677965907114472E-003   5.6009779934722587E-002
  -2.9309904565698059E-002   6.2708991937305558E-003   5.8363643574214571E-002
   5.6837486106520174E-012   9.3239582721338365E-012   6.0204910766016237E-002
  -1.4058487013413057E-011   2.1803475691584140E-011   6.1106768034131273E-002
  -3.3800720902754655E-011   1.8950816610407983E-011   6.2135242053256858E-002
  -5.3542954792096253E-011   7.6593679315672958E-013   6.3290332823393011E-002
  -7.3285190416161328E-011  -3.2751121259444460E-011   6.4572040344539686E-002
  -7.3448987467879439E-003   1.5677248054255938E-003   5.9588088760635052E-002
  -7.2293203016516429E-003   1.6649158584661691E-003   6.0483377035977302E-002
  -7.1137418565153394E-003   1.7478153673889905E-003   6.1483205490066029E-002
  -6.9981634113790350E-003   1.8164233321940641E-003   6.2587574122901307E-002
  -6.8825849662427340E-003   1.8707397528812952E-003   6.3796482934483145E-002
  -1.4678182426175478E-002   3.1354496015272570E-003   5.9075603560207746E-002
  -1.4469102088424647E-002   3.3298316951289042E-003   5.9950031313991597E-002
  -1.4260021750673821E-002   3.4956307158271766E-003   6.0906922674257916E-002
  -1.4050941412922999E-002   3.6328466636221354E-003   6.1946277641006790E-002
  -1.3841861075172164E-002   3.7414795385137326E-003   6.3068096214238159E-002
  -2.1999851032478847E-002   4.7031743976289134E-003   5.8667455164734227E-002
  -2.1719345374377516E-002   4.9947475317916046E-003   5.9506730868174096E-002
  -2.1438839716276172E-002   5.2434460642653705E-003   6.0406393605832442E-002
  -2.1158334058174834E-002   5.4492699950502207E-003   6.1366443377709329E-002
  -2.0877828400073496E-002   5.6122193241461733E-003   6.2386880183804727E-002
  -2.9309904565698059E-002   6.2708991937305558E-003   5.8363643574214571E-002
  -2.8980050159510214E-002   6.6596633684543223E-003   5.9153475698524915E-002
  -2.8650195753322387E-002   6.9912614127035470E-003   5.9981618284789727E-002
  -2.8320341347134542E-002   7.2656933264783298E-003   6.0848071333009068E-002
  -2.7990486940946704E-002   7.4829591097785725E-003   6.1752834843182822E-002
  -7.3285190416161328E-011  -3.2751121259444460E-011   6.4572040344539686E-002
  -3.0188553046262001E-011  -6.7102511047689717E-011   6.4723902326864896E-002
   1.2908080854190374E-011  -8.7790209130078622E-011   6.5006080186229859E-002
   5.6004719958813176E-011  -9.4814362090744897E-011   6.5418573922634560E-002
   9.9101352124542075E-011  -8.8174939572027711E-011   6.5961383536079027E-002
  -6.8825849662427340E-003   1.8707397528812952E-003   6.3796482934483145E-002
  -6.7370808802004684E-003   1.9030647572802623E-003   6.3871996229344669E-002
  -6.5915767941582028E-003   1.9056984732203561E-003   6.4108201733057785E-002
  -6.4460727081159302E-003   1.8786409007015541E-003   6.4505099445622383E-002
  -6.3005686220736646E-003   1.8218920397238547E-003   6.5062689367038379E-002
  -1.3841861075172164E-002   3.7414795385137326E-003   6.3068096214238159E-002
  -1.3520476614372518E-002   3.8061295816630043E-003   6.3037569519513559E-002
  -1.3199092153572865E-002   3.8113970342309230E-003   6.3198111365452211E-002
  -1.2877707692773212E-002   3.7572818962174430E-003   6.3549721752054172E-002
  -1.2556323231973560E-002   3.6437841676226074E-003   6.4092400679319345E-002
  -2.0877828400073496E-002   5.6122193241461733E-003   6.2386880183804727E-002
  -2.0350187232704705E-002   5.7091944060457759E-003   6.2220622197371483E-002
  -1.9822546065335907E-002   5.7170955952414197E-003   6.2275809083413326E-002
  -1.9294904897967112E-002   5.6359228917333736E-003   6.2552440841930151E-002
  -1.8767263730598328E-002   5.4656762955213947E-003   6.3050517472922021E-002
  -2.7990486940946704E-002   7.4829591097785725E-003   6.1752834843182822E-002
  -2.7226212735197021E-002   7.6122592304285058E-003   6.1421154262918498E-002
  -2.6461938529447331E-002   7.6227941562520378E-003   6.1341294886940990E-002
  -2.5697664323697640E-002   7.5145638872492716E-003   6.1513256715250222E-002
  -2.4933390117947960E-002   7.2875684234201543E-003   6.1937039747846229E-002
   9.9101352124542075E-011  -8.8174939572027711E-011   6.5961383536079027E-002
   1.3591319042438599E-010  -8.0349144004898676E-011   6.5679618657410677E-002
   1.7272503566312380E-010  -8.3814503948342889E-011   6.5450403419233180E-002
   2.0953687829977641E-010  -9.8570747050774621E-011   6.5273737821546496E-002
   2.4634871920170553E-010  -1.2461792708862163E-010   6.5149621864350526E-002
  -6.3005686220736646E-003   1.8218920397238547E-003   6.5062689367038379E-002
  -6.2234971455428778E-003   1.7478177150042906E-003   6.4847780573715486E-002
  -6.1464256690120901E-003   1.6687837512598322E-003   6.4734465019339646E-002
  -6.0693541924813042E-003   1.5847901484904291E-003   6.4722742703910929E-002
  -5.9922827159505157E-003   1.4958369066962462E-003   6.4812613627429350E-002
  -1.2556323231973560E-002   3.6437841676226074E-003   6.4092400679319345E-002
  -1.2353136717267479E-002   3.4956355103576836E-003   6.3939388343607878E-002
  -1.2149950202561405E-002   3.3375675863340816E-003   6.3937012845299943E-002
  -1.1946763687855326E-002   3.1695803955515767E-003   6.4085274184395413E-002
  -1.1743577173149243E-002   2.9916739380103918E-003   6.4384172360894415E-002
  -1.8767263730598328E-002   5.4656762955213947E-003   6.3050517472922021E-002
  -1.8388918579260609E-002   5.2434533057111390E-003   6.2954441967088104E-002
  -1.8010573427922887E-002   5.0063514214082911E-003   6.3058046897114070E-002
  -1.7632228276585175E-002   4.7543706426127381E-003   6.3361332262999795E-002
  -1.7253883125247456E-002   4.4875109693245513E-003   6.3864298064745334E-002
  -2.4933390117947960E-002   7.2875684234201543E-003   6.1937039747846229E-002
  -2.4330842731522265E-002   6.9912711010645390E-003   6.1892941444156052E-002
  -2.3728295345096566E-002   6.6751352564826394E-003   6.2097567174782042E-002
  -2.3125747958670877E-002   6.3391608896738796E-003   6.2550916939724144E-002
  -2.2523200572245178E-002   5.9833480006387108E-003   6.3252990738982495E-002
   2.4634871920170553E-010  -1.2461792708862163E-010   6.5149621864350526E-002
   1.8391003303586118E-010  -1.3351586503063118E-010   6.3240101849170227E-002
   1.2147134687001682E-010  -9.6824603890155458E-011   6.2124767177194867E-002
   5.9032659836810719E-011  -1.4543713455772433E-011   6.1803617848424613E-002
  -3.4060254616719021E-012   1.1332629279436901E-010   6.2276653862859188E-002
  -5.9922827159505157E-003   1.4958369066962462E-003   6.4812613627429350E-002
  -5.2928773154242671E-003   1.4213541568614402E-003   6.3066252571376089E-002
  -4.5934719148980219E-003   1.3807720299701814E-003   6.1924517098047777E-002
  -3.8940665143717777E-003   1.3740905260226817E-003   6.1387407207444358E-002
  -3.1946611138455282E-003   1.4013096450187223E-003   6.1454922899565889E-002
  -1.1743577173149243E-002   2.9916739380103918E-003   6.4384172360894415E-002
  -1.0534326070138114E-002   2.8427084472387731E-003   6.2834870841322332E-002
  -9.3250749671269801E-003   2.7615441567649668E-003   6.1700635143995139E-002
  -8.1158238641158391E-003   2.7481810665891324E-003   6.0981465268912946E-002
  -6.9065727611047189E-003   2.8026191767112352E-003   6.0677361216075545E-002
  -1.7253883125247456E-002   4.4875109693245513E-003   6.3864298064745334E-002
  -1.5724346080231499E-002   4.2640627376161755E-003   6.2545956659008861E-002
  -1.4194809035215517E-002   4.1423162835598631E-003   6.1453121315037253E-002
  -1.2665271990199544E-002   4.1222716071557218E-003   6.0585792032830363E-002
  -1.1135734945183572E-002   4.2039287084036786E-003   5.9943968812388393E-002
  -2.2523200572245178E-002   5.9833480006387108E-003   6.3252990738982495E-002
  -2.0862937345704404E-002   5.6854170279934668E-003   6.2199510024435745E-002
  -1.9202674119163640E-002   5.5230884103545513E-003   6.1181975611173806E-002
  -1.7542410892622866E-002   5.4963621477221204E-003   6.0200387499196664E-002
  -1.5882147666082098E-002   5.6052382400961775E-003   5.9254745688504251E-002
  -3.4060254616719021E-012   1.1332629279436901E-010   6.2276653862859188E-002
  -3.2826442952771373E-011   2.2217599981999570E-010   6.8705395739006248E-002
  -6.2246860443870844E-011   2.4739536808038309E-010   7.4105024556350735E-002
  -9.1667276200246839E-011   1.8898458839511356E-010   7.8475540314892747E-002
  -1.2108769542606979E-010   4.6943449127923031E-011   8.1816943014632049E-002
  -3.1946611138455282E-003   1.4013096450187223E-003   6.1454922899565889E-002
  -4.0566778299445452E-003   1.3657053043697187E-003   6.7453736798085084E-002
  -4.9186945460435762E-003   1.1705534214865865E-003   7.2757630382049659E-002
  -5.7807112621426036E-003   8.1585399636936728E-004   7.7366603651459545E-002
  -6.6427279782416172E-003   3.0160702901821379E-004   8.1280656606314672E-002
  -6.9065727611047189E-003   2.8026191767112352E-003   6.0677361216075545E-002
  -8.2964134196344061E-003   2.7314103865633543E-003   6.6086699678363114E-002
  -9.6862540781641141E-003   2.3411065955777008E-003   7.1135310570343974E-002
  -1.1076094736693819E-002   1.6317078037542034E-003   7.5823193892018234E-002
  -1.2465935395223509E-002   6.0321401109303396E-004   8.0150349643385549E-002
  -1.1135734945183572E-002   4.2039287084036786E-003   5.9943968812388393E-002
  -1.2719206801896027E-002   4.0971154687570038E-003   6.4604284379840546E-002
  -1.4302678658608479E-002   3.5116597696688116E-003   6.9238065121233899E-002
  -1.5886150515320937E-002   2.4475616111390109E-003   7.3845311036568481E-002
  -1.7469622372033387E-002   9.0482099316771536E-004   7.8426022125844402E-002
  -1.5882147666082098E-002   5.6052382400961775E-003   5.9254745688504251E-002
  -1.7325057976729376E-002   5.4628205509506811E-003   6.3006490902517365E-002
  -1.8767968287376667E-002   4.6822129437600751E-003   6.7065894034719548E-002
  -2.0210878598023948E-002   3.2634154185237178E-003   7.1432955085110897E-002
  -2.1653788908671236E-002   1.2064279752426743E-003   7.6107674053691399E-002
  -1.2108769542606979E-010   4.6943449127923031E-011   8.1816943014632049E-002
  -6.9199080146575831E-010   1.2903084156690170E-010   7.1055937446245165E-002
  -1.2628939040359999E-009   7.4300562924456415E-010   6.2716773394840553E-002
  -1.8337970135451354E-009   1.8888676664441384E-009   5.6799450860418405E-002
  -2.4047001195848239E-009   3.5666170017378818E-009   5.3303969842978915E-002
  -6.6427279782416172E-003   3.0160702901821379E-004   8.1280656606314672E-002
  -4.5998745492166239E-003  -4.5591873924971660E-005   7.1207006062514427E-002
  -2.5570211201916288E-003   1.0085289418235166E-004   6.2797222001587688E-002
  -5.1416769116664155E-004   7.4094133333992701E-004   5.6051304423534648E-002
   1.5286857378583457E-003   1.8746734435477475E-003   5.0969253328355668E-002
  -1.2465935395223509E-002   6.0321401109303396E-004   8.0150349643385549E-002
  -9.1382030003791040E-003  -9.1183876880535086E-005   7.1257697263334530E-002
  -5.8104706055347064E-003   2.0170504535908795E-004   6.3270936332048625E-002
  -2.4827382106902855E-003   1.4818807778121633E-003   5.6190066849527674E-002
   8.4499418415411032E-004   3.7493433204783821E-003   5.0015088815771935E-002
  -1.7469622372033387E-002   9.0482099316771536E-004   7.8426022125844402E-002
  -1.3614986045478259E-002  -1.3677587983622341E-004   7.1208011048705833E-002
  -9.7603497189231257E-003   3.0255719653592833E-004   6.4137916386223709E-002
  -5.9057133923679775E-003   2.2228202222844117E-003   5.7215738138397587E-002
  -2.0510770658128501E-003   5.6240131974091279E-003   5.0441476305228689E-002
  -2.1653788908671236E-002   1.2064279752426743E-003   7.6107674053691399E-002
  -1.8030223684514061E-002  -1.8236788279180072E-004   7.1057947418628087E-002
  -1.4406658460356877E-002   4.0340934771261605E-004   6.5398162164112456E-002
  -1.0783093236199691E-002   2.9637596667567330E-003   5.9128318290144630E-002
  -7.1595280120425181E-003   7.4986830743397626E-003   5.2248415796724679E-002
  -2.6630904318485239E-002   0.0000000000000000        2.9468922930136844E-002
  -2.7232844116751125E-002   5.8533057759846321E-004   3.4947792060252010E-002
  -2.7834783915017019E-002   1.3186781742906082E-003   4.0119418662348888E-002
  -2.8436723713282916E-002   2.2000427900764358E-003   4.4983802736427492E-002
  -2.9038663511548803E-002   3.2294244249559487E-003   4.9540944282487807E-002
  -3.3391314294708964E-002   0.0000000000000000        3.0178876380557183E-002
  -3.4235355041765191E-002   9.6008384662914659E-004   3.5268466785036034E-002
  -3.5079395788821410E-002   2.0231657209384673E-003   4.0181097819952501E-002
  -3.5923436535877637E-002   3.1892456229279604E-003   4.4916769485306589E-002
  -3.6767477282933864E-002   4.4583235525976223E-003   4.9475481781098285E-002
  -4.0731652099183877E-002   0.0000000000000000        3.1286092595714965E-002
  -4.1687510636574533E-002   1.3348371156598317E-003   3.5941385283143987E-002
  -4.2643369173965190E-002   2.7276532675863273E-003   4.0550001759466540E-002
  -4.3599227711355847E-002   4.1784484557794857E-003   4.5111942024682598E-002
  -4.4555086248746510E-002   5.6872226802393089E-003   4.9627206078792167E-002
  -4.8651917731909973E-002   0.0000000000000000        3.2790571575610182E-002
  -4.9589310901179177E-002   1.7095903846905155E-003   3.6966547554575874E-002
  -5.0526704070448368E-002   3.4321408142341850E-003   4.1226130480890993E-002
  -5.1464097239717572E-002   5.1676512886310155E-003   4.5569320354555513E-002
  -5.2401490408986763E-002   6.9161218078809886E-003   4.9996117175569461E-002
  -5.7152111192887267E-002   0.0000000000000000        3.4692313320242842E-002
  -5.7940755835579102E-002   2.0843436537211994E-003   3.8343953599331702E-002
  -5.8729400478270938E-002   4.1366283608820463E-003   4.2209483984225867E-002
  -5.9518045120962773E-002   6.1568541214825356E-003   4.6288904474925348E-002
  -6.0306689763654608E-002   8.1450209355226708E-003   5.0582215071430132E-002
  -2.9038663511548803E-002   3.2294244249559487E-003   4.9540944282487807E-002
  -2.9106473775086121E-002   4.2470592063241263E-003   5.1598430288859194E-002
  -2.9174284038623433E-002   5.0931832615759426E-003   5.3754708839604134E-002
  -2.9242094302160748E-002   5.7677965907114472E-003   5.6009779934722587E-002
  -2.9309904565698059E-002   6.2708991937305558E-003   5.8363643574214571E-002
  -3.6767477282933864E-002   4.4583235525976223E-003   4.9475481781098285E-002
  -3.6775745547586849E-002   5.6906129132923595E-003   5.1260879101679688E-002
  -3.6784013812239842E-002   6.7463271083570732E-003   5.3066567875656209E-002
  -3.6792282076892821E-002   7.6254661377917502E-003   5.4892548103027836E-002
  -3.6800550341545814E-002   8.3280300015963760E-003   5.6738819783794581E-002
  -4.4555086248746510E-002   5.6872226802393089E-003   4.9627206078792167E-002
  -4.4582313605493584E-002   7.1341666202606058E-003   5.1135450274069898E-002
  -4.4609540962240679E-002   8.3994709551381830E-003   5.2585484831764305E-002
  -4.4636768318987767E-002   9.4831356848720395E-003   5.3977309751875417E-002
  -4.4663995675734841E-002   1.0385160809462196E-002   5.5310925034403241E-002
  -5.2401490408986763E-002   6.9161218078809886E-003   4.9996117175569461E-002
  -5.2526177948806353E-002   8.5777203272288435E-003   5.1222143806029810E-002
  -5.2650865488625943E-002   1.0052614801919303E-002   5.2311459707928450E-002
  -5.2775553028445533E-002   1.1340805231952364E-002   5.3264064881265359E-002
  -5.2900240568265110E-002   1.2442291617328009E-002   5.4079959326040580E-002
  -6.0306689763654608E-002   8.1450209355226708E-003   5.0582215071430132E-002
  -6.0607338577525129E-002   1.0021274034197086E-002   5.1520959697559453E-002
  -6.0907987391395649E-002   1.1705758648700418E-002   5.2244492504148622E-002
  -6.1208636205266169E-002   1.3198474779032654E-002   5.2752813491197661E-002
  -6.1509285019136689E-002   1.4499422425193823E-002   5.3045922658706557E-002
  -2.9309904565698059E-002   6.2708991937305558E-003   5.8363643574214571E-002
  -2.8980050159510214E-002   6.6596633684543223E-003   5.9153475698524915E-002
  -2.8650195753322387E-002   6.9912614127035470E-003   5.9981618284789727E-002
  -2.8320341347134542E-002   7.2656933264783298E-003   6.0848071333009068E-002
  -2.7990486940946704E-002   7.4829591097785725E-003   6.1752834843182822E-002
  -3.6800550341545814E-002   8.3280300015963760E-003   5.6738819783794581E-002
  -3.6379245653490620E-002   8.8709815076122508E-003   5.7109084329465536E-002
  -3.5957940965435427E-002   9.2712834636806546E-003   5.7623938976916693E-002
  -3.5536636277380240E-002   9.5289358698015698E-003   5.8283383726148094E-002
  -3.5115331589325047E-002   9.6439387259749654E-003   5.9087418577159698E-002
  -4.4663995675734841E-002   1.0385160809462196E-002   5.5310925034403241E-002
  -4.4044961065986550E-002   1.1082299646770233E-002   5.5176138581961812E-002
  -4.3425926456238280E-002   1.1551305514657778E-002   5.5292221871126319E-002
  -4.2806891846489989E-002   1.1792178413124811E-002   5.5659174901896764E-002
  -4.2187857236741698E-002   1.1804918342171365E-002   5.6276997674273230E-002
  -5.2900240568265110E-002   1.2442291617328009E-002   5.4079959326040580E-002
  -5.1977196396998000E-002   1.3293617785928188E-002   5.3354638456013723E-002
  -5.1054152225730905E-002   1.3831327565634908E-002   5.2986466967418558E-002
  -5.0131108054463823E-002   1.4055420956448064E-002   5.2975444860255079E-002
  -4.9208063883196693E-002   1.3965897958367762E-002   5.3321572134523314E-002
  -6.1509285019136689E-002   1.4499422425193823E-002   5.3045922658706557E-002
  -6.0175951646525012E-002   1.5504935925086151E-002   5.1644583951621331E-002
  -5.8842618273913350E-002   1.6111349616612036E-002   5.0706674265793478E-002
  -5.7509284901301687E-002   1.6318663499771326E-002   5.0232193601223052E-002
  -5.6175951528690017E-002   1.6126877574564144E-002   5.0221141957910068E-002
  -2.7990486940946704E-002   7.4829591097785725E-003   6.1752834843182822E-002
  -2.7226212735197021E-002   7.6122592304285058E-003   6.1421154262918498E-002
  -2.6461938529447331E-002   7.6227941562520378E-003   6.1341294886940990E-002
  -2.5697664323697640E-002   7.5145638872492716E-003   6.1513256715250222E-002
  -2.4933390117947960E-002   7.2875684234201543E-003   6.1937039747846229E-002
  -3.5115331589325047E-002   9.6439387259749654E-003   5.9087418577159698E-002
  -3.4116792088396984E-002   9.6493296672758785E-003   5.8692831351436707E-002
  -3.3118252587468928E-002   9.5781463287791940E-003   5.8514953511783659E-002
  -3.2119713086540866E-002   9.4303887104849778E-003   5.8553785058200580E-002
  -3.1121173585612828E-002   9.2060568123930875E-003   5.8809325990687472E-002
  -4.2187857236741698E-002   1.1804918342171365E-002   5.6276997674273230E-002
  -4.0990164258852102E-002   1.1686400104123272E-002   5.5861694718120261E-002
  -3.9792471280962478E-002   1.1533498501306324E-002   5.5627989329820486E-002
  -3.8594778303072869E-002   1.1346213533720602E-002   5.5575881509373821E-002
  -3.7397085325183252E-002   1.1124545201366076E-002   5.5705371256780364E-002
  -4.9208063883196693E-002   1.3965897958367762E-002   5.3321572134523314E-002
  -4.7846329246562340E-002   1.3723470540970655E-002   5.2927744362969209E-002
  -4.6484594609928001E-002   1.3488850673833468E-002   5.2680402341051494E-002
  -4.5122859973293634E-002   1.3262038356956321E-002   5.2579546068770071E-002
  -4.3761125336659289E-002   1.3043033590339051E-002   5.2625175546124968E-002
  -5.6175951528690017E-002   1.6126877574564144E-002   5.0221141957910068E-002
  -5.4685287051527733E-002   1.5760540977818031E-002   4.9890980285983558E-002
  -5.3194622574365441E-002   1.5444202846360607E-002   4.9672192545476591E-002
  -5.1703958097203170E-002   1.5177863180191931E-002   4.9564778736389106E-002
  -5.0213293620040872E-002   1.4961521979311998E-002   4.9568738858721179E-002
  -2.4933390117947960E-002   7.2875684234201543E-003   6.1937039747846229E-002
  -2.4330842731522265E-002   6.9912711010645390E-003   6.1892941444156052E-002
  -2.3728295345096566E-002   6.6751352564826394E-003   6.2097567174782042E-002
  -2.3125747958670877E-002   6.3391608896738796E-003   6.2550916939724144E-002
  -2.2523200572245178E-002   5.9833480006387108E-003   6.3252990738982495E-002
  -3.1121173585612828E-002   9.2060568123930875E-003   5.8809325990687472E-002
  -3.0264137313646362E-002   8.9318897033770772E-003   5.8661396934177573E-002
  -2.9407101041679914E-002   8.6346264523102165E-003   5.8773721614433089E-002
  -2.8550064769713494E-002   8.3142670591923994E-003   5.9146300031453942E-002
  -2.7693028497747036E-002   7.9708115240237909E-003   5.9779132185240086E-002
  -3.7397085325183252E-002   1.1124545201366076E-002   5.5705371256780364E-002
  -3.6274030465226870E-002   1.0872508305689491E-002   5.5450353827626524E-002
  -3.5150975605270487E-002   1.0594117648137877E-002   5.5467119837687123E-002
  -3.4027920745314084E-002   1.0289373228710919E-002   5.5755669286962330E-002
  -3.2904865885357709E-002   9.9582750474088710E-003   5.6316002175452073E-002
  -4.3761125336659289E-002   1.3043033590339051E-002   5.2625175546124968E-002
  -4.2360522186263745E-002   1.2813126908001994E-002   5.2259812124502758E-002
  -4.0959919035868229E-002   1.2553608843965496E-002   5.2177761844544271E-002
  -3.9559315885472714E-002   1.2264479398229439E-002   5.2379024706249548E-002
  -3.8158712735077163E-002   1.1945738570793896E-002   5.2863600709618541E-002
  -5.0213293620040872E-002   1.4961521979311998E-002   4.9568738858721179E-002
  -4.8523612476757037E-002   1.4753745510314428E-002   4.9089771824806366E-002
  -4.6833931333473175E-002   1.4513100039793156E-002   4.8905647635004407E-002
  -4.5144250190189326E-002   1.4239585567747969E-002   4.9016366289315397E-002
  -4.3454569046905464E-002   1.3933202094179031E-002   4.9421927787739350E-002
  -2.2523200572245178E-002   5.9833480006387108E-003   6.3252990738982495E-002
  -2.0862937345704404E-002   5.6854170279934668E-003   6.2199510024435745E-002
  -1.9202674119163640E-002   5.5230884103545513E-003   6.1181975611173806E-002
  -1.7542410892622866E-002   5.4963621477221204E-003   6.0200387499196664E-002
  -1.5882147666082098E-002   5.6052382400961775E-003   5.9254745688504251E-002
  -2.7693028497747036E-002   7.9708115240237909E-003   5.9779132185240086E-002
  -2.5974640127532402E-002   7.6424804794835016E-003   5.8800294590130683E-002
  -2.4256251757317777E-002   7.3674945582508505E-003   5.7901760981084266E-002
  -2.2537863387103157E-002   7.1458537603260285E-003   5.7083531358100806E-002
  -2.0819475016888522E-002   6.9775580857088793E-003   5.6345605721180220E-002
  -3.2904865885357709E-002   9.9582750474088710E-003   5.6316002175452073E-002
  -3.1083994686691062E-002   9.5995439309736474E-003   5.5329550468081287E-002
  -2.9263123488024369E-002   9.2119007061473093E-003   5.4467760431551694E-002
  -2.7442252289357691E-002   8.7953453729299347E-003   5.3730632065863079E-002
  -2.5621381090691002E-002   8.3498779313214699E-003   5.3118165371015810E-002
  -3.8158712735077163E-002   1.1945738570793896E-002   5.2863600709618541E-002
  -3.6191001023180271E-002   1.1556607382463627E-002   5.1787277658287584E-002
  -3.4223289311283406E-002   1.1056306854043744E-002   5.0879973962575917E-002
  -3.2255577599386513E-002   1.0444836985533813E-002   5.0141689622483505E-002
  -3.0287865887489621E-002   9.7221977769340606E-003   4.9572424638010468E-002
  -4.3454569046905464E-002   1.3933202094179031E-002   4.9421927787739350E-002
  -4.1295659137000187E-002   1.3513670833953828E-002   4.8173476160749351E-002
  -3.9136749227094890E-002   1.2900713001940067E-002   4.7138401574157107E-002
  -3.6977839317189606E-002   1.2094328598137749E-002   4.6316704027962119E-002
  -3.4818929407284316E-002   1.1094517622546762E-002   4.5708383522164664E-002
  -1.5882147666082098E-002   5.6052382400961775E-003   5.9254745688504251E-002
  -1.7325057976729376E-002   5.4628205509506811E-003   6.3006490902517365E-002
  -1.8767968287376667E-002   4.6822129437600751E-003   6.7065894034719548E-002
  -2.0210878598023948E-002   3.2634154185237178E-003   7.1432955085110897E-002
  -2.1653788908671236E-002   1.2064279752426743E-003   7.6107674053691399E-002
  -2.0819475016888522E-002   6.9775580857088793E-003   5.6345605721180220E-002
  -2.2041238862358536E-002   6.6895611498217766E-003   5.9680791977239050E-002
  -2.3263002707828585E-002   6.1088165680872886E-003   6.3150613245463241E-002
  -2.4484766553298620E-002   5.2353243405055885E-003   6.6755069525852723E-002
  -2.5706530398768648E-002   4.0690844670764892E-003   7.0494160818407592E-002
  -2.5621381090691002E-002   8.3498779313214699E-003   5.3118165371015810E-002
  -2.6795021377007580E-002   7.9163017486927750E-003   5.6382234941318166E-002
  -2.7968661663324092E-002   7.5354201924147310E-003   5.9607916617762234E-002
  -2.9142301949640632E-002   7.2072332624872389E-003   6.2795210400347815E-002
  -3.0315942235957183E-002   6.9317409589104984E-003   6.5944116289075108E-002
  -3.0287865887489621E-002   9.7221977769340606E-003   4.9572424638010468E-002
  -3.1586405520676424E-002   9.1430423475639053E-003   5.3110819794754564E-002
  -3.2884945153863247E-002   8.9620238167420589E-003   5.6437804151616554E-002
  -3.4183484787050064E-002   9.1791421844689448E-003   5.9553377708596311E-002
  -3.5482024420236867E-002   9.7943974507444659E-003   6.2457540465694045E-002
  -3.4818929407284316E-002   1.1094517622546762E-002   4.5708383522164664E-002
  -3.6415391293365157E-002   1.0369782946434841E-002   4.9866546537548462E-002
  -3.8011853179445998E-002   1.0388627441069304E-002   5.3640275847026159E-002
  -3.9608315065526832E-002   1.1151051106450684E-002   5.7029571450598088E-002
  -4.1204776951607680E-002   1.2657053942578433E-002   6.0034433348263971E-002
  -2.1653788908671236E-002   1.2064279752426743E-003   7.6107674053691399E-002
  -1.8030223684514061E-002  -1.8236788279180072E-004   7.1057947418628087E-002
  -1.4406658460356877E-002   4.0340934771261605E-004   6.5398162164112456E-002
  -1.0783093236199691E-002   2.9637596667567330E-003   5.9128318290144630E-002
  -7.1595280120425181E-003   7.4986830743397626E-003   5.2248415796724679E-002
  -2.5706530398768648E-002   4.0690844670764892E-003   7.0494160818407592E-002
  -2.2417780368116869E-002   3.2033480747179766E-003   6.6597171110463843E-002
  -1.9129030337465110E-002   3.2313662903477036E-003   6.2640609634961542E-002
  -1.5840280306813358E-002   4.1531391139658369E-003   5.8624476391900937E-002
  -1.2551530276161564E-002   5.9686665455722654E-003   5.4548771381281447E-002
  -3.0315942235957183E-002   6.9317409589104984E-003   6.5944116289075108E-002
  -2.6811520546917059E-002   6.5890640322278649E-003   6.2119045027700104E-002
  -2.3307098857876941E-002   6.0593232329824512E-003   5.8784888850660251E-002
  -1.9802677168836807E-002   5.3425185611747725E-003   5.5941647757955709E-002
  -1.6298255479796679E-002   4.4386500168045462E-003   5.3589321749586361E-002
  -3.5482024420236867E-002   9.7943974507444659E-003   6.2457540465694045E-002
  -3.1211444220914614E-002   9.9747799897375866E-003   5.7623569170336633E-002
  -2.6940864021592372E-002   8.8872801756175353E-003   5.3830999811208514E-002
  -2.2670283822270085E-002   6.5318980083836813E-003   5.1079832388309085E-002
  -1.8399703622947877E-002   2.9086334880369935E-003   4.9370066901638893E-002
  -4.1204776951607680E-002   1.2657053942578433E-002   6.0034433348263971E-002
  -3.5617551390109539E-002   1.3360495947247475E-002   5.3110743538373750E-002
  -3.0030325828611371E-002   1.1715237118252259E-002   4.7778942516606304E-002
  -2.4443100267113257E-002   7.7212774555928052E-003   4.4039030282961827E-002
  -1.8855874705615061E-002   1.3786169592693298E-003   4.1891006837439626E-002
  -5.7152111192887267E-002   0.0000000000000000        3.4692313320242842E-002
  -5.7940755835579102E-002   2.0843436537211994E-003   3.8343953599331702E-002
  -5.8729400478270938E-002   4.1366283608820463E-003   4.2209483984225867E-002
  -5.9518045120962773E-002   6.1568541214825356E-003   4.6288904474925348E-002
  -6.0306689763654608E-002   8.1450209355226708E-003   5.0582215071430132E-002
  -6.5820625456542575E-002   0.0000000000000000        3.7213739837942447E-002
  -6.6624438322830909E-002   2.9135466839919841E-003   4.0834645312838619E-002
  -6.7428251189119243E-002   5.7692269191722536E-003   4.4211324234736504E-002
  -6.8232064055407562E-002   8.5670407055408113E-003   4.7343776603636097E-002
  -6.9035876921695882E-002   1.1306988043097640E-002   5.0232002419537382E-002
  -7.4245853497302741E-002   0.0000000000000000        4.0577273137038523E-002
  -7.5522951245991163E-002   3.7427497142627679E-003   4.4141636305490645E-002
  -7.6800048994679571E-002   7.4018254774624610E-003   4.7003656262140876E-002
  -7.8077146743367992E-002   1.0977227289599076E-002   4.9163333006989218E-002
  -7.9354244492056386E-002   1.4468955150672615E-002   5.0620666540035657E-002
  -8.2427795315167765E-002   0.0000000000000000        4.4782913217531063E-002
  -8.4636294605059864E-002   4.5719527445335535E-003   4.8264926577287766E-002
  -8.6844793894951977E-002   9.0344240357526640E-003   5.0586480066438989E-002
  -8.9053293184844062E-002   1.3387413873657349E-002   5.1747573684984713E-002
  -9.1261792474736217E-002   1.7630922258247580E-002   5.1748207432924957E-002
  -9.0366450910137647E-002   0.0000000000000000        4.9830660079420067E-002
  -9.3964468400037041E-002   5.4011557748043365E-003   5.3204516128230003E-002
  -9.7562485889936434E-002   1.0667022594042877E-002   5.4959795647630851E-002
 -0.10116050337983583        1.5797600457715617E-002   5.5096498637622615E-002
 -0.10475852086973522        2.0792889365822562E-002   5.3614625098205262E-002
  -6.0306689763654608E-002   8.1450209355226708E-003   5.0582215071430132E-002
  -6.0607338577525129E-002   1.0021274034197086E-002   5.1520959697559453E-002
  -6.0907987391395649E-002   1.1705758648700418E-002   5.2244492504148622E-002
  -6.1208636205266169E-002   1.3198474779032654E-002   5.2752813491197661E-002
  -6.1509285019136689E-002   1.4499422425193823E-002   5.3045922658706557E-002
  -6.9035876921695882E-002   1.1306988043097640E-002   5.0232002419537382E-002
  -6.9313445505571322E-002   1.3750209076233672E-002   4.9456181360782156E-002
  -6.9591014089446762E-002   1.5657843949339778E-002   4.8941732581557235E-002
  -6.9868582673322188E-002   1.7029892662415974E-002   4.8688656081862597E-002
  -7.0146151257197614E-002   1.7866355215462273E-002   4.8696951861698291E-002
  -7.9354244492056386E-002   1.4468955150672615E-002   5.0620666540035657E-002
  -7.9132148746866318E-002   1.7479144118270250E-002   4.7786462120537075E-002
  -7.8910053001676236E-002   1.9609929249979150E-002   4.5690214079639233E-002
  -7.8687957256486155E-002   2.0861310545799327E-002   4.4331922417342122E-002
  -7.8465861511296087E-002   2.1233288005730759E-002   4.3711587133645743E-002
  -9.1261792474736217E-002   1.7630922258247580E-002   5.1748207432924957E-002
  -9.0063448301410151E-002   2.1208079160306818E-002   4.6511801976824217E-002
  -8.8865104128084127E-002   2.3562014550618526E-002   4.2489936998394616E-002
  -8.7666759954758061E-002   2.4692728429182659E-002   3.9682612497636188E-002
  -8.6468415781432037E-002   2.4600220795999231E-002   3.8089828474548948E-002
 -0.10475852086973522        2.0792889365822562E-002   5.3614625098205262E-002
 -0.10210734416920281        2.4937014202343417E-002   4.5632200929643485E-002
  -9.9456167468670365E-002   2.7514099851257884E-002   3.9340901337823336E-002
  -9.6804990768137936E-002   2.8524146312565991E-002   3.4740726322744775E-002
  -9.4153814067605535E-002   2.7967153586267696E-002   3.1831675884407856E-002
  -6.1509285019136689E-002   1.4499422425193823E-002   5.3045922658706557E-002
  -6.0175951646525012E-002   1.5504935925086151E-002   5.1644583951621331E-002
  -5.8842618273913350E-002   1.6111349616612036E-002   5.0706674265793478E-002
  -5.7509284901301687E-002   1.6318663499771326E-002   5.0232193601223052E-002
  -5.6175951528690017E-002   1.6126877574564144E-002   5.0221141957910068E-002
  -7.0146151257197614E-002   1.7866355215462273E-002   4.8696951861698291E-002
  -6.8399028746385218E-002   1.8320318549338015E-002   4.7248873212179986E-002
  -6.6651906235572780E-002   1.8544869604902571E-002   4.6164943817805781E-002
  -6.4904783724760357E-002   1.8540008382155838E-002   4.5445163678575685E-002
  -6.3157661213947933E-002   1.8305734881097976E-002   4.5089532794489622E-002
  -7.8465861511296087E-002   2.1233288005730759E-002   4.3711587133645743E-002
  -7.6404229628396214E-002   2.1135701173589861E-002   4.2386456071749699E-002
  -7.4342597745496369E-002   2.0978389593193092E-002   4.1326194498884430E-002
  -7.2280965862596483E-002   2.0761353264540417E-002   4.0530802415049944E-002
  -7.0219333979696652E-002   2.0484592187631816E-002   4.0000279820246204E-002
  -8.6468415781432037E-002   2.4600220795999231E-002   3.8089828474548948E-002
  -8.4191554292558091E-002   2.3951083797841714E-002   3.7057332530330486E-002
  -8.1914692803684130E-002   2.3411909581483634E-002   3.6190426309029383E-002
  -7.9637831314810184E-002   2.2982698146924933E-002   3.5489109810645854E-002
  -7.7360969825936252E-002   2.2663449494165638E-002   3.4953383035179690E-002
  -9.4153814067605535E-002   2.7967153586267696E-002   3.1831675884407856E-002
  -9.1761002738870806E-002   2.6766466422093557E-002   3.1261502587922256E-002
  -8.9368191410136077E-002   2.5845429569774155E-002   3.0757639248240778E-002
  -8.6975380081401321E-002   2.5204043029309481E-002   3.0320085865363430E-002
  -8.4582568752666620E-002   2.4842306800699487E-002   2.9948842439290135E-002
  -5.6175951528690017E-002   1.6126877574564144E-002   5.0221141957910068E-002
  -5.4685287051527733E-002   1.5760540977818031E-002   4.9890980285983558E-002
  -5.3194622574365441E-002   1.5444202846360607E-002   4.9672192545476591E-002
  -5.1703958097203170E-002   1.5177863180191931E-002   4.9564778736389106E-002
  -5.0213293620040872E-002   1.4961521979311998E-002   4.9568738858721179E-002
  -6.3157661213947933E-002   1.8305734881097976E-002   4.5089532794489622E-002
  -6.1526570595269767E-002   1.7954622347373279E-002   4.4731326591301850E-002
  -5.9895479976591594E-002   1.7599244026626295E-002   4.4542598739726283E-002
  -5.8264389357913414E-002   1.7239599918856888E-002   4.4523349239762929E-002
  -5.6633298739235248E-002   1.6875690024065138E-002   4.4673578091411828E-002
  -7.0219333979696652E-002   2.0484592187631816E-002   4.0000279820246204E-002
  -6.8389712799309929E-002   2.0148703716928559E-002   3.9559764833486014E-002
  -6.6560091618923178E-002   1.9754285206891875E-002   3.9346832618530808E-002
  -6.4730470438536442E-002   1.9301336657521789E-002   3.9361483175380504E-002
  -6.2900849258149649E-002   1.8789858068818305E-002   3.9603716504035227E-002
  -7.7360969825936252E-002   2.2663449494165638E-002   3.4953383035179690E-002
  -7.5274713663648185E-002   2.2342785086483838E-002   3.4376295012536112E-002
  -7.3188457501360119E-002   2.1909326387157479E-002   3.4084894181890188E-002
  -7.1102201339072121E-002   2.1363073396186691E-002   3.4079180543241883E-002
  -6.9015945176784055E-002   2.0704026113571486E-002   3.4359154096591252E-002
  -8.4582568752666620E-002   2.4842306800699487E-002   2.9948842439290135E-002
  -8.2181573188284576E-002   2.4536866456039086E-002   2.9180917128452041E-002
  -7.9780577623902532E-002   2.4064367567423139E-002   2.8756783429804408E-002
  -7.7379582059520488E-002   2.3424810134851648E-002   2.8676441343347001E-002
  -7.4978586495138444E-002   2.2618194158324612E-002   2.8939890869079998E-002
  -5.0213293620040872E-002   1.4961521979311998E-002   4.9568738858721179E-002
  -4.8523612476757037E-002   1.4753745510314428E-002   4.9089771824806366E-002
  -4.6833931333473175E-002   1.4513100039793156E-002   4.8905647635004407E-002
  -4.5144250190189326E-002   1.4239585567747969E-002   4.9016366289315397E-002
  -4.3454569046905464E-002   1.3933202094179031E-002   4.9421927787739350E-002
  -5.6633298739235248E-002   1.6875690024065138E-002   4.4673578091411828E-002
  -5.4682033455540117E-002   1.6500430855604195E-002   4.4288156073155407E-002
  -5.2730768171844994E-002   1.6106738926827152E-002   4.4131059491608678E-002
  -5.0779502888149822E-002   1.5694614237733974E-002   4.4202288346771521E-002
  -4.8828237604454698E-002   1.5264056788324765E-002   4.4501842638644151E-002
  -6.2900849258149649E-002   1.8789858068818305E-002   3.9603716504035227E-002
  -6.0754517241446482E-002   1.8247116200893913E-002   3.9326275742644912E-002
  -5.8608185224743301E-002   1.7700377813861100E-002   3.9210643010560979E-002
  -5.6461853208040133E-002   1.7149642907719982E-002   3.9256818307783506E-002
  -5.4315521191336910E-002   1.6594911482470442E-002   3.9464801634312291E-002
  -6.9015945176784055E-002   2.0704026113571486E-002   3.4359154096591252E-002
  -6.6741063834476089E-002   1.9993801546183628E-002   3.4204130833274830E-002
  -6.4466182492168178E-002   1.9294016700895072E-002   3.4144398191861533E-002
  -6.2191301149860184E-002   1.8604671577706070E-002   3.4179956172351311E-002
  -5.9916419807552315E-002   1.7925766176616176E-002   3.4310804774744311E-002
  -7.4978586495138444E-002   2.2618194158324612E-002   2.8939890869079998E-002
  -7.2641673234629001E-002   2.1740486891473454E-002   2.8921721345045143E-002
  -7.0304759974119529E-002   2.0887655587929044E-002   2.8932325035510131E-002
  -6.7967846713610086E-002   2.0059700247691992E-002   2.8971701940474964E-002
  -6.5630933453100615E-002   1.9256620870761909E-002   2.9039852059939808E-002
  -4.3454569046905464E-002   1.3933202094179031E-002   4.9421927787739350E-002
  -4.1295659137000187E-002   1.3513670833953828E-002   4.8173476160749351E-002
  -3.9136749227094890E-002   1.2900713001940067E-002   4.7138401574157107E-002
  -3.6977839317189606E-002   1.2094328598137749E-002   4.6316704027962119E-002
  -3.4818929407284316E-002   1.1094517622546762E-002   4.5708383522164664E-002
  -4.8828237604454698E-002   1.5264056788324765E-002   4.4501842638644151E-002
  -4.6406755517368677E-002   1.4777181403465289E-002   4.3045156277917912E-002
  -4.3985273430282648E-002   1.4196102908021369E-002   4.1900237231155713E-002
  -4.1563791343196592E-002   1.3520821301993391E-002   4.1067085498357497E-002
  -3.9142309256110605E-002   1.2751336585380746E-002   4.0545701079523155E-002
  -5.4315521191336910E-002   1.6594911482470442E-002   3.9464801634312291E-002
  -5.1533076653503700E-002   1.6040691972976695E-002   3.7899104001054132E-002
  -4.8750632115670475E-002   1.5491492814102836E-002   3.6743563955326367E-002
  -4.5968187577837272E-002   1.4947314005848866E-002   3.5998181497129147E-002
  -4.3185743040004033E-002   1.4408155548214729E-002   3.5662956626462211E-002
  -5.9916419807552315E-002   1.7925766176616176E-002   3.4310804774744311E-002
  -5.6674622545405319E-002   1.7304202542488212E-002   3.2735319330158365E-002
  -5.3432825283258399E-002   1.6786882720184249E-002   3.1668381746669166E-002
  -5.0191028021111438E-002   1.6373806709704314E-002   3.1109992024277028E-002
  -4.6949230758964539E-002   1.6064974511048602E-002   3.1060150162981782E-002
  -6.5630933453100615E-002   1.9256620870761909E-002   2.9039852059939808E-002
  -6.1831393193073500E-002   1.8567713111999534E-002   2.7553802265230160E-002
  -5.8031852933046385E-002   1.8082272626265591E-002   2.6674690605183987E-002
  -5.4232312673019312E-002   1.7800299413559869E-002   2.6402517079801222E-002
  -5.0432772412992183E-002   1.7721793473882697E-002   2.6737281689081849E-002
  -3.4818929407284316E-002   1.1094517622546762E-002   4.5708383522164664E-002
  -3.6415391293365157E-002   1.0369782946434841E-002   4.9866546537548462E-002
  -3.8011853179445998E-002   1.0388627441069304E-002   5.3640275847026159E-002
  -3.9608315065526832E-002   1.1151051106450684E-002   5.7029571450598088E-002
  -4.1204776951607680E-002   1.2657053942578433E-002   6.0034433348263971E-002
  -3.9142309256110605E-002   1.2751336585380746E-002   4.0545701079523155E-002
  -4.1137570804409218E-002   1.2099289839434813E-002   4.5505773314859999E-002
  -4.3132832352707748E-002   1.1776322145406470E-002   5.0052679931667274E-002
  -4.5128093901006298E-002   1.1782433503295636E-002   5.4186420929944933E-002
  -4.7123355449304891E-002   1.2117623913102171E-002   5.7906996309693204E-002
  -4.3185743040004033E-002   1.4408155548214729E-002   3.5662956626462211E-002
  -4.5608536163143955E-002   1.3828796732434798E-002   4.1010437962923127E-002
  -4.8031329286283897E-002   1.3164016849743290E-002   4.5916021768230980E-002
  -5.0454122409423784E-002   1.2413815900140419E-002   5.0379708042385639E-002
  -5.2876915532563754E-002   1.1578193883625965E-002   5.4401496785386971E-002
  -4.6949230758964539E-002   1.6064974511048602E-002   3.1060150162981782E-002
  -4.9828287369569506E-002   1.5558303625434720E-002   3.6380540481737778E-002
  -5.2707343980174369E-002   1.4551711554080339E-002   4.1230301356716889E-002
  -5.5586400590779253E-002   1.3045198296985453E-002   4.5609432787919311E-002
  -5.8465457201384199E-002   1.1038763854149786E-002   4.9517934775344823E-002
  -5.0432772412992183E-002   1.7721793473882697E-002   2.6737281689081849E-002
  -5.3796824423685718E-002   1.7287810518434754E-002   3.1616080871303909E-002
  -5.7160876434379268E-002   1.5939406258417305E-002   3.5995518697125445E-002
  -6.0524928445072824E-002   1.3676580693830105E-002   3.9875595166546707E-002
  -6.3888980455766353E-002   1.0499333824673496E-002   4.3256310279567223E-002
  -4.1204776951607680E-002   1.2657053942578433E-002   6.0034433348263971E-002
  -3.5617551390109539E-002   1.3360495947247475E-002   5.3110743538373750E-002
  -3.0030325828611371E-002   1.1715237118252259E-002   4.7778942516606304E-002
  -2.4443100267113257E-002   7.7212774555928052E-003   4.4039030282961827E-002
  -1.8855874705615061E-002   1.3786169592693298E-003   4.1891006837439626E-002
  -4.7123355449304891E-002   1.2117623913102171E-002   5.7906996309693204E-002
  -4.0115231606209126E-002   1.2027944213245462E-002   4.9213574355261885E-002
  -3.3107107763113298E-002   1.0759445242144311E-002   4.1770060175903095E-002
  -2.6098983920017447E-002   8.3121269997987399E-003   3.5576453771616612E-002
  -1.9090860076921762E-002   4.6859894862087970E-003   3.0632755142402601E-002
  -5.2876915532563754E-002   1.1578193883625965E-002   5.4401496785386971E-002
  -4.4789874420920639E-002   1.0695392479243532E-002   4.5108224248834261E-002
  -3.6702833309277531E-002   9.8036533660364883E-003   3.6722878474303763E-002
  -2.8615792197634427E-002   8.9029765440047336E-003   2.9245459461795464E-002
  -2.0528751085991254E-002   7.9933620131483751E-003   2.2675967211309378E-002
  -5.8465457201384199E-002   1.1038763854149786E-002   4.9517934775344823E-002
  -4.9641479834244072E-002   9.3628407452415602E-003   4.0794693219090759E-002
  -4.0817502467103965E-002   8.8478614899284921E-003   3.2637397411808322E-002
  -3.1993525099963775E-002   9.4938260882106978E-003   2.5046047353497844E-002
  -2.3169547732823724E-002   1.1300734540087787E-002   1.8020643044159304E-002
  -6.3888980455766353E-002   1.0499333824673496E-002   4.3256310279567223E-002
  -5.4670047846179487E-002   8.0302890112396441E-003   3.6272981266031457E-002
  -4.5451115236592621E-002   7.8920696138207458E-003   2.9513616988416980E-002
  -3.6232182627005838E-002   1.0084675632416669E-002   2.2978217446724097E-002
  -2.7013250017418944E-002   1.4608107067027420E-002   1.6666782640953004E-002
  -9.0366450910137647E-002   0.0000000000000000        4.9830660079420067E-002
  -9.3964468400037041E-002   5.4011557748043365E-003   5.3204516128230003E-002
  -9.7562485889936434E-002   1.0667022594042877E-002   5.4959795647630851E-002
 -0.10116050337983583        1.5797600457715617E-002   5.5096498637622615E-002
 -0.10475852086973522        2.0792889365822562E-002   5.3614625098205262E-002
 -0.10329946544821295        0.0000000000000000        5.8657511878852105E-002
 -0.10683447807649848        1.0885836496134404E-002   5.2114233881653614E-002
 -0.11036949070478401        1.9173539291983926E-002   4.7315542137091965E-002
 -0.11390450333306956        2.4863108387548544E-002   4.4261436645167122E-002
 -0.11743951596135507        2.7954543782828294E-002   4.2951917405879135E-002
 -0.12646448409539435        0.0000000000000000        7.4200466771973755E-002
 -0.12657332908002006        1.6370517217464468E-002   5.5277209984047754E-002
 -0.12668217406464580        2.7680055989924963E-002   4.1461702230804497E-002
 -0.12679101904927156        3.3928616317381470E-002   3.2753943512243977E-002
 -0.12689986403389725        3.5116198199834039E-002   2.9153933828366257E-002
 -0.15986150685168177        0.0000000000000000        9.6459524758785012E-002
 -0.15318102141060178        2.1855197938794538E-002   6.2693444435412415E-002
 -0.14650053596952178        3.6186572687866021E-002   3.7398275928768474E-002
 -0.13982005052844185        4.2994124247214417E-002   2.0574019238853200E-002
 -0.13313956508736186        4.2277852616839785E-002   1.2220674365666614E-002
 -0.20349053371707523        0.0000000000000000       0.12543468583928591     
 -0.18665755506824361        2.7339878660124606E-002   7.4362937235747578E-002
 -0.16982457641941198        4.4693089385807051E-002   3.5125263230983868E-002
 -0.15299159777058038        5.2059632177047344E-002   7.7216638249947567E-003
 -0.13615861912174876        4.9439507033845517E-002  -7.8478609822197690E-003
 -0.10475852086973522        2.0792889365822562E-002   5.3614625098205262E-002
 -0.10210734416920281        2.4937014202343417E-002   4.5632200929643485E-002
  -9.9456167468670365E-002   2.7514099851257884E-002   3.9340901337823336E-002
  -9.6804990768137936E-002   2.8524146312565991E-002   3.4740726322744775E-002
  -9.4153814067605535E-002   2.7967153586267696E-002   3.1831675884407856E-002
 -0.11743951596135507        2.7954543782828294E-002   4.2951917405879135E-002
 -0.11348605818260343        2.9424472238575330E-002   3.6695337074679146E-002
 -0.10953260040385181        3.0249520515541885E-002   3.1352194323175972E-002
 -0.10557914262510021        3.0429688613727943E-002   2.6922489151369629E-002
 -0.10162568484634854        2.9964976533133479E-002   2.3406221559260032E-002
 -0.12689986403389725        3.5116198199834039E-002   2.9153933828366257E-002
 -0.12242181217397123        3.3911930274807288E-002   2.5545356343353979E-002
 -0.11794376031404522        3.2984941179825894E-002   2.2072529440993624E-002
 -0.11346570845411923        3.2335230914889899E-002   1.8735453121285339E-002
 -0.10898765659419318        3.1962799479999263E-002   1.5534127384229025E-002
 -0.13313956508736186        4.2277852616839785E-002   1.2220674365666614E-002
 -0.12891460614330622        3.8399388311039208E-002   1.2182258735667865E-002
 -0.12468964719925060        3.5720361844109920E-002   1.1501906691276336E-002
 -0.12046468825519500        3.4240773216051831E-002   1.0179618232491880E-002
 -0.11623972931113938        3.3960622426865060E-002   8.2153933593147755E-003
 -0.13615861912174876        4.9439507033845517E-002  -7.8478609822197690E-003
 -0.13296444009060837        4.2886846347271149E-002  -3.3939557483790954E-003
 -0.12977026105946796        3.8455782508393897E-002  -3.5967392597598992E-004
 -0.12657608202832757        3.6146315517213833E-002   1.2549844849894880E-003
 -0.12338190299718718        3.5958445373730830E-002   1.4500194845173120E-003
  -9.4153814067605535E-002   2.7967153586267696E-002   3.1831675884407856E-002
  -9.1761002738870806E-002   2.6766466422093557E-002   3.1261502587922256E-002
  -8.9368191410136077E-002   2.5845429569774155E-002   3.0757639248240778E-002
  -8.6975380081401321E-002   2.5204043029309481E-002   3.0320085865363430E-002
  -8.4582568752666620E-002   2.4842306800699487E-002   2.9948842439290135E-002
 -0.10162568484634854        2.9964976533133479E-002   2.3406221559260032E-002
  -9.9147453484339065E-002   2.9198908743896999E-002   2.3125966906819128E-002
  -9.6669222122329576E-002   2.8475009716157108E-002   2.2950242364123671E-002
  -9.4190990760320142E-002   2.7793279449913742E-002   2.2879047931173558E-002
  -9.1712759398310570E-002   2.7153717945166855E-002   2.2912383607968836E-002
 -0.10898765659419318        3.1962799479999263E-002   1.5534127384229025E-002
 -0.10638578504596763        3.1631351065700496E-002   1.5306309825474576E-002
 -0.10378391349774210        3.1104589862540086E-002   1.5221242529406893E-002
 -0.10118204194951655        3.0382515870517948E-002   1.5278925496025933E-002
  -9.8580170401291009E-002   2.9465129089634196E-002   1.5479358725331641E-002
 -0.11623972931113938        3.3960622426865060E-002   8.2153933593147755E-003
 -0.11347599742375648        3.4063793387504010E-002   7.8025313438884851E-003
 -0.11071226553637353        3.3734170008923009E-002   7.5706397440905094E-003
 -0.10794853364899065        3.2971752291122224E-002   7.5197185599204328E-003
 -0.10518480176160773        3.1776540234101536E-002   7.6497677913783535E-003
 -0.12338190299718718        3.5958445373730830E-002   1.4500194845173120E-003
 -0.12041809061770559        3.6496235709307406E-002   6.1463146206131025E-004
 -0.11745427823822403        3.6363750155305991E-002  -1.5659918254432026E-006
 -0.11449046585874248        3.5560988711726450E-002  -3.9857287714272112E-004
 -0.11152665347926088        3.4087951378568904E-002  -5.7638919389091381E-004
  -8.4582568752666620E-002   2.4842306800699487E-002   2.9948842439290135E-002
  -8.2181573188284576E-002   2.4536866456039086E-002   2.9180917128452041E-002
  -7.9780577623902532E-002   2.4064367567423139E-002   2.8756783429804408E-002
  -7.7379582059520488E-002   2.3424810134851648E-002   2.8676441343347001E-002
  -7.4978586495138444E-002   2.2618194158324612E-002   2.8939890869079998E-002
  -9.1712759398310570E-002   2.7153717945166855E-002   2.2912383607968836E-002
  -8.9020050275097906E-002   2.6520949766097729E-002   2.2257339559386469E-002
  -8.6327341151885228E-002   2.5859599476887707E-002   2.1841931016275060E-002
  -8.3634632028672523E-002   2.5169667077536734E-002   2.1666157978634568E-002
  -8.0941922905459873E-002   2.4451152568044809E-002   2.1730020446465048E-002
  -9.8580170401291009E-002   2.9465129089634196E-002   1.5479358725331641E-002
  -9.5699903825967061E-002   2.8505033076156372E-002   1.5075672372819558E-002
  -9.2819637250643100E-002   2.7654831386352330E-002   1.4807465419058925E-002
  -8.9939370675319139E-002   2.6914524020221930E-002   1.4674737864049943E-002
  -8.7059104099995191E-002   2.6284110977765091E-002   1.4677489707792465E-002
 -0.10518480176160773        3.1776540234101536E-002   7.6497677913783535E-003
 -0.10222113384089192        3.0489116386215043E-002   7.6359155687510775E-003
  -9.9257465920176161E-002   2.9450063295816772E-002   7.6533866381560574E-003
  -9.6293797999460390E-002   2.8659380962906961E-002   7.7021809995931785E-003
  -9.3330130078744578E-002   2.8117069387485358E-002   7.7822986530624479E-003
 -0.11152665347926088        3.4087951378568904E-002  -5.7638919389091381E-004
 -0.10858374031987267        3.2473199696273713E-002  -6.1930852818636861E-005
 -0.10564082716048440        3.1245295205281548E-002   3.7969467356634146E-004
 -0.10269791400109618        3.0404237905592164E-002   7.4848738526419809E-004
  -9.9755000841707908E-002   2.9950027797205570E-002   1.0444472822748185E-003
  -7.4978586495138444E-002   2.2618194158324612E-002   2.8939890869079998E-002
  -7.2641673234629001E-002   2.1740486891473454E-002   2.8921721345045143E-002
  -7.0304759974119529E-002   2.0887655587929044E-002   2.8932325035510131E-002
  -6.7967846713610086E-002   2.0059700247691992E-002   2.8971701940474964E-002
  -6.5630933453100615E-002   1.9256620870761909E-002   2.9039852059939808E-002
  -8.0941922905459873E-002   2.4451152568044809E-002   2.1730020446465048E-002
  -7.8535565095351992E-002   2.3689186562715389E-002   2.1581955014201057E-002
  -7.6129207285244263E-002   2.2868899675851595E-002   2.1544005466633903E-002
  -7.3722849475136409E-002   2.1990291907453483E-002   2.1616171803763379E-002
  -7.1316491665028653E-002   2.1053363257521107E-002   2.1798454025589803E-002
  -8.7059104099995191E-002   2.6284110977765091E-002   1.4677489707792465E-002
  -8.4501959070092114E-002   2.5637886233957519E-002   1.4316331522457933E-002
  -8.1944814040189107E-002   2.4850143763773980E-002   1.4146631892017245E-002
  -7.9387669010286072E-002   2.3920883567215057E-002   1.4168390816470141E-002
  -7.6830523980383023E-002   2.2850105644280222E-002   1.4381608295816833E-002
  -9.3330130078744578E-002   2.8117069387485358E-002   7.7822986530624479E-003
  -9.0540855158849382E-002   2.7586585905199440E-002   7.1248508698159574E-003
  -8.7751580238954144E-002   2.6831387851696337E-002   6.7402043116602528E-003
  -8.4962305319058920E-002   2.5851475226976367E-002   6.6283589785952682E-003
  -8.2173030399163668E-002   2.4646848031039462E-002   6.7893148706208127E-003
  -9.9755000841707908E-002   2.9950027797205570E-002   1.0444472822748185E-003
  -9.6652253361623586E-002   2.9535285576441583E-002   7.5130562752490082E-006
  -9.3549505881539291E-002   2.8812631939618805E-002  -6.7527727443690566E-004
  -9.0446758401454982E-002   2.7782066886738011E-002  -1.0039237098613991E-003
  -8.7344010921370674E-002   2.6443590417798535E-002  -9.7842624999816552E-004
  -6.5630933453100615E-002   1.9256620870761909E-002   2.9039852059939808E-002
  -6.1831393193073500E-002   1.8567713111999534E-002   2.7553802265230160E-002
  -5.8031852933046385E-002   1.8082272626265591E-002   2.6674690605183987E-002
  -5.4232312673019312E-002   1.7800299413559869E-002   2.6402517079801222E-002
  -5.0432772412992183E-002   1.7721793473882697E-002   2.6737281689081849E-002
  -7.1316491665028653E-002   2.1053363257521107E-002   2.1798454025589803E-002
  -6.6981991605333274E-002   2.0191613974994471E-002   2.0618025237145815E-002
  -6.2647491545637826E-002   1.9538544308813841E-002   1.9900577913375017E-002
  -5.8312991485942441E-002   1.9094154258978892E-002   1.9646112054277402E-002
  -5.3978491426246999E-002   1.8858443825490068E-002   1.9854627659853241E-002
  -7.6830523980383023E-002   2.2850105644280222E-002   1.4381608295816833E-002
  -7.2105020791009514E-002   2.1815514837989256E-002   1.3512012856956010E-002
  -6.7379517601635991E-002   2.0994815991362041E-002   1.2961442212778257E-002
  -6.2654014412262510E-002   2.0388009104397808E-002   1.2729896363283488E-002
  -5.7928511222889036E-002   1.9995094177097217E-002   1.2817375308471587E-002
  -8.2173030399163668E-002   2.4646848031039462E-002   6.7893148706208127E-003
  -7.7200480750102302E-002   2.3439415700984310E-002   6.2357651246608414E-003
  -7.2227931101040976E-002   2.2451087673910099E-002   5.8572835033935625E-003
  -6.7255381451979665E-002   2.1681863949816832E-002   5.6538700068188381E-003
  -6.2282831802918263E-002   2.1131744528704477E-002   5.6255246349371721E-003
  -8.7344010921370674E-002   2.6443590417798535E-002  -9.7842624999816552E-004
  -8.2268371482611680E-002   2.5063316563978866E-002  -1.2107179597399820E-003
  -7.7192732043852741E-002   2.3907359356458435E-002  -1.4118982147791476E-003
  -7.2117092605093774E-002   2.2975718795235620E-002  -1.5819670151160058E-003
  -6.7041453166334808E-002   2.2268394880311848E-002  -1.7209243607503311E-003
  -5.0432772412992183E-002   1.7721793473882697E-002   2.6737281689081849E-002
  -5.3796824423685718E-002   1.7287810518434754E-002   3.1616080871303909E-002
  -5.7160876434379268E-002   1.5939406258417305E-002   3.5995518697125445E-002
  -6.0524928445072824E-002   1.3676580693830105E-002   3.9875595166546707E-002
  -6.3888980455766353E-002   1.0499333824673496E-002   4.3256310279567223E-002
  -5.3978491426246999E-002   1.8858443825490068E-002   1.9854627659853241E-002
  -5.7890277481990993E-002   1.8513585986703718E-002   2.3610055504283106E-002
  -6.1802063537734875E-002   1.7741753720977166E-002   2.6769376615012580E-002
  -6.5713849593478840E-002   1.6542947028310460E-002   2.9332590992041691E-002
  -6.9625635649222736E-002   1.4917165908703400E-002   3.1299698635370576E-002
  -5.7928511222889036E-002   1.9995094177097217E-002   1.2817375308471587E-002
  -6.2484776700983263E-002   1.9739361454972959E-002   1.5936878692738646E-002
  -6.7041042179077609E-002   1.9544101183537291E-002   1.8363529966005279E-002
  -7.1597307657171913E-002   1.9409313362790923E-002   2.0097329128271696E-002
  -7.6153573135266189E-002   1.9334997992733305E-002   2.1138276179537896E-002
  -6.2282831802918263E-002   2.1131744528704477E-002   5.6255246349371721E-003
  -6.7580322080662836E-002   2.0965136923241950E-002   8.5965504366705449E-003
  -7.2877812358407387E-002   2.1346448646097450E-002   1.0777978750103844E-002
  -7.8175302636152008E-002   2.2275679697270942E-002   1.2169809575236773E-002
  -8.3472792913896518E-002   2.3752830076763098E-002   1.2772042912069639E-002
  -6.7041453166334808E-002   2.2268394880311848E-002  -1.7209243607503311E-003
  -7.3176913621029516E-002   2.2190912391510942E-002   1.5890707360787237E-003
  -7.9312374075724279E-002   2.3148796108657194E-002   4.0127229673080633E-003
  -8.5447834530419042E-002   2.5142046031751471E-002   5.5500323329365289E-003
  -9.1583294985113750E-002   2.8170662160792892E-002   6.2009988329655430E-003
  -6.3888980455766353E-002   1.0499333824673496E-002   4.3256310279567223E-002
  -5.4670047846179487E-002   8.0302890112396441E-003   3.6272981266031457E-002
  -4.5451115236592621E-002   7.8920696138207458E-003   2.9513616988416980E-002
  -3.6232182627005838E-002   1.0084675632416669E-002   2.2978217446724097E-002
  -2.7013250017418944E-002   1.4608107067027420E-002   1.6666782640953004E-002
  -6.9625635649222736E-002   1.4917165908703400E-002   3.1299698635370576E-002
  -5.9586829061702096E-002   1.3360964783616952E-002   2.5569476487258047E-002
  -4.9548022474181434E-002   1.2370898074511666E-002   2.1255037559091444E-002
  -3.9509215886660773E-002   1.1946965781387688E-002   1.8356381850870754E-002
  -2.9470409299140132E-002   1.2089167904244968E-002   1.6873509362596684E-002
  -7.6153573135266189E-002   1.9334997992733305E-002   2.1138276179537896E-002
  -6.4103074085787207E-002   1.8691640555994066E-002   1.4896469896815270E-002
  -5.2052575036308293E-002   1.6849726535202572E-002   1.1262265318062792E-002
  -4.0002075986829352E-002   1.3809255930358536E-002   1.0235662443281210E-002
  -2.7951576937350453E-002   9.5702287414624054E-003   1.1816661272469997E-002
  -8.3472792913896518E-002   2.3752830076763098E-002   1.2772042912069639E-002
  -6.8218782918434848E-002   2.4022316328371221E-002   4.2539614947029250E-003
  -5.2964772922973212E-002   2.1328554995893263E-002  -4.6469973466885944E-004
  -3.7710762927511562E-002   1.5671546079329746E-002  -1.3839407760454382E-003
  -2.2456752932049892E-002   7.0512895786797869E-003   1.4962383705727361E-003
  -9.1583294985113750E-002   2.8170662160792892E-002   6.2009988329655430E-003
  -7.1933955559644880E-002   2.9352992100748598E-002  -6.3580487190787460E-003
  -5.2284616134176065E-002   2.5807383456584621E-002  -1.3925857599103558E-002
  -3.2635276708707139E-002   1.7533836228300625E-002  -1.6502427807108914E-002
  -1.2985937283238380E-002   4.5323504158973904E-003  -1.4087759343094808E-002
 </DataArray>
 </PointData>
 </Piece>
 <Piece  NumberOfPoints="          1600 "  NumberOfCells="         1024 ">
 <Points>
 <DataArray  type="Float64" NumberOfComponents="3"  format="ascii" >
  0.50000000000000000        0.0000000000000000        0.0000000000000000     
  0.53125000000000000        0.0000000000000000        0.0000000000000000     
  0.56250000000000000        0.0000000000000000        0.0000000000000000     
  0.59375000000000000        0.0000000000000000        0.0000000000000000     
  0.62500000000000000        0.0000000000000000        0.0000000000000000     
  0.50000000000000000        3.1250000000000000E-002   0.0000000000000000     
  0.53125000000000000        3.1250000000000000E-002   0.0000000000000000     
  0.56250000000000000        3.1250000000000000E-002   0.0000000000000000     
  0.59375000000000000        3.1250000000000000E-002   0.0000000000000000     
  0.62500000000000000        3.1250000000000000E-002   0.0000000000000000     
  0.50000000000000000        6.2500000000000000E-002   0.0000000000000000     
  0.53125000000000000        6.2500000000000000E-002   0.0000000000000000     
  0.56250000000000000        6.2500000000000000E-002   0.0000000000000000     
  0.59375000000000000        6.2500000000000000E-002   0.0000000000000000     
  0.62500000000000000        6.2500000000000000E-002   0.0000000000000000     
  0.50000000000000000        9.3750000000000000E-002   0.0000000000000000     
  0.53125000000000000        9.3750000000000000E-002   0.0000000000000000     
  0.56250000000000000        9.3750000000000000E-002   0.0000000000000000     
  0.59375000000000000        9.3750000000000000E-002   0.0000000000000000     
  0.62500000000000000        9.3750000000000000E-002   0.0000000000000000     
  0.50000000000000000       0.12500000000000000        0.0000000000000000     
  0.53125000000000000       0.12500000000000000        0.0000000000000000     
  0.56250000000000000       0.12500000000000000        0.0000000000000000     
  0.59375000000000000       0.12500000000000000        0.0000000000000000     
  0.62500000000000000       0.12500000000000000        0.0000000000000000     
  0.62500000000000000        0.0000000000000000        0.0000000000000000     
  0.65625000000000000        0.0000000000000000        0.0000000000000000     
  0.68750000000000000        0.0000000000000000        0.0000000000000000     
  0.71875000000000000        0.0000000000000000        0.0000000000000000     
  0.75000000000000000        0.0000000000000000        0.0000000000000000     
  0.62500000000000000        3.1250000000000000E-002   0.0000000000000000     
  0.65625000000000000        3.1250000000000000E-002   0.0000000000000000     
  0.68750000000000000        3.1250000000000000E-002   0.0000000000000000     
  0.71875000000000000        3.1250000000000000E-002   0.0000000000000000     
  0.75000000000000000        3.1250000000000000E-002   0.0000000000000000     
  0.62500000000000000        6.2500000000000000E-002   0.0000000000000000     
  0.65625000000000000        6.2500000000000000E-002   0.0000000000000000     
  0.68750000000000000        6.2500000000000000E-002   0.0000000000000000     
  0.71875000000000000        6.2500000000000000E-002   0.0000000000000000     
  0.75000000000000000        6.2500000000000000E-002   0.0000000000000000     
  0.62500000000000000        9.3750000000000000E-002   0.0000000000000000     
  0.65625000000000000        9.3750000000000000E-002   0.0000000000000000     
  0.68750000000000000        9.3750000000000000E-002   0.0000000000000000     
  0.71875000000000000        9.3750000000000000E-002   0.0000000000000000     
  0.75000000000000000        9.3750000000000000E-002   0.0000000000000000     
  0.62500000000000000       0.12500000000000000        0.0000000000000000     
  0.65625000000000000       0.12500000000000000        0.0000000000000000     
  0.68750000000000000       0.12500000000000000        0.0000000000000000     
  0.71875000000000000       0.12500000000000000        0.0000000000000000     
  0.75000000000000000       0.12500000000000000        0.0000000000000000     
  0.75000000000000000        0.0000000000000000        0.0000000000000000     
  0.78125000000000000        0.0000000000000000        0.0000000000000000     
  0.81250000000000000        0.0000000000000000        0.0000000000000000     
  0.84375000000000000        0.0000000000000000        0.0000000000000000     
  0.87500000000000000        0.0000000000000000        0.0000000000000000     
  0.75000000000000000        3.1250000000000000E-002   0.0000000000000000     
  0.78125000000000000        3.1250000000000000E-002   0.0000000000000000     
  0.81250000000000000        3.1250000000000000E-002   0.0000000000000000     
  0.84375000000000000        3.1250000000000000E-002   0.0000000000000000     
  0.87500000000000000        3.1250000000000000E-002   0.0000000000000000     
  0.75000000000000000        6.2500000000000000E-002   0.0000000000000000     
  0.78125000000000000        6.2500000000000000E-002   0.0000000000000000     
  0.81250000000000000        6.2500000000000000E-002   0.0000000000000000     
  0.84375000000000000        6.2500000000000000E-002   0.0000000000000000     
  0.87500000000000000        6.2500000000000000E-002   0.0000000000000000     
  0.75000000000000000        9.3750000000000000E-002   0.0000000000000000     
  0.78125000000000000        9.3750000000000000E-002   0.0000000000000000     
  0.81250000000000000        9.3750000000000000E-002   0.0000000000000000     
  0.84375000000000000        9.3750000000000000E-002   0.0000000000000000     
  0.87500000000000000        9.3750000000000000E-002   0.0000000000000000     
  0.75000000000000000       0.12500000000000000        0.0000000000000000     
  0.78125000000000000       0.12500000000000000        0.0000000000000000     
  0.81250000000000000       0.12500000000000000        0.0000000000000000     
  0.84375000000000000       0.12500000000000000        0.0000000000000000     
  0.87500000000000000       0.12500000000000000        0.0000000000000000     
  0.87500000000000000        0.0000000000000000        0.0000000000000000     
  0.90625000000000000        0.0000000000000000        0.0000000000000000     
  0.93750000000000000        0.0000000000000000        0.0000000000000000     
  0.96875000000000000        0.0000000000000000        0.0000000000000000     
   1.0000000000000000        0.0000000000000000        0.0000000000000000     
  0.87500000000000000        3.1250000000000000E-002   0.0000000000000000     
  0.90625000000000000        3.1250000000000000E-002   0.0000000000000000     
  0.93750000000000000        3.1250000000000000E-002   0.0000000000000000     
  0.96875000000000000        3.1250000000000000E-002   0.0000000000000000     
   1.0000000000000000        3.1250000000000000E-002   0.0000000000000000     
  0.87500000000000000        6.2500000000000000E-002   0.0000000000000000     
  0.90625000000000000        6.2500000000000000E-002   0.0000000000000000     
  0.93750000000000000        6.2500000000000000E-002   0.0000000000000000     
  0.96875000000000000        6.2500000000000000E-002   0.0000000000000000     
   1.0000000000000000        6.2500000000000000E-002   0.0000000000000000     
  0.87500000000000000        9.3750000000000000E-002   0.0000000000000000     
  0.90625000000000000        9.3750000000000000E-002   0.0000000000000000     
  0.93750000000000000        9.3750000000000000E-002   0.0000000000000000     
  0.96875000000000000        9.3750000000000000E-002   0.0000000000000000     
   1.0000000000000000        9.3750000000000000E-002   0.0000000000000000     
  0.87500000000000000       0.12500000000000000        0.0000000000000000     
  0.90625000000000000       0.12500000000000000        0.0000000000000000     
  0.93750000000000000       0.12500000000000000        0.0000000000000000     
  0.96875000000000000       0.12500000000000000        0.0000000000000000     
   1.0000000000000000       0.12500000000000000        0.0000000000000000     
   1.0000000000000000        0.0000000000000000        0.0000000000000000     
   1.0312500000000000        0.0000000000000000        0.0000000000000000     
   1.0625000000000000        0.0000000000000000        0.0000000000000000     
   1.0937500000000000        0.0000000000000000        0.0000000000000000     
   1.1250000000000000        0.0000000000000000        0.0000000000000000     
   1.0000000000000000        3.1250000000000000E-002   0.0000000000000000     
   1.0312500000000000        3.1250000000000000E-002   0.0000000000000000     
   1.0625000000000000        3.1250000000000000E-002   0.0000000000000000     
   1.0937500000000000        3.1250000000000000E-002   0.0000000000000000     
   1.1250000000000000        3.1250000000000000E-002   0.0000000000000000     
   1.0000000000000000        6.2500000000000000E-002   0.0000000000000000     
   1.0312500000000000        6.2500000000000000E-002   0.0000000000000000     
   1.0625000000000000        6.2500000000000000E-002   0.0000000000000000     
   1.0937500000000000        6.2500000000000000E-002   0.0000000000000000     
   1.1250000000000000        6.2500000000000000E-002   0.0000000000000000     
   1.0000000000000000        9.3750000000000000E-002   0.0000000000000000     
   1.0312500000000000        9.3750000000000000E-002   0.0000000000000000     
   1.0625000000000000        9.3750000000000000E-002   0.0000000000000000     
   1.0937500000000000        9.3750000000000000E-002   0.0000000000000000     
   1.1250000000000000        9.3750000000000000E-002   0.0000000000000000     
   1.0000000000000000       0.12500000000000000        0.0000000000000000     
   1.0312500000000000       0.12500000000000000        0.0000000000000000     
   1.0625000000000000       0.12500000000000000        0.0000000000000000     
   1.0937500000000000       0.12500000000000000        0.0000000000000000     
   1.1250000000000000       0.12500000000000000        0.0000000000000000     
   1.1250000000000000        0.0000000000000000        0.0000000000000000     
   1.1562500000000000        0.0000000000000000        0.0000000000000000     
   1.1875000000000000        0.0000000000000000        0.0000000000000000     
   1.2187500000000000        0.0000000000000000        0.0000000000000000     
   1.2500000000000000        0.0000000000000000        0.0000000000000000     
   1.1250000000000000        3.1250000000000000E-002   0.0000000000000000     
   1.1562500000000000        3.1250000000000000E-002   0.0000000000000000     
   1.1875000000000000        3.1250000000000000E-002   0.0000000000000000     
   1.2187500000000000        3.1250000000000000E-002   0.0000000000000000     
   1.2500000000000000        3.1250000000000000E-002   0.0000000000000000     
   1.1250000000000000        6.2500000000000000E-002   0.0000000000000000     
   1.1562500000000000        6.2500000000000000E-002   0.0000000000000000     
   1.1875000000000000        6.2500000000000000E-002   0.0000000000000000     
   1.2187500000000000        6.2500000000000000E-002   0.0000000000000000     
   1.2500000000000000        6.2500000000000000E-002   0.0000000000000000     
   1.1250000000000000        9.3750000000000000E-002   0.0000000000000000     
   1.1562500000000000        9.3750000000000000E-002   0.0000000000000000     
   1.1875000000000000        9.3750000000000000E-002   0.0000000000000000     
   1.2187500000000000        9.3750000000000000E-002   0.0000000000000000     
   1.2500000000000000        9.3750000000000000E-002   0.0000000000000000     
   1.1250000000000000       0.12500000000000000        0.0000000000000000     
   1.1562500000000000       0.12500000000000000        0.0000000000000000     
   1.1875000000000000       0.12500000000000000        0.0000000000000000     
   1.2187500000000000       0.12500000000000000        0.0000000000000000     
   1.2500000000000000       0.12500000000000000        0.0000000000000000     
   1.2500000000000000        0.0000000000000000        0.0000000000000000     
   1.2812500000000000        0.0000000000000000        0.0000000000000000     
   1.3125000000000000        0.0000000000000000        0.0000000000000000     
   1.3437500000000000        0.0000000000000000        0.0000000000000000     
   1.3750000000000000        0.0000000000000000        0.0000000000000000     
   1.2500000000000000        3.1250000000000000E-002   0.0000000000000000     
   1.2812500000000000        3.1250000000000000E-002   0.0000000000000000     
   1.3125000000000000        3.1250000000000000E-002   0.0000000000000000     
   1.3437500000000000        3.1250000000000000E-002   0.0000000000000000     
   1.3750000000000000        3.1250000000000000E-002   0.0000000000000000     
   1.2500000000000000        6.2500000000000000E-002   0.0000000000000000     
   1.2812500000000000        6.2500000000000000E-002   0.0000000000000000     
   1.3125000000000000        6.2500000000000000E-002   0.0000000000000000     
   1.3437500000000000        6.2500000000000000E-002   0.0000000000000000     
   1.3750000000000000        6.2500000000000000E-002   0.0000000000000000     
   1.2500000000000000        9.3750000000000000E-002   0.0000000000000000     
   1.2812500000000000        9.3750000000000000E-002   0.0000000000000000     
   1.3125000000000000        9.3750000000000000E-002   0.0000000000000000     
   1.3437500000000000        9.3750000000000000E-002   0.0000000000000000     
   1.3750000000000000        9.3750000000000000E-002   0.0000000000000000     
   1.2500000000000000       0.12500000000000000        0.0000000000000000     
   1.2812500000000000       0.12500000000000000        0.0000000000000000     
   1.3125000000000000       0.12500000000000000        0.0000000000000000     
   1.3437500000000000       0.12500000000000000        0.0000000000000000     
   1.3750000000000000       0.12500000000000000        0.0000000000000000     
   1.3750000000000000        0.0000000000000000        0.0000000000000000     
   1.4062500000000000        0.0000000000000000        0.0000000000000000     
   1.4375000000000000        0.0000000000000000        0.0000000000000000     
   1.4687500000000000        0.0000000000000000        0.0000000000000000     
   1.5000000000000000        0.0000000000000000        0.0000000000000000     
   1.3750000000000000        3.1250000000000000E-002   0.0000000000000000     
   1.4062500000000000        3.1250000000000000E-002   0.0000000000000000     
   1.4375000000000000        3.1250000000000000E-002   0.0000000000000000     
   1.4687500000000000        3.1250000000000000E-002   0.0000000000000000     
   1.5000000000000000        3.1250000000000000E-002   0.0000000000000000     
   1.3750000000000000        6.2500000000000000E-002   0.0000000000000000     
   1.4062500000000000        6.2500000000000000E-002   0.0000000000000000     
   1.4375000000000000        6.2500000000000000E-002   0.0000000000000000     
   1.4687500000000000        6.2500000000000000E-002   0.0000000000000000     
   1.5000000000000000        6.2500000000000000E-002   0.0000000000000000     
   1.3750000000000000        9.3750000000000000E-002   0.0000000000000000     
   1.4062500000000000        9.3750000000000000E-002   0.0000000000000000     
   1.4375000000000000        9.3750000000000000E-002   0.0000000000000000     
   1.4687500000000000        9.3750000000000000E-002   0.0000000000000000     
   1.5000000000000000        9.3750000000000000E-002   0.0000000000000000     
   1.3750000000000000       0.12500000000000000        0.0000000000000000     
   1.4062500000000000       0.12500000000000000        0.0000000000000000     
   1.4375000000000000       0.12500000000000000        0.0000000000000000     
   1.4687500000000000       0.12500000000000000        0.0000000000000000     
   1.5000000000000000       0.12500000000000000        0.0000000000000000     
  0.50000000000000000       0.12500000000000000        0.0000000000000000     
  0.53125000000000000       0.12500000000000000        0.0000000000000000     
  0.56250000000000000       0.12500000000000000        0.0000000000000000     
  0.59375000000000000       0.12500000000000000        0.0000000000000000     
  0.62500000000000000       0.12500000000000000        0.0000000000000000     
  0.50000000000000000       0.15625000000000000        0.0000000000000000     
  0.53125000000000000       0.15625000000000000        0.0000000000000000     
  0.56250000000000000       0.15625000000000000        0.0000000000000000     
  0.59375000000000000       0.15625000000000000        0.0000000000000000     
  0.62500000000000000       0.15625000000000000        0.0000000000000000     
  0.50000000000000000       0.18750000000000000        0.0000000000000000     
  0.53125000000000000       0.18750000000000000        0.0000000000000000     
  0.56250000000000000       0.18750000000000000        0.0000000000000000     
  0.59375000000000000       0.18750000000000000        0.0000000000000000     
  0.62500000000000000       0.18750000000000000        0.0000000000000000     
  0.50000000000000000       0.21875000000000000        0.0000000000000000     
  0.53125000000000000       0.21875000000000000        0.0000000000000000     
  0.56250000000000000       0.21875000000000000        0.0000000000000000     
  0.59375000000000000       0.21875000000000000        0.0000000000000000     
  0.62500000000000000       0.21875000000000000        0.0000000000000000     
  0.50000000000000000       0.25000000000000000        0.0000000000000000     
  0.53125000000000000       0.25000000000000000        0.0000000000000000     
  0.56250000000000000       0.25000000000000000        0.0000000000000000     
  0.59375000000000000       0.25000000000000000        0.0000000000000000     
  0.62500000000000000       0.25000000000000000        0.0000000000000000     
  0.62500000000000000       0.12500000000000000        0.0000000000000000     
  0.65625000000000000       0.12500000000000000        0.0000000000000000     
  0.68750000000000000       0.12500000000000000        0.0000000000000000     
  0.71875000000000000       0.12500000000000000        0.0000000000000000     
  0.75000000000000000       0.12500000000000000        0.0000000000000000     
  0.62500000000000000       0.15625000000000000        0.0000000000000000     
  0.65625000000000000       0.15625000000000000        0.0000000000000000     
  0.68750000000000000       0.15625000000000000        0.0000000000000000     
  0.71875000000000000       0.15625000000000000        0.0000000000000000     
  0.75000000000000000       0.15625000000000000        0.0000000000000000     
  0.62500000000000000       0.18750000000000000        0.0000000000000000     
  0.65625000000000000       0.18750000000000000        0.0000000000000000     
  0.68750000000000000       0.18750000000000000        0.0000000000000000     
  0.71875000000000000       0.18750000000000000        0.0000000000000000     
  0.75000000000000000       0.18750000000000000        0.0000000000000000     
  0.62500000000000000       0.21875000000000000        0.0000000000000000     
  0.65625000000000000       0.21875000000000000        0.0000000000000000     
  0.68750000000000000       0.21875000000000000        0.0000000000000000     
  0.71875000000000000       0.21875000000000000        0.0000000000000000     
  0.75000000000000000       0.21875000000000000        0.0000000000000000     
  0.62500000000000000       0.25000000000000000        0.0000000000000000     
  0.65625000000000000       0.25000000000000000        0.0000000000000000     
  0.68750000000000000       0.25000000000000000        0.0000000000000000     
  0.71875000000000000       0.25000000000000000        0.0000000000000000     
  0.75000000000000000       0.25000000000000000        0.0000000000000000     
  0.75000000000000000       0.12500000000000000        0.0000000000000000     
  0.78125000000000000       0.12500000000000000        0.0000000000000000     
  0.81250000000000000       0.12500000000000000        0.0000000000000000     
  0.84375000000000000       0.12500000000000000        0.0000000000000000     
  0.87500000000000000       0.12500000000000000        0.0000000000000000     
  0.75000000000000000       0.15625000000000000        0.0000000000000000     
  0.78125000000000000       0.15625000000000000        0.0000000000000000     
  0.81250000000000000       0.15625000000000000        0.0000000000000000     
  0.84375000000000000       0.15625000000000000        0.0000000000000000     
  0.87500000000000000       0.15625000000000000        0.0000000000000000     
  0.75000000000000000       0.18750000000000000        0.0000000000000000     
  0.78125000000000000       0.18750000000000000        0.0000000000000000     
  0.81250000000000000       0.18750000000000000        0.0000000000000000     
  0.84375000000000000       0.18750000000000000        0.0000000000000000     
  0.87500000000000000       0.18750000000000000        0.0000000000000000     
  0.75000000000000000       0.21875000000000000        0.0000000000000000     
  0.78125000000000000       0.21875000000000000        0.0000000000000000     
  0.81250000000000000       0.21875000000000000        0.0000000000000000     
  0.84375000000000000       0.21875000000000000        0.0000000000000000     
  0.87500000000000000       0.21875000000000000        0.0000000000000000     
  0.75000000000000000       0.25000000000000000        0.0000000000000000     
  0.78125000000000000       0.25000000000000000        0.0000000000000000     
  0.81250000000000000       0.25000000000000000        0.0000000000000000     
  0.84375000000000000       0.25000000000000000        0.0000000000000000     
  0.87500000000000000       0.25000000000000000        0.0000000000000000     
  0.87500000000000000       0.12500000000000000        0.0000000000000000     
  0.90625000000000000       0.12500000000000000        0.0000000000000000     
  0.93750000000000000       0.12500000000000000        0.0000000000000000     
  0.96875000000000000       0.12500000000000000        0.0000000000000000     
   1.0000000000000000       0.12500000000000000        0.0000000000000000     
  0.87500000000000000       0.15625000000000000        0.0000000000000000     
  0.90625000000000000       0.15625000000000000        0.0000000000000000     
  0.93750000000000000       0.15625000000000000        0.0000000000000000     
  0.96875000000000000       0.15625000000000000        0.0000000000000000     
   1.0000000000000000       0.15625000000000000        0.0000000000000000     
  0.87500000000000000       0.18750000000000000        0.0000000000000000     
  0.90625000000000000       0.18750000000000000        0.0000000000000000     
  0.93750000000000000       0.18750000000000000        0.0000000000000000     
  0.96875000000000000       0.18750000000000000        0.0000000000000000     
   1.0000000000000000       0.18750000000000000        0.0000000000000000     
  0.87500000000000000       0.21875000000000000        0.0000000000000000     
  0.90625000000000000       0.21875000000000000        0.0000000000000000     
  0.93750000000000000       0.21875000000000000        0.0000000000000000     
  0.96875000000000000       0.21875000000000000        0.0000000000000000     
   1.0000000000000000       0.21875000000000000        0.0000000000000000     
  0.87500000000000000       0.25000000000000000        0.0000000000000000     
  0.90625000000000000       0.25000000000000000        0.0000000000000000     
  0.93750000000000000       0.25000000000000000        0.0000000000000000     
  0.96875000000000000       0.25000000000000000        0.0000000000000000     
   1.0000000000000000       0.25000000000000000        0.0000000000000000     
   1.0000000000000000       0.12500000000000000        0.0000000000000000     
   1.0312500000000000       0.12500000000000000        0.0000000000000000     
   1.0625000000000000       0.12500000000000000        0.0000000000000000     
   1.0937500000000000       0.12500000000000000        0.0000000000000000     
   1.1250000000000000       0.12500000000000000        0.0000000000000000     
   1.0000000000000000       0.15625000000000000        0.0000000000000000     
   1.0312500000000000       0.15625000000000000        0.0000000000000000     
   1.0625000000000000       0.15625000000000000        0.0000000000000000     
   1.0937500000000000       0.15625000000000000        0.0000000000000000     
   1.1250000000000000       0.15625000000000000        0.0000000000000000     
   1.0000000000000000       0.18750000000000000        0.0000000000000000     
   1.0312500000000000       0.18750000000000000        0.0000000000000000     
   1.0625000000000000       0.18750000000000000        0.0000000000000000     
   1.0937500000000000       0.18750000000000000        0.0000000000000000     
   1.1250000000000000       0.18750000000000000        0.0000000000000000     
   1.0000000000000000       0.21875000000000000        0.0000000000000000     
   1.0312500000000000       0.21875000000000000        0.0000000000000000     
   1.0625000000000000       0.21875000000000000        0.0000000000000000     
   1.0937500000000000       0.21875000000000000        0.0000000000000000     
   1.1250000000000000       0.21875000000000000        0.0000000000000000     
   1.0000000000000000       0.25000000000000000        0.0000000000000000     
   1.0312500000000000       0.25000000000000000        0.0000000000000000     
   1.0625000000000000       0.25000000000000000        0.0000000000000000     
   1.0937500000000000       0.25000000000000000        0.0000000000000000     
   1.1250000000000000       0.25000000000000000        0.0000000000000000     
   1.1250000000000000       0.12500000000000000        0.0000000000000000     
   1.1562500000000000       0.12500000000000000        0.0000000000000000     
   1.1875000000000000       0.12500000000000000        0.0000000000000000     
   1.2187500000000000       0.12500000000000000        0.0000000000000000     
   1.2500000000000000       0.12500000000000000        0.0000000000000000     
   1.1250000000000000       0.15625000000000000        0.0000000000000000     
   1.1562500000000000       0.15625000000000000        0.0000000000000000     
   1.1875000000000000       0.15625000000000000        0.0000000000000000     
   1.2187500000000000       0.15625000000000000        0.0000000000000000     
   1.2500000000000000       0.15625000000000000        0.0000000000000000     
   1.1250000000000000       0.18750000000000000        0.0000000000000000     
   1.1562500000000000       0.18750000000000000        0.0000000000000000     
   1.1875000000000000       0.18750000000000000        0.0000000000000000     
   1.2187500000000000       0.18750000000000000        0.0000000000000000     
   1.2500000000000000       0.18750000000000000        0.0000000000000000     
   1.1250000000000000       0.21875000000000000        0.0000000000000000     
   1.1562500000000000       0.21875000000000000        0.0000000000000000     
   1.1875000000000000       0.21875000000000000        0.0000000000000000     
   1.2187500000000000       0.21875000000000000        0.0000000000000000     
   1.2500000000000000       0.21875000000000000        0.0000000000000000     
   1.1250000000000000       0.25000000000000000        0.0000000000000000     
   1.1562500000000000       0.25000000000000000        0.0000000000000000     
   1.1875000000000000       0.25000000000000000        0.0000000000000000     
   1.2187500000000000       0.25000000000000000        0.0000000000000000     
   1.2500000000000000       0.25000000000000000        0.0000000000000000     
   1.2500000000000000       0.12500000000000000        0.0000000000000000     
   1.2812500000000000       0.12500000000000000        0.0000000000000000     
   1.3125000000000000       0.12500000000000000        0.0000000000000000     
   1.3437500000000000       0.12500000000000000        0.0000000000000000     
   1.3750000000000000       0.12500000000000000        0.0000000000000000     
   1.2500000000000000       0.15625000000000000        0.0000000000000000     
   1.2812500000000000       0.15625000000000000        0.0000000000000000     
   1.3125000000000000       0.15625000000000000        0.0000000000000000     
   1.3437500000000000       0.15625000000000000        0.0000000000000000     
   1.3750000000000000       0.15625000000000000        0.0000000000000000     
   1.2500000000000000       0.18750000000000000        0.0000000000000000     
   1.2812500000000000       0.18750000000000000        0.0000000000000000     
   1.3125000000000000       0.18750000000000000        0.0000000000000000     
   1.3437500000000000       0.18750000000000000        0.0000000000000000     
   1.3750000000000000       0.18750000000000000        0.0000000000000000     
   1.2500000000000000       0.21875000000000000        0.0000000000000000     
   1.2812500000000000       0.21875000000000000        0.0000000000000000     
   1.3125000000000000       0.21875000000000000        0.0000000000000000     
   1.3437500000000000       0.21875000000000000        0.0000000000000000     
   1.3750000000000000       0.21875000000000000        0.0000000000000000     
   1.2500000000000000       0.25000000000000000        0.0000000000000000     
   1.2812500000000000       0.25000000000000000        0.0000000000000000     
   1.3125000000000000       0.25000000000000000        0.0000000000000000     
   1.3437500000000000       0.25000000000000000        0.0000000000000000     
   1.3750000000000000       0.25000000000000000        0.0000000000000000     
   1.3750000000000000       0.12500000000000000        0.0000000000000000     
   1.4062500000000000       0.12500000000000000        0.0000000000000000     
   1.4375000000000000       0.12500000000000000        0.0000000000000000     
   1.4687500000000000       0.12500000000000000        0.0000000000000000     
   1.5000000000000000       0.12500000000000000        0.0000000000000000     
   1.3750000000000000       0.15625000000000000        0.0000000000000000     
   1.4062500000000000       0.15625000000000000        0.0000000000000000     
   1.4375000000000000       0.15625000000000000        0.0000000000000000     
   1.4687500000000000       0.15625000000000000        0.0000000000000000     
   1.5000000000000000       0.15625000000000000        0.0000000000000000     
   1.3750000000000000       0.18750000000000000        0.0000000000000000     
   1.4062500000000000       0.18750000000000000        0.0000000000000000     
   1.4375000000000000       0.18750000000000000        0.0000000000000000     
   1.4687500000000000       0.18750000000000000        0.0000000000000000     
   1.5000000000000000       0.18750000000000000        0.0000000000000000     
   1.3750000000000000       0.21875000000000000        0.0000000000000000     
   1.4062500000000000       0.21875000000000000        0.0000000000000000     
   1.4375000000000000       0.21875000000000000        0.0000000000000000     
   1.4687500000000000       0.21875000000000000        0.0000000000000000     
   1.5000000000000000       0.21875000000000000        0.0000000000000000     
   1.3750000000000000       0.25000000000000000        0.0000000000000000     
   1.4062500000000000       0.25000000000000000        0.0000000000000000     
   1.4375000000000000       0.25000000000000000        0.0000000000000000     
   1.4687500000000000       0.25000000000000000        0.0000000000000000     
   1.5000000000000000       0.25000000000000000        0.0000000000000000     
  0.50000000000000000       0.25000000000000000        0.0000000000000000     
  0.53125000000000000       0.25000000000000000        0.0000000000000000     
  0.56250000000000000       0.25000000000000000        0.0000000000000000     
  0.59375000000000000       0.25000000000000000        0.0000000000000000     
  0.62500000000000000       0.25000000000000000        0.0000000000000000     
  0.50000000000000000       0.28125000000000000        0.0000000000000000     
  0.53125000000000000       0.28125000000000000        0.0000000000000000     
  0.56250000000000000       0.28125000000000000        0.0000000000000000     
  0.59375000000000000       0.28125000000000000        0.0000000000000000     
  0.62500000000000000       0.28125000000000000        0.0000000000000000     
  0.50000000000000000       0.31250000000000000        0.0000000000000000     
  0.53125000000000000       0.31250000000000000        0.0000000000000000     
  0.56250000000000000       0.31250000000000000        0.0000000000000000     
  0.59375000000000000       0.31250000000000000        0.0000000000000000     
  0.62500000000000000       0.31250000000000000        0.0000000000000000     
  0.50000000000000000       0.34375000000000000        0.0000000000000000     
  0.53125000000000000       0.34375000000000000        0.0000000000000000     
  0.56250000000000000       0.34375000000000000        0.0000000000000000     
  0.59375000000000000       0.34375000000000000        0.0000000000000000     
  0.62500000000000000       0.34375000000000000        0.0000000000000000     
  0.50000000000000000       0.37500000000000000        0.0000000000000000     
  0.53125000000000000       0.37500000000000000        0.0000000000000000     
  0.56250000000000000       0.37500000000000000        0.0000000000000000     
  0.59375000000000000       0.37500000000000000        0.0000000000000000     
  0.62500000000000000       0.37500000000000000        0.0000000000000000     
  0.62500000000000000       0.25000000000000000        0.0000000000000000     
  0.65625000000000000       0.25000000000000000        0.0000000000000000     
  0.68750000000000000       0.25000000000000000        0.0000000000000000     
  0.71875000000000000       0.25000000000000000        0.0000000000000000     
  0.75000000000000000       0.25000000000000000        0.0000000000000000     
  0.62500000000000000       0.28125000000000000        0.0000000000000000     
  0.65625000000000000       0.28125000000000000        0.0000000000000000     
  0.68750000000000000       0.28125000000000000        0.0000000000000000     
  0.71875000000000000       0.28125000000000000        0.0000000000000000     
  0.75000000000000000       0.28125000000000000        0.0000000000000000     
  0.62500000000000000       0.31250000000000000        0.0000000000000000     
  0.65625000000000000       0.31250000000000000        0.0000000000000000     
  0.68750000000000000       0.31250000000000000        0.0000000000000000     
  0.71875000000000000       0.31250000000000000        0.0000000000000000     
  0.75000000000000000       0.31250000000000000        0.0000000000000000     
  0.62500000000000000       0.34375000000000000        0.0000000000000000     
  0.65625000000000000       0.34375000000000000        0.0000000000000000     
  0.68750000000000000       0.34375000000000000        0.0000000000000000     
  0.71875000000000000       0.34375000000000000        0.0000000000000000     
  0.75000000000000000       0.34375000000000000        0.0000000000000000     
  0.62500000000000000       0.37500000000000000        0.0000000000000000     
  0.65625000000000000       0.37500000000000000        0.0000000000000000     
  0.68750000000000000       0.37500000000000000        0.0000000000000000     
  0.71875000000000000       0.37500000000000000        0.0000000000000000     
  0.75000000000000000       0.37500000000000000        0.0000000000000000     
  0.75000000000000000       0.25000000000000000        0.0000000000000000     
  0.78125000000000000       0.25000000000000000        0.0000000000000000     
  0.81250000000000000       0.25000000000000000        0.0000000000000000     
  0.84375000000000000       0.25000000000000000        0.0000000000000000     
  0.87500000000000000       0.25000000000000000        0.0000000000000000     
  0.75000000000000000       0.28125000000000000        0.0000000000000000     
  0.78125000000000000       0.28125000000000000        0.0000000000000000     
  0.81250000000000000       0.28125000000000000        0.0000000000000000     
  0.84375000000000000       0.28125000000000000        0.0000000000000000     
  0.87500000000000000       0.28125000000000000        0.0000000000000000     
  0.75000000000000000       0.31250000000000000        0.0000000000000000     
  0.78125000000000000       0.31250000000000000        0.0000000000000000     
  0.81250000000000000       0.31250000000000000        0.0000000000000000     
  0.84375000000000000       0.31250000000000000        0.0000000000000000     
  0.87500000000000000       0.31250000000000000        0.0000000000000000     
  0.75000000000000000       0.34375000000000000        0.0000000000000000     
  0.78125000000000000       0.34375000000000000        0.0000000000000000     
  0.81250000000000000       0.34375000000000000        0.0000000000000000     
  0.84375000000000000       0.34375000000000000        0.0000000000000000     
  0.87500000000000000       0.34375000000000000        0.0000000000000000     
  0.75000000000000000       0.37500000000000000        0.0000000000000000     
  0.78125000000000000       0.37500000000000000        0.0000000000000000     
  0.81250000000000000       0.37500000000000000        0.0000000000000000     
  0.84375000000000000       0.37500000000000000        0.0000000000000000     
  0.87500000000000000       0.37500000000000000        0.0000000000000000     
  0.87500000000000000       0.25000000000000000        0.0000000000000000     
  0.90625000000000000       0.25000000000000000        0.0000000000000000     
  0.93750000000000000       0.25000000000000000        0.0000000000000000     
  0.96875000000000000       0.25000000000000000        0.0000000000000000     
   1.0000000000000000       0.25000000000000000        0.0000000000000000     
  0.87500000000000000       0.28125000000000000        0.0000000000000000     
  0.90625000000000000       0.28125000000000000        0.0000000000000000     
  0.93750000000000000       0.28125000000000000        0.0000000000000000     
  0.96875000000000000       0.28125000000000000        0.0000000000000000     
   1.0000000000000000       0.28125000000000000        0.0000000000000000     
  0.87500000000000000       0.31250000000000000        0.0000000000000000     
  0.90625000000000000       0.31250000000000000        0.0000000000000000     
  0.93750000000000000       0.31250000000000000        0.0000000000000000     
  0.96875000000000000       0.31250000000000000        0.0000000000000000     
   1.0000000000000000       0.31250000000000000        0.0000000000000000     
  0.87500000000000000       0.34375000000000000        0.0000000000000000     
  0.90625000000000000       0.34375000000000000        0.0000000000000000     
  0.93750000000000000       0.34375000000000000        0.0000000000000000     
  0.96875000000000000       0.34375000000000000        0.0000000000000000     
   1.0000000000000000       0.34375000000000000        0.0000000000000000     
  0.87500000000000000       0.37500000000000000        0.0000000000000000     
  0.90625000000000000       0.37500000000000000        0.0000000000000000     
  0.93750000000000000       0.37500000000000000        0.0000000000000000     
  0.96875000000000000       0.37500000000000000        0.0000000000000000     
   1.0000000000000000       0.37500000000000000        0.0000000000000000     
   1.0000000000000000       0.25000000000000000        0.0000000000000000     
   1.0312500000000000       0.25000000000000000        0.0000000000000000     
   1.0625000000000000       0.25000000000000000        0.0000000000000000     
   1.0937500000000000       0.25000000000000000        0.0000000000000000     
   1.1250000000000000       0.25000000000000000        0.0000000000000000     
   1.0000000000000000       0.28125000000000000        0.0000000000000000     
   1.0312500000000000       0.28125000000000000        0.0000000000000000     
   1.0625000000000000       0.28125000000000000        0.0000000000000000     
   1.0937500000000000       0.28125000000000000        0.0000000000000000     
   1.1250000000000000       0.28125000000000000        0.0000000000000000     
   1.0000000000000000       0.31250000000000000        0.0000000000000000     
   1.0312500000000000       0.31250000000000000        0.0000000000000000     
   1.0625000000000000       0.31250000000000000        0.0000000000000000     
   1.0937500000000000       0.31250000000000000        0.0000000000000000     
   1.1250000000000000       0.31250000000000000        0.0000000000000000     
   1.0000000000000000       0.34375000000000000        0.0000000000000000     
   1.0312500000000000       0.34375000000000000        0.0000000000000000     
   1.0625000000000000       0.34375000000000000        0.0000000000000000     
   1.0937500000000000       0.34375000000000000        0.0000000000000000     
   1.1250000000000000       0.34375000000000000        0.0000000000000000     
   1.0000000000000000       0.37500000000000000        0.0000000000000000     
   1.0312500000000000       0.37500000000000000        0.0000000000000000     
   1.0625000000000000       0.37500000000000000        0.0000000000000000     
   1.0937500000000000       0.37500000000000000        0.0000000000000000     
   1.1250000000000000       0.37500000000000000        0.0000000000000000     
   1.1250000000000000       0.25000000000000000        0.0000000000000000     
   1.1562500000000000       0.25000000000000000        0.0000000000000000     
   1.1875000000000000       0.25000000000000000        0.0000000000000000     
   1.2187500000000000       0.25000000000000000        0.0000000000000000     
   1.2500000000000000       0.25000000000000000        0.0000000000000000     
   1.1250000000000000       0.28125000000000000        0.0000000000000000     
   1.1562500000000000       0.28125000000000000        0.0000000000000000     
   1.1875000000000000       0.28125000000000000        0.0000000000000000     
   1.2187500000000000       0.28125000000000000        0.0000000000000000     
   1.2500000000000000       0.28125000000000000        0.0000000000000000     
   1.1250000000000000       0.31250000000000000        0.0000000000000000     
   1.1562500000000000       0.31250000000000000        0.0000000000000000     
   1.1875000000000000       0.31250000000000000        0.0000000000000000     
   1.2187500000000000       0.31250000000000000        0.0000000000000000     
   1.2500000000000000       0.31250000000000000        0.0000000000000000     
   1.1250000000000000       0.34375000000000000        0.0000000000000000     
   1.1562500000000000       0.34375000000000000        0.0000000000000000     
   1.1875000000000000       0.34375000000000000        0.0000000000000000     
   1.2187500000000000       0.34375000000000000        0.0000000000000000     
   1.2500000000000000       0.34375000000000000        0.0000000000000000     
   1.1250000000000000       0.37500000000000000        0.0000000000000000     
   1.1562500000000000       0.37500000000000000        0.0000000000000000     
   1.1875000000000000       0.37500000000000000        0.0000000000000000     
   1.2187500000000000       0.37500000000000000        0.0000000000000000     
   1.2500000000000000       0.37500000000000000        0.0000000000000000     
   1.2500000000000000       0.25000000000000000        0.0000000000000000     
   1.2812500000000000       0.25000000000000000        0.0000000000000000     
   1.3125000000000000       0.25000000000000000        0.0000000000000000     
   1.3437500000000000       0.25000000000000000        0.0000000000000000     
   1.3750000000000000       0.25000000000000000        0.0000000000000000     
   1.2500000000000000       0.28125000000000000        0.0000000000000000     
   1.2812500000000000       0.28125000000000000        0.0000000000000000     
   1.3125000000000000       0.28125000000000000        0.0000000000000000     
   1.3437500000000000       0.28125000000000000        0.0000000000000000     
   1.3750000000000000       0.28125000000000000        0.0000000000000000     
   1.2500000000000000       0.31250000000000000        0.0000000000000000     
   1.2812500000000000       0.31250000000000000        0.0000000000000000     
   1.3125000000000000       0.31250000000000000        0.0000000000000000     
   1.3437500000000000       0.31250000000000000        0.0000000000000000     
   1.3750000000000000       0.31250000000000000        0.0000000000000000     
   1.2500000000000000       0.34375000000000000        0.0000000000000000     
   1.2812500000000000       0.34375000000000000        0.0000000000000000     
   1.3125000000000000       0.34375000000000000        0.0000000000000000     
   1.3437500000000000       0.34375000000000000        0.0000000000000000     
   1.3750000000000000       0.34375000000000000        0.0000000000000000     
   1.2500000000000000       0.37500000000000000        0.0000000000000000     
   1.2812500000000000       0.37500000000000000        0.0000000000000000     
   1.3125000000000000       0.37500000000000000        0.0000000000000000     
   1.3437500000000000       0.37500000000000000        0.0000000000000000     
   1.3750000000000000       0.37500000000000000        0.0000000000000000     
   1.3750000000000000       0.25000000000000000        0.0000000000000000     
   1.4062500000000000       0.25000000000000000        0.0000000000000000     
   1.4375000000000000       0.25000000000000000        0.0000000000000000     
   1.4687500000000000       0.25000000000000000        0.0000000000000000     
   1.5000000000000000       0.25000000000000000        0.0000000000000000     
   1.3750000000000000       0.28125000000000000        0.0000000000000000     
   1.4062500000000000       0.28125000000000000        0.0000000000000000     
   1.4375000000000000       0.28125000000000000        0.0000000000000000     
   1.4687500000000000       0.28125000000000000        0.0000000000000000     
   1.5000000000000000       0.28125000000000000        0.0000000000000000     
   1.3750000000000000       0.31250000000000000        0.0000000000000000     
   1.4062500000000000       0.31250000000000000        0.0000000000000000     
   1.4375000000000000       0.31250000000000000        0.0000000000000000     
   1.4687500000000000       0.31250000000000000        0.0000000000000000     
   1.5000000000000000       0.31250000000000000        0.0000000000000000     
   1.3750000000000000       0.34375000000000000        0.0000000000000000     
   1.4062500000000000       0.34375000000000000        0.0000000000000000     
   1.4375000000000000       0.34375000000000000        0.0000000000000000     
   1.4687500000000000       0.34375000000000000        0.0000000000000000     
   1.5000000000000000       0.34375000000000000        0.0000000000000000     
   1.3750000000000000       0.37500000000000000        0.0000000000000000     
   1.4062500000000000       0.37500000000000000        0.0000000000000000     
   1.4375000000000000       0.37500000000000000        0.0000000000000000     
   1.4687500000000000       0.37500000000000000        0.0000000000000000     
   1.5000000000000000       0.37500000000000000        0.0000000000000000     
  0.50000000000000000       0.37500000000000000        0.0000000000000000     
  0.53125000000000000       0.37500000000000000        0.0000000000000000     
  0.56250000000000000       0.37500000000000000        0.0000000000000000     
  0.59375000000000000       0.37500000000000000        0.0000000000000000     
  0.62500000000000000       0.37500000000000000        0.0000000000000000     
  0.50000000000000000       0.40625000000000000        0.0000000000000000     
  0.53125000000000000       0.40625000000000000        0.0000000000000000     
  0.56250000000000000       0.40625000000000000        0.0000000000000000     
  0.59375000000000000       0.40625000000000000        0.0000000000000000     
  0.62500000000000000       0.40625000000000000        0.0000000000000000     
  0.50000000000000000       0.43750000000000000        0.0000000000000000     
  0.53125000000000000       0.43750000000000000        0.0000000000000000     
  0.56250000000000000       0.43750000000000000        0.0000000000000000     
  0.59375000000000000       0.43750000000000000        0.0000000000000000     
  0.62500000000000000       0.43750000000000000        0.0000000000000000     
  0.50000000000000000       0.46875000000000000        0.0000000000000000     
  0.53125000000000000       0.46875000000000000        0.0000000000000000     
  0.56250000000000000       0.46875000000000000        0.0000000000000000     
  0.59375000000000000       0.46875000000000000        0.0000000000000000     
  0.62500000000000000       0.46875000000000000        0.0000000000000000     
  0.50000000000000000       0.50000000000000000        0.0000000000000000     
  0.53125000000000000       0.50000000000000000        0.0000000000000000     
  0.56250000000000000       0.50000000000000000        0.0000000000000000     
  0.59375000000000000       0.50000000000000000        0.0000000000000000     
  0.62500000000000000       0.50000000000000000        0.0000000000000000     
  0.62500000000000000       0.37500000000000000        0.0000000000000000     
  0.65625000000000000       0.37500000000000000        0.0000000000000000     
  0.68750000000000000       0.37500000000000000        0.0000000000000000     
  0.71875000000000000       0.37500000000000000        0.0000000000000000     
  0.75000000000000000       0.37500000000000000        0.0000000000000000     
  0.62500000000000000       0.40625000000000000        0.0000000000000000     
  0.65625000000000000       0.40625000000000000        0.0000000000000000     
  0.68750000000000000       0.40625000000000000        0.0000000000000000     
  0.71875000000000000       0.40625000000000000        0.0000000000000000     
  0.75000000000000000       0.40625000000000000        0.0000000000000000     
  0.62500000000000000       0.43750000000000000        0.0000000000000000     
  0.65625000000000000       0.43750000000000000        0.0000000000000000     
  0.68750000000000000       0.43750000000000000        0.0000000000000000     
  0.71875000000000000       0.43750000000000000        0.0000000000000000     
  0.75000000000000000       0.43750000000000000        0.0000000000000000     
  0.62500000000000000       0.46875000000000000        0.0000000000000000     
  0.65625000000000000       0.46875000000000000        0.0000000000000000     
  0.68750000000000000       0.46875000000000000        0.0000000000000000     
  0.71875000000000000       0.46875000000000000        0.0000000000000000     
  0.75000000000000000       0.46875000000000000        0.0000000000000000     
  0.62500000000000000       0.50000000000000000        0.0000000000000000     
  0.65625000000000000       0.50000000000000000        0.0000000000000000     
  0.68750000000000000       0.50000000000000000        0.0000000000000000     
  0.71875000000000000       0.50000000000000000        0.0000000000000000     
  0.75000000000000000       0.50000000000000000        0.0000000000000000     
  0.75000000000000000       0.37500000000000000        0.0000000000000000     
  0.78125000000000000       0.37500000000000000        0.0000000000000000     
  0.81250000000000000       0.37500000000000000        0.0000000000000000     
  0.84375000000000000       0.37500000000000000        0.0000000000000000     
  0.87500000000000000       0.37500000000000000        0.0000000000000000     
  0.75000000000000000       0.40625000000000000        0.0000000000000000     
  0.78125000000000000       0.40625000000000000        0.0000000000000000     
  0.81250000000000000       0.40625000000000000        0.0000000000000000     
  0.84375000000000000       0.40625000000000000        0.0000000000000000     
  0.87500000000000000       0.40625000000000000        0.0000000000000000     
  0.75000000000000000       0.43750000000000000        0.0000000000000000     
  0.78125000000000000       0.43750000000000000        0.0000000000000000     
  0.81250000000000000       0.43750000000000000        0.0000000000000000     
  0.84375000000000000       0.43750000000000000        0.0000000000000000     
  0.87500000000000000       0.43750000000000000        0.0000000000000000     
  0.75000000000000000       0.46875000000000000        0.0000000000000000     
  0.78125000000000000       0.46875000000000000        0.0000000000000000     
  0.81250000000000000       0.46875000000000000        0.0000000000000000     
  0.84375000000000000       0.46875000000000000        0.0000000000000000     
  0.87500000000000000       0.46875000000000000        0.0000000000000000     
  0.75000000000000000       0.50000000000000000        0.0000000000000000     
  0.78125000000000000       0.50000000000000000        0.0000000000000000     
  0.81250000000000000       0.50000000000000000        0.0000000000000000     
  0.84375000000000000       0.50000000000000000        0.0000000000000000     
  0.87500000000000000       0.50000000000000000        0.0000000000000000     
  0.87500000000000000       0.37500000000000000        0.0000000000000000     
  0.90625000000000000       0.37500000000000000        0.0000000000000000     
  0.93750000000000000       0.37500000000000000        0.0000000000000000     
  0.96875000000000000       0.37500000000000000        0.0000000000000000     
   1.0000000000000000       0.37500000000000000        0.0000000000000000     
  0.87500000000000000       0.40625000000000000        0.0000000000000000     
  0.90625000000000000       0.40625000000000000        0.0000000000000000     
  0.93750000000000000       0.40625000000000000        0.0000000000000000     
  0.96875000000000000       0.40625000000000000        0.0000000000000000     
   1.0000000000000000       0.40625000000000000        0.0000000000000000     
  0.87500000000000000       0.43750000000000000        0.0000000000000000     
  0.90625000000000000       0.43750000000000000        0.0000000000000000     
  0.93750000000000000       0.43750000000000000        0.0000000000000000     
  0.96875000000000000       0.43750000000000000        0.0000000000000000     
   1.0000000000000000       0.43750000000000000        0.0000000000000000     
  0.87500000000000000       0.46875000000000000        0.0000000000000000     
  0.90625000000000000       0.46875000000000000        0.0000000000000000     
  0.93750000000000000       0.46875000000000000        0.0000000000000000     
  0.96875000000000000       0.46875000000000000        0.0000000000000000     
   1.0000000000000000       0.46875000000000000        0.0000000000000000     
  0.87500000000000000       0.50000000000000000        0.0000000000000000     
  0.90625000000000000       0.50000000000000000        0.0000000000000000     
  0.93750000000000000       0.50000000000000000        0.0000000000000000     
  0.96875000000000000       0.50000000000000000        0.0000000000000000     
   1.0000000000000000       0.50000000000000000        0.0000000000000000     
   1.0000000000000000       0.37500000000000000        0.0000000000000000     
   1.0312500000000000       0.37500000000000000        0.0000000000000000     
   1.0625000000000000       0.37500000000000000        0.0000000000000000     
   1.0937500000000000       0.37500000000000000        0.0000000000000000     
   1.1250000000000000       0.37500000000000000        0.0000000000000000     
   1.0000000000000000       0.40625000000000000        0.0000000000000000     
   1.0312500000000000       0.40625000000000000        0.0000000000000000     
   1.0625000000000000       0.40625000000000000        0.0000000000000000     
   1.0937500000000000       0.40625000000000000        0.0000000000000000     
   1.1250000000000000       0.40625000000000000        0.0000000000000000     
   1.0000000000000000       0.43750000000000000        0.0000000000000000     
   1.0312500000000000       0.43750000000000000        0.0000000000000000     
   1.0625000000000000       0.43750000000000000        0.0000000000000000     
   1.0937500000000000       0.43750000000000000        0.0000000000000000     
   1.1250000000000000       0.43750000000000000        0.0000000000000000     
   1.0000000000000000       0.46875000000000000        0.0000000000000000     
   1.0312500000000000       0.46875000000000000        0.0000000000000000     
   1.0625000000000000       0.46875000000000000        0.0000000000000000     
   1.0937500000000000       0.46875000000000000        0.0000000000000000     
   1.1250000000000000       0.46875000000000000        0.0000000000000000     
   1.0000000000000000       0.50000000000000000        0.0000000000000000     
   1.0312500000000000       0.50000000000000000        0.0000000000000000     
   1.0625000000000000       0.50000000000000000        0.0000000000000000     
   1.0937500000000000       0.50000000000000000        0.0000000000000000     
   1.1250000000000000       0.50000000000000000        0.0000000000000000     
   1.1250000000000000       0.37500000000000000        0.0000000000000000     
   1.1562500000000000       0.37500000000000000        0.0000000000000000     
   1.1875000000000000       0.37500000000000000        0.0000000000000000     
   1.2187500000000000       0.37500000000000000        0.0000000000000000     
   1.2500000000000000       0.37500000000000000        0.0000000000000000     
   1.1250000000000000       0.40625000000000000        0.0000000000000000     
   1.1562500000000000       0.40625000000000000        0.0000000000000000     
   1.1875000000000000       0.40625000000000000        0.0000000000000000     
   1.2187500000000000       0.40625000000000000        0.0000000000000000     
   1.2500000000000000       0.40625000000000000        0.0000000000000000     
   1.1250000000000000       0.43750000000000000        0.0000000000000000     
   1.1562500000000000       0.43750000000000000        0.0000000000000000     
   1.1875000000000000       0.43750000000000000        0.0000000000000000     
   1.2187500000000000       0.43750000000000000        0.0000000000000000     
   1.2500000000000000       0.43750000000000000        0.0000000000000000     
   1.1250000000000000       0.46875000000000000        0.0000000000000000     
   1.1562500000000000       0.46875000000000000        0.0000000000000000     
   1.1875000000000000       0.46875000000000000        0.0000000000000000     
   1.2187500000000000       0.46875000000000000        0.0000000000000000     
   1.2500000000000000       0.46875000000000000        0.0000000000000000     
   1.1250000000000000       0.50000000000000000        0.0000000000000000     
   1.1562500000000000       0.50000000000000000        0.0000000000000000     
   1.1875000000000000       0.50000000000000000        0.0000000000000000     
   1.2187500000000000       0.50000000000000000        0.0000000000000000     
   1.2500000000000000       0.50000000000000000        0.0000000000000000     
   1.2500000000000000       0.37500000000000000        0.0000000000000000     
   1.2812500000000000       0.37500000000000000        0.0000000000000000     
   1.3125000000000000       0.37500000000000000        0.0000000000000000     
   1.3437500000000000       0.37500000000000000        0.0000000000000000     
   1.3750000000000000       0.37500000000000000        0.0000000000000000     
   1.2500000000000000       0.40625000000000000        0.0000000000000000     
   1.2812500000000000       0.40625000000000000        0.0000000000000000     
   1.3125000000000000       0.40625000000000000        0.0000000000000000     
   1.3437500000000000       0.40625000000000000        0.0000000000000000     
   1.3750000000000000       0.40625000000000000        0.0000000000000000     
   1.2500000000000000       0.43750000000000000        0.0000000000000000     
   1.2812500000000000       0.43750000000000000        0.0000000000000000     
   1.3125000000000000       0.43750000000000000        0.0000000000000000     
   1.3437500000000000       0.43750000000000000        0.0000000000000000     
   1.3750000000000000       0.43750000000000000        0.0000000000000000     
   1.2500000000000000       0.46875000000000000        0.0000000000000000     
   1.2812500000000000       0.46875000000000000        0.0000000000000000     
   1.3125000000000000       0.46875000000000000        0.0000000000000000     
   1.3437500000000000       0.46875000000000000        0.0000000000000000     
   1.3750000000000000       0.46875000000000000        0.0000000000000000     
   1.2500000000000000       0.50000000000000000        0.0000000000000000     
   1.2812500000000000       0.50000000000000000        0.0000000000000000     
   1.3125000000000000       0.50000000000000000        0.0000000000000000     
   1.3437500000000000       0.50000000000000000        0.0000000000000000     
   1.3750000000000000       0.50000000000000000        0.0000000000000000     
   1.3750000000000000       0.37500000000000000        0.0000000000000000     
   1.4062500000000000       0.37500000000000000        0.0000000000000000     
   1.4375000000000000       0.37500000000000000        0.0000000000000000     
   1.4687500000000000       0.37500000000000000        0.0000000000000000     
   1.5000000000000000       0.37500000000000000        0.0000000000000000     
   1.3750000000000000       0.40625000000000000        0.0000000000000000     
   1.4062500000000000       0.40625000000000000        0.0000000000000000     
   1.4375000000000000       0.40625000000000000        0.0000000000000000     
   1.4687500000000000       0.40625000000000000        0.0000000000000000     
   1.5000000000000000       0.40625000000000000        0.0000000000000000     
   1.3750000000000000       0.43750000000000000        0.0000000000000000     
   1.4062500000000000       0.43750000000000000        0.0000000000000000     
   1.4375000000000000       0.43750000000000000        0.0000000000000000     
   1.4687500000000000       0.43750000000000000        0.0000000000000000     
   1.5000000000000000       0.43750000000000000        0.0000000000000000     
   1.3750000000000000       0.46875000000000000        0.0000000000000000     
   1.4062500000000000       0.46875000000000000        0.0000000000000000     
   1.4375000000000000       0.46875000000000000        0.0000000000000000     
   1.4687500000000000       0.46875000000000000        0.0000000000000000     
   1.5000000000000000       0.46875000000000000        0.0000000000000000     
   1.3750000000000000       0.50000000000000000        0.0000000000000000     
   1.4062500000000000       0.50000000000000000        0.0000000000000000     
   1.4375000000000000       0.50000000000000000        0.0000000000000000     
   1.4687500000000000       0.50000000000000000        0.0000000000000000     
   1.5000000000000000       0.50000000000000000        0.0000000000000000     
  0.50000000000000000       0.50000000000000000        0.0000000000000000     
  0.53125000000000000       0.50000000000000000        0.0000000000000000     
  0.56250000000000000       0.50000000000000000        0.0000000000000000     
  0.59375000000000000       0.50000000000000000        0.0000000000000000     
  0.62500000000000000       0.50000000000000000        0.0000000000000000     
  0.50000000000000000       0.53125000000000000        0.0000000000000000     
  0.53125000000000000       0.53125000000000000        0.0000000000000000     
  0.56250000000000000       0.53125000000000000        0.0000000000000000     
  0.59375000000000000       0.53125000000000000        0.0000000000000000     
  0.62500000000000000       0.53125000000000000        0.0000000000000000     
  0.50000000000000000       0.56250000000000000        0.0000000000000000     
  0.53125000000000000       0.56250000000000000        0.0000000000000000     
  0.56250000000000000       0.56250000000000000        0.0000000000000000     
  0.59375000000000000       0.56250000000000000        0.0000000000000000     
  0.62500000000000000       0.56250000000000000        0.0000000000000000     
  0.50000000000000000       0.59375000000000000        0.0000000000000000     
  0.53125000000000000       0.59375000000000000        0.0000000000000000     
  0.56250000000000000       0.59375000000000000        0.0000000000000000     
  0.59375000000000000       0.59375000000000000        0.0000000000000000     
  0.62500000000000000       0.59375000000000000        0.0000000000000000     
  0.50000000000000000       0.62500000000000000        0.0000000000000000     
  0.53125000000000000       0.62500000000000000        0.0000000000000000     
  0.56250000000000000       0.62500000000000000        0.0000000000000000     
  0.59375000000000000       0.62500000000000000        0.0000000000000000     
  0.62500000000000000       0.62500000000000000        0.0000000000000000     
  0.62500000000000000       0.50000000000000000        0.0000000000000000     
  0.65625000000000000       0.50000000000000000        0.0000000000000000     
  0.68750000000000000       0.50000000000000000        0.0000000000000000     
  0.71875000000000000       0.50000000000000000        0.0000000000000000     
  0.75000000000000000       0.50000000000000000        0.0000000000000000     
  0.62500000000000000       0.53125000000000000        0.0000000000000000     
  0.65625000000000000       0.53125000000000000        0.0000000000000000     
  0.68750000000000000       0.53125000000000000        0.0000000000000000     
  0.71875000000000000       0.53125000000000000        0.0000000000000000     
  0.75000000000000000       0.53125000000000000        0.0000000000000000     
  0.62500000000000000       0.56250000000000000        0.0000000000000000     
  0.65625000000000000       0.56250000000000000        0.0000000000000000     
  0.68750000000000000       0.56250000000000000        0.0000000000000000     
  0.71875000000000000       0.56250000000000000        0.0000000000000000     
  0.75000000000000000       0.56250000000000000        0.0000000000000000     
  0.62500000000000000       0.59375000000000000        0.0000000000000000     
  0.65625000000000000       0.59375000000000000        0.0000000000000000     
  0.68750000000000000       0.59375000000000000        0.0000000000000000     
  0.71875000000000000       0.59375000000000000        0.0000000000000000     
  0.75000000000000000       0.59375000000000000        0.0000000000000000     
  0.62500000000000000       0.62500000000000000        0.0000000000000000     
  0.65625000000000000       0.62500000000000000        0.0000000000000000     
  0.68750000000000000       0.62500000000000000        0.0000000000000000     
  0.71875000000000000       0.62500000000000000        0.0000000000000000     
  0.75000000000000000       0.62500000000000000        0.0000000000000000     
  0.75000000000000000       0.50000000000000000        0.0000000000000000     
  0.78125000000000000       0.50000000000000000        0.0000000000000000     
  0.81250000000000000       0.50000000000000000        0.0000000000000000     
  0.84375000000000000       0.50000000000000000        0.0000000000000000     
  0.87500000000000000       0.50000000000000000        0.0000000000000000     
  0.75000000000000000       0.53125000000000000        0.0000000000000000     
  0.78125000000000000       0.53125000000000000        0.0000000000000000     
  0.81250000000000000       0.53125000000000000        0.0000000000000000     
  0.84375000000000000       0.53125000000000000        0.0000000000000000     
  0.87500000000000000       0.53125000000000000        0.0000000000000000     
  0.75000000000000000       0.56250000000000000        0.0000000000000000     
  0.78125000000000000       0.56250000000000000        0.0000000000000000     
  0.81250000000000000       0.56250000000000000        0.0000000000000000     
  0.84375000000000000       0.56250000000000000        0.0000000000000000     
  0.87500000000000000       0.56250000000000000        0.0000000000000000     
  0.75000000000000000       0.59375000000000000        0.0000000000000000     
  0.78125000000000000       0.59375000000000000        0.0000000000000000     
  0.81250000000000000       0.59375000000000000        0.0000000000000000     
  0.84375000000000000       0.59375000000000000        0.0000000000000000     
  0.87500000000000000       0.59375000000000000        0.0000000000000000     
  0.75000000000000000       0.62500000000000000        0.0000000000000000     
  0.78125000000000000       0.62500000000000000        0.0000000000000000     
  0.81250000000000000       0.62500000000000000        0.0000000000000000     
  0.84375000000000000       0.62500000000000000        0.0000000000000000     
  0.87500000000000000       0.62500000000000000        0.0000000000000000     
  0.87500000000000000       0.50000000000000000        0.0000000000000000     
  0.90625000000000000       0.50000000000000000        0.0000000000000000     
  0.93750000000000000       0.50000000000000000        0.0000000000000000     
  0.96875000000000000       0.50000000000000000        0.0000000000000000     
   1.0000000000000000       0.50000000000000000        0.0000000000000000     
  0.87500000000000000       0.53125000000000000        0.0000000000000000     
  0.90625000000000000       0.53125000000000000        0.0000000000000000     
  0.93750000000000000       0.53125000000000000        0.0000000000000000     
  0.96875000000000000       0.53125000000000000        0.0000000000000000     
   1.0000000000000000       0.53125000000000000        0.0000000000000000     
  0.87500000000000000       0.56250000000000000        0.0000000000000000     
  0.90625000000000000       0.56250000000000000        0.0000000000000000     
  0.93750000000000000       0.56250000000000000        0.0000000000000000     
  0.96875000000000000       0.56250000000000000        0.0000000000000000     
   1.0000000000000000       0.56250000000000000        0.0000000000000000     
  0.87500000000000000       0.59375000000000000        0.0000000000000000     
  0.90625000000000000       0.59375000000000000        0.0000000000000000     
  0.93750000000000000       0.59375000000000000        0.0000000000000000     
  0.96875000000000000       0.59375000000000000        0.0000000000000000     
   1.0000000000000000       0.59375000000000000        0.0000000000000000     
  0.87500000000000000       0.62500000000000000        0.0000000000000000     
  0.90625000000000000       0.62500000000000000        0.0000000000000000     
  0.93750000000000000       0.62500000000000000        0.0000000000000000     
  0.96875000000000000       0.62500000000000000        0.0000000000000000     
   1.0000000000000000       0.62500000000000000        0.0000000000000000     
   1.0000000000000000       0.50000000000000000        0.0000000000000000     
   1.0312500000000000       0.50000000000000000        0.0000000000000000     
   1.0625000000000000       0.50000000000000000        0.0000000000000000     
   1.0937500000000000       0.50000000000000000        0.0000000000000000     
   1.1250000000000000       0.50000000000000000        0.0000000000000000     
   1.0000000000000000       0.53125000000000000        0.0000000000000000     
   1.0312500000000000       0.53125000000000000        0.0000000000000000     
   1.0625000000000000       0.53125000000000000        0.0000000000000000     
   1.0937500000000000       0.53125000000000000        0.0000000000000000     
   1.1250000000000000       0.53125000000000000        0.0000000000000000     
   1.0000000000000000       0.56250000000000000        0.0000000000000000     
   1.0312500000000000       0.56250000000000000        0.0000000000000000     
   1.0625000000000000       0.56250000000000000        0.0000000000000000     
   1.0937500000000000       0.56250000000000000        0.0000000000000000     
   1.1250000000000000       0.56250000000000000        0.0000000000000000     
   1.0000000000000000       0.59375000000000000        0.0000000000000000     
   1.0312500000000000       0.59375000000000000        0.0000000000000000     
   1.0625000000000000       0.59375000000000000        0.0000000000000000     
   1.0937500000000000       0.59375000000000000        0.0000000000000000     
   1.1250000000000000       0.59375000000000000        0.0000000000000000     
   1.0000000000000000       0.62500000000000000        0.0000000000000000     
   1.0312500000000000       0.62500000000000000        0.0000000000000000     
   1.0625000000000000       0.62500000000000000        0.0000000000000000     
   1.0937500000000000       0.62500000000000000        0.0000000000000000     
   1.1250000000000000       0.62500000000000000        0.0000000000000000     
   1.1250000000000000       0.50000000000000000        0.0000000000000000     
   1.1562500000000000       0.50000000000000000        0.0000000000000000     
   1.1875000000000000       0.50000000000000000        0.0000000000000000     
   1.2187500000000000       0.50000000000000000        0.0000000000000000     
   1.2500000000000000       0.50000000000000000        0.0000000000000000     
   1.1250000000000000       0.53125000000000000        0.0000000000000000     
   1.1562500000000000       0.53125000000000000        0.0000000000000000     
   1.1875000000000000       0.53125000000000000        0.0000000000000000     
   1.2187500000000000       0.53125000000000000        0.0000000000000000     
   1.2500000000000000       0.53125000000000000        0.0000000000000000     
   1.1250000000000000       0.56250000000000000        0.0000000000000000     
   1.1562500000000000       0.56250000000000000        0.0000000000000000     
   1.1875000000000000       0.56250000000000000        0.0000000000000000     
   1.2187500000000000       0.56250000000000000        0.0000000000000000     
   1.2500000000000000       0.56250000000000000        0.0000000000000000     
   1.1250000000000000       0.59375000000000000        0.0000000000000000     
   1.1562500000000000       0.59375000000000000        0.0000000000000000     
   1.1875000000000000       0.59375000000000000        0.0000000000000000     
   1.2187500000000000       0.59375000000000000        0.0000000000000000     
   1.2500000000000000       0.59375000000000000        0.0000000000000000     
   1.1250000000000000       0.62500000000000000        0.0000000000000000     
   1.1562500000000000       0.62500000000000000        0.0000000000000000     
   1.1875000000000000       0.62500000000000000        0.0000000000000000     
   1.2187500000000000       0.62500000000000000        0.0000000000000000     
   1.2500000000000000       0.62500000000000000        0.0000000000000000     
   1.2500000000000000       0.50000000000000000        0.0000000000000000     
   1.2812500000000000       0.50000000000000000        0.0000000000000000     
   1.3125000000000000       0.50000000000000000        0.0000000000000000     
   1.3437500000000000       0.50000000000000000        0.0000000000000000     
   1.3750000000000000       0.50000000000000000        0.0000000000000000     
   1.2500000000000000       0.53125000000000000        0.0000000000000000     
   1.2812500000000000       0.53125000000000000        0.0000000000000000     
   1.3125000000000000       0.53125000000000000        0.0000000000000000     
   1.3437500000000000       0.53125000000000000        0.0000000000000000     
   1.3750000000000000       0.53125000000000000        0.0000000000000000     
   1.2500000000000000       0.56250000000000000        0.0000000000000000     
   1.2812500000000000       0.56250000000000000        0.0000000000000000     
   1.3125000000000000       0.56250000000000000        0.0000000000000000     
   1.3437500000000000       0.56250000000000000        0.0000000000000000     
   1.3750000000000000       0.56250000000000000        0.0000000000000000     
   1.2500000000000000       0.59375000000000000        0.0000000000000000     
   1.2812500000000000       0.59375000000000000        0.0000000000000000     
   1.3125000000000000       0.59375000000000000        0.0000000000000000     
   1.3437500000000000       0.59375000000000000        0.0000000000000000     
   1.3750000000000000       0.59375000000000000        0.0000000000000000     
   1.2500000000000000       0.62500000000000000        0.0000000000000000     
   1.2812500000000000       0.62500000000000000        0.0000000000000000     
   1.3125000000000000       0.62500000000000000        0.0000000000000000     
   1.3437500000000000       0.62500000000000000        0.0000000000000000     
   1.3750000000000000       0.62500000000000000        0.0000000000000000     
   1.3750000000000000       0.50000000000000000        0.0000000000000000     
   1.4062500000000000       0.50000000000000000        0.0000000000000000     
   1.4375000000000000       0.50000000000000000        0.0000000000000000     
   1.4687500000000000       0.50000000000000000        0.0000000000000000     
   1.5000000000000000       0.50000000000000000        0.0000000000000000     
   1.3750000000000000       0.53125000000000000        0.0000000000000000     
   1.4062500000000000       0.53125000000000000        0.0000000000000000     
   1.4375000000000000       0.53125000000000000        0.0000000000000000     
   1.4687500000000000       0.53125000000000000        0.0000000000000000     
   1.5000000000000000       0.53125000000000000        0.0000000000000000     
   1.3750000000000000       0.56250000000000000        0.0000000000000000     
   1.4062500000000000       0.56250000000000000        0.0000000000000000     
   1.4375000000000000       0.56250000000000000        0.0000000000000000     
   1.4687500000000000       0.56250000000000000        0.0000000000000000     
   1.5000000000000000       0.56250000000000000        0.0000000000000000     
   1.3750000000000000       0.59375000000000000        0.0000000000000000     
   1.4062500000000000       0.59375000000000000        0.0000000000000000     
   1.4375000000000000       0.59375000000000000        0.0000000000000000     
   1.4687500000000000       0.59375000000000000        0.0000000000000000     
   1.5000000000000000       0.59375000000000000        0.0000000000000000     
   1.3750000000000000       0.62500000000000000        0.0000000000000000     
   1.4062500000000000       0.62500000000000000        0.0000000000000000     
   1.4375000000000000       0.62500000000000000        0.0000000000000000     
   1.4687500000000000       0.62500000000000000        0.0000000000000000     
   1.5000000000000000       0.62500000000000000        0.0000000000000000     
  0.50000000000000000       0.62500000000000000        0.0000000000000000     
  0.53125000000000000       0.62500000000000000        0.0000000000000000     
  0.56250000000000000       0.62500000000000000        0.0000000000000000     
  0.59375000000000000       0.62500000000000000        0.0000000000000000     
  0.62500000000000000       0.62500000000000000        0.0000000000000000     
  0.50000000000000000       0.65625000000000000        0.0000000000000000     
  0.53125000000000000       0.65625000000000000        0.0000000000000000     
  0.56250000000000000       0.65625000000000000        0.0000000000000000     
  0.59375000000000000       0.65625000000000000        0.0000000000000000     
  0.62500000000000000       0.65625000000000000        0.0000000000000000     
  0.50000000000000000       0.68750000000000000        0.0000000000000000     
  0.53125000000000000       0.68750000000000000        0.0000000000000000     
  0.56250000000000000       0.68750000000000000        0.0000000000000000     
  0.59375000000000000       0.68750000000000000        0.0000000000000000     
  0.62500000000000000       0.68750000000000000        0.0000000000000000     
  0.50000000000000000       0.71875000000000000        0.0000000000000000     
  0.53125000000000000       0.71875000000000000        0.0000000000000000     
  0.56250000000000000       0.71875000000000000        0.0000000000000000     
  0.59375000000000000       0.71875000000000000        0.0000000000000000     
  0.62500000000000000       0.71875000000000000        0.0000000000000000     
  0.50000000000000000       0.75000000000000000        0.0000000000000000     
  0.53125000000000000       0.75000000000000000        0.0000000000000000     
  0.56250000000000000       0.75000000000000000        0.0000000000000000     
  0.59375000000000000       0.75000000000000000        0.0000000000000000     
  0.62500000000000000       0.75000000000000000        0.0000000000000000     
  0.62500000000000000       0.62500000000000000        0.0000000000000000     
  0.65625000000000000       0.62500000000000000        0.0000000000000000     
  0.68750000000000000       0.62500000000000000        0.0000000000000000     
  0.71875000000000000       0.62500000000000000        0.0000000000000000     
  0.75000000000000000       0.62500000000000000        0.0000000000000000     
  0.62500000000000000       0.65625000000000000        0.0000000000000000     
  0.65625000000000000       0.65625000000000000        0.0000000000000000     
  0.68750000000000000       0.65625000000000000        0.0000000000000000     
  0.71875000000000000       0.65625000000000000        0.0000000000000000     
  0.75000000000000000       0.65625000000000000        0.0000000000000000     
  0.62500000000000000       0.68750000000000000        0.0000000000000000     
  0.65625000000000000       0.68750000000000000        0.0000000000000000     
  0.68750000000000000       0.68750000000000000        0.0000000000000000     
  0.71875000000000000       0.68750000000000000        0.0000000000000000     
  0.75000000000000000       0.68750000000000000        0.0000000000000000     
  0.62500000000000000       0.71875000000000000        0.0000000000000000     
  0.65625000000000000       0.71875000000000000        0.0000000000000000     
  0.68750000000000000       0.71875000000000000        0.0000000000000000     
  0.71875000000000000       0.71875000000000000        0.0000000000000000     
  0.75000000000000000       0.71875000000000000        0.0000000000000000     
  0.62500000000000000       0.75000000000000000        0.0000000000000000     
  0.65625000000000000       0.75000000000000000        0.0000000000000000     
  0.68750000000000000       0.75000000000000000        0.0000000000000000     
  0.71875000000000000       0.75000000000000000        0.0000000000000000     
  0.75000000000000000       0.75000000000000000        0.0000000000000000     
  0.75000000000000000       0.62500000000000000        0.0000000000000000     
  0.78125000000000000       0.62500000000000000        0.0000000000000000     
  0.81250000000000000       0.62500000000000000        0.0000000000000000     
  0.84375000000000000       0.62500000000000000        0.0000000000000000     
  0.87500000000000000       0.62500000000000000        0.0000000000000000     
  0.75000000000000000       0.65625000000000000        0.0000000000000000     
  0.78125000000000000       0.65625000000000000        0.0000000000000000     
  0.81250000000000000       0.65625000000000000        0.0000000000000000     
  0.84375000000000000       0.65625000000000000        0.0000000000000000     
  0.87500000000000000       0.65625000000000000        0.0000000000000000     
  0.75000000000000000       0.68750000000000000        0.0000000000000000     
  0.78125000000000000       0.68750000000000000        0.0000000000000000     
  0.81250000000000000       0.68750000000000000        0.0000000000000000     
  0.84375000000000000       0.68750000000000000        0.0000000000000000     
  0.87500000000000000       0.68750000000000000        0.0000000000000000     
  0.75000000000000000       0.71875000000000000        0.0000000000000000     
  0.78125000000000000       0.71875000000000000        0.0000000000000000     
  0.81250000000000000       0.71875000000000000        0.0000000000000000     
  0.84375000000000000       0.71875000000000000        0.0000000000000000     
  0.87500000000000000       0.71875000000000000        0.0000000000000000     
  0.75000000000000000       0.75000000000000000        0.0000000000000000     
  0.78125000000000000       0.75000000000000000        0.0000000000000000     
  0.81250000000000000       0.75000000000000000        0.0000000000000000     
  0.84375000000000000       0.75000000000000000        0.0000000000000000     
  0.87500000000000000       0.75000000000000000        0.0000000000000000     
  0.87500000000000000       0.62500000000000000        0.0000000000000000     
  0.90625000000000000       0.62500000000000000        0.0000000000000000     
  0.93750000000000000       0.62500000000000000        0.0000000000000000     
  0.96875000000000000       0.62500000000000000        0.0000000000000000     
   1.0000000000000000       0.62500000000000000        0.0000000000000000     
  0.87500000000000000       0.65625000000000000        0.0000000000000000     
  0.90625000000000000       0.65625000000000000        0.0000000000000000     
  0.93750000000000000       0.65625000000000000        0.0000000000000000     
  0.96875000000000000       0.65625000000000000        0.0000000000000000     
   1.0000000000000000       0.65625000000000000        0.0000000000000000     
  0.87500000000000000       0.68750000000000000        0.0000000000000000     
  0.90625000000000000       0.68750000000000000        0.0000000000000000     
  0.93750000000000000       0.68750000000000000        0.0000000000000000     
  0.96875000000000000       0.68750000000000000        0.0000000000000000     
   1.0000000000000000       0.68750000000000000        0.0000000000000000     
  0.87500000000000000       0.71875000000000000        0.0000000000000000     
  0.90625000000000000       0.71875000000000000        0.0000000000000000     
  0.93750000000000000       0.71875000000000000        0.0000000000000000     
  0.96875000000000000       0.71875000000000000        0.0000000000000000     
   1.0000000000000000       0.71875000000000000        0.0000000000000000     
  0.87500000000000000       0.75000000000000000        0.0000000000000000     
  0.90625000000000000       0.75000000000000000        0.0000000000000000     
  0.93750000000000000       0.75000000000000000        0.0000000000000000     
  0.96875000000000000       0.75000000000000000        0.0000000000000000     
   1.0000000000000000       0.75000000000000000        0.0000000000000000     
   1.0000000000000000       0.62500000000000000        0.0000000000000000     
   1.0312500000000000       0.62500000000000000        0.0000000000000000     
   1.0625000000000000       0.62500000000000000        0.0000000000000000     
   1.0937500000000000       0.62500000000000000        0.0000000000000000     
   1.1250000000000000       0.62500000000000000        0.0000000000000000     
   1.0000000000000000       0.65625000000000000        0.0000000000000000     
   1.0312500000000000       0.65625000000000000        0.0000000000000000     
   1.0625000000000000       0.65625000000000000        0.0000000000000000     
   1.0937500000000000       0.65625000000000000        0.0000000000000000     
   1.1250000000000000       0.65625000000000000        0.0000000000000000     
   1.0000000000000000       0.68750000000000000        0.0000000000000000     
   1.0312500000000000       0.68750000000000000        0.0000000000000000     
   1.0625000000000000       0.68750000000000000        0.0000000000000000     
   1.0937500000000000       0.68750000000000000        0.0000000000000000     
   1.1250000000000000       0.68750000000000000        0.0000000000000000     
   1.0000000000000000       0.71875000000000000        0.0000000000000000     
   1.0312500000000000       0.71875000000000000        0.0000000000000000     
   1.0625000000000000       0.71875000000000000        0.0000000000000000     
   1.0937500000000000       0.71875000000000000        0.0000000000000000     
   1.1250000000000000       0.71875000000000000        0.0000000000000000     
   1.0000000000000000       0.75000000000000000        0.0000000000000000     
   1.0312500000000000       0.75000000000000000        0.0000000000000000     
   1.0625000000000000       0.75000000000000000        0.0000000000000000     
   1.0937500000000000       0.75000000000000000        0.0000000000000000     
   1.1250000000000000       0.75000000000000000        0.0000000000000000     
   1.1250000000000000       0.62500000000000000        0.0000000000000000     
   1.1562500000000000       0.62500000000000000        0.0000000000000000     
   1.1875000000000000       0.62500000000000000        0.0000000000000000     
   1.2187500000000000       0.62500000000000000        0.0000000000000000     
   1.2500000000000000       0.62500000000000000        0.0000000000000000     
   1.1250000000000000       0.65625000000000000        0.0000000000000000     
   1.1562500000000000       0.65625000000000000        0.0000000000000000     
   1.1875000000000000       0.65625000000000000        0.0000000000000000     
   1.2187500000000000       0.65625000000000000        0.0000000000000000     
   1.2500000000000000       0.65625000000000000        0.0000000000000000     
   1.1250000000000000       0.68750000000000000        0.0000000000000000     
   1.1562500000000000       0.68750000000000000        0.0000000000000000     
   1.1875000000000000       0.68750000000000000        0.0000000000000000     
   1.2187500000000000       0.68750000000000000        0.0000000000000000     
   1.2500000000000000       0.68750000000000000        0.0000000000000000     
   1.1250000000000000       0.71875000000000000        0.0000000000000000     
   1.1562500000000000       0.71875000000000000        0.0000000000000000     
   1.1875000000000000       0.71875000000000000        0.0000000000000000     
   1.2187500000000000       0.71875000000000000        0.0000000000000000     
   1.2500000000000000       0.71875000000000000        0.0000000000000000     
   1.1250000000000000       0.75000000000000000        0.0000000000000000     
   1.1562500000000000       0.75000000000000000        0.0000000000000000     
   1.1875000000000000       0.75000000000000000        0.0000000000000000     
   1.2187500000000000       0.75000000000000000        0.0000000000000000     
   1.2500000000000000       0.75000000000000000        0.0000000000000000     
   1.2500000000000000       0.62500000000000000        0.0000000000000000     
   1.2812500000000000       0.62500000000000000        0.0000000000000000     
   1.3125000000000000       0.62500000000000000        0.0000000000000000     
   1.3437500000000000       0.62500000000000000        0.0000000000000000     
   1.3750000000000000       0.62500000000000000        0.0000000000000000     
   1.2500000000000000       0.65625000000000000        0.0000000000000000     
   1.2812500000000000       0.65625000000000000        0.0000000000000000     
   1.3125000000000000       0.65625000000000000        0.0000000000000000     
   1.3437500000000000       0.65625000000000000        0.0000000000000000     
   1.3750000000000000       0.65625000000000000        0.0000000000000000     
   1.2500000000000000       0.68750000000000000        0.0000000000000000     
   1.2812500000000000       0.68750000000000000        0.0000000000000000     
   1.3125000000000000       0.68750000000000000        0.0000000000000000     
   1.3437500000000000       0.68750000000000000        0.0000000000000000     
   1.3750000000000000       0.68750000000000000        0.0000000000000000     
   1.2500000000000000       0.71875000000000000        0.0000000000000000     
   1.2812500000000000       0.71875000000000000        0.0000000000000000     
   1.3125000000000000       0.71875000000000000        0.0000000000000000     
   1.3437500000000000       0.71875000000000000        0.0000000000000000     
   1.3750000000000000       0.71875000000000000        0.0000000000000000     
   1.2500000000000000       0.75000000000000000        0.0000000000000000     
   1.2812500000000000       0.75000000000000000        0.0000000000000000     
   1.3125000000000000       0.75000000000000000        0.0000000000000000     
   1.3437500000000000       0.75000000000000000        0.0000000000000000     
   1.3750000000000000       0.75000000000000000        0.0000000000000000     
   1.3750000000000000       0.62500000000000000        0.0000000000000000     
   1.4062500000000000       0.62500000000000000        0.0000000000000000     
   1.4375000000000000       0.62500000000000000        0.0000000000000000     
   1.4687500000000000       0.62500000000000000        0.0000000000000000     
   1.5000000000000000       0.62500000000000000        0.0000000000000000     
   1.3750000000000000       0.65625000000000000        0.0000000000000000     
   1.4062500000000000       0.65625000000000000        0.0000000000000000     
   1.4375000000000000       0.65625000000000000        0.0000000000000000     
   1.4687500000000000       0.65625000000000000        0.0000000000000000     
   1.5000000000000000       0.65625000000000000        0.0000000000000000     
   1.3750000000000000       0.68750000000000000        0.0000000000000000     
   1.4062500000000000       0.68750000000000000        0.0000000000000000     
   1.4375000000000000       0.68750000000000000        0.0000000000000000     
   1.4687500000000000       0.68750000000000000        0.0000000000000000     
   1.5000000000000000       0.68750000000000000        0.0000000000000000     
   1.3750000000000000       0.71875000000000000        0.0000000000000000     
   1.4062500000000000       0.71875000000000000        0.0000000000000000     
   1.4375000000000000       0.71875000000000000        0.0000000000000000     
   1.4687500000000000       0.71875000000000000        0.0000000000000000     
   1.5000000000000000       0.71875000000000000        0.0000000000000000     
   1.3750000000000000       0.75000000000000000        0.0000000000000000     
   1.4062500000000000       0.75000000000000000        0.0000000000000000     
   1.4375000000000000       0.75000000000000000        0.0000000000000000     
   1.4687500000000000       0.75000000000000000        0.0000000000000000     
   1.5000000000000000       0.75000000000000000        0.0000000000000000     
  0.50000000000000000       0.75000000000000000        0.0000000000000000     
  0.53125000000000000       0.75000000000000000        0.0000000000000000     
  0.56250000000000000       0.75000000000000000        0.0000000000000000     
  0.59375000000000000       0.75000000000000000        0.0000000000000000     
  0.62500000000000000       0.75000000000000000        0.0000000000000000     
  0.50000000000000000       0.78125000000000000        0.0000000000000000     
  0.53125000000000000       0.78125000000000000        0.0000000000000000     
  0.56250000000000000       0.78125000000000000        0.0000000000000000     
  0.59375000000000000       0.78125000000000000        0.0000000000000000     
  0.62500000000000000       0.78125000000000000        0.0000000000000000     
  0.50000000000000000       0.81250000000000000        0.0000000000000000     
  0.53125000000000000       0.81250000000000000        0.0000000000000000     
  0.56250000000000000       0.81250000000000000        0.0000000000000000     
  0.59375000000000000       0.81250000000000000        0.0000000000000000     
  0.62500000000000000       0.81250000000000000        0.0000000000000000     
  0.50000000000000000       0.84375000000000000        0.0000000000000000     
  0.53125000000000000       0.84375000000000000        0.0000000000000000     
  0.56250000000000000       0.84375000000000000        0.0000000000000000     
  0.59375000000000000       0.84375000000000000        0.0000000000000000     
  0.62500000000000000       0.84375000000000000        0.0000000000000000     
  0.50000000000000000       0.87500000000000000        0.0000000000000000     
  0.53125000000000000       0.87500000000000000        0.0000000000000000     
  0.56250000000000000       0.87500000000000000        0.0000000000000000     
  0.59375000000000000       0.87500000000000000        0.0000000000000000     
  0.62500000000000000       0.87500000000000000        0.0000000000000000     
  0.62500000000000000       0.75000000000000000        0.0000000000000000     
  0.65625000000000000       0.75000000000000000        0.0000000000000000     
  0.68750000000000000       0.75000000000000000        0.0000000000000000     
  0.71875000000000000       0.75000000000000000        0.0000000000000000     
  0.75000000000000000       0.75000000000000000        0.0000000000000000     
  0.62500000000000000       0.78125000000000000        0.0000000000000000     
  0.65625000000000000       0.78125000000000000        0.0000000000000000     
  0.68750000000000000       0.78125000000000000        0.0000000000000000     
  0.71875000000000000       0.78125000000000000        0.0000000000000000     
  0.75000000000000000       0.78125000000000000        0.0000000000000000     
  0.62500000000000000       0.81250000000000000        0.0000000000000000     
  0.65625000000000000       0.81250000000000000        0.0000000000000000     
  0.68750000000000000       0.81250000000000000        0.0000000000000000     
  0.71875000000000000       0.81250000000000000        0.0000000000000000     
  0.75000000000000000       0.81250000000000000        0.0000000000000000     
  0.62500000000000000       0.84375000000000000        0.0000000000000000     
  0.65625000000000000       0.84375000000000000        0.0000000000000000     
  0.68750000000000000       0.84375000000000000        0.0000000000000000     
  0.71875000000000000       0.84375000000000000        0.0000000000000000     
  0.75000000000000000       0.84375000000000000        0.0000000000000000     
  0.62500000000000000       0.87500000000000000        0.0000000000000000     
  0.65625000000000000       0.87500000000000000        0.0000000000000000     
  0.68750000000000000       0.87500000000000000        0.0000000000000000     
  0.71875000000000000       0.87500000000000000        0.0000000000000000     
  0.75000000000000000       0.87500000000000000        0.0000000000000000     
  0.75000000000000000       0.75000000000000000        0.0000000000000000     
  0.78125000000000000       0.75000000000000000        0.0000000000000000     
  0.81250000000000000       0.75000000000000000        0.0000000000000000     
  0.84375000000000000       0.75000000000000000        0.0000000000000000     
  0.87500000000000000       0.75000000000000000        0.0000000000000000     
  0.75000000000000000       0.78125000000000000        0.0000000000000000     
  0.78125000000000000       0.78125000000000000        0.0000000000000000     
  0.81250000000000000       0.78125000000000000        0.0000000000000000     
  0.84375000000000000       0.78125000000000000        0.0000000000000000     
  0.87500000000000000       0.78125000000000000        0.0000000000000000     
  0.75000000000000000       0.81250000000000000        0.0000000000000000     
  0.78125000000000000       0.81250000000000000        0.0000000000000000     
  0.81250000000000000       0.81250000000000000        0.0000000000000000     
  0.84375000000000000       0.81250000000000000        0.0000000000000000     
  0.87500000000000000       0.81250000000000000        0.0000000000000000     
  0.75000000000000000       0.84375000000000000        0.0000000000000000     
  0.78125000000000000       0.84375000000000000        0.0000000000000000     
  0.81250000000000000       0.84375000000000000        0.0000000000000000     
  0.84375000000000000       0.84375000000000000        0.0000000000000000     
  0.87500000000000000       0.84375000000000000        0.0000000000000000     
  0.75000000000000000       0.87500000000000000        0.0000000000000000     
  0.78125000000000000       0.87500000000000000        0.0000000000000000     
  0.81250000000000000       0.87500000000000000        0.0000000000000000     
  0.84375000000000000       0.87500000000000000        0.0000000000000000     
  0.87500000000000000       0.87500000000000000        0.0000000000000000     
  0.87500000000000000       0.75000000000000000        0.0000000000000000     
  0.90625000000000000       0.75000000000000000        0.0000000000000000     
  0.93750000000000000       0.75000000000000000        0.0000000000000000     
  0.96875000000000000       0.75000000000000000        0.0000000000000000     
   1.0000000000000000       0.75000000000000000        0.0000000000000000     
  0.87500000000000000       0.78125000000000000        0.0000000000000000     
  0.90625000000000000       0.78125000000000000        0.0000000000000000     
  0.93750000000000000       0.78125000000000000        0.0000000000000000     
  0.96875000000000000       0.78125000000000000        0.0000000000000000     
   1.0000000000000000       0.78125000000000000        0.0000000000000000     
  0.87500000000000000       0.81250000000000000        0.0000000000000000     
  0.90625000000000000       0.81250000000000000        0.0000000000000000     
  0.93750000000000000       0.81250000000000000        0.0000000000000000     
  0.96875000000000000       0.81250000000000000        0.0000000000000000     
   1.0000000000000000       0.81250000000000000        0.0000000000000000     
  0.87500000000000000       0.84375000000000000        0.0000000000000000     
  0.90625000000000000       0.84375000000000000        0.0000000000000000     
  0.93750000000000000       0.84375000000000000        0.0000000000000000     
  0.96875000000000000       0.84375000000000000        0.0000000000000000     
   1.0000000000000000       0.84375000000000000        0.0000000000000000     
  0.87500000000000000       0.87500000000000000        0.0000000000000000     
  0.90625000000000000       0.87500000000000000        0.0000000000000000     
  0.93750000000000000       0.87500000000000000        0.0000000000000000     
  0.96875000000000000       0.87500000000000000        0.0000000000000000     
   1.0000000000000000       0.87500000000000000        0.0000000000000000     
   1.0000000000000000       0.75000000000000000        0.0000000000000000     
   1.0312500000000000       0.75000000000000000        0.0000000000000000     
   1.0625000000000000       0.75000000000000000        0.0000000000000000     
   1.0937500000000000       0.75000000000000000        0.0000000000000000     
   1.1250000000000000       0.75000000000000000        0.0000000000000000     
   1.0000000000000000       0.78125000000000000        0.0000000000000000     
   1.0312500000000000       0.78125000000000000        0.0000000000000000     
   1.0625000000000000       0.78125000000000000        0.0000000000000000     
   1.0937500000000000       0.78125000000000000        0.0000000000000000     
   1.1250000000000000       0.78125000000000000        0.0000000000000000     
   1.0000000000000000       0.81250000000000000        0.0000000000000000     
   1.0312500000000000       0.81250000000000000        0.0000000000000000     
   1.0625000000000000       0.81250000000000000        0.0000000000000000     
   1.0937500000000000       0.81250000000000000        0.0000000000000000     
   1.1250000000000000       0.81250000000000000        0.0000000000000000     
   1.0000000000000000       0.84375000000000000        0.0000000000000000     
   1.0312500000000000       0.84375000000000000        0.0000000000000000     
   1.0625000000000000       0.84375000000000000        0.0000000000000000     
   1.0937500000000000       0.84375000000000000        0.0000000000000000     
   1.1250000000000000       0.84375000000000000        0.0000000000000000     
   1.0000000000000000       0.87500000000000000        0.0000000000000000     
   1.0312500000000000       0.87500000000000000        0.0000000000000000     
   1.0625000000000000       0.87500000000000000        0.0000000000000000     
   1.0937500000000000       0.87500000000000000        0.0000000000000000     
   1.1250000000000000       0.87500000000000000        0.0000000000000000     
   1.1250000000000000       0.75000000000000000        0.0000000000000000     
   1.1562500000000000       0.75000000000000000        0.0000000000000000     
   1.1875000000000000       0.75000000000000000        0.0000000000000000     
   1.2187500000000000       0.75000000000000000        0.0000000000000000     
   1.2500000000000000       0.75000000000000000        0.0000000000000000     
   1.1250000000000000       0.78125000000000000        0.0000000000000000     
   1.1562500000000000       0.78125000000000000        0.0000000000000000     
   1.1875000000000000       0.78125000000000000        0.0000000000000000     
   1.2187500000000000       0.78125000000000000        0.0000000000000000     
   1.2500000000000000       0.78125000000000000        0.0000000000000000     
   1.1250000000000000       0.81250000000000000        0.0000000000000000     
   1.1562500000000000       0.81250000000000000        0.0000000000000000     
   1.1875000000000000       0.81250000000000000        0.0000000000000000     
   1.2187500000000000       0.81250000000000000        0.0000000000000000     
   1.2500000000000000       0.81250000000000000        0.0000000000000000     
   1.1250000000000000       0.84375000000000000        0.0000000000000000     
   1.1562500000000000       0.84375000000000000        0.0000000000000000     
   1.1875000000000000       0.84375000000000000        0.0000000000000000     
   1.2187500000000000       0.84375000000000000        0.0000000000000000     
   1.2500000000000000       0.84375000000000000        0.0000000000000000     
   1.1250000000000000       0.87500000000000000        0.0000000000000000     
   1.1562500000000000       0.87500000000000000        0.0000000000000000     
   1.1875000000000000       0.87500000000000000        0.0000000000000000     
   1.2187500000000000       0.87500000000000000        0.0000000000000000     
   1.2500000000000000       0.87500000000000000        0.0000000000000000     
   1.2500000000000000       0.75000000000000000        0.0000000000000000     
   1.2812500000000000       0.75000000000000000        0.0000000000000000     
   1.3125000000000000       0.75000000000000000        0.0000000000000000     
   1.3437500000000000       0.75000000000000000        0.0000000000000000     
   1.3750000000000000       0.75000000000000000        0.0000000000000000     
   1.2500000000000000       0.78125000000000000        0.0000000000000000     
   1.2812500000000000       0.78125000000000000        0.0000000000000000     
   1.3125000000000000       0.78125000000000000        0.0000000000000000     
   1.3437500000000000       0.78125000000000000        0.0000000000000000     
   1.3750000000000000       0.78125000000000000        0.0000000000000000     
   1.2500000000000000       0.81250000000000000        0.0000000000000000     
   1.2812500000000000       0.81250000000000000        0.0000000000000000     
   1.3125000000000000       0.81250000000000000        0.0000000000000000     
   1.3437500000000000       0.81250000000000000        0.0000000000000000     
   1.3750000000000000       0.81250000000000000        0.0000000000000000     
   1.2500000000000000       0.84375000000000000        0.0000000000000000     
   1.2812500000000000       0.84375000000000000        0.0000000000000000     
   1.3125000000000000       0.84375000000000000        0.0000000000000000     
   1.3437500000000000       0.84375000000000000        0.0000000000000000     
   1.3750000000000000       0.84375000000000000        0.0000000000000000     
   1.2500000000000000       0.87500000000000000        0.0000000000000000     
   1.2812500000000000       0.87500000000000000        0.0000000000000000     
   1.3125000000000000       0.87500000000000000        0.0000000000000000     
   1.3437500000000000       0.87500000000000000        0.0000000000000000     
   1.3750000000000000       0.87500000000000000        0.0000000000000000     
   1.3750000000000000       0.75000000000000000        0.0000000000000000     
   1.4062500000000000       0.75000000000000000        0.0000000000000000     
   1.4375000000000000       0.75000000000000000        0.0000000000000000     
   1.4687500000000000       0.75000000000000000        0.0000000000000000     
   1.5000000000000000       0.75000000000000000        0.0000000000000000     
   1.3750000000000000       0.78125000000000000        0.0000000000000000     
   1.4062500000000000       0.78125000000000000        0.0000000000000000     
   1.4375000000000000       0.78125000000000000        0.0000000000000000     
   1.4687500000000000       0.78125000000000000        0.0000000000000000     
   1.5000000000000000       0.78125000000000000        0.0000000000000000     
   1.3750000000000000       0.81250000000000000        0.0000000000000000     
   1.4062500000000000       0.81250000000000000        0.0000000000000000     
   1.4375000000000000       0.81250000000000000        0.0000000000000000     
   1.4687500000000000       0.81250000000000000        0.0000000000000000     
   1.5000000000000000       0.81250000000000000        0.0000000000000000     
   1.3750000000000000       0.84375000000000000        0.0000000000000000     
   1.4062500000000000       0.84375000000000000        0.0000000000000000     
   1.4375000000000000       0.84375000000000000        0.0000000000000000     
   1.4687500000000000       0.84375000000000000        0.0000000000000000     
   1.5000000000000000       0.84375000000000000        0.0000000000000000     
   1.3750000000000000       0.87500000000000000        0.0000000000000000     
   1.4062500000000000       0.87500000000000000        0.0000000000000000     
   1.4375000000000000       0.87500000000000000        0.0000000000000000     
   1.4687500000000000       0.87500000000000000        0.0000000000000000     
   1.5000000000000000       0.87500000000000000        0.0000000000000000     
  0.50000000000000000       0.87500000000000000        0.0000000000000000     
  0.53125000000000000       0.87500000000000000        0.0000000000000000     
  0.56250000000000000       0.87500000000000000        0.0000000000000000     
  0.59375000000000000       0.87500000000000000        0.0000000000000000     
  0.62500000000000000       0.87500000000000000        0.0000000000000000     
  0.50000000000000000       0.90625000000000000        0.0000000000000000     
  0.53125000000000000       0.90625000000000000        0.0000000000000000     
  0.56250000000000000       0.90625000000000000        0.0000000000000000     
  0.59375000000000000       0.90625000000000000        0.0000000000000000     
  0.62500000000000000       0.90625000000000000        0.0000000000000000     
  0.50000000000000000       0.93750000000000000        0.0000000000000000     
  0.53125000000000000       0.93750000000000000        0.0000000000000000     
  0.56250000000000000       0.93750000000000000        0.0000000000000000     
  0.59375000000000000       0.93750000000000000        0.0000000000000000     
  0.62500000000000000       0.93750000000000000        0.0000000000000000     
  0.50000000000000000       0.96875000000000000        0.0000000000000000     
  0.53125000000000000       0.96875000000000000        0.0000000000000000     
  0.56250000000000000       0.96875000000000000        0.0000000000000000     
  0.59375000000000000       0.96875000000000000        0.0000000000000000     
  0.62500000000000000       0.96875000000000000        0.0000000000000000     
  0.50000000000000000        1.0000000000000000        0.0000000000000000     
  0.53125000000000000        1.0000000000000000        0.0000000000000000     
  0.56250000000000000        1.0000000000000000        0.0000000000000000     
  0.59375000000000000        1.0000000000000000        0.0000000000000000     
  0.62500000000000000        1.0000000000000000        0.0000000000000000     
  0.62500000000000000       0.87500000000000000        0.0000000000000000     
  0.65625000000000000       0.87500000000000000        0.0000000000000000     
  0.68750000000000000       0.87500000000000000        0.0000000000000000     
  0.71875000000000000       0.87500000000000000        0.0000000000000000     
  0.75000000000000000       0.87500000000000000        0.0000000000000000     
  0.62500000000000000       0.90625000000000000        0.0000000000000000     
  0.65625000000000000       0.90625000000000000        0.0000000000000000     
  0.68750000000000000       0.90625000000000000        0.0000000000000000     
  0.71875000000000000       0.90625000000000000        0.0000000000000000     
  0.75000000000000000       0.90625000000000000        0.0000000000000000     
  0.62500000000000000       0.93750000000000000        0.0000000000000000     
  0.65625000000000000       0.93750000000000000        0.0000000000000000     
  0.68750000000000000       0.93750000000000000        0.0000000000000000     
  0.71875000000000000       0.93750000000000000        0.0000000000000000     
  0.75000000000000000       0.93750000000000000        0.0000000000000000     
  0.62500000000000000       0.96875000000000000        0.0000000000000000     
  0.65625000000000000       0.96875000000000000        0.0000000000000000     
  0.68750000000000000       0.96875000000000000        0.0000000000000000     
  0.71875000000000000       0.96875000000000000        0.0000000000000000     
  0.75000000000000000       0.96875000000000000        0.0000000000000000     
  0.62500000000000000        1.0000000000000000        0.0000000000000000     
  0.65625000000000000        1.0000000000000000        0.0000000000000000     
  0.68750000000000000        1.0000000000000000        0.0000000000000000     
  0.71875000000000000        1.0000000000000000        0.0000000000000000     
  0.75000000000000000        1.0000000000000000        0.0000000000000000     
  0.75000000000000000       0.87500000000000000        0.0000000000000000     
  0.78125000000000000       0.87500000000000000        0.0000000000000000     
  0.81250000000000000       0.87500000000000000        0.0000000000000000     
  0.84375000000000000       0.87500000000000000        0.0000000000000000     
  0.87500000000000000       0.87500000000000000        0.0000000000000000     
  0.75000000000000000       0.90625000000000000        0.0000000000000000     
  0.78125000000000000       0.90625000000000000        0.0000000000000000     
  0.81250000000000000       0.90625000000000000        0.0000000000000000     
  0.84375000000000000       0.90625000000000000        0.0000000000000000     
  0.87500000000000000       0.90625000000000000        0.0000000000000000     
  0.75000000000000000       0.93750000000000000        0.0000000000000000     
  0.78125000000000000       0.93750000000000000        0.0000000000000000     
  0.81250000000000000       0.93750000000000000        0.0000000000000000     
  0.84375000000000000       0.93750000000000000        0.0000000000000000     
  0.87500000000000000       0.93750000000000000        0.0000000000000000     
  0.75000000000000000       0.96875000000000000        0.0000000000000000     
  0.78125000000000000       0.96875000000000000        0.0000000000000000     
  0.81250000000000000       0.96875000000000000        0.0000000000000000     
  0.84375000000000000       0.96875000000000000        0.0000000000000000     
  0.87500000000000000       0.96875000000000000        0.0000000000000000     
  0.75000000000000000        1.0000000000000000        0.0000000000000000     
  0.78125000000000000        1.0000000000000000        0.0000000000000000     
  0.81250000000000000        1.0000000000000000        0.0000000000000000     
  0.84375000000000000        1.0000000000000000        0.0000000000000000     
  0.87500000000000000        1.0000000000000000        0.0000000000000000     
  0.87500000000000000       0.87500000000000000        0.0000000000000000     
  0.90625000000000000       0.87500000000000000        0.0000000000000000     
  0.93750000000000000       0.87500000000000000        0.0000000000000000     
  0.96875000000000000       0.87500000000000000        0.0000000000000000     
   1.0000000000000000       0.87500000000000000        0.0000000000000000     
  0.87500000000000000       0.90625000000000000        0.0000000000000000     
  0.90625000000000000       0.90625000000000000        0.0000000000000000     
  0.93750000000000000       0.90625000000000000        0.0000000000000000     
  0.96875000000000000       0.90625000000000000        0.0000000000000000     
   1.0000000000000000       0.90625000000000000        0.0000000000000000     
  0.87500000000000000       0.93750000000000000        0.0000000000000000     
  0.90625000000000000       0.93750000000000000        0.0000000000000000     
  0.93750000000000000       0.93750000000000000        0.0000000000000000     
  0.96875000000000000       0.93750000000000000        0.0000000000000000     
   1.0000000000000000       0.93750000000000000        0.0000000000000000     
  0.87500000000000000       0.96875000000000000        0.0000000000000000     
  0.90625000000000000       0.96875000000000000        0.0000000000000000     
  0.93750000000000000       0.96875000000000000        0.0000000000000000     
  0.96875000000000000       0.96875000000000000        0.0000000000000000     
   1.0000000000000000       0.96875000000000000        0.0000000000000000     
  0.87500000000000000        1.0000000000000000        0.0000000000000000     
  0.90625000000000000        1.0000000000000000        0.0000000000000000     
  0.93750000000000000        1.0000000000000000        0.0000000000000000     
  0.96875000000000000        1.0000000000000000        0.0000000000000000     
   1.0000000000000000        1.0000000000000000        0.0000000000000000     
   1.0000000000000000       0.87500000000000000        0.0000000000000000     
   1.0312500000000000       0.87500000000000000        0.0000000000000000     
   1.0625000000000000       0.87500000000000000        0.0000000000000000     
   1.0937500000000000       0.87500000000000000        0.0000000000000000     
   1.1250000000000000       0.87500000000000000        0.0000000000000000     
   1.0000000000000000       0.90625000000000000        0.0000000000000000     
   1.0312500000000000       0.90625000000000000        0.0000000000000000     
   1.0625000000000000       0.90625000000000000        0.0000000000000000     
   1.0937500000000000       0.90625000000000000        0.0000000000000000     
   1.1250000000000000       0.90625000000000000        0.0000000000000000     
   1.0000000000000000       0.93750000000000000        0.0000000000000000     
   1.0312500000000000       0.93750000000000000        0.0000000000000000     
   1.0625000000000000       0.93750000000000000        0.0000000000000000     
   1.0937500000000000       0.93750000000000000        0.0000000000000000     
   1.1250000000000000       0.93750000000000000        0.0000000000000000     
   1.0000000000000000       0.96875000000000000        0.0000000000000000     
   1.0312500000000000       0.96875000000000000        0.0000000000000000     
   1.0625000000000000       0.96875000000000000        0.0000000000000000     
   1.0937500000000000       0.96875000000000000        0.0000000000000000     
   1.1250000000000000       0.96875000000000000        0.0000000000000000     
   1.0000000000000000        1.0000000000000000        0.0000000000000000     
   1.0312500000000000        1.0000000000000000        0.0000000000000000     
   1.0625000000000000        1.0000000000000000        0.0000000000000000     
   1.0937500000000000        1.0000000000000000        0.0000000000000000     
   1.1250000000000000        1.0000000000000000        0.0000000000000000     
   1.1250000000000000       0.87500000000000000        0.0000000000000000     
   1.1562500000000000       0.87500000000000000        0.0000000000000000     
   1.1875000000000000       0.87500000000000000        0.0000000000000000     
   1.2187500000000000       0.87500000000000000        0.0000000000000000     
   1.2500000000000000       0.87500000000000000        0.0000000000000000     
   1.1250000000000000       0.90625000000000000        0.0000000000000000     
   1.1562500000000000       0.90625000000000000        0.0000000000000000     
   1.1875000000000000       0.90625000000000000        0.0000000000000000     
   1.2187500000000000       0.90625000000000000        0.0000000000000000     
   1.2500000000000000       0.90625000000000000        0.0000000000000000     
   1.1250000000000000       0.93750000000000000        0.0000000000000000     
   1.1562500000000000       0.93750000000000000        0.0000000000000000     
   1.1875000000000000       0.93750000000000000        0.0000000000000000     
   1.2187500000000000       0.93750000000000000        0.0000000000000000     
   1.2500000000000000       0.93750000000000000        0.0000000000000000     
   1.1250000000000000       0.96875000000000000        0.0000000000000000     
   1.1562500000000000       0.96875000000000000        0.0000000000000000     
   1.1875000000000000       0.96875000000000000        0.0000000000000000     
   1.2187500000000000       0.96875000000000000        0.0000000000000000     
   1.2500000000000000       0.96875000000000000        0.0000000000000000     
   1.1250000000000000        1.0000000000000000        0.0000000000000000     
   1.1562500000000000        1.0000000000000000        0.0000000000000000     
   1.1875000000000000        1.0000000000000000        0.0000000000000000     
   1.2187500000000000        1.0000000000000000        0.0000000000000000     
   1.2500000000000000        1.0000000000000000        0.0000000000000000     
   1.2500000000000000       0.87500000000000000        0.0000000000000000     
   1.2812500000000000       0.87500000000000000        0.0000000000000000     
   1.3125000000000000       0.87500000000000000        0.0000000000000000     
   1.3437500000000000       0.87500000000000000        0.0000000000000000     
   1.3750000000000000       0.87500000000000000        0.0000000000000000     
   1.2500000000000000       0.90625000000000000        0.0000000000000000     
   1.2812500000000000       0.90625000000000000        0.0000000000000000     
   1.3125000000000000       0.90625000000000000        0.0000000000000000     
   1.3437500000000000       0.90625000000000000        0.0000000000000000     
   1.3750000000000000       0.90625000000000000        0.0000000000000000     
   1.2500000000000000       0.93750000000000000        0.0000000000000000     
   1.2812500000000000       0.93750000000000000        0.0000000000000000     
   1.3125000000000000       0.93750000000000000        0.0000000000000000     
   1.3437500000000000       0.93750000000000000        0.0000000000000000     
   1.3750000000000000       0.93750000000000000        0.0000000000000000     
   1.2500000000000000       0.96875000000000000        0.0000000000000000     
   1.2812500000000000       0.96875000000000000        0.0000000000000000     
   1.3125000000000000       0.96875000000000000        0.0000000000000000     
   1.3437500000000000       0.96875000000000000        0.0000000000000000     
   1.3750000000000000       0.96875000000000000        0.0000000000000000     
   1.2500000000000000        1.0000000000000000        0.0000000000000000     
   1.2812500000000000        1.0000000000000000        0.0000000000000000     
   1.3125000000000000        1.0000000000000000        0.0000000000000000     
   1.3437500000000000        1.0000000000000000        0.0000000000000000     
   1.3750000000000000        1.0000000000000000        0.0000000000000000     
   1.3750000000000000       0.87500000000000000        0.0000000000000000     
   1.4062500000000000       0.87500000000000000        0.0000000000000000     
   1.4375000000000000       0.87500000000000000        0.0000000000000000     
   1.4687500000000000       0.87500000000000000        0.0000000000000000     
   1.5000000000000000       0.87500000000000000        0.0000000000000000     
   1.3750000000000000       0.90625000000000000        0.0000000000000000     
   1.4062500000000000       0.90625000000000000        0.0000000000000000     
   1.4375000000000000       0.90625000000000000        0.0000000000000000     
   1.4687500000000000       0.90625000000000000        0.0000000000000000     
   1.5000000000000000       0.90625000000000000        0.0000000000000000     
   1.3750000000000000       0.93750000000000000        0.0000000000000000     
   1.4062500000000000       0.93750000000000000        0.0000000000000000     
   1.4375000000000000       0.93750000000000000        0.0000000000000000     
   1.4687500000000000       0.93750000000000000        0.0000000000000000     
   1.5000000000000000       0.93750000000000000        0.0000000000000000     
   1.3750000000000000       0.96875000000000000        0.0000000000000000     
   1.4062500000000000       0.96875000000000000        0.0000000000000000     
   1.4375000000000000       0.96875000000000000        0.0000000000000000     
   1.4687500000000000       0.96875000000000000        0.0000000000000000     
   1.5000000000000000       0.96875000000000000        0.0000000000000000     
   1.3750000000000000        1.0000000000000000        0.0000000000000000     
   1.4062500000000000        1.0000000000000000        0.0000000000000000     
   1.4375000000000000        1.0000000000000000        0.0000000000000000     
   1.4687500000000000        1.0000000000000000        0.0000000000000000     
   1.5000000000000000        1.0000000000000000        0.0000000000000000     
 </DataArray>
 </Points>
 <Cells>
 <DataArray  type="Int32"  Name="connectivity"  format="ascii">
           0           1           6           5
           1           2           7           6
           2           3           8           7
           3           4           9           8
           5           6          11          10
           6           7          12          11
           7           8          13          12
           8           9          14          13
          10          11          16          15
          11          12          17          16
          12          13          18          17
          13          14          19          18
          15          16          21          20
          16          17          22          21
          17          18          23          22
          18          19          24          23
          25          26          31          30
          26          27          32          31
          27          28          33          32
          28          29          34          33
          30          31          36          35
          31          32          37          36
          32          33          38          37
          33          34          39          38
          35          36          41          40
          36          37          42          41
          37          38          43          42
          38          39          44          43
          40          41          46          45
          41          42          47          46
          42          43          48          47
          43          44          49          48
          50          51          56          55
          51          52          57          56
          52          53          58          57
          53          54          59          58
          55          56          61          60
          56          57          62          61
          57          58          63          62
          58          59          64          63
          60          61          66          65
          61          62          67          66
          62          63          68          67
          63          64          69          68
          65          66          71          70
          66          67          72          71
          67          68          73          72
          68          69          74          73
          75          76          81          80
          76          77          82          81
          77          78          83          82
          78          79          84          83
          80          81          86          85
          81          82          87          86
          82          83          88          87
          83          84          89          88
          85          86          91          90
          86          87          92          91
          87          88          93          92
          88          89          94          93
          90          91          96          95
          91          92          97          96
          92          93          98          97
          93          94          99          98
         100         101         106         105
         101         102         107         106
         102         103         108         107
         103         104         109         108
         105         106         111         110
         106         107         112         111
         107         108         113         112
         108         109         114         113
         110         111         116         115
         111         112         117         116
         112         113         118         117
         113         114         119         118
         115         116         121         120
         116         117         122         121
         117         118         123         122
         118         119         124         123
         125         126         131         130
         126         127         132         131
         127         128         133         132
         128         129         134         133
         130         131         136         135
         131         132         137         136
         132         133         138         137
         133         134         139         138
         135         136         141         140
         136         137         142         141
         137         138         143         142
         138         139         144         143
         140         141         146         145
         141         142         147         146
         142         143         148         147
         143         144         149         148
         150         151         156         155
         151         152         157         156
         152         153         158         157
         153         154         159         158
         155         156         161         160
         156         157         162         161
         157         158         163         162
         158         159         164         163
         160         161         166         165
         161         162         167         166
         162         163         168         167
         163         164         169         168
         165         166         171         170
         166         167         172         171
         167         168         173         172
         168         169         174         173
         175         176         181         180
         176         177         182         181
         177         178         183         182
         178         179         184         183
         180         181         186         185
         181         182         187         186
         182         183         188         187
         183         184         189         188
         185         186         191         190
         186         187         192         191
         187         188         193         192
         188         189         194         193
         190         191         196         195
         191         192         197         196
         192         193         198         197
         193         194         199         198
         200         201         206         205
         201         202         207         206
         202         203         208         207
         203         204         209         208
         205         206         211         210
         206         207         212         211
         207         208         213         212
         208         209         214         213
         210         211         216         215
         211         212         217         216
         212         213         218         217
         213         214         219         218
         215         216         221         220
         216         217         222         221
         217         218         223         222
         218         219         224         223
         225         226         231         230
         226         227         232         231
         227         228         233         232
         228         229         234         233
         230         231         236         235
         231         232         237         236
         232         233         238         237
         233         234         239         238
         235         236         241         240
         236         237         242         241
         237         238         243         242
         238         239         244         243
         240         241         246         245
         241         242         247         246
         242         243         248         247
         243         244         249         248
         250         251         256         255
         251         252         257         256
         252         253         258         257
         253         254         259         258
         255         256         261         260
         256         257         262         261
         257         258         263         262
         258         259         264         263
         260         261         266         265
         261         262         267         266
         262         263         268         267
         263         264         269         268
         265         266         271         270
         266         267         272         271
         267         268         273         272
         268         269         274         273
         275         276         281         280
         276         277         282         281
         277         278         283         282
         278         279         284         283
         280         281         286         285
         281         282         287         286
         282         283         288         287
         283         284         289         288
         285         286         291         290
         286         287         292         291
         287         288         293         292
         288         289         294         293
         290         291         296         295
         291         292         297         296
         292         293         298         297
         293         294         299         298
         300         301         306         305
         301         302         307         306
         302         303         308         307
         303         304         309         308
         305         306         311         310
         306         307         312         311
         307         308         313         312
         308         309         314         313
         310         311         316         315
         311         312         317         316
         312         313         318         317
         313         314         319         318
         315         316         321         320
         316         317         322         321
         317         318         323         322
         318         319         324         323
         325         326         331         330
         326         327         332         331
         327         328         333         332
         328         329         334         333
         330         331         336         335
         331         332         337         336
         332         333         338         337
         333         334         339         338
         335         336         341         340
         336         337         342         341
         337         338         343         342
         338         339         344         343
         340         341         346         345
         341         342         347         346
         342         343         348         347
         343         344         349         348
         350         351         356         355
         351         352         357         356
         352         353         358         357
         353         354         359         358
         355         356         361         360
         356         357         362         361
         357         358         363         362
         358         359         364         363
         360         361         366         365
         361         362         367         366
         362         363         368         367
         363         364         369         368
         365         366         371         370
         366         367         372         371
         367         368         373         372
         368         369         374         373
         375         376         381         380
         376         377         382         381
         377         378         383         382
         378         379         384         383
         380         381         386         385
         381         382         387         386
         382         383         388         387
         383         384         389         388
         385         386         391         390
         386         387         392         391
         387         388         393         392
         388         389         394         393
         390         391         396         395
         391         392         397         396
         392         393         398         397
         393         394         399         398
         400         401         406         405
         401         402         407         406
         402         403         408         407
         403         404         409         408
         405         406         411         410
         406         407         412         411
         407         408         413         412
         408         409         414         413
         410         411         416         415
         411         412         417         416
         412         413         418         417
         413         414         419         418
         415         416         421         420
         416         417         422         421
         417         418         423         422
         418         419         424         423
         425         426         431         430
         426         427         432         431
         427         428         433         432
         428         429         434         433
         430         431         436         435
         431         432         437         436
         432         433         438         437
         433         434         439         438
         435         436         441         440
         436         437         442         441
         437         438         443         442
         438         439         444         443
         440         441         446         445
         441         442         447         446
         442         443         448         447
         443         444         449         448
         450         451         456         455
         451         452         457         456
         452         453         458         457
         453         454         459         458
         455         456         461         460
         456         457         462         461
         457         458         463         462
         458         459         464         463
         460         461         466         465
         461         462         467         466
         462         463         468         467
         463         464         469         468
         465         466         471         470
         466         467         472         471
         467         468         473         472
         468         469         474         473
         475         476         481         480
         476         477         482         481
         477         478         483         482
         478         479         484         483
         480         481         486         485
         481         482         487         486
         482         483         488         487
         483         484         489         488
         485         486         491         490
         486         487         492         491
         487         488         493         492
         488         489         494         493
         490         491         496         495
         491         492         497         496
         492         493         498         497
         493         494         499         498
         500         501         506         505
         501         502         507         506
         502         503         508         507
         503         504         509         508
         505         506         511         510
         506         507         512         511
         507         508         513         512
         508         509         514         513
         510         511         516         515
         511         512         517         516
         512         513         518         517
         513         514         519         518
         515         516         521         520
         516         517         522         521
         517         518         523         522
         518         519         524         523
         525         526         531         530
         526         527         532         531
         527         528         533         532
         528         529         534         533
         530         531         536         535
         531         532         537         536
         532         533         538         537
         533         534         539         538
         535         536         541         540
         536         537         542         541
         537         538         543         542
         538         539         544         543
         540         541         546         545
         541         542         547         546
         542         543         548         547
         543         544         549         548
         550         551         556         555
         551         552         557         556
         552         553         558         557
         553         554         559         558
         555         556         561         560
         556         557         562         561
         557         558         563         562
         558         559         564         563
         560         561         566         565
         561         562         567         566
         562         563         568         567
         563         564         569         568
         565         566         571         570
         566         567         572         571
         567         568         573         572
         568         569         574         573
         575         576         581         580
         576         577         582         581
         577         578         583         582
         578         579         584         583
         580         581         586         585
         581         582         587         586
         582         583         588         587
         583         584         589         588
         585         586         591         590
         586         587         592         591
         587         588         593         592
         588         589         594         593
         590         591         596         595
         591         592         597         596
         592         593         598         597
         593         594         599         598
         600         601         606         605
         601         602         607         606
         602         603         608         607
         603         604         609         608
         605         606         611         610
         606         607         612         611
         607         608         613         612
         608         609         614         613
         610         611         616         615
         611         612         617         616
         612         613         618         617
         613         614         619         618
         615         616         621         620
         616         617         622         621
         617         618         623         622
         618         619         624         623
         625         626         631         630
         626         627         632         631
         627         628         633         632
         628         629         634         633
         630         631         636         635
         631         632         637         636
         632         633         638         637
         633         634         639         638
         635         636         641         640
         636         637         642         641
         637         638         643         642
         638         639         644         643
         640         641         646         645
         641         642         647         646
         642         643         648         647
         643         644         649         648
         650         651         656         655
         651         652         657         656
         652         653         658         657
         653         654         659         658
         655         656         661         660
         656         657         662         661
         657         658         663         662
         658         659         664         663
         660         661         666         665
         661         662         667         666
         662         663         668         667
         663         664         669         668
         665         666         671         670
         666         667         672         671
         667         668         673         672
         668         669         674         673
         675         676         681         680
         676         677         682         681
         677         678         683         682
         678         679         684         683
         680         681         686         685
         681         682         687         686
         682         683         688         687
         683         684         689         688
         685         686         691         690
         686         687         692         691
         687         688         693         692
         688         689         694         693
         690         691         696         695
         691         692         697         696
         692         693         698         697
         693         694         699         698
         700         701         706         705
         701         702         707         706
         702         703         708         707
         703         704         709         708
         705         706         711         710
         706         707         712         711
         707         708         713         712
         708         709         714         713
         710         711         716         715
         711         712         717         716
         712         713         718         717
         713         714         719         718
         715         716         721         720
         716         717         722         721
         717         718         723         722
         718         719         724         723
         725         726         731         730
         726         727         732         731
         727         728         733         732
         728         729         734         733
         730         731         736         735
         731         732         737         736
         732         733         738         737
         733         734         739         738
         735         736         741         740
         736         737         742         741
         737         738         743         742
         738         739         744         743
         740         741         746         745
         741         742         747         746
         742         743         748         747
         743         744         749         748
         750         751         756         755
         751         752         757         756
         752         753         758         757
         753         754         759         758
         755         756         761         760
         756         757         762         761
         757         758         763         762
         758         759         764         763
         760         761         766         765
         761         762         767         766
         762         763         768         767
         763         764         769         768
         765         766         771         770
         766         767         772         771
         767         768         773         772
         768         769         774         773
         775         776         781         780
         776         777         782         781
         777         778         783         782
         778         779         784         783
         780         781         786         785
         781         782         787         786
         782         783         788         787
         783         784         789         788
         785         786         791         790
         786         787         792         791
         787         788         793         792
         788         789         794         793
         790         791         796         795
         791         792         797         796
         792         793         798         797
         793         794         799         798
         800         801         806         805
         801         802         807         806
         802         803         808         807
         803         804         809         808
         805         806         811         810
         806         807         812         811
         807         808         813         812
         808         809         814         813
         810         811         816         815
         811         812         817         816
         812         813         818         817
         813         814         819         818
         815         816         821         820
         816         817         822         821
         817         818         823         822
         818         819         824         823
         825         826         831         830
         826         827         832         831
         827         828         833         832
         828         829         834         833
         830         831         836         835
         831         832         837         836
         832         833         838         837
         833         834         839         838
         835         836         841         840
         836         837         842         841
         837         838         843         842
         838         839         844         843
         840         841         846         845
         841         842         847         846
         842         843         848         847
         843         844         849         848
         850         851         856         855
         851         852         857         856
         852         853         858         857
         853         854         859         858
         855         856         861         860
         856         857         862         861
         857         858         863         862
         858         859         864         863
         860         861         866         865
         861         862         867         866
         862         863         868         867
         863         864         869         868
         865         866         871         870
         866         867         872         871
         867         868         873         872
         868         869         874         873
         875         876         881         880
         876         877         882         881
         877         878         883         882
         878         879         884         883
         880         881         886         885
         881         882         887         886
         882         883         888         887
         883         884         889         888
         885         886         891         890
         886         887         892         891
         887         888         893         892
         888         889         894         893
         890         891         896         895
         891         892         897         896
         892         893         898         897
         893         894         899         898
         900         901         906         905
         901         902         907         906
         902         903         908         907
         903         904         909         908
         905         906         911         910
         906         907         912         911
         907         908         913         912
         908         909         914         913
         910         911         916         915
         911         912         917         916
         912         913         918         917
         913         914         919         918
         915         916         921         920
         916         917         922         921
         917         918         923         922
         918         919         924         923
         925         926         931         930
         926         927         932         931
         927         928         933         932
         928         929         934         933
         930         931         936         935
         931         932         937         936
         932         933         938         937
         933         934         939         938
         935         936         941         940
         936         937         942         941
         937         938         943         942
         938         939         944         943
         940         941         946         945
         941         942         947         946
         942         943         948         947
         943         944         949         948
         950         951         956         955
         951         952         957         956
         952         953         958         957
         953         954         959         958
         955         956         961         960
         956         957         962         961
         957         958         963         962
         958         959         964         963
         960         961         966         965
         961         962         967         966
         962         963         968         967
         963         964         969         968
         965         966         971         970
         966         967         972         971
         967         968         973         972
         968         969         974         973
         975         976         981         980
         976         977         982         981
         977         978         983         982
         978         979         984         983
         980         981         986         985
         981         982         987         986
         982         983         988         987
         983         984         989         988
         985         986         991         990
         986         987         992         991
         987         988         993         992
         988         989         994         993
         990         991         996         995
         991         992         997         996
         992         993         998         997
         993         994         999         998
        1000        1001        1006        1005
        1001        1002        1007        1006
        1002        1003        1008        1007
        1003        1004        1009        1008
        1005        1006        1011        1010
        1006        1007        1012        1011
        1007        1008        1013        1012
        1008        1009        1014        1013
        1010        1011        1016        1015
        1011        1012        1017        1016
        1012        1013        1018        1017
        1013        1014        1019        1018
        1015        1016        1021        1020
        1016        1017        1022        1021
        1017        1018        1023        1022
        1018        1019        1024        1023
        1025        1026        1031        1030
        1026        1027        1032        1031
        1027        1028        1033        1032
        1028        1029        1034        1033
        1030        1031        1036        1035
        1031        1032        1037        1036
        1032        1033        1038        1037
        1033        1034        1039        1038
        1035        1036        1041        1040
        1036        1037        1042        1041
        1037        1038        1043        1042
        1038        1039        1044        1043
        1040        1041        1046        1045
        1041        1042        1047        1046
        1042        1043        1048        1047
        1043        1044        1049        1048
        1050        1051        1056        1055
        1051        1052        1057        1056
        1052        1053        1058        1057
        1053        1054        1059        1058
        1055        1056        1061        1060
        1056        1057        1062        1061
        1057        1058        1063        1062
        1058        1059        1064        1063
        1060        1061        1066        1065
        1061        1062        1067        1066
        1062        1063        1068        1067
        1063        1064        1069        1068
        1065        1066        1071        1070
        1066        1067        1072        1071
        1067        1068        1073        1072
        1068        1069        1074        1073
        1075        1076        1081        1080
        1076        1077        1082        1081
        1077        1078        1083        1082
        1078        1079        1084        1083
        1080        1081        1086        1085
        1081        1082        1087        1086
        1082        1083        1088        1087
        1083        1084        1089        1088
        1085        1086        1091        1090
        1086        1087        1092        1091
        1087        1088        1093        1092
        1088        1089        1094        1093
        1090        1091        1096        1095
        1091        1092        1097        1096
        1092        1093        1098        1097
        1093        1094        1099        1098
        1100        1101        1106        1105
        1101        1102        1107        1106
        1102        1103        1108        1107
        1103        1104        1109        1108
        1105        1106        1111        1110
        1106        1107        1112        1111
        1107        1108        1113        1112
        1108        1109        1114        1113
        1110        1111        1116        1115
        1111        1112        1117        1116
        1112        1113        1118        1117
        1113        1114        1119        1118
        1115        1116        1121        1120
        1116        1117        1122        1121
        1117        1118        1123        1122
        1118        1119        1124        1123
        1125        1126        1131        1130
        1126        1127        1132        1131
        1127        1128        1133        1132
        1128        1129        1134        1133
        1130        1131        1136        1135
        1131        1132        1137        1136
        1132        1133        1138        1137
        1133        1134        1139        1138
        1135        1136        1141        1140
        1136        1137        1142        1141
        1137        1138        1143        1142
        1138        1139        1144        1143
        1140        1141        1146        1145
        1141        1142        1147        1146
        1142        1143        1148        1147
        1143        1144        1149        1148
        1150        1151        1156        1155
        1151        1152        1157        1156
        1152        1153        1158        1157
        1153        1154        1159        1158
        1155        1156        1161        1160
        1156        1157        1162        1161
        1157        1158        1163        1162
        1158        1159        1164        1163
        1160        1161        1166        1165
        1161        1162        1167        1166
        1162        1163        1168        1167
        1163        1164        1169        1168
        1165        1166        1171        1170
        1166        1167        1172        1171
        1167        1168        1173        1172
        1168        1169        1174        1173
        1175        1176        1181        1180
        1176        1177        1182        1181
        1177        1178        1183        1182
        1178        1179        1184        1183
        1180        1181        1186        1185
        1181        1182        1187        1186
        1182        1183        1188        1187
        1183        1184        1189        1188
        1185        1186        1191        1190
        1186        1187        1192        1191
        1187        1188        1193        1192
        1188        1189        1194        1193
        1190        1191        1196        1195
        1191        1192        1197        1196
        1192        1193        1198        1197
        1193        1194        1199        1198
        1200        1201        1206        1205
        1201        1202        1207        1206
        1202        1203        1208        1207
        1203        1204        1209        1208
        1205        1206        1211        1210
        1206        1207        1212        1211
        1207        1208        1213        1212
        1208        1209        1214        1213
        1210        1211        1216        1215
        1211        1212        1217        1216
        1212        1213        1218        1217
        1213        1214        1219        1218
        1215        1216        1221        1220
        1216        1217        1222        1221
        1217        1218        1223        1222
        1218        1219        1224        1223
        1225        1226        1231        1230
        1226        1227        1232        1231
        1227        1228        1233        1232
        1228        1229        1234        1233
        1230        1231        1236        1235
        1231        1232        1237        1236
        1232        1233        1238        1237
        1233        1234        1239        1238
        1235        1236        1241        1240
        1236        1237        1242        1241
        1237        1238        1243        1242
        1238        1239        1244        1243
        1240        1241        1246        1245
        1241        1242        1247        1246
        1242        1243        1248        1247
        1243        1244        1249        1248
        1250        1251        1256        1255
        1251        1252        1257        1256
        1252        1253        1258        1257
        1253        1254        1259        1258
        1255        1256        1261        1260
        1256        1257        1262        1261
        1257        1258        1263        1262
        1258        1259        1264        1263
        1260        1261        1266        1265
        1261        1262        1267        1266
        1262        1263        1268        1267
        1263        1264        1269        1268
        1265        1266        1271        1270
        1266        1267        1272        1271
        1267        1268        1273        1272
        1268        1269        1274        1273
        1275        1276        1281        1280
        1276        1277        1282        1281
        1277        1278        1283        1282
        1278        1279        1284        1283
        1280        1281        1286        1285
        1281        1282        1287        1286
        1282        1283        1288        1287
        1283        1284        1289        1288
        1285        1286        1291        1290
        1286        1287        1292        1291
        1287        1288        1293        1292
        1288        1289        1294        1293
        1290        1291        1296        1295
        1291        1292        1297        1296
        1292        1293        1298        1297
        1293        1294        1299        1298
        1300        1301        1306        1305
        1301        1302        1307        1306
        1302        1303        1308        1307
        1303        1304        1309        1308
        1305        1306        1311        1310
        1306        1307        1312        1311
        1307        1308        1313        1312
        1308        1309        1314        1313
        1310        1311        1316        1315
        1311        1312        1317        1316
        1312        1313        1318        1317
        1313        1314        1319        1318
        1315        1316        1321        1320
        1316        1317        1322        1321
        1317        1318        1323        1322
        1318        1319        1324        1323
        1325        1326        1331        1330
        1326        1327        1332        1331
        1327        1328        1333        1332
        1328        1329        1334        1333
        1330        1331        1336        1335
        1331        1332        1337        1336
        1332        1333        1338        1337
        1333        1334        1339        1338
        1335        1336        1341        1340
        1336        1337        1342        1341
        1337        1338        1343        1342
        1338        1339        1344        1343
        1340        1341        1346        1345
        1341        1342        1347        1346
        1342        1343        1348        1347
        1343        1344        1349        1348
        1350        1351        1356        1355
        1351        1352        1357        1356
        1352        1353        1358        1357
        1353        1354        1359        1358
        1355        1356        1361        1360
        1356        1357        1362        1361
        1357        1358        1363        1362
        1358        1359        1364        1363
        1360        1361        1366        1365
        1361        1362        1367        1366
        1362        1363        1368        1367
        1363        1364        1369        1368
        1365        1366        1371        1370
        1366        1367        1372        1371
        1367        1368        1373        1372
        1368        1369        1374        1373
        1375        1376        1381        1380
        1376        1377        1382        1381
        1377        1378        1383        1382
        1378        1379        1384        1383
        1380        1381        1386        1385
        1381        1382        1387        1386
        1382        1383        1388        1387
        1383        1384        1389        1388
        1385        1386        1391        1390
        1386        1387        1392        1391
        1387        1388        1393        1392
        1388        1389        1394        1393
        1390        1391        1396        1395
        1391        1392        1397        1396
        1392        1393        1398        1397
        1393        1394        1399        1398
        1400        1401        1406        1405
        1401        1402        1407        1406
        1402        1403        1408        1407
        1403        1404        1409        1408
        1405        1406        1411        1410
        1406        1407        1412        1411
        1407        1408        1413        1412
        1408        1409        1414        1413
        1410        1411        1416        1415
        1411        1412        1417        1416
        1412        1413        1418        1417
        1413        1414        1419        1418
        1415        1416        1421        1420
        1416        1417        1422        1421
        1417        1418        1423        1422
        1418        1419        1424        1423
        1425        1426        1431        1430
        1426        1427        1432        1431
        1427        1428        1433        1432
        1428        1429        1434        1433
        1430        1431        1436        1435
        1431        1432        1437        1436
        1432        1433        1438        1437
        1433        1434        1439        1438
        1435        1436        1441        1440
        1436        1437        1442        1441
        1437        1438        1443        1442
        1438        1439        1444        1443
        1440        1441        1446        1445
        1441        1442        1447        1446
        1442        1443        1448        1447
        1443        1444        1449        1448
        1450        1451        1456        1455
        1451        1452        1457        1456
        1452        1453        1458        1457
        1453        1454        1459        1458
        1455        1456        1461        1460
        1456        1457        1462        1461
        1457        1458        1463        1462
        1458        1459        1464        1463
        1460        1461        1466        1465
        1461        1462        1467        1466
        1462        1463        1468        1467
        1463        1464        1469        1468
        1465        1466        1471        1470
        1466        1467        1472        1471
        1467        1468        1473        1472
        1468        1469        1474        1473
        1475        1476        1481        1480
        1476        1477        1482        1481
        1477        1478        1483        1482
        1478        1479        1484        1483
        1480        1481        1486        1485
        1481        1482        1487        1486
        1482        1483        1488        1487
        1483        1484        1489        1488
        1485        1486        1491        1490
        1486        1487        1492        1491
        1487        1488        1493        1492
        1488        1489        1494        1493
        1490        1491        1496        1495
        1491        1492        1497        1496
        1492        1493        1498        1497
        1493        1494        1499        1498
        1500        1501        1506        1505
        1501        1502        1507        1506
        1502        1503        1508        1507
        1503        1504        1509        1508
        1505        1506        1511        1510
        1506        1507        1512        1511
        1507        1508        1513        1512
        1508        1509        1514        1513
        1510        1511        1516        1515
        1511        1512        1517        1516
        1512        1513        1518        1517
        1513        1514        1519        1518
        1515        1516        1521        1520
        1516        1517        1522        1521
        1517        1518        1523        1522
        1518        1519        1524        1523
        1525        1526        1531        1530
        1526        1527        1532        1531
        1527        1528        1533        1532
        1528        1529        1534        1533
        1530        1531        1536        1535
        1531        1532        1537        1536
        1532        1533        1538        1537
        1533        1534        1539        1538
        1535        1536        1541        1540
        1536        1537        1542        1541
        1537        1538        1543        1542
        1538        1539        1544        1543
        1540        1541        1546        1545
        1541        1542        1547        1546
        1542        1543        1548        1547
        1543        1544        1549        1548
        1550        1551        1556        1555
        1551        1552        1557        1556
        1552        1553        1558        1557
        1553        1554        1559        1558
        1555        1556        1561        1560
        1556        1557        1562        1561
        1557        1558        1563        1562
        1558        1559        1564        1563
        1560        1561        1566        1565
        1561        1562        1567        1566
        1562        1563        1568        1567
        1563        1564        1569        1568
        1565        1566        1571        1570
        1566        1567        1572        1571
        1567        1568        1573        1572
        1568        1569        1574        1573
        1575        1576        1581        1580
        1576        1577        1582        1581
        1577        1578        1583        1582
        1578        1579        1584        1583
        1580        1581        1586        1585
        1581        1582        1587        1586
        1582        1583        1588        1587
        1583        1584        1589        1588
        1585        1586        1591        1590
        1586        1587        1592        1591
        1587        1588        1593        1592
        1588        1589        1594        1593
        1590        1591        1596        1595
        1591        1592        1597        1596
        1592        1593        1598        1597
        1593        1594        1599        1598
 </DataArray>
 <DataArray  type="Int32"  Name="offsets"  format="ascii"> 
           4
           8
          12
          16
          20
          24
          28
          32
          36
          40
          44
          48
          52
          56
          60
          64
          68
          72
          76
          80
          84
          88
          92
          96
         100
         104
         108
         112
         116
         120
         124
         128
         132
         136
         140
         144
         148
         152
         156
         160
         164
         168
         172
         176
         180
         184
         188
         192
         196
         200
         204
         208
         212
         216
         220
         224
         228
         232
         236
         240
         244
         248
         252
         256
         260
         264
         268
         272
         276
         280
         284
         288
         292
         296
         300
         304
         308
         312
         316
         320
         324
         328
         332
         336
         340
         344
         348
         352
         356
         360
         364
         368
         372
         376
         380
         384
         388
         392
         396
         400
         404
         408
         412
         416
         420
         424
         428
         432
         436
         440
         444
         448
         452
         456
         460
         464
         468
         472
         476
         480
         484
         488
         492
         496
         500
         504
         508
         512
         516
         520
         524
         528
         532
         536
         540
         544
         548
         552
         556
         560
         564
         568
         572
         576
         580
         584
         588
         592
         596
         600
         604
         608
         612
         616
         620
         624
         628
         632
         636
         640
         644
         648
         652
         656
         660
         664
         668
         672
         676
         680
         684
         688
         692
         696
         700
         704
         708
         712
         716
         720
         724
         728
         732
         736
         740
         744
         748
         752
         756
         760
         764
         768
         772
         776
         780
         784
         788
         792
         796
         800
         804
         808
         812
         816
         820
         824
         828
         832
         836
         840
         844
         848
         852
         856
         860
         864
         868
         872
         876
         880
         884
         888
         892
         896
         900
         904
         908
         912
         916
         920
         924
         928
         932
         936
         940
         944
         948
         952
         956
         960
         964
         968
         972
         976
         980
         984
         988
         992
         996
        1000
        1004
        1008
        1012
        1016
        1020
        1024
        1028
        1032
        1036
        1040
        1044
        1048
        1052
        1056
        1060
        1064
        1068
        1072
        1076
        1080
        1084
        1088
        1092
        1096
        1100
        1104
        1108
        1112
        1116
        1120
        1124
        1128
        1132
        1136
        1140
        1144
        1148
        1152
        1156
        1160
        1164
        1168
        1172
        1176
        1180
        1184
        1188
        1192
        1196
        1200
        1204
        1208
        1212
        1216
        1220
        1224
        1228
        1232
        1236
        1240
        1244
        1248
        1252
        1256
        1260
        1264
        1268
        1272
        1276
        1280
        1284
        1288
        1292
        1296
        1300
        1304
        1308
        1312
        1316
        1320
        1324
        1328
        1332
        1336
        1340
        1344
        1348
        1352
        1356
        1360
        1364
        1368
        1372
        1376
        1380
        1384
        1388
        1392
        1396
        1400
        1404
        1408
        1412
        1416
        1420
        1424
        1428
        1432
        1436
        1440
        1444
        1448
        1452
        1456
        1460
        1464
        1468
        1472
        1476
        1480
        1484
        1488
        1492
        1496
        1500
        1504
        1508
        1512
        1516
        1520
        1524
        1528
        1532
        1536
        1540
        1544
        1548
        1552
        1556
        1560
        1564
        1568
        1572
        1576
        1580
        1584
        1588
        1592
        1596
        1600
        1604
        1608
        1612
        1616
        1620
        1624
        1628
        1632
        1636
        1640
        1644
        1648
        1652
        1656
        1660
        1664
        1668
        1672
        1676
        1680
        1684
        1688
        1692
        1696
        1700
        1704
        1708
        1712
        1716
        1720
        1724
        1728
        1732
        1736
        1740
        1744
        1748
        1752
        1756
        1760
        1764
        1768
        1772
        1776
        1780
        1784
        1788
        1792
        1796
        1800
        1804
        1808
        1812
        1816
        1820
        1824
        1828
        1832
        1836
        1840
        1844
        1848
        1852
        1856
        1860
        1864
        1868
        1872
        1876
        1880
        1884
        1888
        1892
        1896
        1900
        1904
        1908
        1912
        1916
        1920
        1924
        1928
        1932
        1936
        1940
        1944
        1948
        1952
        1956
        1960
        1964
        1968
        1972
        1976
        1980
        1984
        1988
        1992
        1996
        2000
        2004
        2008
        2012
        2016
        2020
        2024
        2028
        2032
        2036
        2040
        2044
        2048
        2052
        2056
        2060
        2064
        2068
        2072
        2076
        2080
        2084
        2088
        2092
        2096
        2100
        2104
        2108
        2112
        2116
        2120
        2124
        2128
        2132
        2136
        2140
        2144
        2148
        2152
        2156
        2160
        2164
        2168
        2172
        2176
        2180
        2184
        2188
        2192
        2196
        2200
        2204
        2208
        2212
        2216
        2220
        2224
        2228
        2232
        2236
        2240
        2244
        2248
        2252
        2256
        2260
        2264
        2268
        2272
        2276
        2280
        2284
        2288
        2292
        2296
        2300
        2304
        2308
        2312
        2316
        2320
        2324
        2328
        2332
        2336
        2340
        2344
        2348
        2352
        2356
        2360
        2364
        2368
        2372
        2376
        2380
        2384
        2388
        2392
        2396
        2400
        2404
        2408
        2412
        2416
        2420
        2424
        2428
        2432
        2436
        2440
        2444
        2448
        2452
        2456
        2460
        2464
        2468
        2472
        2476
        2480
        2484
        2488
        2492
        2496
        2500
        2504
        2508
        2512
        2516
        2520
        2524
        2528
        2532
        2536
        2540
        2544
        2548
        2552
        2556
        2560
        2564
        2568
        2572
        2576
        2580
        2584
        2588
        2592
        2596
        2600
        2604
        2608
        2612
        2616
        2620
        2624
        2628
        2632
        2636
        2640
        2644
        2648
        2652
        2656
        2660
        2664
        2668
        2672
        2676
        2680
        2684
        2688
        2692
        2696
        2700
        2704
        2708
        2712
        2716
        2720
        2724
        2728
        2732
        2736
        2740
        2744
        2748
        2752
        2756
        2760
        2764
        2768
        2772
        2776
        2780
        2784
        2788
        2792
        2796
        2800
        2804
        2808
        2812
        2816
        2820
        2824
        2828
        2832
        2836
        2840
        2844
        2848
        2852
        2856
        2860
        2864
        2868
        2872
        2876
        2880
        2884
        2888
        2892
        2896
        2900
        2904
        2908
        2912
        2916
        2920
        2924
        2928
        2932
        2936
        2940
        2944
        2948
        2952
        2956
        2960
        2964
        2968
        2972
        2976
        2980
        2984
        2988
        2992
        2996
        3000
        3004
        3008
        3012
        3016
        3020
        3024
        3028
        3032
        3036
        3040
        3044
        3048
        3052
        3056
        3060
        3064
        3068
        3072
        3076
        3080
        3084
        3088
        3092
        3096
        3100
        3104
        3108
        3112
        3116
        3120
        3124
        3128
        3132
        3136
        3140
        3144
        3148
        3152
        3156
        3160
        3164
        3168
        3172
        3176
        3180
        3184
        3188
        3192
        3196
        3200
        3204
        3208
        3212
        3216
        3220
        3224
        3228
        3232
        3236
        3240
        3244
        3248
        3252
        3256
        3260
        3264
        3268
        3272
        3276
        3280
        3284
        3288
        3292
        3296
        3300
        3304
        3308
        3312
        3316
        3320
        3324
        3328
        3332
        3336
        3340
        3344
        3348
        3352
        3356
        3360
        3364
        3368
        3372
        3376
        3380
        3384
        3388
        3392
        3396
        3400
        3404
        3408
        3412
        3416
        3420
        3424
        3428
        3432
        3436
        3440
        3444
        3448
        3452
        3456
        3460
        3464
        3468
        3472
        3476
        3480
        3484
        3488
        3492
        3496
        3500
        3504
        3508
        3512
        3516
        3520
        3524
        3528
        3532
        3536
        3540
        3544
        3548
        3552
        3556
        3560
        3564
        3568
        3572
        3576
        3580
        3584
        3588
        3592
        3596
        3600
        3604
        3608
        3612
        3616
        3620
        3624
        3628
        3632
        3636
        3640
        3644
        3648
        3652
        3656
        3660
        3664
        3668
        3672
        3676
        3680
        3684
        3688
        3692
        3696
        3700
        3704
        3708
        3712
        3716
        3720
        3724
        3728
        3732
        3736
        3740
        3744
        3748
        3752
        3756
        3760
        3764
        3768
        3772
        3776
        3780
        3784
        3788
        3792
        3796
        3800
        3804
        3808
        3812
        3816
        3820
        3824
        3828
        3832
        3836
        3840
        3844
        3848
        3852
        3856
        3860
        3864
        3868
        3872
        3876
        3880
        3884
        3888
        3892
        3896
        3900
        3904
        3908
        3912
        3916
        3920
        3924
        3928
        3932
        3936
        3940
        3944
        3948
        3952
        3956
        3960
        3964
        3968
        3972
        3976
        3980
        3984
        3988
        3992
        3996
        4000
        4004
        4008
        4012
        4016
        4020
        4024
        4028
        4032
        4036
        4040
        4044
        4048
        4052
        4056
        4060
        4064
        4068
        4072
        4076
        4080
        4084
        4088
        4092
        4096
 </DataArray>
 <DataArray  type="UInt8"  Name="types"  format="ascii">
 9
 9
 9
 9
 9
 9
 9
 9
 9
 9
 9
 9
 9
 9
 9
 9
 9
 9
 9
 9
 9
 9
 9
 9
 9
 9
 9
 9
 9
 9
 9
 9
 9
 9
 9
 9
 9
 9
 9
 9
 9
 9
 9
 9
 9
 9
 9
 9
 9
 9
 9
 9
 9
 9
 9
 9
 9
 9
 9
 9
 9
 9
 9
 9
 9
 9
 9
 9
 9
 9
 9
 9
 9
 9
 9
 9
 9
 9
 9
 9
 9
 9
 9
 9
 9
 9
 9
 9
 9
 9
 9
 9
 9
 9
 9
 9
 9
 9
 9
 9
 9
 9
 9
 9
 9
 9
 9
 9
 9
 9
 9
 9
 9
 9
 9
 9
 9
 9
 9
 9
 9
 9
 9
 9
 9
 9
 9
 9
 9
 9
 9
 9
 9
 9
 9
 9
 9
 9
 9
 9
 9
 9
 9
 9
 9
 9
 9
 9
 9
 9
 9
 9
 9
 9
 9
 9
 9
 9
 9
 9
 9
 9
 9
 9
 9
 9
 9
 9
 9
 9
 9
 9
 9
 9
 9
 9
 9
 9
 9
 9
 9
 9
 9
 9
 9
 9
 9
 9
 9
 9
 9
 9
 9
 9
 9
 9
 9
 9
 9
 9
 9
 9
 9
 9
 9
 9
 9
 9
 9
 9
 9
 9
 9
 9
 9
 9
 9
 9
 9
 9
 9
 9
 9
 9
 9
 9
 9
 9
 9
 9
 9
 9
 9
 9
 9
 9
 9
 9
 9
 9
 9
 9
 9
 9
 9
 9
 9
 9
 9
 9
 9
 9
 9
 9
 9
 9
 9
 9
 9
 9
 9
 9
 9
 9
 9
 9
 9
 9
 9
 9
 9
 9
 9
 9
 9
 9
 9
 9
 9
 9
 9
 9
 9
 9
 9
 9
 9
 9
 9
 9
 9
 9
 9
 9
 9
 9
 9
 9
 9
 9
 9
 9
 9
 9
 9
 9
 9
 9
 9
 9
 9
 9
 9
 9
 9
 9
 9
 9
 9
 9
 9
 9
 9
 9
 9
 9
 9
 9
 9
 9
 9
 9
 9
 9
 9
 9
 9
 9
 9
 9
 9
 9
 9
 9
 9
 9
 9
 9
 9
 9
 9
 9
 9
 9
 9
 9
 9
 9
 9
 9
 9
 9
 9
 9
 9
 9
 9
 9
 9
 9
 9
 9
 9
 9
 9
 9
 9
 9
 9
 9
 9
 9
 9
 9
 9
 9
 9
 9
 9
 9
 9
 9
 9
 9
 9
 9
 9
 9
 9
 9
 9
 9
 9
 9
 9
 9
 9
 9
 9
 9
 9
 9
 9
 9
 9
 9
 9
 9
 9
 9
 9
 9
 9
 9
 9
 9
 9
 9
 9
 9
 9
 9
 9
 9
 9
 9
 9
 9
 9
 9
 9
 9
 9
 9
 9
 9
 9
 9
 9
 9
 9
 9
 9
 9
 9
 9
 9
 9
 9
 9
 9
 9
 9
 9
 9
 9
 9
 9
 9
 9
 9
 9
 9
 9
 9
 9
 9
 9
 9
 9
 9
 9
 9
 9
 9
 9
 9
 9
 9
 9
 9
 9
 9
 9
 9
 9
 9
 9
 9
 9
 9
 9
 9
 9
 9
 9
 9
 9
 9
 9
 9
 9
 9
 9
 9
 9
 9
 9
 9
 9
 9
 9
 9
 9
 9
 9
 9
 9
 9
 9
 9
 9
 9
 9
 9
 9
 9
 9
 9
 9
 9
 9
 9
 9
 9
 9
 9
 9
 9
 9
 9
 9
 9
 9
 9
 9
 9
 9
 9
 9
 9
 9
 9
 9
 9
 9
 9
 9
 9
 9
 9
 9
 9
 9
 9
 9
 9
 9
 9
 9
 9
 9
 9
 9
 9
 9
 9
 9
 9
 9
 9
 9
 9
 9
 9
 9
 9
 9
 9
 9
 9
 9
 9
 9
 9
 9
 9
 9
 9
 9
 9
 9
 9
 9
 9
 9
 9
 9
 9
 9
 9
 9
 9
 9
 9
 9
 9
 9
 9
 9
 9
 9
 9
 9
 9
 9
 9
 9
 9
 9
 9
 9
 9
 9
 9
 9
 9
 9
 9
 9
 9
 9
 9
 9
 9
 9
 9
 9
 9
 9
 9
 9
 9
 9
 9
 9
 9
 9
 9
 9
 9
 9
 9
 9
 9
 9
 9
 9
 9
 9
 9
 9
 9
 9
 9
 9
 9
 9
 9
 9
 9
 9
 9
 9
 9
 9
 9
 9
 9
 9
 9
 9
 9
 9
 9
 9
 9
 9
 9
 9
 9
 9
 9
 9
 9
 9
 9
 9
 9
 9
 9
 9
 9
 9
 9
 9
 9
 9
 9
 9
 9
 9
 9
 9
 9
 9
 9
 9
 9
 9
 9
 9
 9
 9
 9
 9
 9
 9
 9
 9
 9
 9
 9
 9
 9
 9
 9
 9
 9
 9
 9
 9
 9
 9
 9
 9
 9
 9
 9
 9
 9
 9
 9
 9
 9
 9
 9
 9
 9
 9
 9
 9
 9
 9
 9
 9
 9
 9
 9
 9
 9
 9
 9
 9
 9
 9
 9
 9
 9
 9
 9
 9
 9
 9
 9
 9
 9
 9
 9
 9
 9
 9
 9
 9
 9
 9
 9
 9
 9
 9
 9
 9
 9
 9
 9
 9
 9
 9
 9
 9
 9
 9
 9
 9
 9
 9
 9
 9
 9
 9
 9
 9
 9
 9
 9
 9
 9
 9
 9
 9
 9
 9
 9
 9
 9
 9
 9
 9
 9
 9
 9
 9
 9
 9
 9
 9
 9
 9
 9
 9
 9
 9
 9
 9
 9
 9
 9
 9
 9
 9
 9
 9
 9
 9
 9
 9
 9
 9
 9
 9
 9
 9
 9
 9
 9
 9
 9
 9
 9
 9
 9
 9
 9
 9
 9
 9
 9
 9
 9
 9
 9
 9
 9
 9
 9
 9
 9
 9
 9
 9
 9
 9
 9
 9
 9
 9
 9
 9
 9
 9
 9
 9
 9
 9
 9
 9
 9
 9
 9
 9
 9
 9
 9
 9
 9
 9
 9
 9
 9
 9
 9
 9
 9
 9
 9
 9
 9
 9
 9
 9
 9
 9
 9
 9
 9
 9
 9
 9
 9
 9
 9
 9
 9
 9
 9
 9
 9
 9
 9
 9
 9
 9
 9
 9
 9
 9
 9
 9
 9
 9
 9
 9
 9
 9
 9
 9
 9
 9
 9
 9
 9
 9
 9
 9
 9
 9
 9
 9
 9
 9
 9
 9
 9
 9
 9
 9
 9
 9
 9
 9
 9
 9
 9
 9
 </DataArray>
 </Cells> 
 <PointData>
 <DataArray  type="Float64" Name="disp" NumberOfComponents="3" format="ascii">
   6.5562567073208261E-002   6.2953001096474476E-002   0.0000000000000000     
   6.8362730386955395E-002   6.8181728980804476E-002   0.0000000000000000     
   7.1190349467593506E-002   7.3668822246824819E-002   0.0000000000000000     
   7.4045424315122552E-002   7.9414280894535505E-002   0.0000000000000000     
   7.6927954929542575E-002   8.5418104923936533E-002   0.0000000000000000     
   6.0236232549483987E-002   6.1940525632831811E-002   0.0000000000000000     
   6.3028504119741341E-002   6.7309870422112200E-002   0.0000000000000000     
   6.5778426018118202E-002   7.2889668511225192E-002   0.0000000000000000     
   6.8485998244614529E-002   7.8679919900170758E-002   0.0000000000000000     
   7.1151220799230364E-002   8.4680624588948927E-002   0.0000000000000000     
   5.5158280615018519E-002   6.1034316591615206E-002   0.0000000000000000     
   5.7871270647763026E-002   6.6489189531238335E-002   0.0000000000000000     
   6.0502677343110572E-002   7.2129277389173990E-002   0.0000000000000000     
   6.3052500701061151E-002   7.7954580165422130E-002   0.0000000000000000     
   6.5520740721614790E-002   8.3965097859982810E-002   0.0000000000000000     
   5.0328711269811879E-002   6.0234373972824662E-002   0.0000000000000000     
   5.2891029971020437E-002   6.5719686308182867E-002   0.0000000000000000     
   5.5363103442570623E-002   7.1387648880671187E-002   0.0000000000000000     
   5.7744931684462431E-002   7.7238261690289620E-002   0.0000000000000000     
   6.0036514696695867E-002   8.3271524737038180E-002   0.0000000000000000     
   4.5747524513864053E-002   5.9540697776460177E-002   0.0000000000000000     
   4.8087782089513587E-002   6.5001360752945825E-002   0.0000000000000000     
   5.0359704316498347E-002   7.0664782985716823E-002   0.0000000000000000     
   5.2563291194818347E-002   7.6530964474773228E-002   0.0000000000000000     
   5.4698542724473581E-002   8.2599905220114997E-002   0.0000000000000000     
   7.6927954929542575E-002   8.5418104923936533E-002   0.0000000000000000     
   7.9775834635879617E-002   9.1621402712618205E-002   0.0000000000000000     
   8.2526956759159831E-002   9.7965282638170906E-002   0.0000000000000000     
   8.5181321299383134E-002  0.10444974470059459        0.0000000000000000     
   8.7738928256549609E-002  0.11107478889988928        0.0000000000000000     
   7.1151220799230364E-002   8.4680624588948927E-002   0.0000000000000000     
   7.3761627985624426E-002   9.0866770862960272E-002   0.0000000000000000     
   7.6304754107455477E-002   9.7213347007605394E-002   0.0000000000000000     
   7.8780599164723505E-002  0.10372035302288429        0.0000000000000000     
   8.1189163157428496E-002  0.11038778890879695        0.0000000000000000     
   6.5520740721614790E-002   8.3965097859982810E-002   0.0000000000000000     
   6.7923022295750826E-002   9.0154052337410417E-002   0.0000000000000000     
   7.0274970314448626E-002   9.6514665462259425E-002   0.0000000000000000     
   7.2576584777708203E-002  0.10304693723452979        0.0000000000000000     
   7.4827865685529529E-002  0.10975086765422155        0.0000000000000000     
   6.0036514696695867E-002   8.3271524737038180E-002   0.0000000000000000     
   6.2260017566258853E-002   8.9483247135968669E-002   0.0000000000000000     
   6.4437605380139318E-002   9.5869238002132970E-002   0.0000000000000000     
   6.6569278138337268E-002  0.10242949733553113        0.0000000000000000     
   6.8655035840852696E-002  0.10916402513616308        0.0000000000000000     
   5.4698542724473581E-002   8.2599905220114997E-002   0.0000000000000000     
   5.6772613797148493E-002   8.8854355258635012E-002   0.0000000000000000     
   5.8792659304527525E-002   9.5277064627226113E-002   0.0000000000000000     
   6.0758679246610693E-002  0.10186803332588826        0.0000000000000000     
   6.2670673623397982E-002  0.10862726135462152        0.0000000000000000     
   8.7738928256549609E-002  0.11107478889988928        0.0000000000000000     
   9.0146665764496606E-002  0.11782072973068261        0.0000000000000000     
   9.2351421957061544E-002  0.12466788168760221        0.0000000000000000     
   9.4353196834244465E-002  0.13161624477064807        0.0000000000000000     
   9.6151990396045314E-002  0.13866581897982022        0.0000000000000000     
   8.1189163157428496E-002  0.11038778890879695        0.0000000000000000     
   8.3465820387670198E-002  0.11718358652466787        0.0000000000000000     
   8.5545945157548306E-002  0.12407567772982155        0.0000000000000000     
   8.7429537467062807E-002  0.13106406252425792        0.0000000000000000     
   8.9116597316213686E-002  0.13814874090797707        0.0000000000000000     
   7.4827865685529529E-002  0.10975086765422155        0.0000000000000000     
   7.6961172611227119E-002  0.11658690501045163        0.0000000000000000     
   7.8908865128115444E-002  0.12351549759233701        0.0000000000000000     
   8.0670943236194517E-002  0.13053664539987767        0.0000000000000000     
   8.2247406935464312E-002  0.13765034843307358        0.0000000000000000     
   6.8655035840852696E-002  0.10916402513616308        0.0000000000000000     
   7.0632722435167342E-002  0.11603068518803389        0.0000000000000000     
   7.2440181868762971E-002  0.12298734127514858        0.0000000000000000     
   7.4077414141639583E-002  0.13003399339750721        0.0000000000000000     
   7.5544419253797165E-002  0.13717064155510977        0.0000000000000000     
   6.2670673623397982E-002  0.10862726135462152        0.0000000000000000     
   6.4480469859490880E-002  0.11551492705741462        0.0000000000000000     
   6.6139895379490901E-002  0.12249120877825632        0.0000000000000000     
   6.7648950183398018E-002  0.12955610651714661        0.0000000000000000     
   6.9007634271212259E-002  0.13670962027408556        0.0000000000000000     
   9.6151990396045314E-002  0.13866581897982022        0.0000000000000000     
   9.7846037333607264E-002  0.14583812068645788        0.0000000000000000     
   9.9533572338073445E-002  0.15315466626190019        0.0000000000000000     
  0.10121459540944386       0.16061545570614724        0.0000000000000000     
  0.10288910654771849       0.16822048901919895        0.0000000000000000     
   8.9116597316213686E-002  0.13814874090797707        0.0000000000000000     
   9.0700598262695123E-002  0.14534984089843517        0.0000000000000000     
   9.2275013864201241E-002  0.15268749051308847        0.0000000000000000     
   9.3839844120732013E-002  0.16016168975193698        0.0000000000000000     
   9.5395089032287467E-002  0.16777243861498067        0.0000000000000000     
   8.2247406935464312E-002  0.13765034843307358        0.0000000000000000     
   8.3724753780854796E-002  0.14487666589132542        0.0000000000000000     
   8.5189481327295882E-002  0.15223565697403388        0.0000000000000000     
   8.6641589574787584E-002  0.15972732168119883        0.0000000000000000     
   8.8081078523329887E-002  0.16735166001282040        0.0000000000000000     
   7.5544419253797165E-002  0.13717064155510977        0.0000000000000000     
   7.6918503888086256E-002  0.14441859566512866        0.0000000000000000     
   7.8276974727357382E-002  0.15179916564473633        0.0000000000000000     
   7.9619831771610527E-002  0.15931235149393286        0.0000000000000000     
   8.0947075020845721E-002  0.16695815321271817        0.0000000000000000     
   6.9007634271212259E-002  0.13670962027408556        0.0000000000000000     
   7.0281848584389517E-002  0.14397563021984477        0.0000000000000000     
   7.1537494064385712E-002  0.15137801652519592        0.0000000000000000     
   7.2774570711200873E-002  0.15891677919013897        0.0000000000000000     
   7.3993078524834957E-002  0.16659191821467398        0.0000000000000000     
  0.10288910654771849       0.16822048901919895        0.0000000000000000     
  0.10450429908410697       0.17593435288997189        0.0000000000000000     
  0.10600736634981890       0.18372163400738256        0.0000000000000000     
  0.10739830834485425       0.19158233237143091        0.0000000000000000     
  0.10867712506921307       0.19951644798211701        0.0000000000000000     
   9.5395089032287467E-002  0.16777243861498067        0.0000000000000000     
   9.6893990230709368E-002  0.17549279381120736        0.0000000000000000     
   9.8289789347839385E-002  0.18329581204960493        0.0000000000000000     
   9.9582486383677601E-002  0.19118149333017334        0.0000000000000000     
  0.10077208133822393       0.19914983765291264        0.0000000000000000     
   8.8081078523329887E-002  0.16735166001282040        0.0000000000000000     
   8.9466455967607952E-002  0.17508626934745508        0.0000000000000000     
   9.0756229702306984E-002  0.18290874706365942        0.0000000000000000     
   9.1950399727426926E-002  0.19081909316143353        0.0000000000000000     
   9.3048966042967821E-002  0.19881730764077726        0.0000000000000000     
   8.0947075020845721E-002  0.16695815321271817        0.0000000000000000     
   8.2221696294802804E-002  0.17471477949871500        0.0000000000000000     
   8.3406687413221658E-002  0.18256043904954611        0.0000000000000000     
   8.4502048376102298E-002  0.19049513186521141        0.0000000000000000     
   8.5507779183444738E-002  0.19851885794571095        0.0000000000000000     
   7.3993078524834957E-002  0.16659191821467398        0.0000000000000000     
   7.5159711212293853E-002  0.17437832426498720        0.0000000000000000     
   7.6241162480583449E-002  0.18225088800726488        0.0000000000000000     
   7.7237432329703717E-002  0.19020960944150703        0.0000000000000000     
   7.8148520759654658E-002  0.19825448856771360        0.0000000000000000     
  0.10867712506921307       0.19951644798211701        0.0000000000000000     
  0.10986588223936526       0.20753120077753009        0.0000000000000000     
  0.11098664557178083       0.21563381069575940        0.0000000000000000     
  0.11203941506645976       0.22382427773680497        0.0000000000000000     
  0.11302419072340203       0.23210260190066676        0.0000000000000000     
  0.10077208133822393       0.19914983765291264        0.0000000000000000     
  0.10187597079386512       0.20719929400735318        0.0000000000000000     
  0.10291155133298785       0.21532831138302538        0.0000000000000000     
  0.10387882295559210       0.22353688977992917        0.0000000000000000     
  0.10477778566167786       0.23182502919806466        0.0000000000000000     
   9.3048966042967821E-002  0.19881730764077726        0.0000000000000000     
   9.4065297911000045E-002  0.20689679471101358        0.0000000000000000     
   9.5012764593594035E-002  0.21505095858146517        0.0000000000000000     
   9.5891366090749747E-002  0.22327979925213212        0.0000000000000000     
   9.6701102402467209E-002  0.23158331672301444        0.0000000000000000     
   8.5507779183444738E-002  0.19851885794571095        0.0000000000000000     
   8.6433863590770058E-002  0.20662370288851123        0.0000000000000000     
   8.7290285353599381E-002  0.21480175229107887        0.0000000000000000     
   8.8077044471932722E-002  0.22305300615341378        0.0000000000000000     
   8.8794140945770067E-002  0.23137746447551602        0.0000000000000000     
   7.8148520759654658E-002  0.19825448856771360        0.0000000000000000     
   7.8981667833175118E-002  0.20638001853984622        0.0000000000000000     
   7.9744113613003903E-002  0.21458069251186637        0.0000000000000000     
   8.0435858099141014E-002  0.22285651048377408        0.0000000000000000     
   8.1056901291586450E-002  0.23120747245556944        0.0000000000000000     
  0.11302419072340203       0.23210260190066676        0.0000000000000000     
  0.11396441748166070       0.24048102230126076        0.0000000000000000     
  0.11488354028028887       0.24897177805250292        0.0000000000000000     
  0.11578155911928646       0.25757486915439332        0.0000000000000000     
  0.11665847399865352       0.26629029560693179        0.0000000000000000     
  0.10477778566167786       0.23182502919806466        0.0000000000000000     
  0.10561044867978794       0.24021491663267486        0.0000000000000000     
  0.10637882123846511       0.24872873907900292        0.0000000000000000     
  0.10708290333770935       0.25736649653704868        0.0000000000000000     
  0.10772269497752071       0.26612818900681223        0.0000000000000000     
   9.6701102402467209E-002  0.23158331672301444        0.0000000000000000     
   9.7430896166582168E-002  0.23998846479955588        0.0000000000000000     
   9.8069670020930436E-002  0.24852219728720021        0.0000000000000000     
   9.8617423965511972E-002  0.25718451418594740        0.0000000000000000     
   9.9074158000326804E-002  0.26597541549579751        0.0000000000000000     
   8.8794140945770067E-002  0.23137746447551602        0.0000000000000000     
   8.9425759942043437E-002  0.23980166680190368        0.0000000000000000     
   8.9956086627684853E-002  0.24835215267709482        0.0000000000000000     
   9.0385121002694302E-002  0.25702892210108946        0.0000000000000000     
   9.0712863067071797E-002  0.26583197507388756        0.0000000000000000     
   8.1056901291586450E-002  0.23120747245556944        0.0000000000000000     
   8.1595040006171723E-002  0.23965452263971834        0.0000000000000000     
   8.2038071058728360E-002  0.24821860524868677        0.0000000000000000     
   8.2385994449256331E-002  0.25689972028247482        0.0000000000000000     
   8.2638810177755706E-002  0.26569786774108234        0.0000000000000000     
  0.11665847399865352       0.26629029560693179        0.0000000000000000     
  0.11745604646962221       0.27528475336723457        0.0000000000000000     
  0.11811603808342463       0.28472493839241758        0.0000000000000000     
  0.11863844884006086       0.29461085068248094        0.0000000000000000     
  0.11902327873953084       0.30494249023742459        0.0000000000000000     
  0.10772269497752071       0.26612818900681223        0.0000000000000000     
  0.10827993688975364       0.27514640051782807        0.0000000000000000     
  0.10873636980626260       0.28455371509963046        0.0000000000000000     
  0.10909199372704761       0.29435013275221938        0.0000000000000000     
  0.10934680865210865       0.30453565347559503        0.0000000000000000     
   9.9074158000326804E-002  0.26597541549579751        0.0000000000000000     
   9.9451210001825871E-002  0.27499265489256441        0.0000000000000000     
   9.9759917846460128E-002  0.28433398605206184        0.0000000000000000     
  0.10000028153422956       0.29399940897428989        0.0000000000000000     
  0.10017230106513417       0.30398892365924846        0.0000000000000000     
   9.0712863067071797E-002  0.26583197507388756        0.0000000000000000     
   9.0969865805838906E-002  0.27482351649144354        0.0000000000000000     
   9.1186682204017211E-002  0.28406575124971178        0.0000000000000000     
   9.1363312261606711E-002  0.29355867934869223        0.0000000000000000     
   9.1499755978607392E-002  0.30330230078838494        0.0000000000000000     
   8.2638810177755706E-002  0.26569786774108234        0.0000000000000000     
   8.2835904301792773E-002  0.27463898531446551        0.0000000000000000     
   8.3016662878933903E-002  0.28374901069258024        0.0000000000000000     
   8.3181085909179081E-002  0.29302794387542652        0.0000000000000000     
   8.3329173392528322E-002  0.30247578486300442        0.0000000000000000     
   4.5747524513864053E-002   5.9540697776460177E-002   0.0000000000000000     
   4.8087782089513587E-002   6.5001360752945825E-002   0.0000000000000000     
   5.0359704316498347E-002   7.0664782985716823E-002   0.0000000000000000     
   5.2563291194818347E-002   7.6530964474773228E-002   0.0000000000000000     
   5.4698542724473581E-002   8.2599905220114997E-002   0.0000000000000000     
   4.1352742266153847E-002   5.8908739207239089E-002   0.0000000000000000     
   4.3451698902504096E-002   6.4340245621723330E-002   0.0000000000000000     
   4.5511996994579397E-002   6.9996167911813151E-002   0.0000000000000000     
   4.7533636542379742E-002   7.5876506077508538E-002   0.0000000000000000     
   4.9516617545905132E-002   8.1981260118809518E-002   0.0000000000000000     
   3.7082386445660045E-002   5.8293949469878731E-002   0.0000000000000000     
   3.8972952309253628E-002   6.3742373670711588E-002   0.0000000000000000     
   4.0839498506499421E-002   6.9417291866462394E-002   0.0000000000000000     
   4.2682025037397438E-002   7.5318704057131161E-002   0.0000000000000000     
   4.4500531901947686E-002   8.1446610242717890E-002   0.0000000000000000     
   3.2936457052382663E-002   5.7696328564379097E-002   0.0000000000000000     
   3.4651542309762133E-002   6.3207744899910587E-002   0.0000000000000000     
   3.6342208852258404E-002   6.8928154849664580E-002   0.0000000000000000     
   3.8008456679871447E-002   7.4857558413641084E-002   0.0000000000000000     
   3.9650285792601270E-002   8.0995955591840113E-002   0.0000000000000000     
   2.8914954086321693E-002   5.7115876490740194E-002   0.0000000000000000     
   3.0487468904029660E-002   6.2736359309320325E-002   0.0000000000000000     
   3.2020128031856346E-002   6.8528756861419696E-002   0.0000000000000000     
   3.3512931469801749E-002   7.4493069147038335E-002   0.0000000000000000     
   3.4965879217865863E-002   8.0629296166176201E-002   0.0000000000000000     
   5.4698542724473581E-002   8.2599905220114997E-002   0.0000000000000000     
   5.6772613797148493E-002   8.8854355258635012E-002   0.0000000000000000     
   5.8792659304527525E-002   9.5277064627226113E-002   0.0000000000000000     
   6.0758679246610693E-002  0.10186803332588826        0.0000000000000000     
   6.2670673623397982E-002  0.10862726135462152        0.0000000000000000     
   4.9516617545905132E-002   8.1981260118809518E-002   0.0000000000000000     
   5.1447864744360909E-002   8.8278693495083757E-002   0.0000000000000000     
   5.3314302876952449E-002   9.4737069665698975E-002   0.0000000000000000     
   5.5115931943679745E-002  0.10135638863065514        0.0000000000000000     
   5.6852751944542805E-002  0.10813665038995229        0.0000000000000000     
   4.4500531901947686E-002   8.1446610242717890E-002   0.0000000000000000     
   4.6272824163837267E-002   8.7767578634989213E-002   0.0000000000000000     
   4.7976706886753276E-002   9.4248177445711817E-002   0.0000000000000000     
   4.9612180070695719E-002  0.10088840667488569        0.0000000000000000     
   5.1179243715664596E-002  0.10768826632251086        0.0000000000000000     
   3.9650285792601270E-002   8.0995955591840113E-002   0.0000000000000000     
   4.1247492055577560E-002   8.7321010678351380E-002   0.0000000000000000     
   4.2779871333930006E-002   9.3810387967264638E-002   0.0000000000000000     
   4.4247423627658593E-002  0.10046408745857989        0.0000000000000000     
   4.5650148936763335E-002  0.10728210915229713        0.0000000000000000     
   3.4965879217865863E-002   8.0629296166176201E-002   0.0000000000000000     
   3.6371868419581788E-002   8.6938989625170257E-002   0.0000000000000000     
   3.7723796218482625E-002   9.3423701230357453E-002   0.0000000000000000     
   3.9021662614568374E-002  0.10008343098173775        0.0000000000000000     
   4.0265467607839028E-002  0.10691817887931115        0.0000000000000000     
   6.2670673623397982E-002  0.10862726135462152        0.0000000000000000     
   6.4480469859490880E-002  0.11551492705741462        0.0000000000000000     
   6.6139895379490901E-002  0.12249120877825632        0.0000000000000000     
   6.7648950183398018E-002  0.12955610651714661        0.0000000000000000     
   6.9007634271212259E-002  0.13670962027408556        0.0000000000000000     
   5.6852751944542805E-002  0.10813665038995229        0.0000000000000000     
   5.8492223462903684E-002  0.11504127480360141        0.0000000000000000     
   6.0001807082124478E-002  0.12203368173161347        0.0000000000000000     
   6.1381502802205147E-002  0.12911387117398851        0.0000000000000000     
   6.2631310623145725E-002  0.13628184313072647        0.0000000000000000     
   5.1179243715664596E-002  0.10768826632251086        0.0000000000000000     
   5.2655791824111724E-002  0.11461137261160187        0.0000000000000000     
   5.4019718398488965E-002  0.12162134176517336        0.0000000000000000     
   5.5271023438796273E-002  0.12871817378322536        0.0000000000000000     
   5.6409706945033687E-002  0.13590186866575785        0.0000000000000000     
   4.5650148936763335E-002  0.10728210915229713        0.0000000000000000     
   4.6971174943114993E-002  0.11422522048141595        0.0000000000000000     
   4.8193629328584349E-002  0.12125418887893601        0.0000000000000000     
   4.9317512093171402E-002  0.12836901434485726        0.0000000000000000     
   5.0342823236876152E-002  0.13556969687917972        0.0000000000000000     
   4.0265467607839028E-002  0.10691817887931115        0.0000000000000000     
   4.1438372819913485E-002  0.11388281841304371        0.0000000000000000     
   4.2523539872410657E-002  0.12093222307290138        0.0000000000000000     
   4.3520968765330535E-002  0.12806639285888416        0.0000000000000000     
   4.4430659498673114E-002  0.13528532777099211        0.0000000000000000     
   6.9007634271212259E-002  0.13670962027408556        0.0000000000000000     
   7.0281848584389517E-002  0.14397563021984477        0.0000000000000000     
   7.1537494064385712E-002  0.15137801652519592        0.0000000000000000     
   7.2774570711200873E-002  0.15891677919013897        0.0000000000000000     
   7.3993078524834957E-002  0.16659191821467398        0.0000000000000000     
   6.2631310623145725E-002  0.13628184313072647        0.0000000000000000     
   6.3805670805209089E-002  0.14356425835086581        0.0000000000000000     
   6.4959023608658129E-002  0.15098777758344500        0.0000000000000000     
   6.6091369033492872E-002  0.15855240082846400        0.0000000000000000     
   6.7202707079713292E-002  0.16625812808592283        0.0000000000000000     
   5.6409706945033687E-002  0.13590186866575785        0.0000000000000000     
   5.7480853485989442E-002  0.14320096885358374        0.0000000000000000     
   5.8529547630451810E-002  0.15064401678751602        0.0000000000000000     
   5.9555789378420779E-002  0.15823101246755467        0.0000000000000000     
   6.0559578729896354E-002  0.16596195589369966        0.0000000000000000     
   5.0342823236876152E-002  0.13556969687917972        0.0000000000000000     
   5.1307396626730589E-002  0.14288576172799858        0.0000000000000000     
   5.2249066129766750E-002  0.15034673413740898        0.0000000000000000     
   5.3167831745984613E-002  0.15795261410741096        0.0000000000000000     
   5.4063693475384172E-002  0.16570340163800451        0.0000000000000000     
   4.4430659498673114E-002  0.13528532777099211        0.0000000000000000     
   4.5285300227432553E-002  0.14261863697411026        0.0000000000000000     
   4.6117579106602954E-002  0.15009592963312390        0.0000000000000000     
   4.6927496136184355E-002  0.15771720574803288        0.0000000000000000     
   4.7715051316176732E-002  0.16548246531883734        0.0000000000000000     
   7.3993078524834957E-002  0.16659191821467398        0.0000000000000000     
   7.5159711212293853E-002  0.17437832426498720        0.0000000000000000     
   7.6241162480583449E-002  0.18225088800726488        0.0000000000000000     
   7.7237432329703717E-002  0.19020960944150703        0.0000000000000000     
   7.8148520759654658E-002  0.19825448856771360        0.0000000000000000     
   6.7202707079713292E-002  0.16625812808592283        0.0000000000000000     
   6.8263052545290692E-002  0.17407552249434041        0.0000000000000000     
   6.9242420228196377E-002  0.18197514719223570        0.0000000000000000     
   7.0140810128430375E-002  0.18995700217960876        0.0000000000000000     
   7.0958222245992630E-002  0.19802108745645947        0.0000000000000000     
   6.0559578729896354E-002  0.16596195589369966        0.0000000000000000     
   6.1514272119002844E-002  0.17380499303484348        0.0000000000000000     
   6.2393225979864561E-002  0.18172826985987867        0.0000000000000000     
   6.3196440312481492E-002  0.18973178636880506        0.0000000000000000     
   6.3923915116853677E-002  0.19781554256162287        0.0000000000000000     
   5.4063693475384172E-002  0.16570340163800451        0.0000000000000000     
   5.4913369933430330E-002  0.17356673588649643        0.0000000000000000     
   5.5693579735587979E-002  0.18151025601019358        0.0000000000000000     
   5.6404322881857136E-002  0.18953396200909600        0.0000000000000000     
   5.7045599372237764E-002  0.19763785388320365        0.0000000000000000     
   4.7715051316176732E-002  0.16548246531883734        0.0000000000000000     
   4.8460345988573149E-002  0.17336075104929921        0.0000000000000000     
   4.9143481495366646E-002  0.18132110564318060        0.0000000000000000     
   4.9764457836557245E-002  0.18936352910048149        0.0000000000000000     
   5.0323275012144932E-002  0.19748802142120192        0.0000000000000000     
   7.8148520759654658E-002  0.19825448856771360        0.0000000000000000     
   7.8981667833175118E-002  0.20638001853984622        0.0000000000000000     
   7.9744113613003903E-002  0.21458069251186637        0.0000000000000000     
   8.0435858099141014E-002  0.22285651048377408        0.0000000000000000     
   8.1056901291586450E-002  0.23120747245556944        0.0000000000000000     
   7.0958222245992630E-002  0.19802108745645947        0.0000000000000000     
   7.1699726153914192E-002  0.20616516621700570        0.0000000000000000     
   7.2370391425226069E-002  0.21438700165546506        0.0000000000000000     
   7.2970218059928246E-002  0.22268659377183772        0.0000000000000000     
   7.3499206058020725E-002  0.23106394256612348        0.0000000000000000     
   6.3923915116853677E-002  0.19781554256162287        0.0000000000000000     
   6.4579054068686220E-002  0.20597857047197693        0.0000000000000000     
   6.5165260843684347E-002  0.21421990213351227        0.0000000000000000     
   6.5682535441848044E-002  0.22253953754622902        0.0000000000000000     
   6.6130877863177312E-002  0.23093747671012702        0.0000000000000000     
   5.7045599372237764E-002  0.19763785388320365        0.0000000000000000     
   5.7619651577491209E-002  0.20582023130475990        0.0000000000000000     
   5.8128721868378752E-002  0.21407939394600800        0.0000000000000000     
   5.8572810244900422E-002  0.22241534180694808        0.0000000000000000     
   5.8951916707056198E-002  0.23082807488757998        0.0000000000000000     
   5.0323275012144932E-002  0.19748802142120192        0.0000000000000000     
   5.0821518680329129E-002  0.20569014871535457        0.0000000000000000     
   5.1260774499309276E-002  0.21396547709295224        0.0000000000000000     
   5.1641042469085359E-002  0.22231400655399483        0.0000000000000000     
   5.1962322589657398E-002  0.23073573709848239        0.0000000000000000     
   8.1056901291586450E-002  0.23120747245556944        0.0000000000000000     
   8.1595040006171723E-002  0.23965452263971834        0.0000000000000000     
   8.2038071058728360E-002  0.24821860524868677        0.0000000000000000     
   8.2385994449256331E-002  0.25689972028247482        0.0000000000000000     
   8.2638810177755706E-002  0.26569786774108234        0.0000000000000000     
   7.3499206058020725E-002  0.23106394256612348        0.0000000000000000     
   7.3952194032269727E-002  0.23953195743328859        0.0000000000000000     
   7.4324020595441465E-002  0.24810354776829907        0.0000000000000000     
   7.4614685747535922E-002  0.25677871357115500        0.0000000000000000     
   7.4824189488553128E-002  0.26555745484185628        0.0000000000000000     
   6.6130877863177312E-002  0.23093747671012702        0.0000000000000000     
   6.6510679693640204E-002  0.23941889630290328        0.0000000000000000     
   6.6822332519204705E-002  0.24798897300225481        0.0000000000000000     
   6.7065836339870871E-002  0.25664770680818161        0.0000000000000000     
   6.7241191155638674E-002  0.26539509772068359        0.0000000000000000     
   5.8951916707056198E-002  0.23082807488757998        0.0000000000000000     
   5.9270496990283097E-002  0.23931533924856241        0.0000000000000000     
   5.9533006830018081E-002  0.24787488095055391        0.0000000000000000     
   5.9739446226261164E-002  0.25650669999355463        0.0000000000000000     
   5.9889815179012353E-002  0.26521079637756428        0.0000000000000000     
   5.1962322589657398E-002  0.23073573709848239        0.0000000000000000     
   5.2231645922198436E-002  0.23922128627026595        0.0000000000000000     
   5.2456043527881593E-002  0.24776127161319644        0.0000000000000000     
   5.2635515406706822E-002  0.25635569312727402        0.0000000000000000     
   5.2770061558674156E-002  0.26500455081249841        0.0000000000000000     
   8.2638810177755706E-002  0.26569786774108234        0.0000000000000000     
   8.2835904301792773E-002  0.27463898531446551        0.0000000000000000     
   8.3016662878933903E-002  0.28374901069258024        0.0000000000000000     
   8.3181085909179081E-002  0.29302794387542652        0.0000000000000000     
   8.3329173392528322E-002  0.30247578486300442        0.0000000000000000     
   7.4824189488553128E-002  0.26555745484185628        0.0000000000000000     
   7.4994136529211053E-002  0.27443356336346147        0.0000000000000000     
   7.5166131580227696E-002  0.28340083091902918        0.0000000000000000     
   7.5340174641603044E-002  0.29245925750855933        0.0000000000000000     
   7.5516265713337097E-002  0.30160884313205205        0.0000000000000000     
   6.7241191155638674E-002  0.26539509772068359        0.0000000000000000     
   6.7389373527617355E-002  0.27420175264026264        0.0000000000000000     
   6.7551360016916098E-002  0.28303827846742052        0.0000000000000000     
   6.7727150623534932E-002  0.29190467520215724        0.0000000000000000     
   6.7916745347473842E-002  0.30080094284447284        0.0000000000000000     
   5.9889815179012353E-002  0.26521079637756428        0.0000000000000000     
   6.0021615297011673E-002  0.27394355314486885        0.0000000000000000     
   6.0172348188999150E-002  0.28266135333775422        0.0000000000000000     
   6.0342013854974778E-002  0.29136419695622023        0.0000000000000000     
   6.0530612294938578E-002  0.30005208400026689        0.0000000000000000     
   5.2770061558674156E-002  0.26500455081249841        0.0000000000000000     
   5.2890861837394006E-002  0.27365896487728036        0.0000000000000000     
   5.3029096096476810E-002  0.28227005553003032        0.0000000000000000     
   5.3184764335922577E-002  0.29083782277074821        0.0000000000000000     
   5.3357866555731284E-002  0.29936226659943421        0.0000000000000000     
   2.8914954086321693E-002   5.7115876490740194E-002   0.0000000000000000     
   3.0487468904029660E-002   6.2736359309320325E-002   0.0000000000000000     
   3.2020128031856346E-002   6.8528756861419696E-002   0.0000000000000000     
   3.3512931469801749E-002   7.4493069147038335E-002   0.0000000000000000     
   3.4965879217865863E-002   8.0629296166176201E-002   0.0000000000000000     
   2.5011024432194440E-002   5.6598306739540478E-002   0.0000000000000000     
   2.6442298757811799E-002   6.2321961930657199E-002   0.0000000000000000     
   2.7816161250503374E-002   6.8181861438090116E-002   0.0000000000000000     
   2.9132611910269161E-002   7.4178005261839181E-002   0.0000000000000000     
   3.0391650737109165E-002   8.0310393401904406E-002   0.0000000000000000     
   2.1217814974718217E-002   5.6189332801358398E-002   0.0000000000000000     
   2.2477598536864176E-002   6.1958297795637628E-002   0.0000000000000000     
   2.3673213713409608E-002   6.7850232116038148E-002   0.0000000000000000     
   2.4804660504354505E-002   7.3865135762559944E-002   0.0000000000000000     
   2.5871938909698876E-002   8.0003008735203010E-002   0.0000000000000000     
   1.7535325713893025E-002   5.5888954676193980E-002   0.0000000000000000     
   1.8593368241186792E-002   6.1645366904261617E-002   0.0000000000000000     
   1.9591285420575040E-002   6.7533868895263818E-002   0.0000000000000000     
   2.0529077252057770E-002   7.3554460649200612E-002   0.0000000000000000     
   2.1406743735634986E-002   7.9707142166071970E-002   0.0000000000000000     
   1.3963556649718861E-002   5.5697172364047198E-002   0.0000000000000000     
   1.4789607870779643E-002   6.1383169256529119E-002   0.0000000000000000     
   1.5570376371999676E-002   6.7232771775767128E-002   0.0000000000000000     
   1.6305862153378960E-002   7.3245979921761198E-002   0.0000000000000000     
   1.6996065214917498E-002   7.9422793694511329E-002   0.0000000000000000     
   3.4965879217865863E-002   8.0629296166176201E-002   0.0000000000000000     
   3.6371868419581788E-002   8.6938989625170257E-002   0.0000000000000000     
   3.7723796218482625E-002   9.3423701230357453E-002   0.0000000000000000     
   3.9021662614568374E-002  0.10008343098173775        0.0000000000000000     
   4.0265467607839028E-002  0.10691817887931115        0.0000000000000000     
   3.0391650737109165E-002   8.0310393401904406E-002   0.0000000000000000     
   3.1601942660870068E-002   8.6603646456464692E-002   0.0000000000000000     
   3.2772152611398542E-002   9.3082385023698935E-002   0.0000000000000000     
   3.3902280588694600E-002   9.9746609103607081E-002   0.0000000000000000     
   3.4992326592758236E-002  0.10659631869618916        0.0000000000000000     
   2.5871938909698876E-002   8.0003008735203010E-002   0.0000000000000000     
   2.6893704184462491E-002   8.6297112153253558E-002   0.0000000000000000     
   2.7888611583665138E-002   9.2780707135997800E-002   0.0000000000000000     
   2.8856661107306805E-002   9.9453793683435709E-002   0.0000000000000000     
   2.9797852755387502E-002  0.10631637179556733        0.0000000000000000     
   2.1406743735634986E-002   7.9707142166071970E-002   0.0000000000000000     
   2.2247152990359068E-002   8.6019386715536841E-002   0.0000000000000000     
   2.3073173135282409E-002   9.2518667567254062E-002   0.0000000000000000     
   2.3884804170404988E-002   9.9204984721223660E-002   0.0000000000000000     
   2.4682046095726842E-002  0.10607833817744565        0.0000000000000000     
   1.6996065214917498E-002   7.9422793694511329E-002   0.0000000000000000     
   1.7662289078559795E-002   8.5770470143314514E-002   0.0000000000000000     
   1.8325837266250349E-002   9.2296266317467707E-002   0.0000000000000000     
   1.8986709777989167E-002   9.9000182216970933E-002   0.0000000000000000     
   1.9644906613776242E-002  0.10588221784182415        0.0000000000000000     
   4.0265467607839028E-002  0.10691817887931115        0.0000000000000000     
   4.1438372819913485E-002  0.11388281841304371        0.0000000000000000     
   4.2523539872410657E-002  0.12093222307290138        0.0000000000000000     
   4.3520968765330535E-002  0.12806639285888416        0.0000000000000000     
   4.4430659498673114E-002  0.13528532777099211        0.0000000000000000     
   3.4992326592758236E-002  0.10659631869618916        0.0000000000000000     
   3.6022709885286830E-002  0.11358076979518313        0.0000000000000000     
   3.6973849727977792E-002  0.12064921839432698        0.0000000000000000     
   3.7845746120831109E-002  0.12780166449362063        0.0000000000000000     
   3.8638399063846793E-002  0.13503810809306416        0.0000000000000000     
   2.9797852755387502E-002  0.10631637179556733        0.0000000000000000     
   3.0689510570014653E-002  0.11331567801653226        0.0000000000000000     
   3.1508958593295680E-002  0.12039894889047022        0.0000000000000000     
   3.2256196825230586E-002  0.12756618441738121        0.0000000000000000     
   3.2931225265819375E-002  0.13481738459726511        0.0000000000000000     
   2.4682046095726842E-002  0.10607833817744565        0.0000000000000000     
   2.5438774874096945E-002  0.11308754307709111        0.0000000000000000     
   2.6128866468364317E-002  0.12018141456133115        0.0000000000000000     
   2.6752320878528957E-002  0.12735995263016578        0.0000000000000000     
   2.7309138104590867E-002  0.13462315728359495        0.0000000000000000     
   1.9644906613776242E-002  0.10588221784182415        0.0000000000000000     
   2.0270502797533708E-002  0.11289636497685966        0.0000000000000000     
   2.0833573353183706E-002  0.11999661540690977        0.0000000000000000     
   2.1334118280726219E-002  0.12718296913197447        0.0000000000000000     
   2.1772137580161263E-002  0.13445542615205372        0.0000000000000000     
   4.4430659498673114E-002  0.13528532777099211        0.0000000000000000     
   4.5285300227432553E-002  0.14261863697411026        0.0000000000000000     
   4.6117579106602954E-002  0.15009592963312390        0.0000000000000000     
   4.6927496136184355E-002  0.15771720574803288        0.0000000000000000     
   4.7715051316176732E-002  0.16548246531883734        0.0000000000000000     
   3.8638399063846793E-002  0.13503810809306416        0.0000000000000000     
   3.9381144646974085E-002  0.14238785232888634        0.0000000000000000     
   4.0103318960162254E-002  0.14988020033731592        0.0000000000000000     
   4.0804922003411313E-002  0.15751515211835287        0.0000000000000000     
   4.1485953776721242E-002  0.16529270767199725        0.0000000000000000     
   3.2931225265819375E-002  0.13481738459726511        0.0000000000000000     
   3.3561510244234011E-002  0.14218166552929412        0.0000000000000000     
   3.4174518089646479E-002  0.14968814331264013        0.0000000000000000     
   3.4770248802056772E-002  0.15733681794730325        0.0000000000000000     
   3.5348702381464897E-002  0.16512768943328338        0.0000000000000000     
   2.7309138104590867E-002  0.13462315728359495        0.0000000000000000     
   2.7826397019212322E-002  0.14200007657533362        0.0000000000000000     
   2.8331176495055621E-002  0.14951975855909666        0.0000000000000000     
   2.8823476532120751E-002  0.15718220323488397        0.0000000000000000     
   2.9303297130407725E-002  0.16498741060269570        0.0000000000000000     
   2.1772137580161263E-002  0.13445542615205372        0.0000000000000000     
   2.2175804971909019E-002  0.14184308546700491        0.0000000000000000     
   2.2573294176389678E-002  0.14937504607668539        0.0000000000000000     
   2.2964605193603237E-002  0.15705130798109515        0.0000000000000000     
   2.3349738023549702E-002  0.16487187118023419        0.0000000000000000     
   4.7715051316176732E-002  0.16548246531883734        0.0000000000000000     
   4.8460345988573149E-002  0.17336075104929921        0.0000000000000000     
   4.9143481495366646E-002  0.18132110564318060        0.0000000000000000     
   4.9764457836557245E-002  0.18936352910048149        0.0000000000000000     
   5.0323275012144932E-002  0.19748802142120192        0.0000000000000000     
   4.1485953776721242E-002  0.16529270767199725        0.0000000000000000     
   4.2129398324163597E-002  0.17318368270792245        0.0000000000000000     
   4.2718239689809936E-002  0.18115889293580176        0.0000000000000000     
   4.3252477873660260E-002  0.18921833835563528        0.0000000000000000     
   4.3732112875714567E-002  0.19736201896742295        0.0000000000000000     
   3.5348702381464897E-002  0.16512768943328338        0.0000000000000000     
   3.5894724979934012E-002  0.17303217504703663        0.0000000000000000     
   3.6393162749527246E-002  0.18102169206501920        0.0000000000000000     
   3.6844015690244598E-002  0.18909624048723100        0.0000000000000000     
   3.7247283802086091E-002  0.19725582031367206        0.0000000000000000     
   2.9303297130407725E-002  0.16498741060269570        0.0000000000000000     
   2.9756325955884379E-002  0.17290622806664194        0.0000000000000000     
   3.0168250674518560E-002  0.18090950303083295        0.0000000000000000     
   3.0539071286310268E-002  0.18899723549526870        0.0000000000000000     
   3.0868787791259504E-002  0.19716942545994925        0.0000000000000000     
   2.3349738023549702E-002  0.16487187118023419        0.0000000000000000     
   2.3714201252014712E-002  0.17280584176673824        0.0000000000000000     
   2.4043503464783893E-002  0.18082232583324295        0.0000000000000000     
   2.4337644661857259E-002  0.18892132337974837        0.0000000000000000     
   2.4596624843234799E-002  0.19710283440625448        0.0000000000000000     
   5.0323275012144932E-002  0.19748802142120192        0.0000000000000000     
   5.0821518680329129E-002  0.20569014871535457        0.0000000000000000     
   5.1260774499309276E-002  0.21396547709295224        0.0000000000000000     
   5.1641042469085359E-002  0.22231400655399483        0.0000000000000000     
   5.1962322589657398E-002  0.23073573709848239        0.0000000000000000     
   4.3732112875714567E-002  0.19736201896742295        0.0000000000000000     
   4.4158564525600935E-002  0.20558222119899422        0.0000000000000000     
   4.4533252652947462E-002  0.21387123147817849        0.0000000000000000     
   4.4856177257754135E-002  0.22222904980497582        0.0000000000000000     
   4.5127338340020959E-002  0.23065567617938609        0.0000000000000000     
   3.7247283802086091E-002  0.19725582031367206        0.0000000000000000     
   3.7604698261707557E-002  0.20549034725091198        0.0000000000000000     
   3.7917990245764865E-002  0.21378973700552048        0.0000000000000000     
   3.8187159754257995E-002  0.22215398957749741        0.0000000000000000     
   3.8412206787186959E-002  0.23058310496684295        0.0000000000000000     
   3.0868787791259504E-002  0.19716942545994925        0.0000000000000000     
   3.1159919888648996E-002  0.20541452687110789        0.0000000000000000     
   3.1414987277761479E-002  0.21372099367497807        0.0000000000000000     
   3.1633989958596946E-002  0.22208882587155973        0.0000000000000000     
   3.1816927931155405E-002  0.23051802346085293        0.0000000000000000     
   2.4596624843234799E-002  0.19710283440625448        0.0000000000000000     
   2.4824229406425244E-002  0.20535476005958192        0.0000000000000000     
   2.5024243748937306E-002  0.21366500148655132        0.0000000000000000     
   2.5196667870770989E-002  0.22203355868716265        0.0000000000000000     
   2.5341501771926296E-002  0.23046043166141594        0.0000000000000000     
   5.1962322589657398E-002  0.23073573709848239        0.0000000000000000     
   5.2231645922198436E-002  0.23922128627026595        0.0000000000000000     
   5.2456043527881593E-002  0.24776127161319644        0.0000000000000000     
   5.2635515406706822E-002  0.25635569312727402        0.0000000000000000     
   5.2770061558674156E-002  0.26500455081249841        0.0000000000000000     
   4.5127338340020959E-002  0.23065567617938609        0.0000000000000000     
   4.5355033217445370E-002  0.23913533264334030        0.0000000000000000     
   4.5547559207724832E-002  0.24765224123876928        0.0000000000000000     
   4.5704916310859336E-002  0.25620640196567296        0.0000000000000000     
   4.5827104526848877E-002  0.26479781482405151        0.0000000000000000     
   3.8412206787186959E-002  0.23058310496684295        0.0000000000000000     
   3.8601565604083017E-002  0.23905607364311193        0.0000000000000000     
   3.8763670464477436E-002  0.24755188607585926        0.0000000000000000     
   3.8898521368370208E-002  0.25607054226508497        0.0000000000000000     
   3.9006118315761340E-002  0.26461204221078904        0.0000000000000000     
   3.1816927931155405E-002  0.23051802346085293        0.0000000000000000     
   3.1971243082111377E-002  0.23898350926958067        0.0000000000000000     
   3.2104377298139385E-002  0.24746020612446637        0.0000000000000000     
   3.2216330579239436E-002  0.25594811402550977        0.0000000000000000     
   3.2307102925411522E-002  0.26444723297271105        0.0000000000000000     
   2.5341501771926296E-002  0.23046043166141594        0.0000000000000000     
   2.5464065651530452E-002  0.23891763952274678        0.0000000000000000     
   2.5569679708710699E-002  0.24737720138459066        0.0000000000000000     
   2.5658343943467023E-002  0.25583911724694758        0.0000000000000000     
   2.5730058355799439E-002  0.26430338710981760        0.0000000000000000     
   5.2770061558674156E-002  0.26500455081249841        0.0000000000000000     
   5.2890861837394006E-002  0.27365896487728036        0.0000000000000000     
   5.3029096096476810E-002  0.28227005553003032        0.0000000000000000     
   5.3184764335922577E-002  0.29083782277074821        0.0000000000000000     
   5.3357866555731284E-002  0.29936226659943421        0.0000000000000000     
   4.5827104526848877E-002  0.26479781482405151        0.0000000000000000     
   4.5938323939128792E-002  0.27337662299574833        0.0000000000000000     
   4.6062774631134416E-002  0.28189296966260691        0.0000000000000000     
   4.6200456602865737E-002  0.29034685482462741        0.0000000000000000     
   4.6351369854322755E-002  0.29873827848180978        0.0000000000000000     
   3.9006118315761340E-002  0.26461204221078904        0.0000000000000000     
   3.9105212392580462E-002  0.27312516265852399        0.0000000000000000     
   3.9214554684757257E-002  0.28155868035384224        0.0000000000000000     
   3.9334145192291683E-002  0.28991259529674396        0.0000000000000000     
   3.9463983915183756E-002  0.29818690748722892        0.0000000000000000     
   3.2307102925411522E-002  0.26444723297271105        0.0000000000000000     
   3.2391527197749029E-002  0.27290458386560745        0.0000000000000000     
   3.2484436257345324E-002  0.28126718760373631        0.0000000000000000     
   3.2585830104200408E-002  0.28953504418709763        0.0000000000000000     
   3.2695708738314289E-002  0.29770815361569147        0.0000000000000000     
   2.5730058355799439E-002  0.26430338710981760        0.0000000000000000     
   2.5797268354634459E-002  0.27271488661699878        0.0000000000000000     
   2.5872419348898619E-002  0.28101849141228918        0.0000000000000000     
   2.5955511338591922E-002  0.28921420149568872        0.0000000000000000     
   2.6046544323714352E-002  0.29730201686719754        0.0000000000000000     
   1.3963556649718861E-002   5.5697172364047198E-002   0.0000000000000000     
   1.4789607870779643E-002   6.1383169256529119E-002   0.0000000000000000     
   1.5570376371999676E-002   6.7232771775767128E-002   0.0000000000000000     
   1.6305862153378960E-002   7.3245979921761198E-002   0.0000000000000000     
   1.6996065214917498E-002   7.9422793694511329E-002   0.0000000000000000     
   1.0453527668085310E-002   5.5576873545124111E-002   0.0000000000000000     
   1.1042613341070373E-002   6.1175942127278282E-002   0.0000000000000000     
   1.1604428285975160E-002   6.6975990722001250E-002   0.0000000000000000     
   1.2138972502799678E-002   7.2977019329293014E-002   0.0000000000000000     
   1.2646245991543919E-002   7.9179027949153560E-002   0.0000000000000000     
   6.9562586548819576E-003   5.5490945899630759E-002   0.0000000000000000     
   7.3286805674866303E-003   6.1027922791347208E-002   0.0000000000000000     
   7.6873828807931524E-003   6.6792575698419426E-002   0.0000000000000000     
   8.0323655948015219E-003   7.2784904620847385E-002   0.0000000000000000     
   8.3636287095117407E-003   7.9004909558631112E-002   0.0000000000000000     
   3.4717496101088021E-003   5.5439389427567140E-002   0.0000000000000000     
   3.6478095500284136E-003   6.0939111248735876E-002   0.0000000000000000     
   3.8192401564536450E-003   6.6682526705021616E-002   0.0000000000000000     
   3.9860414293844968E-003   7.2669635796424326E-002   0.0000000000000000     
   4.1482133688209698E-003   7.8900438522944011E-002   0.0000000000000000     
   5.3376584532513482E-010   5.5422204128933256E-002   0.0000000000000000     
   2.8869572119179232E-010   6.0909507499444314E-002   0.0000000000000000     
   1.1295663926783051E-010   6.6645843741807834E-002   0.0000000000000000     
   6.5485996616695963E-012   7.2631212856023808E-002   0.0000000000000000     
  -3.0528398819312796E-011   7.8865614842092258E-002   0.0000000000000000     
   1.6996065214917498E-002   7.9422793694511329E-002   0.0000000000000000     
   1.7662289078559795E-002   8.5770470143314514E-002   0.0000000000000000     
   1.8325837266250349E-002   9.2296266317467707E-002   0.0000000000000000     
   1.8986709777989167E-002   9.9000182216970933E-002   0.0000000000000000     
   1.9644906613776242E-002  0.10588221784182415        0.0000000000000000     
   1.2646245991543919E-002   7.9179027949153560E-002   0.0000000000000000     
   1.3142880806054686E-002   8.5565272022636057E-002   0.0000000000000000     
   1.3645509000178777E-002   9.2119006990793714E-002   0.0000000000000000     
   1.4154130573916195E-002   9.8840232853626517E-002   0.0000000000000000     
   1.4668745527266941E-002  0.10572894961113447        0.0000000000000000     
   8.3636287095117407E-003   7.9004909558631112E-002   0.0000000000000000     
   8.6926965298337478E-003   8.5418701939550895E-002   0.0000000000000000     
   9.0310933606774901E-003   9.1992393191386995E-002   0.0000000000000000     
   9.3788192020429553E-003   9.8725983314139468E-002   0.0000000000000000     
   9.7358740539301523E-003  0.10561947230780824        0.0000000000000000     
   4.1482133688209698E-003   7.8900438522944011E-002   0.0000000000000000     
   4.3117362498969894E-003   8.5330759894059000E-002   0.0000000000000000     
   4.4825903477464808E-003   9.1916424919247577E-002   0.0000000000000000     
   4.6607756623694464E-003   9.8657433598509717E-002   0.0000000000000000     
   4.8462921937658847E-003  0.10555378593184549        0.0000000000000000     
  -3.0528398819312796E-011   7.8865614842092258E-002   0.0000000000000000     
  -3.3755598359899719E-011   8.5301445886160385E-002   0.0000000000000000     
  -3.8614241253294435E-011   9.1891102174375419E-002   0.0000000000000000     
  -4.5104331646570253E-011   9.8634583706737375E-002   0.0000000000000000     
  -5.3225865555284191E-011  0.10553189048324621        0.0000000000000000     
   1.9644906613776242E-002  0.10588221784182415        0.0000000000000000     
   2.0270502797533708E-002  0.11289636497685966        0.0000000000000000     
   2.0833573353183706E-002  0.11999661540690977        0.0000000000000000     
   2.1334118280726219E-002  0.12718296913197447        0.0000000000000000     
   2.1772137580161263E-002  0.13445542615205372        0.0000000000000000     
   1.4668745527266941E-002  0.10572894961113447        0.0000000000000000     
   1.5158316168745677E-002  0.11274525275729634        0.0000000000000000     
   1.5591804806867081E-002  0.11984923778609088        0.0000000000000000     
   1.5969211441631145E-002  0.12704090469751819        0.0000000000000000     
   1.6290536073037876E-002  0.13432025349157811        0.0000000000000000     
   9.7358740539301523E-003  0.10561947230780824        0.0000000000000000     
   1.0075836816153566E-002  0.11263731545985951        0.0000000000000000     
   1.0372286388527680E-002  0.11974396805775936        0.0000000000000000     
   1.0625222771052495E-002  0.12693943010150785        0.0000000000000000     
   1.0834645963728011E-002  0.13422370159110492        0.0000000000000000     
   4.8462921937658847E-003  0.10555378593184549        0.0000000000000000     
   5.0230647397573776E-003  0.11257255308454919        0.0000000000000000     
   5.1750180981655035E-003  0.11968080622191521        0.0000000000000000     
   5.3021522689902659E-003  0.12687854534394352        0.0000000000000000     
   5.4044672522316631E-003  0.13416577045063413        0.0000000000000000     
  -5.3225865555284191E-011  0.10553189048324621        0.0000000000000000     
  -6.0442889842499126E-011  0.11255096563136539        0.0000000000000000     
  -6.4219447684990549E-011  0.11965975227855838        0.0000000000000000     
  -6.4555540221170743E-011  0.12685825042482515        0.0000000000000000     
  -6.1451167071568946E-011  0.13414646007016573        0.0000000000000000     
   2.1772137580161263E-002  0.13445542615205372        0.0000000000000000     
   2.2175804971909019E-002  0.14184308546700491        0.0000000000000000     
   2.2573294176389678E-002  0.14937504607668539        0.0000000000000000     
   2.2964605193603237E-002  0.15705130798109515        0.0000000000000000     
   2.3349738023549702E-002  0.16487187118023419        0.0000000000000000     
   1.6290536073037876E-002  0.13432025349157811        0.0000000000000000     
   1.6583568563764653E-002  0.14171647980467023        0.0000000000000000     
   1.6876098776488851E-002  0.14925877927319395        0.0000000000000000     
   1.7168126711210475E-002  0.15694715189714928        0.0000000000000000     
   1.7459652367929519E-002  0.16478159767653622        0.0000000000000000     
   1.0834645963728011E-002  0.13422370159110492        0.0000000000000000     
   1.1023522256219775E-002  0.14162604718869184        0.0000000000000000     
   1.1214817938193337E-002  0.14917573155640981        0.0000000000000000     
   1.1408533009648694E-002  0.15687275469425890        0.0000000000000000     
   1.1604667470585847E-002  0.16471711660223912        0.0000000000000000     
   5.4044672522316631E-003  0.13416577045063413        0.0000000000000000     
   5.4956660492743881E-003  0.14157178761906972        0.0000000000000000     
   5.5894516615031331E-003  0.14912590292633304        0.0000000000000000     
   5.6858240889179007E-003  0.15682811637242411        0.0000000000000000     
   5.7847833315186909E-003  0.16467842795734283        0.0000000000000000     
  -6.1451167071568946E-011  0.13414646007016573        0.0000000000000000     
  -5.7071511795972474E-011  0.14155370109580392        0.0000000000000000     
  -5.3581757303647337E-011  0.14910929338296361        0.0000000000000000     
  -5.0981904299324948E-011  0.15681323693164476        0.0000000000000000     
  -4.9271952837215416E-011  0.16466553174184742        0.0000000000000000     
   2.3349738023549702E-002  0.16487187118023419        0.0000000000000000     
   2.3714201252014712E-002  0.17280584176673824        0.0000000000000000     
   2.4043503464783893E-002  0.18082232583324295        0.0000000000000000     
   2.4337644661857259E-002  0.18892132337974837        0.0000000000000000     
   2.4596624843234799E-002  0.19710283440625448        0.0000000000000000     
   1.7459652367929519E-002  0.16478159767653622        0.0000000000000000     
   1.7736573012925794E-002  0.17272918655186822        0.0000000000000000     
   1.7984785912479116E-002  0.18075698846365859        0.0000000000000000     
   1.8204291066589478E-002  0.18886500341190740        0.0000000000000000     
   1.8395088475256886E-002  0.19705323139661465        0.0000000000000000     
   1.1604667470585847E-002  0.16471711660223912        0.0000000000000000     
   1.1791663383218439E-002  0.17267443282657449        0.0000000000000000     
   1.1957962809760102E-002  0.18071031891348921        0.0000000000000000     
   1.2103565750210845E-002  0.18882477486298327        0.0000000000000000     
   1.2228472204570663E-002  0.19701780067505667        0.0000000000000000     
   5.7847833315186909E-003  0.16467842795734283        0.0000000000000000     
   5.8794723628926293E-003  0.17264158059085716        0.0000000000000000     
   5.9630341566268502E-003  0.18068231718273481        0.0000000000000000     
   6.0354687127213494E-003  0.18880063773297598        0.0000000000000000     
   6.0967760311761302E-003  0.19699654224158045        0.0000000000000000     
  -4.9271952837215416E-011  0.16466553174184742        0.0000000000000000     
  -4.8051625612527404E-011  0.17263062984471614        0.0000000000000000     
  -4.6920641417341757E-011  0.18067298327139547        0.0000000000000000     
  -4.5879005130568251E-011  0.18879259202188542        0.0000000000000000     
  -4.4926712090137544E-011  0.19698945609618604        0.0000000000000000     
   2.4596624843234799E-002  0.19710283440625448        0.0000000000000000     
   2.4824229406425244E-002  0.20535476005958192        0.0000000000000000     
   2.5024243748937306E-002  0.21366500148655132        0.0000000000000000     
   2.5196667870770989E-002  0.22203355868716265        0.0000000000000000     
   2.5341501771926296E-002  0.23046043166141594        0.0000000000000000     
   1.8395088475256886E-002  0.19705323139661465        0.0000000000000000     
   1.8561855163167731E-002  0.20530948753549152        0.0000000000000000     
   1.8709268155008400E-002  0.21362158694624922        0.0000000000000000     
   1.8837327450778908E-002  0.22198952962888768        0.0000000000000000     
   1.8946033050479243E-002  0.23041331558340694        0.0000000000000000     
   1.2228472204570663E-002  0.19701780067505667        0.0000000000000000     
   1.2337025507007880E-002  0.20527715001799418        0.0000000000000000     
   1.2433568991690820E-002  0.21359057656008071        0.0000000000000000     
   1.2518102658619485E-002  0.22195808030131617        0.0000000000000000     
   1.2590626507793868E-002  0.23037966124170056        0.0000000000000000     
   6.0967760311761302E-003  0.19699654224158045        0.0000000000000000     
   6.1497404379456978E-003  0.20525774750708989        0.0000000000000000     
   6.1971462589845601E-003  0.21357197032804573        0.0000000000000000     
   6.2389934942927196E-003  0.22193921070444808        0.0000000000000000     
   6.2752821438701745E-003  0.23035946863629692        0.0000000000000000     
  -4.4926712090137544E-011  0.19698945609618604        0.0000000000000000     
  -4.4018818754973377E-011  0.20525128000277856        0.0000000000000000     
  -4.3110375729307759E-011  0.21356576825014439        0.0000000000000000     
  -4.2201385018914711E-011  0.22193292083828350        0.0000000000000000     
  -4.1291844509599995E-011  0.23035273776719589        0.0000000000000000     
   2.5341501771926296E-002  0.23046043166141594        0.0000000000000000     
   2.5464065651530452E-002  0.23891763952274678        0.0000000000000000     
   2.5569679708710699E-002  0.24737720138459066        0.0000000000000000     
   2.5658343943467023E-002  0.25583911724694758        0.0000000000000000     
   2.5730058355799439E-002  0.26430338710981760        0.0000000000000000     
   1.8946033050479243E-002  0.23041331558340694        0.0000000000000000     
   1.9038357882118436E-002  0.23886293239330617        0.0000000000000000     
   1.9117274873705497E-002  0.24730836764208447        0.0000000000000000     
   1.9182784025240436E-002  0.25574962132974188        0.0000000000000000     
   1.9234885336723247E-002  0.26418669345627843        0.0000000000000000     
   1.2590626507793868E-002  0.23037966124170056        0.0000000000000000     
   1.2652444343653511E-002  0.23882385587195495        0.0000000000000000     
   1.2704859970637934E-002  0.24725920068280019        0.0000000000000000     
   1.2747873388747133E-002  0.25568569567423632        0.0000000000000000     
   1.2781484597981120E-002  0.26410334084626336        0.0000000000000000     
   6.2752821438701745E-003  0.23035946863629692        0.0000000000000000     
   6.3063250361356810E-003  0.23880040995869314        0.0000000000000000     
   6.3324349995079977E-003  0.24722970050673776        0.0000000000000000     
   6.3536120339871237E-003  0.25564734028043090        0.0000000000000000     
   6.3698561395730598E-003  0.26405332927977232        0.0000000000000000     
  -4.1291844509599995E-011  0.23035273776719589        0.0000000000000000     
  -4.0435051357548546E-011  0.23879259465352076        0.0000000000000000     
  -3.9684303694727252E-011  0.24721986711389732        0.0000000000000000     
  -3.9039598837735737E-011  0.25563455514832556        0.0000000000000000     
  -3.8500938982083399E-011  0.26403665875680549        0.0000000000000000     
   2.5730058355799439E-002  0.26430338710981760        0.0000000000000000     
   2.5797268354634459E-002  0.27271488661699878        0.0000000000000000     
   2.5872419348898619E-002  0.28101849141228918        0.0000000000000000     
   2.5955511338591922E-002  0.28921420149568872        0.0000000000000000     
   2.6046544323714352E-002  0.29730201686719754        0.0000000000000000     
   1.9234885336723247E-002  0.26418669345627843        0.0000000000000000     
   1.9284029829650971E-002  0.27256241219995581        0.0000000000000000     
   1.9340668525520643E-002  0.28081960573903558        0.0000000000000000     
   1.9404801424332263E-002  0.28895827407351782        0.0000000000000000     
   1.9476428526085832E-002  0.29697841720340262        0.0000000000000000     
   1.2781484597981120E-002  0.26410334084626336        0.0000000000000000     
   1.2813405589212748E-002  0.27245350190173639        0.0000000000000000     
   1.2851348353314869E-002  0.28067754454351057        0.0000000000000000     
   1.2895312890287490E-002  0.28877546877158589        0.0000000000000000     
   1.2945299200130607E-002  0.29674727458596234        0.0000000000000000     
   6.3698561395730598E-003  0.26405332927977232        0.0000000000000000     
   6.3853956333197910E-003  0.27238815572234060        0.0000000000000000     
   6.4044588322813047E-003  0.28059230782571420        0.0000000000000000     
   6.4270457364575991E-003  0.28866578558989281        0.0000000000000000     
   6.4531563458486776E-003  0.29660858901487663        0.0000000000000000     
  -3.8500938982083399E-011  0.26403665875680549        0.0000000000000000     
  -3.8027899188983194E-011  0.27236637366176858        0.0000000000000000     
  -3.7580054736488511E-011  0.28056389558564632        0.0000000000000000     
  -3.7157409365096844E-011  0.28862922452843864        0.0000000000000000     
  -3.6759959659571351E-011  0.29656236049014550        0.0000000000000000     
   5.3376584532513482E-010   5.5422204128933256E-002   0.0000000000000000     
   2.8869572119179232E-010   6.0909507499444314E-002   0.0000000000000000     
   1.1295663926783051E-010   6.6645843741807834E-002   0.0000000000000000     
   6.5485996616695963E-012   7.2631212856023808E-002   0.0000000000000000     
  -3.0528398819312796E-011   7.8865614842092258E-002   0.0000000000000000     
  -3.4717486084919372E-003   5.5439389880224330E-002   0.0000000000000000     
  -3.6478090130529451E-003   6.0939111484265909E-002   0.0000000000000000     
  -3.8192399524679113E-003   6.6682526793010607E-002   0.0000000000000000     
  -3.9860414267368334E-003   7.2669635806458424E-002   0.0000000000000000     
  -4.1482134358597177E-003   7.8900438524609359E-002   0.0000000000000000     
  -6.9562578510095705E-003   5.5490946557935586E-002   0.0000000000000000     
  -7.3286801517590859E-003   6.1027923143994113E-002   0.0000000000000000     
  -7.6873827425900558E-003   6.6792575842862481E-002   0.0000000000000000     
  -8.0323656235024715E-003   7.2784904654540725E-002   0.0000000000000000     
  -8.3636287944963382E-003   7.9004909579028809E-002   0.0000000000000000     
  -1.0453527193787055E-002   5.5576874162067046E-002   0.0000000000000000     
  -1.1042613127422706E-002   6.1175942478628897E-002   0.0000000000000000     
  -1.1604428257409790E-002   6.6975990891363441E-002   0.0000000000000000     
  -1.2138972583748310E-002   7.2977019400270710E-002   0.0000000000000000     
  -1.2646246106438266E-002   7.9179028005350649E-002   0.0000000000000000     
  -1.3963556636824389E-002   5.5697172692618681E-002   0.0000000000000000     
  -1.4789607940043796E-002   6.1383169488170269E-002   0.0000000000000000     
  -1.5570376496927118E-002   6.7232771938513500E-002   0.0000000000000000     
  -1.6305862307474352E-002   7.3245980043648351E-002   0.0000000000000000     
  -1.6996065371685496E-002   7.9422793803574851E-002   0.0000000000000000     
  -3.0528398819312796E-011   7.8865614842092258E-002   0.0000000000000000     
  -3.3755598359899719E-011   8.5301445886160385E-002   0.0000000000000000     
  -3.8614241253294435E-011   9.1891102174375419E-002   0.0000000000000000     
  -4.5104331646570253E-011   9.8634583706737375E-002   0.0000000000000000     
  -5.3225865555284191E-011  0.10553189048324621        0.0000000000000000     
  -4.1482134358597177E-003   7.8900438524609359E-002   0.0000000000000000     
  -4.3117363224108767E-003   8.5330759917097543E-002   0.0000000000000000     
  -4.4825904289646319E-003   9.1916424953557091E-002   0.0000000000000000     
  -4.6607757555209885E-003   9.8657433633988045E-002   0.0000000000000000     
  -4.8462923020799412E-003  0.10555378595839039        0.0000000000000000     
  -8.3636287944963382E-003   7.9004909579028809E-002   0.0000000000000000     
  -8.6926966173557080E-003   8.5418701988112924E-002   0.0000000000000000     
  -9.0310934538646425E-003   9.1992393253579177E-002   0.0000000000000000     
  -9.3788193040231331E-003   9.8725983375427540E-002   0.0000000000000000     
  -9.7358741678311850E-003  0.10561947235365807        0.0000000000000000     
  -1.2646246106438266E-002   7.9179028005350649E-002   0.0000000000000000     
  -1.3142880918590104E-002   8.5565272099206557E-002   0.0000000000000000     
  -1.3645509113314270E-002   9.2119007074441608E-002   0.0000000000000000     
  -1.4154130690610767E-002   9.8840232931055844E-002   0.0000000000000000     
  -1.4668745650479599E-002  0.10572894966904926        0.0000000000000000     
  -1.6996065371685496E-002   7.9422793803574851E-002   0.0000000000000000     
  -1.7662289226114052E-002   8.5770470250378414E-002   0.0000000000000000     
  -1.8325837407313517E-002   9.2296266416144426E-002   0.0000000000000000     
  -1.8986709915283888E-002   9.9000182300872930E-002   0.0000000000000000     
  -1.9644906750025178E-002  0.10588221790456392        0.0000000000000000     
  -5.3225865555284191E-011  0.10553189048324621        0.0000000000000000     
  -6.0442889842499126E-011  0.11255096563136539        0.0000000000000000     
  -6.4219447684990549E-011  0.11965975227855838        0.0000000000000000     
  -6.4555540221170743E-011  0.12685825042482515        0.0000000000000000     
  -6.1451167071568946E-011  0.13414646007016573        0.0000000000000000     
  -4.8462923020799412E-003  0.10555378595839039        0.0000000000000000     
  -5.0230648615923320E-003  0.11257255309891807        0.0000000000000000     
  -5.1750182270089958E-003  0.11968080622772502        0.0000000000000000     
  -5.3021523983299386E-003  0.12687854534481127        0.0000000000000000     
  -5.4044673755551560E-003  0.13416577045017680        0.0000000000000000     
  -9.7358741678311850E-003  0.10561947235365807        0.0000000000000000     
  -1.0075836940836046E-002  0.11263731548581717        0.0000000000000000     
  -1.0372286518584968E-002  0.11974396806945126        0.0000000000000000     
  -1.0625222901077945E-002  0.12693943010456032        0.0000000000000000     
  -1.0834646088314984E-002  0.13422370159114438        0.0000000000000000     
  -1.4668745650479599E-002  0.10572894966904926        0.0000000000000000     
  -1.5158316298174034E-002  0.11274525279206271        0.0000000000000000     
  -1.5591804938947353E-002  0.11984923780373705        0.0000000000000000     
  -1.5969211572799562E-002  0.12704090470407234        0.0000000000000000     
  -1.6290536199730647E-002  0.13432025349306853        0.0000000000000000     
  -1.9644906750025178E-002  0.10588221790456392        0.0000000000000000     
  -2.0270502933606292E-002  0.11289636501765465        0.0000000000000000     
  -2.0833573488096162E-002  0.11999661543058246        0.0000000000000000     
  -2.1334118413494779E-002  0.12718296914334731        0.0000000000000000     
  -2.1772137709802148E-002  0.13445542615594921        0.0000000000000000     
  -6.1451167071568946E-011  0.13414646007016573        0.0000000000000000     
  -5.7071511795972474E-011  0.14155370109580392        0.0000000000000000     
  -5.3581757303647337E-011  0.14910929338296361        0.0000000000000000     
  -5.0981904299324948E-011  0.15681323693164476        0.0000000000000000     
  -4.9271952837215416E-011  0.16466553174184742        0.0000000000000000     
  -5.4044673755551560E-003  0.13416577045017680        0.0000000000000000     
  -5.4956661641356345E-003  0.14157178761889258        0.0000000000000000     
  -5.5894517695223543E-003  0.14912590292602959        0.0000000000000000     
  -5.6858241917153171E-003  0.15682811637158783        0.0000000000000000     
  -5.7847834307145213E-003  0.16467842795556734        0.0000000000000000     
  -1.0834646088314984E-002  0.13422370159114438        0.0000000000000000     
  -1.1023522373235690E-002  0.14162604718833385        0.0000000000000000     
  -1.1214818048779669E-002  0.14917573155525907        0.0000000000000000     
  -1.1408533114946922E-002  0.15687275469192014        0.0000000000000000     
  -1.1604667571737452E-002  0.16471711659831695        0.0000000000000000     
  -1.6290536199730647E-002  0.13432025349306853        0.0000000000000000     
  -1.6583568684371677E-002  0.14171647980412777        0.0000000000000000     
  -1.6876098891353705E-002  0.14925877927065212        0.0000000000000000     
  -1.7168126820676727E-002  0.15694715189264166        0.0000000000000000     
  -1.7459652472340749E-002  0.16478159767009637        0.0000000000000000     
  -2.1772137709802148E-002  0.13445542615594921        0.0000000000000000     
  -2.2175805097543598E-002  0.14184308546627430        0.0000000000000000     
  -2.2573294297244462E-002  0.14937504607220872        0.0000000000000000     
  -2.2964605308904727E-002  0.15705130797375247        0.0000000000000000     
  -2.3349738132524406E-002  0.16487187117090557        0.0000000000000000     
  -4.9271952837215416E-011  0.16466553174184742        0.0000000000000000     
  -4.8051625612527404E-011  0.17263062984471614        0.0000000000000000     
  -4.6920641417341757E-011  0.18067298327139547        0.0000000000000000     
  -4.5879005130568251E-011  0.18879259202188542        0.0000000000000000     
  -4.4926712090137544E-011  0.19698945609618604        0.0000000000000000     
  -5.7847834307145213E-003  0.16467842795556734        0.0000000000000000     
  -5.8794724594075616E-003  0.17264158058816473        0.0000000000000000     
  -5.9630342506820271E-003  0.18068231717957686        0.0000000000000000     
  -6.0354688045379185E-003  0.18880063772980357        0.0000000000000000     
  -6.0967761209752324E-003  0.19699654223884491        0.0000000000000000     
  -1.1604667571737452E-002  0.16471711659831695        0.0000000000000000     
  -1.1791663480968410E-002  0.17267443282121625        0.0000000000000000     
  -1.1957962904456956E-002  0.18071031890738459        0.0000000000000000     
  -1.2103565842203085E-002  0.18882477485682206        0.0000000000000000     
  -1.2228472294206802E-002  0.19701780066952859        0.0000000000000000     
  -1.7459652472340749E-002  0.16478159767009637        0.0000000000000000     
  -1.7736573112734182E-002  0.17272918654387065        0.0000000000000000     
  -1.7984786008245435E-002  0.18075698845481880        0.0000000000000000     
  -1.8204291158874512E-002  0.18886500340294093        0.0000000000000000     
  -1.8395088564621419E-002  0.19705323138823702        0.0000000000000000     
  -2.3349738132524406E-002  0.16487187117090557        0.0000000000000000     
  -2.3714201354704860E-002  0.17280584175612790        0.0000000000000000     
  -2.4043503562047458E-002  0.18082232582187946        0.0000000000000000     
  -2.4337644754552197E-002  0.18892132336816025        0.0000000000000000     
  -2.4596624932219084E-002  0.19710283439497028        0.0000000000000000     
  -4.4926712090137544E-011  0.19698945609618604        0.0000000000000000     
  -4.4018818754973377E-011  0.20525128000277856        0.0000000000000000     
  -4.3110375729307759E-011  0.21356576825014439        0.0000000000000000     
  -4.2201385018914711E-011  0.22193292083828350        0.0000000000000000     
  -4.1291844509599995E-011  0.23035273776719589        0.0000000000000000     
  -6.0967761209752324E-003  0.19699654223884491        0.0000000000000000     
  -6.1497405258485330E-003  0.20525774750489584        0.0000000000000000     
  -6.1971463450123752E-003  0.21357197032615124        0.0000000000000000     
  -6.2389935784667614E-003  0.22193921070261111        0.0000000000000000     
  -6.2752822262116884E-003  0.23035946863427548        0.0000000000000000     
  -1.2228472294206802E-002  0.19701780066952859        0.0000000000000000     
  -1.2337025594506308E-002  0.20527715001327723        0.0000000000000000     
  -1.2433569077139826E-002  0.21359057655584088        0.0000000000000000     
  -1.2518102742107339E-002  0.22195808029721964        0.0000000000000000     
  -1.2590626589408861E-002  0.23037966123741349        0.0000000000000000     
  -1.8395088564621419E-002  0.19705323138823702        0.0000000000000000     
  -1.8561855249992151E-002  0.20530948752792261        0.0000000000000000     
  -1.8709268239492722E-002  0.21362158693921332        0.0000000000000000     
  -1.8837327533123123E-002  0.22198952962210913        0.0000000000000000     
  -1.8946033130883361E-002  0.23041331557661004        0.0000000000000000     
  -2.4596624932219084E-002  0.19710283439497028        0.0000000000000000     
  -2.4824229492306053E-002  0.20535476004883213        0.0000000000000000     
  -2.5024243832071066E-002  0.21366500147626857        0.0000000000000000     
  -2.5196667951514110E-002  0.22203355867727956        0.0000000000000000     
  -2.5341501850635183E-002  0.23046043165186506        0.0000000000000000     
  -4.1291844509599995E-011  0.23035273776719589        0.0000000000000000     
  -4.0435051357548546E-011  0.23879259465352076        0.0000000000000000     
  -3.9684303694727252E-011  0.24721986711389732        0.0000000000000000     
  -3.9039598837735737E-011  0.25563455514832556        0.0000000000000000     
  -3.8500938982083399E-011  0.26403665875680549        0.0000000000000000     
  -6.2752822262116884E-003  0.23035946863427548        0.0000000000000000     
  -6.3063251167631042E-003  0.23880040995642188        0.0000000000000000     
  -6.3324350786369511E-003  0.24722970050432788        0.0000000000000000     
  -6.3536121118332334E-003  0.25564734027799352        0.0000000000000000     
  -6.3698562163519504E-003  0.26405332927741876        0.0000000000000000     
  -1.2590626589408861E-002  0.23037966123741349        0.0000000000000000     
  -1.2652444423552889E-002  0.23882385586738053        0.0000000000000000     
  -1.2704860049047931E-002  0.24725920067807855        0.0000000000000000     
  -1.2747873465893983E-002  0.25568569566950783        0.0000000000000000     
  -1.2781484674091051E-002  0.26410334084166820        0.0000000000000000     
  -1.8946033130883361E-002  0.23041331557661004        0.0000000000000000     
  -1.9038357960804407E-002  0.23886293238639661        0.0000000000000000     
  -1.9117274950917234E-002  0.24730836763514941        0.0000000000000000     
  -1.9182784101221848E-002  0.25574962132286844        0.0000000000000000     
  -1.9234885411718240E-002  0.26418669344955376        0.0000000000000000     
  -2.5341501850635183E-002  0.23046043165186506        0.0000000000000000     
  -2.5464065728517653E-002  0.23891763951347028        0.0000000000000000     
  -2.5569679784244868E-002  0.24737720137554042        0.0000000000000000     
  -2.5658344017816817E-002  0.25583911723807551        0.0000000000000000     
  -2.5730058429233517E-002  0.26430338710107543        0.0000000000000000     
  -3.8500938982083399E-011  0.26403665875680549        0.0000000000000000     
  -3.8027899188983194E-011  0.27236637366176858        0.0000000000000000     
  -3.7580054736488511E-011  0.28056389558564632        0.0000000000000000     
  -3.7157409365096844E-011  0.28862922452843864        0.0000000000000000     
  -3.6759959659571351E-011  0.29656236049014550        0.0000000000000000     
  -6.3698562163519504E-003  0.26405332927741876        0.0000000000000000     
  -6.3853957091634123E-003  0.27238815572004887        0.0000000000000000     
  -6.4044589072379332E-003  0.28059230782332906        0.0000000000000000     
  -6.4270458105755166E-003  0.28866578558725930        0.0000000000000000     
  -6.4531564191761571E-003  0.29660858901183956        0.0000000000000000     
  -1.2781484674091051E-002  0.26410334084166820        0.0000000000000000     
  -1.2813405664419840E-002  0.27245350189721024        0.0000000000000000     
  -1.2851348427661056E-002  0.28067754453878441        0.0000000000000000     
  -1.2895312963814697E-002  0.28877546876639076        0.0000000000000000     
  -1.2945299272880774E-002  0.29674727458002931        0.0000000000000000     
  -1.9234885411718240E-002  0.26418669344955376        0.0000000000000000     
  -1.9284029903797177E-002  0.27256241219325261        0.0000000000000000     
  -1.9340668598849416E-002  0.28081960573201242        0.0000000000000000     
  -1.9404801496874968E-002  0.28895827406583313        0.0000000000000000     
  -1.9476428597873810E-002  0.29697841719471479        0.0000000000000000     
  -2.5730058429233517E-002  0.26430338710107543        0.0000000000000000     
  -2.5797268427295433E-002  0.27271488660817600        0.0000000000000000     
  -2.5872419420803022E-002  0.28101849140301299        0.0000000000000000     
  -2.5955511409756299E-002  0.28921420148558630        0.0000000000000000     
  -2.6046544394155262E-002  0.29730201685589597        0.0000000000000000     
  -1.3963556636824389E-002   5.5697172692618681E-002   0.0000000000000000     
  -1.4789607940043796E-002   6.1383169488170269E-002   0.0000000000000000     
  -1.5570376496927118E-002   6.7232771938513500E-002   0.0000000000000000     
  -1.6305862307474352E-002   7.3245980043648351E-002   0.0000000000000000     
  -1.6996065371685496E-002   7.9422793803574851E-002   0.0000000000000000     
  -1.7535326146878895E-002   5.5888954661097875E-002   0.0000000000000000     
  -1.8593368579080453E-002   6.1645366989455573E-002   0.0000000000000000     
  -1.9591285686427456E-002   6.7533869043915506E-002   0.0000000000000000     
  -2.0529077468919917E-002   7.3554460824477697E-002   0.0000000000000000     
  -2.1406743926557826E-002   7.9707142331142150E-002   0.0000000000000000     
  -2.1217815690707902E-002   5.6189332579011979E-002   0.0000000000000000     
  -2.2477599033990749E-002   6.1958297799322118E-002   0.0000000000000000     
  -2.3673214051196222E-002   6.7850232267172378E-002   0.0000000000000000     
  -2.4804660742324323E-002   7.3865135982562752E-002   0.0000000000000000     
  -2.5871939107375064E-002   8.0003008945493254E-002   0.0000000000000000     
  -2.5011025268311407E-002   5.6598306446361005E-002   0.0000000000000000     
  -2.6442299304774687E-002   6.2321961917769911E-002   0.0000000000000000     
  -2.7816161591233412E-002   6.8181861608284086E-002   0.0000000000000000     
  -2.9132612127687581E-002   7.4178005517903503E-002   0.0000000000000000     
  -3.0391650914137196E-002   8.0310393646628231E-002   0.0000000000000000     
  -2.8914954879689404E-002   5.7115876263144960E-002   0.0000000000000000     
  -3.0487469391432272E-002   6.2736359344798959E-002   0.0000000000000000     
  -3.2020128306539032E-002   6.8528757067250617E-002   0.0000000000000000     
  -3.3512931625009686E-002   7.4493069430499978E-002   0.0000000000000000     
  -3.4965879346844232E-002   8.0629296434546985E-002   0.0000000000000000     
  -1.6996065371685496E-002   7.9422793803574851E-002   0.0000000000000000     
  -1.7662289226114052E-002   8.5770470250378414E-002   0.0000000000000000     
  -1.8325837407313517E-002   9.2296266416144426E-002   0.0000000000000000     
  -1.8986709915283888E-002   9.9000182300872930E-002   0.0000000000000000     
  -1.9644906750025178E-002  0.10588221790456392        0.0000000000000000     
  -2.1406743926557826E-002   7.9707142331142150E-002   0.0000000000000000     
  -2.2247153167785687E-002   8.6019386852886445E-002   0.0000000000000000     
  -2.3073173301047977E-002   9.2518667678688216E-002   0.0000000000000000     
  -2.3884804326344704E-002   9.9204984808547475E-002   0.0000000000000000     
  -2.4682046243675856E-002  0.10607833824246421        0.0000000000000000     
  -2.5871939107375064E-002   8.0003008945493254E-002   0.0000000000000000     
  -2.6893704371463135E-002   8.6297112317988631E-002   0.0000000000000000     
  -2.7888611759703238E-002   9.2780707262073603E-002   0.0000000000000000     
  -2.8856661272095390E-002   9.9453793777748156E-002   0.0000000000000000     
  -2.9797852908639573E-002  0.10631637186501230        0.0000000000000000     
  -3.0391650914137196E-002   8.0310393646628231E-002   0.0000000000000000     
  -3.1601942837146395E-002   8.6603646645684956E-002   0.0000000000000000     
  -3.2772152783279308E-002   9.3082385166300532E-002   0.0000000000000000     
  -3.3902280752535957E-002   9.9746609208474973E-002   0.0000000000000000     
  -3.4992326744916327E-002  0.10659631877220820        0.0000000000000000     
  -3.4965879346844232E-002   8.0629296434546985E-002   0.0000000000000000     
  -3.6371868564835465E-002   8.6938989835975450E-002   0.0000000000000000     
  -3.7723796371776197E-002   9.3423701391369074E-002   0.0000000000000000     
  -3.9021662767666408E-002  0.10008343110072788        0.0000000000000000     
  -4.0265467752506112E-002  0.10691817896405187        0.0000000000000000     
  -1.9644906750025178E-002  0.10588221790456392        0.0000000000000000     
  -2.0270502933606292E-002  0.11289636501765465        0.0000000000000000     
  -2.0833573488096162E-002  0.11999661543058246        0.0000000000000000     
  -2.1334118413494779E-002  0.12718296914334731        0.0000000000000000     
  -2.1772137709802148E-002  0.13445542615594921        0.0000000000000000     
  -2.4682046243675856E-002  0.10607833824246421        0.0000000000000000     
  -2.5438775015671374E-002  0.11308754312235270        0.0000000000000000     
  -2.6128866604961155E-002  0.12018141459012714        0.0000000000000000     
  -2.6752321011545219E-002  0.12735995264578756        0.0000000000000000     
  -2.7309138235423552E-002  0.13462315728933399        0.0000000000000000     
  -2.9797852908639573E-002  0.10631637186501230        0.0000000000000000     
  -3.0689510712907812E-002  0.11331567806591641        0.0000000000000000     
  -3.1508958728472120E-002  0.12039894892251081        0.0000000000000000     
  -3.2256196955332481E-002  0.12756618443479548        0.0000000000000000     
  -3.2931225393488923E-002  0.13481738460277043        0.0000000000000000     
  -3.4992326744916327E-002  0.10659631877220820        0.0000000000000000     
  -3.6022710025315617E-002  0.11358076984834585        0.0000000000000000     
  -3.6973849858629032E-002  0.12064921842773345        0.0000000000000000     
  -3.7845746244856586E-002  0.12780166451037100        0.0000000000000000     
  -3.8638399183998244E-002  0.13503810809625855        0.0000000000000000     
  -4.0265467752506112E-002  0.10691817896405187        0.0000000000000000     
  -4.1438372952894785E-002  0.11388281846964096        0.0000000000000000     
  -4.2523539995431917E-002  0.12093222310579509        0.0000000000000000     
  -4.3520968880117507E-002  0.12806639287251420        0.0000000000000000     
  -4.4430659606951542E-002  0.13528532776979837        0.0000000000000000     
  -2.1772137709802148E-002  0.13445542615594921        0.0000000000000000     
  -2.2175805097543598E-002  0.14184308546627430        0.0000000000000000     
  -2.2573294297244462E-002  0.14937504607220872        0.0000000000000000     
  -2.2964605308904727E-002  0.15705130797375247        0.0000000000000000     
  -2.3349738132524406E-002  0.16487187117090557        0.0000000000000000     
  -2.7309138235423552E-002  0.13462315728933399        0.0000000000000000     
  -2.7826397147715072E-002  0.14200007657374580        0.0000000000000000     
  -2.8331176619538684E-002  0.14951975855200245        0.0000000000000000     
  -2.8823476650894405E-002  0.15718220322410389        0.0000000000000000     
  -2.9303297241782208E-002  0.16498741059005018        0.0000000000000000     
  -3.2931225393488923E-002  0.13481738460277043        0.0000000000000000     
  -3.3561510369849716E-002  0.14218166552551462        0.0000000000000000     
  -3.4174518211323140E-002  0.14968814330210692        0.0000000000000000     
  -3.4770248917909224E-002  0.15733681793254736        0.0000000000000000     
  -3.5348702489607947E-002  0.16512768941683589        0.0000000000000000     
  -3.8638399183998244E-002  0.13503810809625855        0.0000000000000000     
  -3.9381144763947502E-002  0.14238785232158072        0.0000000000000000     
  -4.0103319072597829E-002  0.14988020032252214        0.0000000000000000     
  -4.0804922109949196E-002  0.15751515209908282        0.0000000000000000     
  -4.1485953876001611E-002  0.16529270765126275        0.0000000000000000     
  -4.4430659606951542E-002  0.13528532776979837        0.0000000000000000     
  -4.5285300330008479E-002  0.14261863696194416        0.0000000000000000     
  -4.6117579203362728E-002  0.15009592961324814        0.0000000000000000     
  -4.6927496227014309E-002  0.15771720572371031        0.0000000000000000     
  -4.7715051400963215E-002  0.16548246529333072        0.0000000000000000     
  -2.3349738132524406E-002  0.16487187117090557        0.0000000000000000     
  -2.3714201354704860E-002  0.17280584175612790        0.0000000000000000     
  -2.4043503562047458E-002  0.18082232582187946        0.0000000000000000     
  -2.4337644754552197E-002  0.18892132336816025        0.0000000000000000     
  -2.4596624932219084E-002  0.19710283439497028        0.0000000000000000     
  -2.9303297241782208E-002  0.16498741059005018        0.0000000000000000     
  -2.9756326059582817E-002  0.17290622805318143        0.0000000000000000     
  -3.0168250771676924E-002  0.18090950301683781        0.0000000000000000     
  -3.0539071378064525E-002  0.18899723548101943        0.0000000000000000     
  -3.0868787878745630E-002  0.19716942544572613        0.0000000000000000     
  -3.5348702489607947E-002  0.16512768941683589        0.0000000000000000     
  -3.5894725080070418E-002  0.17303217503022450        0.0000000000000000     
  -3.6393162842947732E-002  0.18102169204796514        0.0000000000000000     
  -3.6844015778239890E-002  0.18909624047005780        0.0000000000000000     
  -3.7247283885946898E-002  0.19725582029650243        0.0000000000000000     
  -4.1485953876001611E-002  0.16529270765126275        0.0000000000000000     
  -4.2129398416167647E-002  0.17318368268725726        0.0000000000000000     
  -4.2718239775859888E-002  0.18115889291526138        0.0000000000000000     
  -4.3252477955078285E-002  0.18921833833527546        0.0000000000000000     
  -4.3732112953822878E-002  0.19736201894729918        0.0000000000000000     
  -4.7715051400963215E-002  0.16548246529333072        0.0000000000000000     
  -4.8460346067874541E-002  0.17336075102427947        0.0000000000000000     
  -4.9143481570413372E-002  0.18132110561872666        0.0000000000000000     
  -4.9764457908579737E-002  0.18936352907667234        0.0000000000000000     
  -5.0323275082373609E-002  0.19748802139811644        0.0000000000000000     
  -2.4596624932219084E-002  0.19710283439497028        0.0000000000000000     
  -2.4824229492306053E-002  0.20535476004883213        0.0000000000000000     
  -2.5024243832071066E-002  0.21366500147626857        0.0000000000000000     
  -2.5196667951514110E-002  0.22203355867727956        0.0000000000000000     
  -2.5341501850635183E-002  0.23046043165186506        0.0000000000000000     
  -3.0868787878745630E-002  0.19716942544572613        0.0000000000000000     
  -3.1159919972672673E-002  0.20541452685713216        0.0000000000000000     
  -3.1414987358798094E-002  0.21372099366141178        0.0000000000000000     
  -3.1633990037121883E-002  0.22208882585856482        0.0000000000000000     
  -3.1816928007644060E-002  0.23051802344859137        0.0000000000000000     
  -3.7247283885946898E-002  0.19725582029650243        0.0000000000000000     
  -3.7604698342316646E-002  0.20549034723394916        0.0000000000000000     
  -3.7917990323597030E-002  0.21378973698904793        0.0000000000000000     
  -3.8187159829788035E-002  0.22215398956179880        0.0000000000000000     
  -3.8412206860889683E-002  0.23058310495220177        0.0000000000000000     
  -4.3732112953822878E-002  0.19736201894729918        0.0000000000000000     
  -4.4158564601237980E-002  0.20558222117928307        0.0000000000000000     
  -4.4533252726467874E-002  0.21387123145917716        0.0000000000000000     
  -4.4856177329512574E-002  0.22222904978698155        0.0000000000000000     
  -4.5127338410372066E-002  0.23065567616269630        0.0000000000000000     
  -5.0323275082373609E-002  0.19748802139811644        0.0000000000000000     
  -5.0821518749436669E-002  0.20569014869313385        0.0000000000000000     
  -5.1260774567410634E-002  0.21396547707179936        0.0000000000000000     
  -5.1641042536295471E-002  0.22231400653411310        0.0000000000000000     
  -5.1962322656091214E-002  0.23073573708007492        0.0000000000000000     
  -2.5341501850635183E-002  0.23046043165186506        0.0000000000000000     
  -2.5464065728517653E-002  0.23891763951347028        0.0000000000000000     
  -2.5569679784244868E-002  0.24737720137554042        0.0000000000000000     
  -2.5658344017816817E-002  0.25583911723807551        0.0000000000000000     
  -2.5730058429233517E-002  0.26430338710107543        0.0000000000000000     
  -3.1816928007644060E-002  0.23051802344859137        0.0000000000000000     
  -3.1971243156941061E-002  0.23898350925803247        0.0000000000000000     
  -3.2104377371589353E-002  0.24746020611342914        0.0000000000000000     
  -3.2216330651588937E-002  0.25594811401478140        0.0000000000000000     
  -3.2307102996939813E-002  0.26444723296208922        0.0000000000000000     
  -3.8412206860889683E-002  0.23058310495220177        0.0000000000000000     
  -3.8601565676323051E-002  0.23905607362951414        0.0000000000000000     
  -3.8763670535509241E-002  0.24755188606299314        0.0000000000000000     
  -3.8898521438448248E-002  0.25607054225263881        0.0000000000000000     
  -3.9006118385140065E-002  0.26461204219845119        0.0000000000000000     
  -4.5127338410372066E-002  0.23065567616269630        0.0000000000000000     
  -4.5355033286663626E-002  0.23913533262791525        0.0000000000000000     
  -4.5547559276004512E-002  0.24765224122423238        0.0000000000000000     
  -4.5704916378394710E-002  0.25620640195164768        0.0000000000000000     
  -4.5827104593834253E-002  0.26479781481016118        0.0000000000000000     
  -5.1962322656091214E-002  0.23073573708007492        0.0000000000000000     
  -5.2231645987962795E-002  0.23922128625323585        0.0000000000000000     
  -5.2456043593075187E-002  0.24776127159714689        0.0000000000000000     
  -5.2635515471428383E-002  0.25635569311180806        0.0000000000000000     
  -5.2770061623022391E-002  0.26500455079721930        0.0000000000000000     
  -2.5730058429233517E-002  0.26430338710107543        0.0000000000000000     
  -2.5797268427295433E-002  0.27271488660817600        0.0000000000000000     
  -2.5872419420803022E-002  0.28101849140301299        0.0000000000000000     
  -2.5955511409756299E-002  0.28921420148558630        0.0000000000000000     
  -2.6046544394155262E-002  0.29730201685589597        0.0000000000000000     
  -3.2307102996939813E-002  0.26444723296208922        0.0000000000000000     
  -3.2391527268596516E-002  0.27290458385479816        0.0000000000000000     
  -3.2484436327513605E-002  0.28126718759235358        0.0000000000000000     
  -3.2585830173691072E-002  0.28953504417475562        0.0000000000000000     
  -3.2695708807128909E-002  0.29770815360200414        0.0000000000000000     
  -3.9006118385140065E-002  0.26461204219845119        0.0000000000000000     
  -3.9105212461382377E-002  0.27312516264593661        0.0000000000000000     
  -3.9214554752972898E-002  0.28155868034060166        0.0000000000000000     
  -3.9334145259911621E-002  0.28991259528244628        0.0000000000000000     
  -3.9463983982198553E-002  0.29818690747147036        0.0000000000000000     
  -4.5827104593834253E-002  0.26479781481016118        0.0000000000000000     
  -4.5938324005653008E-002  0.27337662298159149        0.0000000000000000     
  -4.6062774697180911E-002  0.28189296964775712        0.0000000000000000     
  -4.6200456668417975E-002  0.29034685480865824        0.0000000000000000     
  -4.6351369919364165E-002  0.29873827846429474        0.0000000000000000     
  -5.2770061623022391E-002  0.26500455079721930        0.0000000000000000     
  -5.2890861901408404E-002  0.27365896486176261        0.0000000000000000     
  -5.3029096160137644E-002  0.28227005551382006        0.0000000000000000     
  -5.3184764399210091E-002  0.29083782275339165        0.0000000000000000     
  -5.3357866618625779E-002  0.29936226658047727        0.0000000000000000     
  -2.8914954879689404E-002   5.7115876263144960E-002   0.0000000000000000     
  -3.0487469391432272E-002   6.2736359344798959E-002   0.0000000000000000     
  -3.2020128306539032E-002   6.8528757067250617E-002   0.0000000000000000     
  -3.3512931625009686E-002   7.4493069430499978E-002   0.0000000000000000     
  -3.4965879346844232E-002   8.0629296434546985E-002   0.0000000000000000     
  -3.2936457686720315E-002   5.7696328475317381E-002   0.0000000000000000     
  -3.4651542669674254E-002   6.3207745017381217E-002   0.0000000000000000     
  -3.6342209027063845E-002   6.8928155098579844E-002   0.0000000000000000     
  -3.8008456758889114E-002   7.4857558718913308E-002   0.0000000000000000     
  -3.9650285865150035E-002   8.0995955878381556E-002   0.0000000000000000     
  -3.7082386851282574E-002   5.8293949528831837E-002   0.0000000000000000     
  -3.8972952515211386E-002   6.3742373872488642E-002   0.0000000000000000     
  -4.0839498582758628E-002   6.9417292156779609E-002   0.0000000000000000     
  -4.2682025053924336E-002   7.5318704381704682E-002   0.0000000000000000     
  -4.4500531928708467E-002   8.1446610547263903E-002   0.0000000000000000     
  -4.1352742373376154E-002   5.8908739423688322E-002   0.0000000000000000     
  -4.3451698928043667E-002   6.4340245910121288E-002   0.0000000000000000     
  -4.5511996973623382E-002   6.9996168241849871E-002   0.0000000000000000     
  -4.7533636510115350E-002   7.5876506418874085E-002   0.0000000000000000     
  -4.9516617537519528E-002   8.1981260441193998E-002   0.0000000000000000     
  -4.5747524253001090E-002   5.9540698159886843E-002   0.0000000000000000     
  -4.8087781908171090E-002   6.5001361130279087E-002   0.0000000000000000     
  -5.0359704199658115E-002   7.0664783353790672E-002   0.0000000000000000     
  -5.2563291127462164E-002   7.6530964830421572E-002   0.0000000000000000     
  -5.4698542691583231E-002   8.2599905560171827E-002   0.0000000000000000     
  -3.4965879346844232E-002   8.0629296434546985E-002   0.0000000000000000     
  -3.6371868564835465E-002   8.6938989835975450E-002   0.0000000000000000     
  -3.7723796371776197E-002   9.3423701391369074E-002   0.0000000000000000     
  -3.9021662767666408E-002  0.10008343110072788        0.0000000000000000     
  -4.0265467752506112E-002  0.10691817896405187        0.0000000000000000     
  -3.9650285865150035E-002   8.0995955878381556E-002   0.0000000000000000     
  -4.1247492160363948E-002   8.7321010910748051E-002   0.0000000000000000     
  -4.2779871459048179E-002   9.3810388149776200E-002   0.0000000000000000     
  -4.4247423761202727E-002  0.10046408759546599        0.0000000000000000     
  -4.5650149066827600E-002  0.10728210924781748        0.0000000000000000     
  -4.4500531928708467E-002   8.1446610547263903E-002   0.0000000000000000     
  -4.6272824229565419E-002   8.7767578891890796E-002   0.0000000000000000     
  -4.7976706978949568E-002   9.4248177654018994E-002   0.0000000000000000     
  -4.9612180176860900E-002  0.10088840683364846        0.0000000000000000     
  -5.1179243823299449E-002  0.10768826643077921        0.0000000000000000     
  -4.9516617537519528E-002   8.1981260441193998E-002   0.0000000000000000     
  -5.1447864772439886E-002   8.8278693779403686E-002   0.0000000000000000     
  -5.3314302931480366E-002   9.4737069904097443E-002   0.0000000000000000     
  -5.5115932014640948E-002  0.10135638881527521        0.0000000000000000     
  -5.6852752021921651E-002  0.10813665051293703        0.0000000000000000     
  -5.4698542691583231E-002   8.2599905560171827E-002   0.0000000000000000     
  -5.6772613788987361E-002   8.8854355573286720E-002   0.0000000000000000     
  -5.8792659316640565E-002   9.5277064900011532E-002   0.0000000000000000     
  -6.0758679274542857E-002  0.10186803354034628        0.0000000000000000     
  -6.2670673662694215E-002  0.10862726149429094        0.0000000000000000     
  -4.0265467752506112E-002  0.10691817896405187        0.0000000000000000     
  -4.1438372952894785E-002  0.11388281846964096        0.0000000000000000     
  -4.2523539995431917E-002  0.12093222310579509        0.0000000000000000     
  -4.3520968880117507E-002  0.12806639287251420        0.0000000000000000     
  -4.4430659606951542E-002  0.13528532776979837        0.0000000000000000     
  -4.5650149066827600E-002  0.10728210924781748        0.0000000000000000     
  -4.6971175063806221E-002  0.11422522054107018        0.0000000000000000     
  -4.8193629440022076E-002  0.12125418890946364        0.0000000000000000     
  -4.9317512195475116E-002  0.12836901435299788        0.0000000000000000     
  -5.0342823330165376E-002  0.13556969687167295        0.0000000000000000     
  -5.1179243823299449E-002  0.10768826643077921        0.0000000000000000     
  -5.2655791926210851E-002  0.11461137267390187        0.0000000000000000     
  -5.4019718493540793E-002  0.12162134179150712        0.0000000000000000     
  -5.5271023525289294E-002  0.12871817378359490        0.0000000000000000     
  -5.6409707021456319E-002  0.13590186865016529        0.0000000000000000     
  -5.6852752021921651E-002  0.10813665051293703        0.0000000000000000     
  -5.8492223540108648E-002  0.11504127486813606        0.0000000000000000     
  -6.0001807155988095E-002  0.12203368175192547        0.0000000000000000     
  -6.1381502869560012E-002  0.12911387116430528        0.0000000000000000     
  -6.2631310680824392E-002  0.13628184310527550        0.0000000000000000     
  -6.2670673662694215E-002  0.10862726149429094        0.0000000000000000     
  -6.4480469905499618E-002  0.11551492712377272        0.0000000000000000     
  -6.6139895427363968E-002  0.12249120879071872        0.0000000000000000     
  -6.7648950228287277E-002  0.12955610649512900        0.0000000000000000     
  -6.9007634308269547E-002  0.13670962023700350        0.0000000000000000     
  -4.4430659606951542E-002  0.13528532776979837        0.0000000000000000     
  -4.5285300330008479E-002  0.14261863696194416        0.0000000000000000     
  -4.6117579203362728E-002  0.15009592961324814        0.0000000000000000     
  -4.6927496227014309E-002  0.15771720572371031        0.0000000000000000     
  -4.7715051400963215E-002  0.16548246529333072        0.0000000000000000     
  -5.0342823330165376E-002  0.13556969687167295        0.0000000000000000     
  -5.1307396711736224E-002  0.14288576170986822        0.0000000000000000     
  -5.2249066207831062E-002  0.15034673411196317        0.0000000000000000     
  -5.3167831818449876E-002  0.15795261407795791        0.0000000000000000     
  -5.4063693543592688E-002  0.16570340160785235        0.0000000000000000     
  -5.6409707021456319E-002  0.13590186865016529        0.0000000000000000     
  -5.7480853552834395E-002  0.14320096882861622        0.0000000000000000     
  -5.8529547690216038E-002  0.15064401675634567        0.0000000000000000     
  -5.9555789433601229E-002  0.15823101243335363        0.0000000000000000     
  -6.0559578782989953E-002  0.16596195585964013        0.0000000000000000     
  -6.2631310680824392E-002  0.13628184310527550        0.0000000000000000     
  -6.3805670853303006E-002  0.14356425831818820        0.0000000000000000     
  -6.4959023650517644E-002  0.15098777754639556        0.0000000000000000     
  -6.6091369072468334E-002  0.15855240078989749        0.0000000000000000     
  -6.7202707119155061E-002  0.16625812804869408        0.0000000000000000     
  -6.9007634308269547E-002  0.13670962023700350        0.0000000000000000     
  -7.0281848613142003E-002  0.14397563017858417        0.0000000000000000     
  -7.1537494088735887E-002  0.15137801648211283        0.0000000000000000     
  -7.2774570735051225E-002  0.15891677914758950        0.0000000000000000     
  -7.3993078552087949E-002  0.16659191817501418        0.0000000000000000     
  -4.7715051400963215E-002  0.16548246529333072        0.0000000000000000     
  -4.8460346067874541E-002  0.17336075102427947        0.0000000000000000     
  -4.9143481570413372E-002  0.18132110561872666        0.0000000000000000     
  -4.9764457908579737E-002  0.18936352907667234        0.0000000000000000     
  -5.0323275082373609E-002  0.19748802139811644        0.0000000000000000     
  -5.4063693543592688E-002  0.16570340160785235        0.0000000000000000     
  -5.4913369998554805E-002  0.17356673585734586        0.0000000000000000     
  -5.5693579798631591E-002  0.18151025598213785        0.0000000000000000     
  -5.6404322943823026E-002  0.18953396198222824        0.0000000000000000     
  -5.7045599434129145E-002  0.19763785385761712        0.0000000000000000     
  -6.0559578782989953E-002  0.16596195585964013        0.0000000000000000     
  -6.1514272171572196E-002  0.17380499300251095        0.0000000000000000     
  -6.2393226032537892E-002  0.18172826982927195        0.0000000000000000     
  -6.3196440365887022E-002  0.18973178633992305        0.0000000000000000     
  -6.3923915171619605E-002  0.19781554253446432        0.0000000000000000     
  -6.7202707119155061E-002  0.16625812804869408        0.0000000000000000     
  -6.8263052586926706E-002  0.17407552245977470        0.0000000000000000     
  -6.9242420272132274E-002  0.18197514716012891        0.0000000000000000     
  -7.0140810174771695E-002  0.18995700214975667        0.0000000000000000     
  -7.0958222294844983E-002  0.19802108742865804        0.0000000000000000     
  -7.3993078552087949E-002  0.16659191817501418        0.0000000000000000     
  -7.5159711244618385E-002  0.17437832422913715        0.0000000000000000     
  -7.6241162517414737E-002  0.18225088797470884        0.0000000000000000     
  -7.7237432370477047E-002  0.19020960941172918        0.0000000000000000     
  -7.8148520803805299E-002  0.19825448854019823        0.0000000000000000     
  -5.0323275082373609E-002  0.19748802139811644        0.0000000000000000     
  -5.0821518749436669E-002  0.20569014869313385        0.0000000000000000     
  -5.1260774567410634E-002  0.21396547707179936        0.0000000000000000     
  -5.1641042536295471E-002  0.22231400653411310        0.0000000000000000     
  -5.1962322656091214E-002  0.23073573708007492        0.0000000000000000     
  -5.7045599434129145E-002  0.19763785385761712        0.0000000000000000     
  -5.7619651639735404E-002  0.20582023128053500        0.0000000000000000     
  -5.8128721930827326E-002  0.21407939392321249        0.0000000000000000     
  -5.8572810307404903E-002  0.22241534178564956        0.0000000000000000     
  -5.8951916769468128E-002  0.23082807486784618        0.0000000000000000     
  -6.3923915171619605E-002  0.19781554253446432        0.0000000000000000     
  -6.4579054124956833E-002  0.20597857044651999        0.0000000000000000     
  -6.5165260901119959E-002  0.21421990210971428        0.0000000000000000     
  -6.5682535500108954E-002  0.22253953752404718        0.0000000000000000     
  -6.6130877921923806E-002  0.23093747668951867        0.0000000000000000     
  -7.0958222294844983E-002  0.19802108742865804        0.0000000000000000     
  -7.1699726205100997E-002  0.20616516619108874        0.0000000000000000     
  -7.2370391478288540E-002  0.21438700163130475        0.0000000000000000     
  -7.2970218114407639E-002  0.22268659374930594        0.0000000000000000     
  -7.3499206113458282E-002  0.23106394254509241        0.0000000000000000     
  -7.8148520803805299E-002  0.19825448854019823        0.0000000000000000     
  -7.8981667880167833E-002  0.20638001851424134        0.0000000000000000     
  -7.9744113662333069E-002  0.21458069248798387        0.0000000000000000     
  -8.0435858150300951E-002  0.22285651046142588        0.0000000000000000     
  -8.1056901344071522E-002  0.23120747243456732        0.0000000000000000     
  -5.1962322656091214E-002  0.23073573708007492        0.0000000000000000     
  -5.2231645987962795E-002  0.23922128625323585        0.0000000000000000     
  -5.2456043593075187E-002  0.24776127159714689        0.0000000000000000     
  -5.2635515471428383E-002  0.25635569311180806        0.0000000000000000     
  -5.2770061623022391E-002  0.26500455079721930        0.0000000000000000     
  -5.8951916769468128E-002  0.23082807486784618        0.0000000000000000     
  -5.9270497052525295E-002  0.23931533923023224        0.0000000000000000     
  -5.9533006892084669E-002  0.24787488093323742        0.0000000000000000     
  -5.9739446288146238E-002  0.25650669997686182        0.0000000000000000     
  -5.9889815240710027E-002  0.26521079636110534        0.0000000000000000     
  -6.6130877921923806E-002  0.23093747668951867        0.0000000000000000     
  -6.6510679752655857E-002  0.23941889628366059        0.0000000000000000     
  -6.6822332578396343E-002  0.24798897298400463        0.0000000000000000     
  -6.7065836399145304E-002  0.25664770679055082        0.0000000000000000     
  -6.7241191214902712E-002  0.26539509770329911        0.0000000000000000     
  -7.3499206113458282E-002  0.23106394254509241        0.0000000000000000     
  -7.3952194088354489E-002  0.23953195741352099        0.0000000000000000     
  -7.4324020652010242E-002  0.24810354774944854        0.0000000000000000     
  -7.4614685804425568E-002  0.25677871355287507        0.0000000000000000     
  -7.4824189545600467E-002  0.26555745482380066        0.0000000000000000     
  -8.1056901344071522E-002  0.23120747243456732        0.0000000000000000     
  -8.1595040059621191E-002  0.23965452261981335        0.0000000000000000     
  -8.2038071112926353E-002  0.24821860522956915        0.0000000000000000     
  -8.2385994503987064E-002  0.25689972026383467        0.0000000000000000     
  -8.2638810232803284E-002  0.26569786772260989        0.0000000000000000     
  -5.2770061623022391E-002  0.26500455079721930        0.0000000000000000     
  -5.2890861901408404E-002  0.27365896486176261        0.0000000000000000     
  -5.3029096160137644E-002  0.28227005551382006        0.0000000000000000     
  -5.3184764399210091E-002  0.29083782275339165        0.0000000000000000     
  -5.3357866618625779E-002  0.29936226658047727        0.0000000000000000     
  -5.9889815240710027E-002  0.26521079636110534        0.0000000000000000     
  -6.0021615358506822E-002  0.27394355312821228        0.0000000000000000     
  -6.0172348250267425E-002  0.28266135332042713        0.0000000000000000     
  -6.0342013915991810E-002  0.29136419693774962        0.0000000000000000     
  -6.0530612355680018E-002  0.30005208398018002        0.0000000000000000     
  -6.7241191214902712E-002  0.26539509770329911        0.0000000000000000     
  -6.7389373586806509E-002  0.27420175262270274        0.0000000000000000     
  -6.7551360075994576E-002  0.28303827844921503        0.0000000000000000     
  -6.7727150682466930E-002  0.29190467518283580        0.0000000000000000     
  -6.7916745406223555E-002  0.30080094282356523        0.0000000000000000     
  -7.4824189545600467E-002  0.26555745482380066        0.0000000000000000     
  -7.4994136586307492E-002  0.27443356334523389        0.0000000000000000     
  -7.5166131637319125E-002  0.28340083090018370        0.0000000000000000     
  -7.5340174698635437E-002  0.29245925748864987        0.0000000000000000     
  -7.5516265770256372E-002  0.30160884311063274        0.0000000000000000     
  -8.2638810232803284E-002  0.26569786772260989        0.0000000000000000     
  -8.2835904357009715E-002  0.27463898529580577        0.0000000000000000     
  -8.3016662934241064E-002  0.28374901067333325        0.0000000000000000     
  -8.3181085964497331E-002  0.29302794385519215        0.0000000000000000     
  -8.3329173447778487E-002  0.30247578484138266        0.0000000000000000     
  -4.5747524253001090E-002   5.9540698159886843E-002   0.0000000000000000     
  -4.8087781908171090E-002   6.5001361130279087E-002   0.0000000000000000     
  -5.0359704199658115E-002   7.0664783353790672E-002   0.0000000000000000     
  -5.2563291127462164E-002   7.6530964830421572E-002   0.0000000000000000     
  -5.4698542691583231E-002   8.2599905560171827E-002   0.0000000000000000     
  -5.0328710687110631E-002   6.0234374441792943E-002   0.0000000000000000     
  -5.2891029612075049E-002   6.5719686733530291E-002   0.0000000000000000     
  -5.5363103245427835E-002   7.1387649273437381E-002   0.0000000000000000     
  -5.7744931587168973E-002   7.7238262061514240E-002   0.0000000000000000     
  -6.0036514637298449E-002   8.3271525097760882E-002   0.0000000000000000     
  -5.5158279872658061E-002   6.1034316973772186E-002   0.0000000000000000     
  -5.7871270196236953E-002   6.6489189920443073E-002   0.0000000000000000     
  -6.0502677095497587E-002   7.2129277781625423E-002   0.0000000000000000     
  -6.3052500570439957E-002   7.7954580557319228E-002   0.0000000000000000     
  -6.5520740621064055E-002   8.3965098247524531E-002   0.0000000000000000     
  -6.0236231809643374E-002   6.1940525755824573E-002   0.0000000000000000     
  -6.3028503660656793E-002   6.7309870691017445E-002   0.0000000000000000     
  -6.5778425749867364E-002   7.2889668878354782E-002   0.0000000000000000     
  -6.8485998077275137E-002   7.8679920317836577E-002   0.0000000000000000     
  -7.1151220642880070E-002   8.4680625009462815E-002   0.0000000000000000     
  -6.5562566498066591E-002   6.2953000787950103E-002   0.0000000000000000     
  -6.8362730005334549E-002   6.8181729045253422E-002   0.0000000000000000     
  -7.1190349208537174E-002   7.3668822563625475E-002   0.0000000000000000     
  -7.4045424107674493E-002   7.9414281343066231E-002   0.0000000000000000     
  -7.6927954702746493E-002   8.5418105383575707E-002   0.0000000000000000     
  -5.4698542691583231E-002   8.2599905560171827E-002   0.0000000000000000     
  -5.6772613788987361E-002   8.8854355573286720E-002   0.0000000000000000     
  -5.8792659316640565E-002   9.5277064900011532E-002   0.0000000000000000     
  -6.0758679274542857E-002  0.10186803354034628        0.0000000000000000     
  -6.2670673662694215E-002  0.10862726149429094        0.0000000000000000     
  -6.0036514637298449E-002   8.3271525097760882E-002   0.0000000000000000     
  -6.2260017515078883E-002   8.9483247480106123E-002   0.0000000000000000     
  -6.4437605339772872E-002   9.5869238306478893E-002   0.0000000000000000     
  -6.6569278111380414E-002  0.10242949757687912        0.0000000000000000     
  -6.8655035829901526E-002  0.10916402529130689        0.0000000000000000     
  -6.5520740621064055E-002   8.3965098247524531E-002   0.0000000000000000     
  -6.7923022186585538E-002   9.0154052706428206E-002   0.0000000000000000     
  -7.0274970206220019E-002   9.6514665788217130E-002   0.0000000000000000     
  -7.2576584679967485E-002  0.10304693749289132        0.0000000000000000     
  -7.4827865607827934E-002  0.10975086782045078        0.0000000000000000     
  -7.1151220642880070E-002   8.4680625009462815E-002   0.0000000000000000     
  -7.3761627803507313E-002   9.0866771252252898E-002   0.0000000000000000     
  -7.6304753915981946E-002   9.7213347345226242E-002   0.0000000000000000     
  -7.8780598980304012E-002  0.10372035328838280        0.0000000000000000     
  -8.1189162996473468E-002  0.11038778908172261        0.0000000000000000     
  -7.6927954702746493E-002   8.5418105383575707E-002   0.0000000000000000     
  -7.9775834365844220E-002   9.1621403117580241E-002   0.0000000000000000     
  -8.2526956469058721E-002   9.7965282977506216E-002   0.0000000000000000     
  -8.5181321012390024E-002  0.10444974496335360        0.0000000000000000     
  -8.7738927995838101E-002  0.11107478907512242        0.0000000000000000     
  -6.2670673662694215E-002  0.10862726149429094        0.0000000000000000     
  -6.4480469905499618E-002  0.11551492712377272        0.0000000000000000     
  -6.6139895427363968E-002  0.12249120879071872        0.0000000000000000     
  -6.7648950228287277E-002  0.12955610649512900        0.0000000000000000     
  -6.9007634308269547E-002  0.13670962023700350        0.0000000000000000     
  -6.8655035829901526E-002  0.10916402529130689        0.0000000000000000     
  -7.0632722438750503E-002  0.11603068525721784        0.0000000000000000     
  -7.2440181881341631E-002  0.12298734128206766        0.0000000000000000     
  -7.4077414157674923E-002  0.13003399336585639        0.0000000000000000     
  -7.5544419267750379E-002  0.13717064150858405        0.0000000000000000     
  -7.4827865607827934E-002  0.10975086782045078        0.0000000000000000     
  -7.6961172556228030E-002  0.11658690508487740        0.0000000000000000     
  -7.8908865091594282E-002  0.12351549760015311        0.0000000000000000     
  -8.0670943213926760E-002  0.13053664536627785        0.0000000000000000     
  -8.2247406923225450E-002  0.13765034838325166        0.0000000000000000     
  -8.1189162996473468E-002  0.11038778908172261        0.0000000000000000     
  -8.3465820257932158E-002  0.11718358660675142        0.0000000000000000     
  -8.5545945058121950E-002  0.12407567774497501        0.0000000000000000     
  -8.7429537397042803E-002  0.13106406249639332        0.0000000000000000     
  -8.9116597274694759E-002  0.13814874086100645        0.0000000000000000     
  -8.7738927995838101E-002  0.11107478907512242        0.0000000000000000     
  -9.0146665543862969E-002  0.11782072982283992        0.0000000000000000     
  -9.2351421780924620E-002  0.12466788171653341        0.0000000000000000     
  -9.4353196707023038E-002  0.13161624475620287        0.0000000000000000     
  -9.6151990322158265E-002  0.13866581894184837        0.0000000000000000     
  -6.9007634308269547E-002  0.13670962023700350        0.0000000000000000     
  -7.0281848613142003E-002  0.14397563017858417        0.0000000000000000     
  -7.1537494088735887E-002  0.15137801648211283        0.0000000000000000     
  -7.2774570735051225E-002  0.15891677914758950        0.0000000000000000     
  -7.3993078552087949E-002  0.16659191817501418        0.0000000000000000     
  -7.5544419267750379E-002  0.13717064150858405        0.0000000000000000     
  -7.6918503898726120E-002  0.14441859561664736        0.0000000000000000     
  -7.8276974737760227E-002  0.15179916559644324        0.0000000000000000     
  -7.9619831784852713E-002  0.15931235144797165        0.0000000000000000     
  -8.0947075040003577E-002  0.16695815317123261        0.0000000000000000     
  -8.2247406923225450E-002  0.13765034838325166        0.0000000000000000     
  -8.3724753776430016E-002  0.14487666583922107        0.0000000000000000     
  -8.5189481330480085E-002  0.15223565692233251        0.0000000000000000     
  -8.6641589585375683E-002  0.15972732163258607        0.0000000000000000     
  -8.8081078541116825E-002  0.16735165996998172        0.0000000000000000     
  -8.9116597274694759E-002  0.13814874086100645        0.0000000000000000     
  -9.0700598246253664E-002  0.14534984084630523        0.0000000000000000     
  -9.2275013866895461E-002  0.15268749045978067        0.0000000000000000     
  -9.3839844136620137E-002  0.16016168970143269        0.0000000000000000     
  -9.5395089055427679E-002  0.16777243857126137        0.0000000000000000     
  -9.6151990322158265E-002  0.13866581894184837        0.0000000000000000     
  -9.7846037308197104E-002  0.14583812063789992        0.0000000000000000     
  -9.9533572347006383E-002  0.15315466620878765        0.0000000000000000     
 -0.10121459543858605       0.16061545565451155        0.0000000000000000     
 -0.10288910658293617       0.16822048897507164        0.0000000000000000     
  -7.3993078552087949E-002  0.16659191817501418        0.0000000000000000     
  -7.5159711244618385E-002  0.17437832422913715        0.0000000000000000     
  -7.6241162517414737E-002  0.18225088797470884        0.0000000000000000     
  -7.7237432370477047E-002  0.19020960941172918        0.0000000000000000     
  -7.8148520803805299E-002  0.19825448854019823        0.0000000000000000     
  -8.0947075040003577E-002  0.16695815317123261        0.0000000000000000     
  -8.2221696320904869E-002  0.17471477946231714        0.0000000000000000     
  -8.3406687445248665E-002  0.18256043901731636        0.0000000000000000     
  -8.4502048413034936E-002  0.19049513183623012        0.0000000000000000     
  -8.5507779224263725E-002  0.19851885791905854        0.0000000000000000     
  -8.8081078541116825E-002  0.16735165996998172        0.0000000000000000     
  -8.9466455992043892E-002  0.17508626931103366        0.0000000000000000     
  -9.0756229732497376E-002  0.18290874703225610        0.0000000000000000     
  -9.1950399762477208E-002  0.19081909313364909        0.0000000000000000     
  -9.3048966081983445E-002  0.19881730761521260        0.0000000000000000     
  -9.5395089055427679E-002  0.16777243857126137        0.0000000000000000     
  -9.6893990258035467E-002  0.17549279377528654        0.0000000000000000     
  -9.8289789379160872E-002  0.18329581201952813        0.0000000000000000     
  -9.9582486418803864E-002  0.19118149330398607        0.0000000000000000     
 -0.10077208137696449       0.19914983762866034        0.0000000000000000     
 -0.10288910658293617       0.16822048897507164        0.0000000000000000     
 -0.10450429911887958       0.17593435285507592        0.0000000000000000     
 -0.10600736638523917       0.18372163397913235        0.0000000000000000     
 -0.10739830838201490       0.19158233234724101        0.0000000000000000     
 -0.10867712510920681       0.19951644795940188        0.0000000000000000     
  -7.8148520803805299E-002  0.19825448854019823        0.0000000000000000     
  -7.8981667880167833E-002  0.20638001851424134        0.0000000000000000     
  -7.9744113662333069E-002  0.21458069248798387        0.0000000000000000     
  -8.0435858150300951E-002  0.22285651046142588        0.0000000000000000     
  -8.1056901344071522E-002  0.23120747243456732        0.0000000000000000     
  -8.5507779224263725E-002  0.19851885791905854        0.0000000000000000     
  -8.6433863634705607E-002  0.20662370286362969        0.0000000000000000     
  -8.7290285400131215E-002  0.21480175226777160        0.0000000000000000     
  -8.8077044520540548E-002  0.22305300613148435        0.0000000000000000     
  -8.8794140995933635E-002  0.23137746445476781        0.0000000000000000     
  -9.3048966081983445E-002  0.19881730761521260        0.0000000000000000     
  -9.4065297953262447E-002  0.20689679468690575        0.0000000000000000     
  -9.5012764638560662E-002  0.21505095855868780        0.0000000000000000     
  -9.5891366137878062E-002  0.22327979923055860        0.0000000000000000     
  -9.6701102451214660E-002  0.23158331670251822        0.0000000000000000     
 -0.10077208137696449       0.19914983762866034        0.0000000000000000     
 -0.10187597083583841       0.20719929398406964        0.0000000000000000     
 -0.10291155137762144       0.21532831136073247        0.0000000000000000     
 -0.10387882300231352       0.22353688975864872        0.0000000000000000     
 -0.10477778570991468       0.23182502917781853        0.0000000000000000     
 -0.10867712510920681       0.19951644795940188        0.0000000000000000     
 -0.10986588228243348       0.20753120075512124        0.0000000000000000     
 -0.11098664561731351       0.21563381067390555        0.0000000000000000     
 -0.11203941511384688       0.22382427771575472        0.0000000000000000     
 -0.11302419077203361       0.23210260188066878        0.0000000000000000     
  -8.1056901344071522E-002  0.23120747243456732        0.0000000000000000     
  -8.1595040059621191E-002  0.23965452261981335        0.0000000000000000     
  -8.2038071112926353E-002  0.24821860522956915        0.0000000000000000     
  -8.2385994503987064E-002  0.25689972026383467        0.0000000000000000     
  -8.2638810232803284E-002  0.26569786772260989        0.0000000000000000     
  -8.8794140995933635E-002  0.23137746445476781        0.0000000000000000     
  -8.9425759993378359E-002  0.23980166678209572        0.0000000000000000     
  -8.9956086679942759E-002  0.24835215265794156        0.0000000000000000     
  -9.0385121055626794E-002  0.25702892208230532        0.0000000000000000     
  -9.0712863120430462E-002  0.26583197505518713        0.0000000000000000     
  -9.6701102451214660E-002  0.23158331670251822        0.0000000000000000     
  -9.7430896216548477E-002  0.23998846477992589        0.0000000000000000     
  -9.8069670071857518E-002  0.24852219726814087        0.0000000000000000     
  -9.8617424017141797E-002  0.25718451416716309        0.0000000000000000     
  -9.9074158052401273E-002  0.26597541547699272        0.0000000000000000     
 -0.10477778570991468       0.23182502917781853        0.0000000000000000     
 -0.10561044872913151       0.24021491661330394        0.0000000000000000     
 -0.10637882128867063       0.24872873906016710        0.0000000000000000     
 -0.10708290338853209       0.25736649651840793        0.0000000000000000     
 -0.10772269502871580       0.26612818898802637        0.0000000000000000     
 -0.11302419077203361       0.23210260188066878        0.0000000000000000     
 -0.11396441753112745       0.24048102228222989        0.0000000000000000     
 -0.11488354033038212       0.24897177803402018        0.0000000000000000     
 -0.11578155916979763       0.25757486913603972        0.0000000000000000     
 -0.11665847404937399       0.26629029558828837        0.0000000000000000     
  -8.2638810232803284E-002  0.26569786772260989        0.0000000000000000     
  -8.2835904357009715E-002  0.27463898529580577        0.0000000000000000     
  -8.3016662934241064E-002  0.28374901067333325        0.0000000000000000     
  -8.3181085964497331E-002  0.29302794385519215        0.0000000000000000     
  -8.3329173447778487E-002  0.30247578484138266        0.0000000000000000     
  -9.0712863120430462E-002  0.26583197505518713        0.0000000000000000     
  -9.0969865859450161E-002  0.27482351647251496        0.0000000000000000     
  -9.1186682257782314E-002  0.28406575123021671        0.0000000000000000     
  -9.1363312315426923E-002  0.29355867932829249        0.0000000000000000     
  -9.1499756032383958E-002  0.30330230076674225        0.0000000000000000     
  -9.9074158052401273E-002  0.26597541547699272        0.0000000000000000     
  -9.9451210054165740E-002  0.27499265487345792        0.0000000000000000     
  -9.9759917898964795E-002  0.28433398603238735        0.0000000000000000     
 -0.10000028158679848       0.29399940895378096        0.0000000000000000     
 -0.10017230111766683       0.30398892363763874        0.0000000000000000     
 -0.10772269502871580       0.26612818898802637        0.0000000000000000     
 -0.10827993694115641       0.27514640049863476        0.0000000000000000     
 -0.10873636985778849       0.28455371507984517        0.0000000000000000     
 -0.10909199377861206       0.29435013273165767        0.0000000000000000     
 -0.10934680870362708       0.30453565345407213        0.0000000000000000     
 -0.11665847404937399       0.26629029558828837        0.0000000000000000     
 -0.11745604652042224       0.27528475334804542        0.0000000000000000     
 -0.11811603813425343       0.28472493837259016        0.0000000000000000     
 -0.11863844889086761       0.29461085066192250        0.0000000000000000     
 -0.11902327879026472       0.30494249021604247        0.0000000000000000     
 </DataArray>
 <DataArray  type="Float64" Name="stress" NumberOfComponents="3" format="ascii">
   5204577395.0135193       -484595437.21888471       -259185692.21084443     
   5368946593.9245911       -112415015.61745381       -47861235.438829437     
   5495813172.1243277        134756670.27952480        100626550.26932010     
   5585177129.6127224        256919620.47204494        186277664.91360673     
   5637038466.3897858        254073834.96012402        209092108.49403557     
   5328830728.0219374       -243287906.25831723        45766087.583432034     
   5311048756.4986773       -31523244.633889198        168990697.55113402     
   5270115869.0932083        103071697.38315821        251954715.16638973     
   5206032065.8055229        160496919.79282808        294658140.42917365     
   5118797346.6356277        140752422.59512067        297100973.33949971     
   5270207899.6576519       -56843223.709567547        301665113.08122271     
   5134777839.7326641        13856602.547646284        353533531.87859595     
   4990548568.7545671        55225725.294532061        387717437.03491533     
   4837520086.7233944        67264144.531126261        404216828.55017596     
   4675692393.6391163        49971860.257400751        403031706.42437631     
   5028708909.9206877        74738610.427381992        508511384.28253073     
   4840133843.6265373        23724525.927140474        505767267.54354286     
   4657111271.1084137       -8781245.9863395691        507914715.87490618     
   4479641192.3663187       -22778705.313056707        514953729.27661413     
   4307723607.4002514       -18267852.053013086        526884307.74867064     
   4604333758.8110371        151457596.15252542        666304901.18734789     
   4427116768.1803083       -1919474.4953880310        625691904.54597569     
   4269803976.1547365       -88949216.459467649        612546551.68635809     
   4132395382.7343049       -109631629.73972154        626868842.60849190     
   4014890987.9190283       -63966714.336141348        668658777.31237066     
   5637038466.3897858        254073834.96012402        209092108.49403557     
   5415717333.7213802        135585257.62939453        126706505.84947805     
   5209686920.0158310        68065743.508181095        70714274.167433128     
   5018947225.2731581        51515292.596569061        41115413.447891206     
   4843498249.4933462        85933904.894474268        37909923.690845251     
   5118797346.6356277        140752422.59512067        297100973.33949971     
   4972302272.3475294        83034321.504767895        251043721.30252469     
   4835642401.3984585        58100231.544500828        222127648.69396281     
   4708817733.7884092        65950152.714307547        210352755.51382339     
   4591828269.5173807        106584085.01418900        215719041.76210415     
   4675692393.6391163        49971860.257400751        403031706.42437631     
   4577588544.7768183        45093785.521109581        386938036.76715100     
   4483864383.6296930        54814669.835401773        378733355.00426400     
   4394519910.1977491        79134513.200285435        378417661.13571924     
   4309555124.4809809        118053315.61576653        385990955.16150516     
   4307723607.4002514       -18267852.053013086        526884307.74867064     
   4231576151.0092278        21763649.678377390        534389452.24337792     
   4154352866.7095380        58209058.380872488        540531393.09834254     
   4076053754.5011802        91068374.054490805        545310130.31356764     
   3996678814.3841629        120341596.69922209        548725663.88904572     
   4014890987.9190283       -63966714.336141348        668658777.31237066     
   3934265091.0447636        13043913.976578474        693397967.73119819     
   3847107850.6379938        68283397.180949450        707521762.97619641     
   3753419266.6987057        101751735.27691555        711030163.04737556     
   3653199339.2269149        113448928.26454520        703923167.94472206     
   4843498249.4933462        85933904.894474268        37909923.690845251     
   4449831317.1307945        72791215.464408875        20383175.511441164     
   4052678557.1769152        48029100.729910851        5968493.8554793727     
   3652039969.6317043        11647560.690978527       -5334121.2770362776     
   3247915554.4951682       -36353404.652373075       -13524669.886114756     
   4591828269.5173807        106584085.01418900        215719041.76210415     
   4205680440.3170214        77232400.673378706        185499938.86341658     
   3816793161.2972713        38749216.934594870        161693232.23777083     
   3425166432.4581299       -8865466.2021667957        144298921.88515121     
   3030800253.7995911       -65611648.736902475        133317007.80555481     
   4309555124.4809809        118053315.61576653        385990955.16150516     
   3940355912.0130591        75321490.435282946        343950271.61080790     
   3569163627.4976788        25946091.763280869        311622314.08271962     
   3195978270.9348369       -30072880.400260806        289007082.57724065     
   2820799842.3245564       -92735426.055275321        276104577.09438860     
   3996678814.3841629        120341596.69922209        548725663.88904572     
   3653857732.2189088        67058484.750121832        495734173.75358790     
   3309789955.7781444        9619725.2159810066        455755739.39032590     
   2964475485.0618591       -51974681.903217077        428790360.79926157     
   2617914320.0700598       -117724736.60747695        414838037.98039752     
   3653199339.2269149        113448928.26454520        703923167.94472206     
   3346185900.9345813        52443383.617924213        640851645.29176140     
   3038672146.1386690       -10229882.707290292        594093508.16058731     
   2730658074.8391738       -74570870.711111188        563648756.55119944     
   2422143687.0361023       -140579580.39353025        549517390.46359241     
   3247915554.4951682       -36353404.652373075       -13524669.886114756     
   3253537724.7725310        24063534.751751900        10476757.360212440     
   3253081280.3049855        64218425.006192923        32194019.068837453     
   3246546221.0924921        84111266.110796452        51627115.239765406     
   3233932547.1350732        83742058.065661311        68776045.872988626     
   3030800253.7995911       -65611648.736902475        133317007.80555481     
   3027671324.2526307       -14695206.051352739        154141311.64022854     
   3020880603.0878081        24015264.574650884        172710588.08279514     
   3010428090.3051128        50519763.141068816        189024837.13324693     
   2996313785.9045506        64818289.647941947        203084058.79159933     
   2820799842.3245564       -92735426.055275321        276104577.09438860     
   2809003064.7978187       -51294504.534950852        296571384.49897897     
   2795961318.7802835       -14003477.983968973        314812302.65706563     
   2781674604.2719193        19137653.597603440        330827331.56863064     
   2766142921.2727580        48128890.209835052        344616471.23368686     
   2617914320.0700598       -117724736.60747695        414838037.98039752     
   2597532946.4080944       -85734360.699019194        437766975.93648988     
   2578323427.3823843       -49837802.669714212        458499162.79165220     
   2560285762.9929228       -10035062.519586325        477034598.54589593     
   2543419953.2397027        33673859.751359224        493373283.19921434     
   2422143687.0361023       -140579580.39353025        549517390.46359241     
   2393260969.0834599       -118014774.54356074        577728085.95273936     
   2367966928.8941240       -83487709.482562900        603771168.48656309     
   2346261566.4680967       -36998385.210546613        627646638.06504190     
   2328144881.8053794        21453198.272503138        649354494.68820012     
   3233932547.1350732        83742058.065661311        68776045.872988626     
   2999012540.1368151        18277100.401442885        36093301.326313764     
   2771223554.6701355       -23417785.490859389        10636844.696466384     
   2550565590.7350955       -41342599.611016393       -7593324.0165804159     
   2337038648.3316598       -35497341.959171295       -18597204.812807422     
   2996313785.9045506        64818289.647941947        203084058.79159933     
   2785345321.6318569        21443395.673407316        179272732.84623966     
   2578950403.3596110       -6686344.9663013220        161561675.61380702     
   2377129031.0878186       -19570932.271157861        149950887.09429115     
   2179881204.8164654       -17210366.241219401        144440367.28769466     
   2766142921.2727580        48128890.209835052        344616471.23368686     
   2575908802.0002375        25878900.607423306        326692842.43660742     
   2387690753.1969962        10349145.902614832        313743463.14856678     
   2201488774.8630514        1539626.0954530239        305768333.36955309     
   2017302866.9983811       -549658.81412124634        302767453.09956974     
   2543419953.2397027        33673859.751359224        493373283.19921434     
   2370702981.2419362        31583615.203409791        478353630.09740531     
   2197444604.1823030        27688687.115901589        467182207.30074143     
   2023644822.0607853        21989075.488781214        459859014.80920476     
   1849303634.8773966        14484780.322086811        456384052.62281024     
   2328144881.8053794        21453198.272503138        649354494.68820012     
   2169727859.3569708        38557539.461417079        634255095.82863677     
   2008211956.3155284        45332278.673561811        621877908.07031822     
   1843597172.6810455        41777415.908890247        612222931.41325426     
   1675883508.4535267        27892951.167442739        605290165.85742366     
   2337038648.3316598       -35497341.959171295       -18597204.812807422     
   2217024209.2066021       -384910.86151576042       -15396457.843550252     
   2090678807.3162744        13624311.018571734       -12339329.616089651     
   1958002442.6607058        6530323.6811853647       -9425820.1304422766     
   1818995115.2398646       -21666872.873766303       -6655929.3865889106     
   2179881204.8164654       -17210366.241219401        144440367.28769466     
   2056244228.3698850        7843444.6550875902        139528394.49139071     
   1928435897.0781760        18992739.400966763        134294693.31294614     
   1796456210.9413614        16237517.996492624        128739263.75236924     
   1660305169.9594214       -422219.55839860439        122862105.80964531     
   2017302866.9983811       -549658.81412124634        302767453.09956974     
   1889534468.5436072        14292866.474823117        292262303.11119980     
   1759754323.1638517        22429568.680497050        281257315.10035533     
   1627962430.8591242        23860447.802919567        269752489.06704414     
   1494158791.6294241        18585503.842116177        257747825.01126364     
   1849303634.8773966        14484780.322086811        456384052.62281024     
   1716894929.7277706        18963354.597677350        442805268.01586735     
   1584634085.5733030        23934798.857145190        428548535.74613130     
   1452521102.4140153        29399113.100531220        413613855.81357557     
   1320555980.2498755        35356297.327765644        398001228.21823591     
   1675883508.4535267        27892951.167442739        605290165.85742366     
   1538325611.9223711        21854909.023662806        591157289.20540428     
   1403075184.3065405        23508429.930950761        576168355.25025952     
   1270132225.6060038        32853513.889214158        560323363.99198806     
   1139496735.8207836        49890160.898545444        543622315.43058085     
   1818995115.2398646       -21666872.873766303       -6655929.3865889106     
   1780525719.6609416       -14832849.834722757       -4865627.2897407152     
   1751598170.3910558        23807327.567802072       -41043343.312269650     
   1732212467.4302561        94253659.333929121       -115189077.45418084     
   1722368610.7784715        196506145.46345061       -227302829.71543840     
   1660305169.9594214       -422219.55839860439        122862105.80964531     
   1533118234.3129091       -12919731.342815518        136685008.93279687     
   1411073858.4586682       -8275377.1530059576        124692792.00567874     
   1294172042.3966632        13510843.010939360        86885455.028279379     
   1182412786.1269593        52438929.149200022        23262998.000584699     
   1494158791.6294241        18585503.842116177        257747825.01126364     
   1312976881.8270235       -2826772.9922509789        278470828.22446537     
   1132538245.3000920       -21761472.241723835        285531609.45647031     
   952842882.04864180       -38218593.906259000        278930168.70730525     
   773890792.07264447       -52198137.985944629        258666505.97694466     
   1320555980.2498755        35356297.327765644        398001228.21823591     
   1120101662.2032719        15446025.216933846        420491830.58523345     
   915991330.91534793       -16650957.698278785        441473109.04012942     
   708224986.38611758       -60934651.417868108        460945063.58293301     
   496802628.61554772       -117405055.94189727        478907694.21364278     
   1139496735.8207836        49890160.898545444        543622315.43058085     
   954492575.44167244        41898663.284797609        562748016.01510298     
   761433115.30444598        7056166.4773272574        592517290.75663173     
   560318355.40910745       -54637329.523847550        632930139.65515339     
   351148295.75566602       -143181824.71869874        683986562.71068025     
   1722368610.7784715        196506145.46345061       -227302829.71543840     
   1454948790.7351625        185624231.18297243       -97831039.824791685     
   1154342105.8821526        64119434.203469157        60385640.700079724     
   820548556.21948135       -168008245.47489905        247347211.85917071     
   453568141.74709296       -510758807.85231376        463053673.65248638     
   1182412786.1269593        52438929.149200022        23262998.000584699     
   976926895.48043954        12663532.960783124        155331553.85421848     
   732945373.38433838       -155430634.72623897        312964429.81915653     
   450468219.83867645       -451843573.91181332        496161625.89536172     
   129495434.84341609       -876575284.59603810        704923142.08287883     
   773890792.07264447       -52198137.985944629        258666505.97694466     
   621251486.47168958       -123593219.38762760        387138266.71369910     
   424807782.78126836       -341002961.08755374        537993777.03881180     
   184559681.00136906       -704427363.08570600        711233036.95227885     
  -99492818.867978752       -1213866425.3820775        906856046.45411944     
   496802628.61554772       -117405055.94189727        478907694.21364278     
   387922563.70892370       -223146025.86223644        597589098.75364697     
   229929334.07294214       -492597544.88045716        735473682.35906625     
   22822939.707609594       -925759612.99650705        892561445.02993226     
  -233396619.38708431       -1522632230.2104170        1068852386.7662225     
   351148295.75566602       -143181824.71869874        683986562.71068025     
   276940127.19214338       -285994886.46306288        786684049.97405899     
   148310027.25938532       -610214386.10488975        905404145.77992678     
  -34742004.042637110       -1115840323.6442475        1040146850.1283019     
  -272215966.71389133       -1802872699.0810671        1190912163.0191865     
   4604333758.8110371        151457596.15252542        666304901.18734789     
   4427116768.1803083       -1919474.4953880310        625691904.54597569     
   4269803976.1547365       -88949216.459467649        612546551.68635809     
   4132395382.7343049       -109631629.73972154        626868842.60849190     
   4014890987.9190283       -63966714.336141348        668658777.31237066     
   4074775200.0010982        25554185.682140589        728661742.21251762     
   3989336549.0165672       -11826634.239889860        728344218.20827925     
   3911409551.5772963       -24168609.011064768        744389407.67493224     
   3840994207.6832743       -11471738.631400347        776797310.61247480     
   3778090517.3345098        26263976.899117231        825567927.02090693     
   3630517662.2525787       -74758918.469820023        832271702.02211964     
   3605128978.5975008       -5661999.3609871864        857791681.41847575     
   3574859403.4277825        47165281.365710497        888569443.97485566     
   3539708936.7434268        83722923.710278988        924604989.69126761     
   3499677578.5444231        104010927.67270172        965898318.56770599     
   3271561145.5654774       -149481716.30335593        977134780.61616480     
   3274494056.9231014        16574430.141315103        1014034294.1765639     
   3260153531.7061915        125052454.67087066        1045086660.5861312     
   3228539569.9147444        175952357.28530502        1070291879.8448626     
   3179652171.5487618        169274137.98461688        1089649951.9527633     
   2997905649.9397974       -198614207.81846201        1163250977.9946415     
   2997431783.9933743        54882654.267019629        1197072056.4825442     
   2967291936.4125223        209492910.90440309        1213941057.5087504     
   2907486107.1972432        265216562.09369075        1213857981.0732598     
   2818014296.3475275        222053607.83485723        1196822827.1760745     
   4014890987.9190283       -63966714.336141348        668658777.31237066     
   3934265091.0447636        13043913.976578474        693397967.73119819     
   3847107850.6379938        68283397.180949450        707521762.97619641     
   3753419266.6987057        101751735.27691555        711030163.04737556     
   3653199339.2269149        113448928.26454520        703923167.94472206     
   3778090517.3345098        26263976.899117231        825567927.02090693     
   3662402472.7422428        55415183.122710466        832991968.09042346     
   3543983519.8571138        75463361.703428507        835105003.49432802     
   3422833658.6791229        86408512.641265631        831907033.23262429     
   3298952889.2082653        88250635.936233282        823398057.30531216     
   3499677578.5444231        104010927.67270172        965898318.56770599     
   3364082784.8290539        89849331.385634661        960441051.40083170     
   3229557518.0604696        79252824.921188831        954977168.07656193     
   3096101778.2386675        72221408.279344201        949506668.59490061     
   2963715565.3636522        68755081.460127354        944029552.95584643     
   3179652171.5487618        169274137.98461688        1089649951.9527633     
   3039306027.3051906        116346358.76535499        1075745217.6624205     
   2903829845.2480512        79651786.834203243        1067138256.7229023     
   2773223625.3773499        59190422.191170812        1063829069.1341999     
   2647487367.6930742        54962264.836234331        1065817654.8963294     
   2818014296.3475275        222053607.83485723        1196822827.1760745     
   2688072200.1706576        134906265.26188135        1178904466.8751884     
   2566800501.4198718        76660247.442509532        1171588269.4333415     
   2454199200.0951624        47315554.376730442        1174874234.8505297     
   2350268296.1965337        46872186.064556003        1188762363.1267600     
   3653199339.2269149        113448928.26454520        703923167.94472206     
   3346185900.9345813        52443383.617924213        640851645.29176140     
   3038672146.1386690       -10229882.707290292        594093508.16058731     
   2730658074.8391738       -74570870.711111188        563648756.55119944     
   2422143687.0361023       -140579580.39353025        549517390.46359241     
   3298952889.2082653        88250635.936233282        823398057.30531216     
   3036120056.7959590        43423749.058545589        765176605.39643800     
   2772732380.1774826       -3252618.5063884258        720893313.00374043     
   2508789859.3528280       -51778466.758573890        690548180.12722623     
   2244292494.3219976       -102153795.69801569        674141206.76688039     
   2963715565.3636522        68755081.460127354        944029552.95584643     
   2738276978.8153586        38070944.346572042        890594556.13803327     
   2512229020.3582978        5355567.5371168852        848722492.83078635     
   2285571689.9924684       -29391048.968240857        818413363.03411603     
   2058304987.7178640       -66168905.169503212        799667166.74801290     
   2647487367.6930742        54962264.836234331        1065817654.8963294     
   2452656666.9927778        36384969.481999993        1017105497.5165439     
   2257162066.6811185        15594675.423217416        977581047.64172375     
   2061003566.7580910       -7408617.3401229382        947244305.27186799     
   1864181167.2236998       -32624908.808009863        926095270.40697968     
   2350268296.1965337        46872186.064556003        1188762363.1267600     
   2179259121.3282175        38365824.464842677        1144709429.5319717     
   2007531519.1459417        27464705.151927114        1107468977.4365497     
   1835085489.6497030        14168828.125806212        1077041006.8404884     
   1661921032.8395057       -1521806.6135156155        1053425517.7437792     
   2422143687.0361023       -140579580.39353025        549517390.46359241     
   2393260969.0834599       -118014774.54356074        577728085.95273936     
   2367966928.8941240       -83487709.482562900        603771168.48656309     
   2346261566.4680967       -36998385.210546613        627646638.06504190     
   2328144881.8053794        21453198.272503138        649354494.68820012     
   2244292494.3219976       -102153795.69801569        674141206.76688039     
   2210441750.1194978       -80542386.574725628        703362223.13296902     
   2178987224.9457431       -50943580.688963294        731149308.42988431     
   2149928918.8007274       -13357378.040725231        757502462.65762568     
   2123266831.6844561        32216221.369981766        782421685.81620026     
   2058304987.7178640       -66168905.169503212        799667166.74801290     
   2021582451.2259710       -44882022.584756851        828507302.13403964     
   1986063675.0282550       -19582605.686094999        856647188.33705497     
   1951748659.1247187        9729345.5264978409        884086825.35706449     
   1918637403.5153546        43053831.053006887        910826213.19406354     
   1864181167.2236998       -32624908.808009863        926095270.40697968     
   1826683072.4028802       -11033682.573658705        953163322.95595193     
   1789196279.1416657        10595215.526041031        980264808.20807195     
   1751720787.4400649        32261785.491130829        1007399726.1633486     
   1714256597.2980716        53966027.321571052        1034568076.8217853     
   1661921032.8395057       -1521806.6135156155        1053425517.7437792     
   1625743613.6502192        21002633.458574951        1077330285.5987015     
   1588385037.2859683        39589882.947450340        1102002168.0429401     
   1549845303.7467735        54239941.853173018        1127441165.0764897     
   1510124413.0326152        64952810.175696254        1153647276.6993577     
   2328144881.8053794        21453198.272503138        649354494.68820012     
   2169727859.3569708        38557539.461417079        634255095.82863677     
   2008211956.3155284        45332278.673561811        621877908.07031822     
   1843597172.6810455        41777415.908890247        612222931.41325426     
   1675883508.4535267        27892951.167442739        605290165.85742366     
   2123266831.6844561        32216221.369981766        782421685.81620026     
   1970335415.6729550        40702643.763931990        764891081.73116159     
   1815531047.6558816        42945892.805991292        750846714.29518437     
   1658853727.6332366        38945968.496131897        740288583.50826776     
   1500303455.6050329        28702870.834404647        733216689.37040544     
   1918637403.5153546        43053831.053006887        910826213.19406354     
   1773374524.0773678        43577213.692965686        892294653.90226173     
   1627464621.2212896        41943851.605938077        878013356.80733430     
   1480907694.9471068        38153744.791890860        867982321.90928507     
   1333703745.2548180        32206893.250843465        862201549.20811450     
   1714256597.2980716        53966027.321571052        1034568076.8217853     
   1578845184.5702252        47181249.248537481        1016465812.3419327     
   1444012677.0117426        42326155.073397815        1003377835.6067696     
   1309759074.6226256        39400744.796137631        995304146.61629319     
   1176084377.4028728        38405018.416766584        992244745.37051368     
   1510124413.0326152        64952810.175696254        1153647276.6993577     
   1386747397.1515105        51514750.430631101        1137404557.0501709     
   1265175215.0272481        44092803.208379984        1126940150.6934874     
   1145407866.6598127        42686968.508879960        1122254057.6293058     
   1027445352.0492164        47297246.332176328        1123346277.8576279     
   1675883508.4535267        27892951.167442739        605290165.85742366     
   1538325611.9223711        21854909.023662806        591157289.20540428     
   1403075184.3065405        23508429.930950761        576168355.25025952     
   1270132225.6060038        32853513.889214158        560323363.99198806     
   1139496735.8207836        49890160.898545444        543622315.43058085     
   1500303455.6050329        28702870.834404647        733216689.37040544     
   1362709196.1733494        23422613.697500944        724910929.66770387     
   1226114945.9423282        21475720.562804580        717258382.34305561     
   1090520704.9119587        22862191.430272341        710259047.39647460     
   955926473.08224595        27582026.299945652        703912924.82794559     
   1333703745.2548180        32206893.250843465        862201549.20811450     
   1200385322.0117192        28978080.847543180        858197536.78761554     
   1066759448.2546314        24724433.397598863        856356006.42637432     
   932826123.98354411        19445950.900992751        856676958.12438750     
   798585349.19846535        13142633.357756436        859160391.88164723     
   1176084377.4028728        38405018.416766584        992244745.37051368     
   1051353989.4374900        38521310.473802328        991017110.56513846     
   925008691.24344993        33254568.435334891        993461227.50021291     
   797048482.82078350        22604792.301429361        999577096.17573512     
   667473364.16945815        6571982.0720074773        1009364716.5917031     
   1027445352.0492164        47297246.332176328        1123346277.8576279     
   915615198.45066345        52052302.576302290        1123369651.0002849     
   800862674.90880728        47066125.676075786        1128574045.5645773     
   683187781.42365599        32338715.631536841        1138959461.5505109     
   562590517.99520934        7870072.4426794052        1154525898.9580860     
   1139496735.8207836        49890160.898545444        543622315.43058085     
   954492575.44167244        41898663.284797609        562748016.01510298     
   761433115.30444598        7056166.4773272574        592517290.75663173     
   560318355.40910745       -54637329.523847550        632930139.65515339     
   351148295.75566602       -143181824.71869874        683986562.71068025     
   955926473.08224595        27582026.299945652        703912924.82794559     
   795562165.84745288        12467366.411813796        721936574.63780987     
   626217538.11335015       -32581695.140675217        749914190.15732050     
   447892589.87994999       -107565158.35749611        787845771.38646817     
   260587321.14724439       -212483023.23866281        835731318.32525694     
   798585349.19846535        13142633.357756436        859160391.88164723     
   660890585.25841010       -9686281.7596136630        875002800.05212319     
   513290480.07785606       -65533001.011991322        900109565.48488021     
   355785033.65680099       -154397524.39935559        934480688.17993152     
   188374245.99525321       -276279851.92171776        978116168.13726807     
   667473364.16945815        6571982.0720074773        1009364716.5917031     
   550477833.67455900       -24562281.229481846        1021946692.2580512     
   422651941.19796890       -91797751.136608332        1043103416.7393323     
   283995686.73967290       -195134427.64941531        1072834890.0355523     
   134509070.29969656       -334572310.76784563        1111141112.1467052     
   562590517.99520934        7870072.4426794052        1154525898.9580860     
   464323911.09588343       -32160631.997804165        1162768251.2555842     
   354301921.47366583       -111375945.51459335        1178895743.9206719     
   232524549.12856835       -229775868.10764891        1202908376.9533339     
   98991794.060575336       -387360399.77702296        1234806150.3535802     
   351148295.75566602       -143181824.71869874        683986562.71068025     
   276940127.19214338       -285994886.46306288        786684049.97405899     
   148310027.25938532       -610214386.10488975        905404145.77992678     
  -34742004.042637110       -1115840323.6442475        1040146850.1283019     
  -272215966.71389133       -1802872699.0810671        1190912163.0191865     
   260587321.14724439       -212483023.23866281        835731318.32525694     
   222353184.43641099       -353037411.90387166        884989034.95291543     
   140116161.59373766       -640268087.67521930        945375242.98341501     
   13876252.619214296       -1074175050.5527420        1016889942.4167569     
  -156366542.48717564       -1654758300.5364647        1099533133.2529399     
   188374245.99525321       -276279851.92171776        978116168.13726807     
   172130949.30951878       -418770525.05602169        986089666.90616918     
   122303811.72932839       -673207334.50517070        1000297539.9382530     
   38892833.254677892       -1039590280.2691826        1020739787.2335241     
  -78101986.114417315       -1517919362.3480492        1047416408.7919586     
   134509070.29969656       -334572310.76784563        1111141112.1467052     
   126273421.81146249       -483194225.91951764        1089985945.8338211     
   94872977.666163564       -709032126.59474540        1070171036.6444429     
   40307737.863807559       -1012086012.7935148        1051696384.5785918     
  -37422297.595615506       -1392355884.5158207        1034561989.6362625     
   98991794.060575336       -387360399.77702296        1234806150.3535802     
   84780601.942245066       -546308514.49436188        1196677871.7358518     
   57823659.404239178       -747742463.94395304        1154995733.1019800     
   18120966.446573853       -991662248.12574768        1109759734.4519672     
  -34327476.930765510       -1278067867.0397780        1060969875.7858230     
   2997905649.9397974       -198614207.81846201        1163250977.9946415     
   2997431783.9933743        54882654.267019629        1197072056.4825442     
   2967291936.4125223        209492910.90440309        1213941057.5087504     
   2907486107.1972432        265216562.09369075        1213857981.0732598     
   2818014296.3475275        222053607.83485723        1196822827.1760745     
   2787162068.4089317       -53333321.283841848        1334373029.2851024     
   2713021571.0285339        66967418.173179269        1319514214.6649163     
   2623390658.9990988        135633442.13343704        1295678404.7022371     
   2518269332.3206425        152664750.59693921        1262865599.3970714     
   2397657590.9931555        118061343.56367338        1221075798.7494102     
   2501200764.0142455        69382248.391635537        1454496717.8347478     
   2376179584.1118703        63322649.893783808        1407496171.5894408     
   2249843556.5458736        52880225.850525856        1359493712.1208501     
   2122192681.3162527        38054976.261854649        1310489339.4289737     
   1993226958.4230089        18846901.127767563        1260483053.5138104     
   2140021736.7557151        169532501.20795870        1523622043.6435668     
   1986905823.2433877        43948349.428846002        1461017927.2561142     
   1846650629.0528402       -38766737.944332242        1405386979.7645783     
   1719256154.1840773       -78612760.911571026        1356729201.1689677     
   1604722398.6370926       -75589719.472872734        1315044591.4692738     
   1703624986.6333561        247117437.16513181        1541749006.7115619     
   1545200288.4230928        8844516.7783662081        1480079481.6649339     
   1413811876.5200117       -139307449.25111711        1433358207.6334314     
   1309459750.9241164       -197338460.92332178        1401585184.6170528     
   1232143911.6354027       -165248518.23824853        1384760412.6157987     
   2818014296.3475275        222053607.83485723        1196822827.1760745     
   2688072200.1706576        134906265.26188135        1178904466.8751884     
   2566800501.4198718        76660247.442509532        1171588269.4333415     
   2454199200.0951624        47315554.376730442        1174874234.8505297     
   2350268296.1965337        46872186.064556003        1188762363.1267600     
   2397657590.9931555        118061343.56367338        1221075798.7494102     
   2308155041.1052642        76244139.291546345        1216182419.6954596     
   2223233089.5999708        49695596.294733644        1221333419.9353416     
   2142891736.4772708        38415714.573234439        1236528799.4690471     
   2067130981.7371714        42404494.127063990        1261768558.2965841     
   1993226958.4230089        18846901.127767563        1260483053.5138104     
   1942570287.4949281        21881734.957723618        1263843223.4894006     
   1892404415.9059558        26552566.584716797        1276689989.1936066     
   1842729343.6561024        32859396.008765340        1299023350.6264327     
   1793545070.7453551        40802223.229840875        1330843307.7878783     
   1604722398.6370926       -75589719.472872734        1315044591.4692738     
   1591317939.3396473       -28180947.739579916        1321886878.2570038     
   1574314480.3378344        7231158.3124796152        1337657977.2081428     
   1553712021.6316481        30646598.683302045        1362357888.3226912     
   1529510563.2210908        42065373.372882426        1395986611.6006501     
   1232143911.6354027       -165248518.23824853        1384760412.6157987     
   1254397996.6394277       -73943908.800361931        1390313383.9982727     
   1268963282.8955948       -8268628.5220070481        1404237383.9789464     
   1275839770.4039147        31777322.596860707        1426532412.5578196     
   1275027459.1643732        46193944.556187928        1457198469.7348905     
   2350268296.1965337        46872186.064556003        1188762363.1267600     
   2179259121.3282175        38365824.464842677        1144709429.5319717     
   2007531519.1459417        27464705.151927114        1107468977.4365497     
   1835085489.6497030        14168828.125806212        1077041006.8404884     
   1661921032.8395057       -1521806.6135156155        1053425517.7437792     
   2067130981.7371714        42404494.127063990        1261768558.2965841     
   1910907445.7313054        28817453.068416834        1219952288.5805438     
   1754430573.1674016        14385956.816309571        1183869570.2113948     
   1597700364.0454636       -889994.62924778461        1153520403.1891425     
   1440716818.3654931       -17010401.268248737        1128904787.5137813     
   1793545070.7453551        40802223.229840875        1330843307.7878783     
   1649024516.0234606        21209705.438698947        1291806307.8324935     
   1504715715.4994583        2323034.9738686085        1257423929.0715406     
   1360618669.1733453       -15857788.164658606        1227696171.5050137     
   1216733377.0451274       -33332763.976879597        1202623035.1329155     
   1529510563.2210908        42065373.372882426        1395986611.6006501     
   1393610332.2046943        15542581.575717270        1360271487.2878375     
   1258386946.1421151       -8724060.3753893971        1328132054.0169933     
   1123840405.0333564       -30734552.480430722        1299568311.7881093     
   989970708.87841392       -50488894.739412069        1274580260.6011820     
   1275027459.1643732        46193944.556187928        1457198469.7348905     
   1144664894.2749963        11816081.479442954        1425347826.9465725     
   1015444265.0953696       -18755329.231468976        1395993945.0477459     
   887365571.62548459       -45520287.576572120        1369136824.0384150     
   760428813.86534643       -68478793.555857539        1344776463.9185810     
   1661921032.8395057       -1521806.6135156155        1053425517.7437792     
   1625743613.6502192        21002633.458574951        1077330285.5987015     
   1588385037.2859683        39589882.947450340        1102002168.0429401     
   1549845303.7467735        54239941.853173018        1127441165.0764897     
   1510124413.0326152        64952810.175696254        1153647276.6993577     
   1440716818.3654931       -17010401.268248737        1128904787.5137813     
   1407115741.0503180        2642135.2915593982        1151373142.5427179     
   1372949232.8356180        20409902.186279595        1175718931.3883305     
   1338217293.7213964        36292899.415930092        1201942154.0506282     
   1302919923.7076492        50291126.980494976        1230042810.5296075     
   1216733377.0451274       -33332763.976879597        1202623035.1329155     
   1188880982.2536836       -15600428.734462917        1224373324.6571989     
   1161078882.8381457        2299557.7609726191        1249111367.2255304     
   1133327078.7985179        20367195.509443283        1276837162.8379102     
   1105625570.1347971        38602484.510934353        1307550711.4943347     
   989970708.87841392       -50488894.739412069        1274580260.6011820     
   971039337.26031148       -33725058.619513273        1296330831.9421539     
   952773987.29354894       -14741150.328478515        1322179475.5545425     
   935174658.97812891        6462830.1336966753        1352126191.4383395     
   918241352.31404841        29886882.767008185        1386170979.5935497     
   760428813.86534643       -68478793.555857539        1344776463.9185810     
   753590806.07020295       -51731754.363581061        1367245664.3975821     
   748034546.20183361       -30712222.082056969        1394923256.3753591     
   743760034.26023555       -5420196.7112957835        1427809239.8519163     
   740767270.24541020        24144321.748708427        1465903614.8272481     
   1510124413.0326152        64952810.175696254        1153647276.6993577     
   1386747397.1515105        51514750.430631101        1137404557.0501709     
   1265175215.0272481        44092803.208379984        1126940150.6934874     
   1145407866.6598127        42686968.508879960        1122254057.6293058     
   1027445352.0492164        47297246.332176328        1123346277.8576279     
   1302919923.7076492        50291126.980494976        1230042810.5296075     
   1196005041.6632288        43368550.326928854        1218669878.8302906     
   1090027754.9519935        39571291.450653315        1212678240.6917315     
   984988063.57395959        38899350.351715863        1212067896.1139243     
   880885967.52911031        41352727.030052871        1216838845.0968647     
   1105625570.1347971        38602484.510934353        1307550711.4943347     
   1014038479.8363322        37855088.321625531        1300035789.5839820     
   922521746.44741809        37342215.164157003        1297505141.5026326     
   831075369.96805120        37063865.038505226        1299958767.2502794     
   739699350.39823711        37020037.944699347        1307396666.8269365     
   918241352.31404841        29886882.767008185        1386170979.5935497     
   840847711.67082059        34974364.414736003        1381502289.3112435     
   762657189.51350975        37405574.348854214        1381420853.1261876     
   683669785.84209359        37180512.569288194        1385926671.0383832     
   603885500.65659511        34299179.076118469        1395019743.0478251     
   740767270.24541020        24144321.748708427        1465903614.8272481     
   676432737.16670442        34726378.606271803        1463069378.0120735     
   610434084.15026784        39761369.004737973        1464425375.5624008     
   542771311.19608688        39249292.944056362        1469971607.4782202     
   473444418.30418348        33190150.424300089        1479708073.7595403     
   1027445352.0492164        47297246.332176328        1123346277.8576279     
   915615198.45066345        52052302.576302290        1123369651.0002849     
   800862674.90880728        47066125.676075786        1128574045.5645773     
   683187781.42365599        32338715.631536841        1138959461.5505109     
   562590517.99520934        7870072.4426794052        1154525898.9580860     
   880885967.52911031        41352727.030052871        1216838845.0968647     
   781924576.24627352        42767967.008974254        1215652464.7879345     
   680324261.19419503        35386794.423761874        1219954837.8229532     
   576085022.37285864        19209209.274350166        1229745964.2019351     
   469206859.78227812       -5764788.4392010272        1245025843.9248757     
   739699350.39823711        37020037.944699347        1307396666.8269365     
   654485955.49490070        35359231.877597988        1305331220.2694602     
   566917082.99636161        25846833.826479942        1309062258.9782655     
   476992732.90261889        8482843.7913570106        1318589782.9533460     
   384712905.21367157       -16732738.227787390        1333913792.1947072     
   603885500.65659511        34299179.076118469        1395019743.0478251     
   533299336.19652897        29826097.182105452        1392405917.4448638     
   460641140.31530178        18446243.884227648        1395896309.0305021     
   385910913.01292580        159619.18251475692        1405490917.8047359     
   309108654.28938258       -25033776.923083484        1421189743.7675765     
   473444418.30418348        33190150.424300089        1479708073.7595403     
   418364718.35115689        26168562.922502741        1476876556.3141465     
   361496433.15102321        13185024.597017974        1480456987.9796717     
   302839562.70378166       -5760464.5521624088        1490449368.7561178     
   242394107.00941965       -30667904.525075093        1506853698.6434870     
   562590517.99520934        7870072.4426794052        1154525898.9580860     
   464323911.09588343       -32160631.997804165        1162768251.2555842     
   354301921.47366583       -111375945.51459335        1178895743.9206719     
   232524549.12856835       -229775868.10764891        1202908376.9533339     
   98991794.060575336       -387360399.77702296        1234806150.3535802     
   469206859.78227812       -5764788.4392010272        1245025843.9248757     
   391022853.15973204       -41297266.119967282        1243009750.6219339     
   302840368.04866314       -110158005.42913158        1247518618.6813054     
   204659404.44907165       -212347006.36671305        1258552448.1029837     
   96479962.360956475       -347864268.93270117        1276111238.8869832     
   384712905.21367157       -16732738.227787390        1333913792.1947072     
   322725273.13856173       -48932856.867642730        1323688974.8980823     
   252496066.80930048       -108604889.68800275        1318628939.9585037     
   174025286.22588056       -195748836.68889174        1318733687.3759668     
   87312931.388303295       -310364697.87029976        1324003217.1504722     
   309108654.28938258       -25033776.923083484        1421189743.7675765     
   259431171.03237912       -55067404.240808532        1404805924.0840309     
   203269017.75558451       -106716598.29117078        1392226707.7522573     
   140622194.45899421       -179981359.07418257        1383452094.7722614     
   71490701.142623499       -274861686.58980125        1378482085.1440427     
   242394107.00941965       -30667904.525075093        1506853698.6434870     
   201140546.84117520       -59700908.239497393        1486360598.1797717     
   155159220.88751566       -104493131.23863965        1468311922.0625668     
   104450129.14842427       -165044573.52255893        1452707670.2918766     
   49013271.623910859       -241355235.09121269        1439547842.8676901     
   98991794.060575336       -387360399.77702296        1234806150.3535802     
   84780601.942245066       -546308514.49436188        1196677871.7358518     
   57823659.404239178       -747742463.94395304        1154995733.1019800     
   18120966.446573853       -991662248.12574768        1109759734.4519672     
  -34327476.930765510       -1278067867.0397780        1060969875.7858230     
   96479962.360956475       -347864268.93270117        1276111238.8869832     
   79679407.815688550       -488546307.66141242        1221971222.3047056     
   51397040.049802274       -667501057.12552106        1165178000.1820040     
   11632859.063259780       -884728517.32515180        1105731572.5188890     
  -39613135.143919528       -1140228688.2602384        1043631939.3153455     
   87312931.388303295       -310364697.87029976        1324003217.1504722     
   70496312.918166339       -432008671.05970609        1255326056.0025144     
   43461818.426410884       -587712230.98782969        1184896343.7898448     
   6209447.9130486846       -777475377.65464520        1112714080.5124741     
  -41260798.621923864       -1001298111.0601674        1038779266.1703950     
   71490701.142623499       -274861686.58980125        1378482085.1440427     
   57231317.249648005       -376695604.68932188        1296742372.8292654     
   34017994.534082383       -508375985.53081238        1214150763.9255049     
   1850732.9959420562       -669902829.11421704        1130707258.4327488     
  -39270467.364773005       -861276135.43954301        1046411856.3510112     
   49013271.623910859       -241355235.09121269        1439547842.8676901     
   39884420.810144529       -322607108.55023992        1346220172.7849646     
   23065568.372828186       -429492320.75443935        1252941260.5889723     
  -1443285.6880391836       -562010871.70381308        1159711106.2796991     
  -33642141.372466266       -720162761.39837193        1066529709.8571618     
   1703624986.6333561        247117437.16513181        1541749006.7115619     
   1545200288.4230928        8844516.7783662081        1480079481.6649339     
   1413811876.5200117       -139307449.25111711        1433358207.6334314     
   1309459750.9241164       -197338460.92332178        1401585184.6170528     
   1232143911.6354027       -165248518.23824853        1384760412.6157987     
   1206407878.3917041        163944957.67772913        1473178765.6256025     
   1101707265.0569992       -10524427.057534218        1454100876.4002993     
   1017283873.6087850       -117403072.17115957        1446677062.4522583     
   953137704.04706693       -156690977.66312993        1450907323.7814848     
   909268756.37184095       -128388143.53346276        1466791660.3879797     
   756731276.56130767        95034630.113699824        1426892200.6525478     
   696342817.42256594       -18454798.173938185        1442520372.0910928     
   649472515.74962568       -86883701.575571001        1466508443.0690436     
   616120371.54248643       -110252080.09119937        1498856413.5864043     
   596286384.80115175       -88559933.720812052        1539564283.6431684     
   354595181.14217210        40386454.473048761        1402889311.7923954     
   329106945.51979530       -14946596.570845872        1445337968.7373176     
   310377802.94253051       -47749337.464366913        1492852349.4837880     
   298407753.41037649       -58021768.207518309        1545432454.0318072     
   293196796.92333269       -45763888.800303534        1603078282.3813753     
  -407.86570531226880        430.75577848251407        1401170099.0451488     
  -350.65131119240186        177.75175402092214        1462553666.3389742     
  -264.81250049924046        20.162455633648037        1525708781.6964915     
  -150.34926842893492       -42.012107952314672        1590635445.1176949     
  -7.2616143409720308       -8.7719300916406713        1657333656.6025903     
   1232143911.6354027       -165248518.23824853        1384760412.6157987     
   1254397996.6394277       -73943908.800361931        1390313383.9982727     
   1268963282.8955948       -8268628.5220070481        1404237383.9789464     
   1275839770.4039147        31777322.596860707        1426532412.5578196     
   1275027459.1643732        46193944.556187928        1457198469.7348905     
   909268756.37184095       -128388143.53346276        1466791660.3879797     
   942838731.43465638       -54845856.182694316        1465988858.9221361     
   970642106.41296792       -525569.11360597610        1469618557.0772653     
   992678881.30678248        34572717.673823595        1477680754.8533671     
   1008949056.1160885        50449004.179560006        1490175452.2504435     
   596286384.80115175       -88559933.720812052        1539564283.6431684     
   629919309.98782516       -36155850.437636405        1534648274.4362543     
   659707833.75334656        3433561.4416972101        1530226235.8730845     
   685651956.09772110        30208301.917207718        1526298167.9536631     
   707751677.02093971        44168370.988867790        1522864070.6779876     
   293196796.92333269       -45763888.800303534        1603078282.3813753     
   315639732.29893017       -17873891.565203413        1596291630.5406282     
   336160464.91673052        3608763.1439034343        1586060420.3664033     
   354758994.77673030        18684075.327009693        1572384651.8586977     
   371435321.87893063        27352044.984116673        1555264325.0175130     
  -7.2616143409720308       -8.7719300916406713        1657333656.6025903     
  -1.6320246893835124        20.434616613298459        1650918927.2352576     
  -9.6882186339342979E-002   35.993006503367781        1637121110.5572217     
  -2.6561879527377705        37.903236536129207        1615940206.5684798     
  -9.3099398154087272        26.165310486035999        1587376215.2690289     
   1275027459.1643732        46193944.556187928        1457198469.7348905     
   1144664894.2749963        11816081.479442954        1425347826.9465725     
   1015444265.0953696       -18755329.231468976        1395993945.0477459     
   887365571.62548459       -45520287.576572120        1369136824.0384150     
   760428813.86534643       -68478793.555857539        1344776463.9185810     
   1008949056.1160885        50449004.179560006        1490175452.2504435     
   891791920.35174918        18850039.785378993        1449460502.2435546     
   775491236.71949220       -9894084.1685275435        1415765529.4396794     
   660047005.21932244       -35783367.682144910        1389090533.8388295     
   545459225.85123622       -58817810.755480856        1369435515.4409916     
   707751677.02093971        44168370.988867790        1522864070.6779876     
   616723445.56313169        19225347.831687391        1472951749.2785854     
   526266182.65974933       -3814446.8107419908        1434582621.3957281     
   436379888.31079090       -24951012.938425153        1407756687.0294123     
   347064562.51625514       -44184350.551362097        1392473946.1796408     
   371435321.87893063        27352044.984116673        1555264325.0175130     
   319459469.90915227        12942005.618393824        1495821568.0516648     
   267769102.91613692       -516417.15812084079        1452445220.9158850     
   216364220.89988652       -13023223.345418930        1425135283.6101682     
   165244823.86039847       -24578412.943507679        1413891756.1345232     
  -9.3099398154087272        26.165310486035999        1587376215.2690289     
  -6.6101915607852400        13.145490945776219        1518069958.5627954     
  -2.5113413180512687        4.7893446992180468        1469353328.0001526     
   2.9866129029594584        1.0968783802490645        1441226323.5811026     
   9.8836689748278221        2.0680848974722048        1433688945.3056412     
   760428813.86534643       -68478793.555857539        1344776463.9185810     
   753590806.07020295       -51731754.363581061        1367245664.3975821     
   748034546.20183361       -30712222.082056969        1394923256.3753591     
   743760034.26023555       -5420196.7112957835        1427809239.8519163     
   740767270.24541020        24144321.748708427        1465903614.8272481     
   545459225.85123622       -58817810.755480856        1369435515.4409916     
   549047440.83380759       -43642514.930419683        1397997439.7267423     
   553596966.71277761       -25262849.450698853        1429733853.8890035     
   559107803.48814225       -3678814.3163287938        1464644757.9277737     
   565579951.15990245        21109590.472691685        1502730151.8430655     
   347064562.51625514       -44184350.551362097        1392473946.1796408     
   355267852.78436077       -32324142.341172099        1426754751.0700264     
   364112016.91848826       -18327687.910911590        1462176144.2146616     
   373597054.91863048       -2194987.2606008798        1498738125.6135478     
   383722966.78479654        16073959.609792143        1536440695.2666895     
   165244823.86039847       -24578412.943507679        1413891756.1345232     
   172252041.92186090       -17776636.595837906        1453517598.4274409     
   179579696.81896612       -9906737.4626904130        1492250127.3523450     
   187227788.55171216       -968715.54407485574        1530089342.9092386     
   195196317.12009981        9037429.1600136906        1567035245.0981224     
   9.8836689748278221        2.0680848974722048        1433688945.3056412     
   8.2463076660195540        2.3055802688266436        1478285981.7989824     
   6.4142105546363704        1.8939590738222554        1519955803.3020504     
   4.3873731570852863       0.83320289770214206        1558698409.8148408     
   2.1658092901528452      -0.87664289746794444        1594513801.3373606     
   740767270.24541020        24144321.748708427        1465903614.8272481     
   676432737.16670442        34726378.606271803        1463069378.0120735     
   610434084.15026784        39761369.004737973        1464425375.5624008     
   542771311.19608688        39249292.944056362        1469971607.4782202     
   473444418.30418348        33190150.424300089        1479708073.7595403     
   565579951.15990245        21109590.472691685        1502730151.8430655     
   512398272.52798694        27566899.201240867        1496438000.6127107     
   457968503.98688412        29863908.232491732        1495486598.7749307     
   402290645.53660893        28000617.566507056        1499875946.3297234     
   345364697.17715311        21977027.203249395        1509606043.2771063     
   383722966.78479654        16073959.609792143        1536440695.2666895     
   344981328.39132488        19392675.946799889        1527175997.9877927     
   305407630.11722821        19937859.348390430        1524402565.1285563     
   265001871.96250105        17709509.814545467        1528120396.6889751     
   223764053.92715141        12707627.345293999        1538329492.6690481     
   195196317.12009981        9037429.1600136906        1567035245.0981224     
   174181904.75672844        10203708.842985302        1555283370.1373355     
   152751462.54128808        9983222.3523905724        1551173274.6232860     
   130904990.47377232        8375969.6882125884        1554704958.5559669     
   108642488.55418044        5381950.8504478261        1565878421.9353926     
   2.1658092901528452      -0.87664289746794444        1594513801.3373606     
   1.6242025124114274       -2.1101881688909478        1580760117.0613246     
   1.2590691767566056       -2.7554879394692438        1575798727.2591052     
   1.0704170608496770       -2.8125169775545604        1579629631.9307022     
   1.0582468052039258       -2.2812738419920100        1592252831.0761156     
   473444418.30418348        33190150.424300089        1479708073.7595403     
   418364718.35115689        26168562.922502741        1476876556.3141465     
   361496433.15102321        13185024.597017974        1480456987.9796717     
   302839562.70378166       -5760464.5521624088        1490449368.7561178     
   242394107.00941965       -30667904.525075093        1506853698.6434870     
   345364697.17715311        21977027.203249395        1509606043.2771063     
   306880000.64196527        17558360.268366814        1506886763.1571140     
   267053865.14636266        8668230.1321028918        1509920247.1937149     
   225886290.69034153       -4693363.2055580020        1518706495.3869095     
   183377277.27390617       -22526419.744594246        1533245507.7366951     
   223764053.92715141        12707627.345293999        1538329492.6690481     
   199990975.22600657        10326865.302185759        1536244120.5422754     
   175323603.85114333        4965127.6800127178        1539252327.6177645     
   149761939.80255949       -3377585.5212297216        1547354113.8955185     
   123305983.08024871       -14701274.301559940        1560549479.3755338     
   108642488.55418044        5381950.8504478261        1565878421.9353926     
   97697642.103292018        4474078.0239954330        1564948628.4696403     
   86305649.265375540        2075717.2407817245        1568453229.2518277     
   74466510.040418193       -1813131.4992357716        1576392224.2819464     
   62180224.428447671       -7192468.1959637031        1588765613.5600038     
   1.0582468052039258       -2.2812738419920100        1592252831.0761156     
   1.2738068841480674       -1.5662527136056954        1593000286.9392014     
   1.3890384264049069       -1.1856600408437208        1597522952.0958927     
   1.4039321902827835       -1.1395252415661759        1605820826.5461943     
   1.3184983324923345       -1.4278186234072776        1617893910.2901042     
   242394107.00941965       -30667904.525075093        1506853698.6434870     
   201140546.84117520       -59700908.239497393        1486360598.1797717     
   155159220.88751566       -104493131.23863965        1468311922.0625668     
   104450129.14842427       -165044573.52255893        1452707670.2918766     
   49013271.623910859       -241355235.09121269        1439547842.8676901     
   183377277.27390617       -22526419.744594246        1533245507.7366951     
   150969735.02104983       -44741384.253845379        1507728277.2186809     
   115016368.44117020       -78775763.186504692        1484997857.8571007     
   75517177.534277081       -124629556.54254301        1465054249.6519666     
   32472162.300361238       -182302764.32199180        1447897452.6032760     
   123305983.08024871       -14701274.301559940        1560549479.3755338     
   100722706.77115418       -29804725.197146095        1531387050.5046837     
   75775547.593452409       -52787785.654760607        1505353819.6002028     
   48464505.547131129       -83650455.674439833        1482449786.6621072     
   18789580.632198006       -122392735.25615501        1462674951.6903813     
   62180224.428447671       -7192468.1959637031        1588765613.5600038     
   50399462.091508105       -14890931.069341127        1557336918.0377841     
   37436758.344354659       -26529198.643434256        1529379807.2918775     
   23292113.186990723       -42107270.918228440        1504894281.3222816     
   7965526.6194247268       -61625147.893694602        1483880340.1289942     
   1.3184983324923345       -1.4278186234072776        1617893910.2901042     
  0.98208556671590508       -1.8705123988177901        1585577879.8179924     
  0.69387819665857886       -2.1525215218312903        1557075820.9321258     
  0.45385437624229630       -2.2739191596526744        1532387733.6325057     
  0.26203133069928675       -2.2346468540070914        1511513617.9191229     
   49013271.623910859       -241355235.09121269        1439547842.8676901     
   39884420.810144529       -322607108.55023992        1346220172.7849646     
   23065568.372828186       -429492320.75443935        1252941260.5889723     
  -1443285.6880391836       -562010871.70381308        1159711106.2796991     
  -33642141.372466266       -720162761.39837193        1066529709.8571618     
   32472162.300361238       -182302764.32199180        1447897452.6032760     
   28871498.076850310       -242267877.22883022        1347341360.2469265     
   19503332.621773973       -321457994.24089491        1246076631.8689301     
   4367665.9351279438       -419873115.35818845        1144103267.4692662     
  -16535501.983094454       -537513240.58073246        1041421267.0479732     
   18789580.632198006       -122392735.25615501        1462674951.6903813     
   18553120.403580025       -161720282.38939664        1357133354.1843858     
   14471659.335366622       -213864498.98795635        1250125726.7483642     
   6545197.4275719225       -278825385.05179077        1141652069.3823142     
  -5226265.3198135495       -356602940.58092022        1031712382.0862293     
   7965526.6194247268       -61625147.893694602        1483880340.1289942     
   8929287.7903204672       -80964324.031981543        1375596154.5973346     
   7970548.5136060417       -106711834.99563709        1265088545.2272685     
   5089308.7892964408       -138867680.78460392        1152357512.0187931     
   285568.61738106608       -177431861.39893389        1037403054.9719061     
  0.26203133069928675       -2.2346468540070914        1511513617.9191229     
  0.23708617486821937       -2.1565388668959602        1402729761.4857864     
  0.15650287842229438       -2.2638906546116293        1290965087.3056545     
   2.0302761303660710E-002  -2.5566283751227097        1176219595.3787324     
 -0.17151792806548483       -3.0347756359187898        1058493285.7050251     
  -407.86570531226880        430.75577848251407        1401170099.0451488     
  -350.65131119240186        177.75175402092214        1462553666.3389742     
  -264.81250049924046        20.162455633648037        1525708781.6964915     
  -150.34926842893492       -42.012107952314672        1590635445.1176949     
  -7.2616143409720308       -8.7719300916406713        1657333656.6025903     
  -354596092.02710086       -40386095.765883178        1402889028.4078646     
  -329107675.36988348        14946716.156835467        1445337774.3993123     
  -310378320.91515791        47749320.737919956        1492852233.8384578     
  -298408028.66292846        58021717.977348804        1545432406.7252927     
  -293196798.61319023        45763907.875139117        1603078293.0598280     
  -756732160.20898592       -95034737.493690044        1426891744.2506037     
  -696343483.01178670        18454709.684925079        1442520062.9749393     
  -649472958.84399080        86883646.765523791        1466508260.5309787     
  -616120587.70560265        110252073.74809977        1498856336.9187193     
  -596286369.59661937        88559990.632659018        1539564292.1381578     
  -1206408612.4113650       -163945494.42764592        1473178246.5733583     
  -1101707773.5770214        10524158.336013317        1454100532.0658569     
  -1017284178.5989983        117402998.24527574        1446676861.7740576     
  -953137827.47729194        156691025.30014533        1450907235.6979680     
  -909268720.21190464        128388239.50062037        1466791653.8375843     
  -1703625448.6342337       -247118366.56774861        1541748535.3761349     
  -1545200547.0655909       -8844937.8899006844        1480079181.6720572     
  -1413811980.1801770        139307375.17718142        1433358037.5676942     
  -1309459747.9779963        197338572.63348514        1401585103.0630407     
  -1232143850.4590468        165248654.47902143        1384760378.1581016     
  -7.2616143409720308       -8.7719300916406713        1657333656.6025903     
  -1.6320246893835124        20.434616613298459        1650918927.2352576     
  -9.6882186339342979E-002   35.993006503367781        1637121110.5572217     
  -2.6561879527377705        37.903236536129207        1615940206.5684798     
  -9.3099398154087272        26.165310486035999        1587376215.2690289     
  -293196798.61319023        45763907.875139117        1603078293.0598280     
  -315639731.88834012        17873938.307933643        1596291635.2052815     
  -336160467.00552624       -3608704.0660610050        1586060419.0671225     
  -354759003.96474552       -18684019.246833310        1572384644.6453505     
  -371435342.76600456       -27352007.234402046        1555264311.9399686     
  -596286369.59661937        88559990.632659018        1539564292.1381578     
  -629919301.69909489        36155904.314923048        1534648275.0908747     
  -659707833.39119613       -3433513.9682325423        1530226228.7870741     
  -685651964.67292166       -30208264.216801882        1526298153.2267561     
  -707751695.54426980       -44168346.430779725        1522864048.4099233     
  -909268720.21190464        128388239.50062037        1466791653.8375843     
  -942838711.06429231        54845918.455577552        1465988846.8920431     
  -970642099.25389302        525606.28648769855        1469618539.7170804     
  -992678884.78070736       -34572697.006646752        1477680732.3126957     
  -1008949067.6447351       -50448991.423823237        1490175424.6788907     
  -1232143850.4590468        165248654.47902143        1384760378.1581016     
  -1254397959.9839308        73943980.729898095        1390313350.6087828     
  -1268963264.5936186        8268656.6980951428        1404237351.8571410     
  -1275839764.2881057       -31777317.616369009        1426532381.9031689     
  -1275027459.0673938       -46193942.213508129        1457198440.7468734     
  -9.3099398154087272        26.165310486035999        1587376215.2690289     
  -6.6101915607852400        13.145490945776219        1518069958.5627954     
  -2.5113413180512687        4.7893446992180468        1469353328.0001526     
   2.9866129029594584        1.0968783802490645        1441226323.5811026     
   9.8836689748278221        2.0680848974722048        1433688945.3056412     
  -371435342.76600456       -27352007.234402046        1555264311.9399686     
  -319459483.35141098       -12941984.731724843        1495821558.9937763     
  -267769107.13292158        516427.11727184057        1452445215.3332970     
  -216364214.11053005        13023228.312610507        1425135280.9585319     
  -165244804.28424847        24578418.854247361        1413891755.8694837     
  -707751695.54426980       -44168346.430779725        1522864048.4099233     
  -616723456.15162313       -19225331.426643461        1472951733.8626993     
  -526266184.55028278        3814457.6064676046        1434582611.7433124     
  -436379880.74025023        24951020.668556035        1407756682.0517652     
  -347064544.72152650        44184357.759614989        1392473944.7880509     
  -1008949067.6447351       -50448991.423823237        1490175424.6788907     
  -891791925.01082385       -18850026.939256132        1449460483.1695654     
  -775491234.76342630        9894096.2569271922        1415765517.2301955     
  -660046996.90254354        35783378.164733022        1389090526.8607903     
  -545459211.42817211        58817818.784162313        1369435512.0613418     
  -1275027459.0673938       -46193942.213508129        1457198440.7468734     
  -1144664889.9290144       -11816071.269565880        1425347806.9143710     
  -1015444257.7723536        18755343.068645835        1395993931.7939498     
  -887365562.59740734        45520300.801144004        1369136815.3856127     
  -760428804.40418041        68478801.927910894        1344776457.6893599     
   9.8836689748278221        2.0680848974722048        1433688945.3056412     
   8.2463076660195540        2.3055802688266436        1478285981.7989824     
   6.4142105546363704        1.8939590738222554        1519955803.3020504     
   4.3873731570852863       0.83320289770214206        1558698409.8148408     
   2.1658092901528452      -0.87664289746794444        1594513801.3373606     
  -165244804.28424847        24578418.854247361        1413891755.8694837     
  -172252025.88998771        17776641.061737254        1453517597.4234924     
  -179579684.45647615        9906740.0667298213        1492250125.8451777     
  -187227779.98371187        968715.86923063546        1530089341.1345429     
  -195196312.47169450       -9037431.5307551995        1567035243.2915783     
  -347064544.72152650        44184357.759614989        1392473944.7880509     
  -355267838.13006812        32324146.386765406        1426754748.5090442     
  -364112005.26537305        18327689.258038342        1462176140.9556677     
  -373597046.12743402        2194986.3734607846        1498738122.1279206     
  -383722960.71625322       -16073962.266980648        1536440692.0258031     
  -545459211.42817211        58817818.784162313        1369435512.0613418     
  -549047428.47393870        43642518.280653149        1397997435.0556407     
  -553596956.01247966        25262849.467893571        1429733848.6335256     
  -559107794.04379141        3678812.3458969295        1464644752.7949877     
  -565579942.56787241       -21109593.085325897        1502730147.5400338     
  -760428804.40418041        68478801.927910894        1344776457.6893599     
  -753590796.92159724        51731756.743401259        1367245657.0632849     
  -748034536.69780087        30712220.696271926        1394923248.8787460     
  -743760023.73278368        5420193.7865428329        1427809233.1357384     
  -740767258.02654970       -24144323.985795230        1465903609.8342652     
   2.1658092901528452      -0.87664289746794444        1594513801.3373606     
   1.6242025124114274       -2.1101881688909478        1580760117.0613246     
   1.2590691767566056       -2.7554879394692438        1575798727.2591052     
   1.0704170608496770       -2.8125169775545604        1579629631.9307022     
   1.0582468052039258       -2.2812738419920100        1592252831.0761156     
  -195196312.47169450       -9037431.5307551995        1567035243.2915783     
  -174181901.02942216       -10203712.868725359        1555283369.0188463     
  -152751459.51679176       -9983227.3055004627        1551173274.1301458     
  -130904987.93377900       -8375974.8410015851        1554704958.6254783     
  -108642486.28039986       -5381955.4752818421        1565878422.5048487     
  -383722960.71625322       -16073962.266980648        1536440692.0258031     
  -344981323.26091057       -19392679.500625014        1527175995.9659073     
  -305407625.84131002       -19937863.520076036        1524402564.2002671     
  -265001868.45744589       -17709514.325313911        1528120396.7288792     
  -223764051.10932410       -12707631.916359790        1538329493.5517426     
  -565579942.56787241       -21109593.085325897        1502730147.5400338     
  -512398265.07026213       -27566902.005881965        1496437997.9025199     
  -457968497.71450508       -29863911.399278402        1495486597.4694743     
  -402290640.50059086       -28000621.265486434        1499875946.2408986     
  -345364693.42852819       -21977031.604531690        1509606044.2167959     
  -740767258.02654970       -24144323.985795230        1465903609.8342652     
  -676432726.45747340       -34726380.384486765        1463069374.8286700     
  -610434075.13636339       -39761370.943063051        1464425373.9377618     
  -542771304.06320405       -39249295.661475271        1469971607.1615396     
  -473444413.23800987       -33190154.539773539        1479708074.5000122     
   1.0582468052039258       -2.2812738419920100        1592252831.0761156     
   1.2738068841480674       -1.5662527136056954        1593000286.9392014     
   1.3890384264049069       -1.1856600408437208        1597522952.0958927     
   1.4039321902827835       -1.1395252415661759        1605820826.5461943     
   1.3184983324923345       -1.4278186234072776        1617893910.2901042     
  -108642486.28039986       -5381955.4752818421        1565878422.5048487     
  -97697639.617646709       -4474081.8066320494        1564948628.9792621     
  -86305646.673528895       -2075720.5334348194        1568453229.6686118     
  -74466507.448050469        1813128.3442969881        1576392224.5729034     
  -62180221.941214353        7192464.8265574835        1588765613.6921160     
  -223764051.10932410       -12707631.916359790        1538329493.5517426     
  -199990972.50987595       -10326869.647247419        1536244121.4161334     
  -175323601.24737197       -4965131.8346123025        1539252328.4167871     
  -149761937.32180622        3377581.5215606391        1547354114.5536995     
  -123305980.73318779        14701270.421242043        1560549479.8268747     
  -345364693.42852819       -21977031.604531690        1509606044.2167959     
  -306879997.40288049       -17558365.088100359        1506886764.2498047     
  -267053862.33247843       -8668235.0891554803        1509920248.3404040     
  -225886288.21732742        4693358.3922879994        1518706496.4885960     
  -183377275.05742139        22526415.356245235        1533245508.6943676     
  -473444413.23800987       -33190154.539773539        1479708074.5000122     
  -418364714.29665774       -26168568.129178464        1476876557.4802880     
  -361496429.92885786       -13185030.297092229        1480456989.4394782     
  -302839560.13460100        5760458.9565183967        1490449370.3775895     
  -242394104.91390467        30667899.631593496        1506853700.2946098     
   1.3184983324923345       -1.4278186234072776        1617893910.2901042     
  0.98208556671590508       -1.8705123988177901        1585577879.8179924     
  0.69387819665857886       -2.1525215218312903        1557075820.9321258     
  0.45385437624229630       -2.2739191596526744        1532387733.6325057     
  0.26203133069928675       -2.2346468540070914        1511513617.9191229     
  -62180221.941214353        7192464.8265574835        1588765613.6921160     
  -50399460.150176167        14890927.260257699        1557336918.2527642     
  -37436756.904533789        26529194.542639252        1529379807.5845032     
  -23292112.204301264        42107266.673655465        1504894281.6873329     
  -7965526.0494706593        61625143.653329544        1483880340.5612466     
  -123305980.73318779        14701270.421242043        1560549479.8268747     
  -100722704.85799310        29804721.318376228        1531387051.0610836     
  -75775546.121804357        52787781.752155781        1505353820.2512195     
  -48464504.524624228        83650451.722573236        1482449787.3972902     
  -18789580.066453233        122392731.22962843        1462674952.4992919     
  -183377275.05742139        22526415.356245235        1533245508.6943676     
  -150969733.14136982        44741380.303829320        1507728278.2429347     
  -115016366.95794266        78775759.475998655        1484997858.9322760     
  -75517176.507122010        124629552.87281522        1465054250.7623973     
  -32472161.788904600        182302760.49428338        1447897453.7332888     
  -242394104.91390467        30667899.631593496        1506853700.2946098     
  -201140545.00031516        59700904.216585174        1486360599.7983284     
  -155159219.41294393        104493127.71418265        1468311923.6276674     
  -104450128.15176854        165044570.12445927        1452707671.7826233     
  -49013271.216816708        241355231.44732672        1439547844.2632046     
  0.26203133069928675       -2.2346468540070914        1511513617.9191229     
  0.23708617486821937       -2.1565388668959602        1402729761.4857864     
  0.15650287842229438       -2.2638906546116293        1290965087.3056545     
   2.0302761303660710E-002  -2.5566283751227097        1176219595.3787324     
 -0.17151792806548483       -3.0347756359187898        1058493285.7050251     
  -7965526.0494706593        61625143.653329544        1483880340.5612466     
  -8929287.3004000671        80964319.833815068        1375596154.8990741     
  -7970548.1888389960        106711830.55593488        1265088545.4016240     
  -5089308.7147971019        138867675.81966108        1152357512.0688791     
  -285568.87827485055        177431855.62498182        1037403054.9008590     
  -18789580.066453233        122392731.22962843        1462674952.4992919     
  -18553119.939047717        161720278.29385722        1357133354.7627583     
  -14471659.031057775        213864494.62670234        1250125727.1024284     
  -6545197.3424843252        278825380.22815722        1141652069.5183179     
   5226265.1266763359        356602935.09823841        1031712382.0104361     
  -32472161.788904600        182302760.49428338        1447897453.7332888     
  -28871497.678868264        242267873.22354257        1347341361.0768206     
  -19503332.370156258        321457989.94839007        1246076632.4080842     
  -4367665.8627478778        419873110.66889566        1144103267.7270720     
   16535501.843347162        537513235.38501084        1041421267.0337781     
  -49013271.216816708        241355231.44732672        1439547844.2632046     
  -39884420.519873604        322607104.62283903        1346220173.8412812     
  -23065568.206120312        429492316.52105474        1252941261.3185835     
   1443285.7244092524        562010867.14185953        1159711106.6951015     
   33642141.271734744        720162756.48531163        1066529709.9708656     
  -1703625448.6342337       -247118366.56774861        1541748535.3761349     
  -1545200547.0655909       -8844937.8899006844        1480079181.6720572     
  -1413811980.1801770        139307375.17718142        1433358037.5676942     
  -1309459747.9779963        197338572.63348514        1401585103.0630407     
  -1232143850.4590468        165248654.47902143        1384760378.1581016     
  -2140021686.1605220       -169533014.91058713        1523621862.1770990     
  -1986905719.0713012       -43948537.015617371        1461017829.7368717     
  -1846650505.0462966        38766763.998637319        1405386934.4318893     
  -1719256044.0855041        78612888.132179379        1356729176.2621491     
  -1604722336.1889265        75589835.385001779        1315044555.2276521     
  -2501200327.4522572       -69382384.383064866        1454496764.9160569     
  -2376179216.1695127       -63322633.669087052        1407496232.2951980     
  -2249843276.3319683       -52880121.105771542        1359493764.3451149     
  -2122192507.9396203       -38054846.693110824        1310489361.0658033     
  -1993226910.9924719       -18846810.431117415        1260483022.4572663     
  -2787161372.5094271        53333525.014828920        1334373243.5929973     
  -2713021038.3602200       -66967227.850302577        1319514389.3470335     
  -2623390294.0371933       -135633280.13604176        1295678527.3073697     
  -2518269139.5403471       -152664631.84238482        1262865657.4740088     
  -2397657574.8696818       -118061282.96933103        1221075779.8469539     
  -2997904821.3320446        198614713.28309023        1163251298.2079346     
  -2997431185.6434274       -54882319.559271336        1197072300.8923762     
  -2967291558.1619740       -209492713.09218526        1213941223.3186517     
  -2907485938.8876834       -265216467.31563926        1213858065.4867618     
  -2818014327.8205609       -222053582.22965515        1196822827.3967044     
  -1232143850.4590468        165248654.47902143        1384760378.1581016     
  -1254397959.9839308        73943980.729898095        1390313350.6087828     
  -1268963264.5936186        8268656.6980951428        1404237351.8571410     
  -1275839764.2881057       -31777317.616369009        1426532381.9031689     
  -1275027459.0673938       -46193942.213508129        1457198440.7468734     
  -1604722336.1889265        75589835.385001779        1315044555.2276521     
  -1591317894.5481250        28181016.541390657        1321886843.8881223     
  -1574314448.9989600       -7231122.6076859832        1337657945.8232527     
  -1553711999.5414310       -30646582.062210500        1362357861.0330439     
  -1529510546.1755407       -42065361.822197258        1395986589.5174949     
  -1993226910.9924719       -18846810.431117415        1260483022.4572663     
  -1942570248.2517347       -21881673.388943911        1263843192.8195522     
  -1892404382.6094711       -26552526.675014257        1276689960.9334824     
  -1842729314.0656829       -32859370.289333224        1299023326.7990620     
  -1793545042.6203644       -40802204.231892705        1330843290.4162865     
  -2397657574.8696818       -118061282.96933103        1221075779.8469539     
  -2308155021.0947633       -76244089.061099768        1216182397.4030743     
  -2223233065.4251523       -49695555.503898621        1221333397.1878290     
  -2142891707.8608487       -38415682.297728539        1236528779.2012179     
  -2067130948.4018571       -42404469.442585588        1261768543.4432387     
  -2818014327.8205609       -222053582.22965515        1196822827.3967044     
  -2688072213.0772095       -134906230.47508407        1178904457.6386871     
  -2566800497.4460011       -76660209.094327569        1171588254.5862904     
  -2454199180.9269428       -47315518.087397575        1174874218.2395153     
  -2350268263.5200257       -46872157.454281211        1188762348.5983596     
  -1275027459.0673938       -46193942.213508129        1457198440.7468734     
  -1144664889.9290144       -11816071.269565880        1425347806.9143710     
  -1015444257.7723536        18755343.068645835        1395993931.7939498     
  -887365562.59740734        45520300.801144004        1369136815.3856127     
  -760428804.40418041        68478801.927910894        1344776457.6893599     
  -1529510546.1755407       -42065361.822197258        1395986589.5174949     
  -1393610317.5104439       -15542568.921851754        1360271471.3949785     
  -1258386934.4654176        8724071.9115865827        1328132042.9756033     
  -1123840397.0404680        30734560.678103745        1299568304.2593796     
  -989970705.23559356        50488897.377707839        1274580255.2462959     
  -1793545042.6203644       -40802204.231892705        1330843290.4162865     
  -1649024494.4540794       -21209691.382796049        1291806294.5923347     
  -1504715700.5462306       -2323026.0618145466        1257423919.4625928     
  -1360618660.8968108        15857791.731068909        1227696165.0270579     
  -1216733375.5058203        33332761.995852351        1202623031.2857316     
  -2067130948.4018571       -42404469.442585588        1261768543.4432387     
  -1910907420.7599282       -28817438.652416229        1219952276.5064409     
  -1754430556.0147820       -14385950.851525187        1183869561.2549117     
  -1597700354.1664243        889993.96006429195        1153520397.6886549     
  -1440716815.2148609        17010395.782353461        1128904785.8076711     
  -2350268263.5200257       -46872157.454281211        1188762348.5983596     
  -2179259096.4279776       -38365810.730676413        1144709417.1372941     
  -2007531500.8710775       -27464702.457568407        1107468968.3525653     
  -1835085476.8493209       -14168832.634933949        1077041002.2441680     
  -1661921024.3627069        1521798.7372199297        1053425518.8121079     
  -760428804.40418041        68478801.927910894        1344776457.6893599     
  -753590796.92159724        51731756.743401259        1367245657.0632849     
  -748034536.69780087        30712220.696271926        1394923248.8787460     
  -743760023.73278368        5420193.7865428329        1427809233.1357384     
  -740767258.02654970       -24144323.985795230        1465903609.8342652     
  -989970705.23559356        50488897.377707839        1274580255.2462959     
  -971039331.52672756        33725057.412678003        1296330827.2107117     
  -952773978.94667780        14741147.018258989        1322179471.8570101     
  -935174647.49544966       -6462833.8055614829        1352126189.1851902     
  -918241337.17303836       -29886885.058778465        1386170979.1952546     
  -1216733375.5058203        33332761.995852351        1202623031.2857316     
  -1188880977.7410944        15600424.599198818        1224373322.9922585     
  -1161078874.9752285       -2299562.7936531305        1249111367.6210182     
  -1133327067.2082186       -20367200.182693481        1276837165.1720049     
  -1105625554.4400692       -38602487.567934275        1307550715.6452272     
  -1440716815.2148609        17010395.782353461        1128904785.8076711     
  -1407115735.5647089       -2642141.6970587969        1151373144.4079294     
  -1372949224.7834554       -20409908.739472926        1175718936.1707718     
  -1338217282.8710997       -36292905.344867408        1201942161.0961919     
  -1302919909.8276367       -50291131.513249457        1230042819.1841938     
  -1661921024.3627069        1521798.7372199297        1053425518.8121079     
  -1625743604.9975610       -21002641.476087749        1077330291.4577262     
  -1588385028.3713608       -39589890.819199502        1102002177.5062685     
  -1549845294.4840810       -54239949.292057276        1127441176.9577417     
  -1510124403.3357449       -64952816.894720197        1153647289.8121455     
  -740767258.02654970       -24144323.985795230        1465903609.8342652     
  -676432726.45747340       -34726380.384486765        1463069374.8286700     
  -610434075.13636339       -39761370.943063051        1464425373.9377618     
  -542771304.06320405       -39249295.661475271        1469971607.1615396     
  -473444413.23800987       -33190154.539773539        1479708074.5000122     
  -918241337.17303836       -29886885.058778465        1386170979.1952546     
  -840847698.63637161       -34974366.458163798        1381502289.7558556     
  -762657178.71402609       -37405576.571951687        1381420854.2539265     
  -683669777.40601242       -37180515.400178015        1385926672.6894550     
  -603885494.71231997       -34299182.942806453        1395019745.0624492     
  -1105625554.4400692       -38602487.567934275        1307550715.6452272     
  -1014038466.5850186       -37855091.262750506        1300035793.6779375     
  -922521735.71066177       -37342218.226545602        1297505145.4708865     
  -831075361.81699693       -37063868.459316969        1299958771.0240748     
  -739699344.90401971       -37020041.961046249        1307396670.3374994     
  -1302919909.8276367       -50291131.513249457        1230042819.1841938     
  -1196005030.3034217       -43368554.798278213        1218669886.5949137     
  -1090027746.1262565       -39571295.906813800        1212678247.5886467     
  -984988057.29616404       -38899354.838918984        1212067902.1653955     
  -880885963.81311786       -41352731.594517201        1216838850.3251584     
  -1510124403.3357449       -64952816.894720197        1153647289.8121455     
  -1386747389.7915699       -51514757.064709306        1137404568.5067797     
  -1265175209.9608240       -44092809.612787247        1126940160.6072085     
  -1145407863.8435047       -42686974.538953125        1122254066.1134205     
  -1027445351.4396021       -47297251.843184054        1123346285.0254273     
  -473444413.23800987       -33190154.539773539        1479708074.5000122     
  -418364714.29665774       -26168568.129178464        1476876557.4802880     
  -361496429.92885786       -13185030.297092229        1480456989.4394782     
  -302839560.13460100        5760458.9565183967        1490449370.3775895     
  -242394104.91390467        30667899.631593496        1506853700.2946098     
  -603885494.71231997       -34299182.942806453        1395019745.0624492     
  -533299331.35897434       -29826101.695381224        1392405919.6338565     
  -460641136.47340101       -18446248.673853308        1395896311.3501494     
  -385910910.05557710       -159623.87816743553        1405490920.2113276     
  -309108652.10553563        25033772.691588148        1421189746.2173986     
  -739699344.90401971       -37020041.961046249        1307396670.3374994     
  -654485950.95019722       -35359236.020252585        1305331223.6234541     
  -566917079.35835373       -25846837.952724755        1309062262.2202628     
  -476992730.12848860       -8482847.7584540546        1318589786.1279309     
  -384712903.26060092        16732734.562552467        1333913795.3464539     
  -880885963.81311786       -41352731.594517201        1216838850.3251584     
  -781924573.07031834       -42767971.103788406        1215652469.4490781     
  -680324258.58372653       -35386798.133731812        1219954842.0498219     
  -576085020.35332084       -19209212.684306800        1229745968.1273944     
  -469206858.37911022        5764785.2444702983        1245025847.6818013     
  -1027445351.4396021       -47297251.843184054        1123346285.0254273     
  -915615197.71935511       -52052306.946012199        1123369657.1107228     
  -800862674.14951301       -47066129.216862977        1128574050.8388226     
  -683187780.73007488       -32338718.655724466        1138959466.2097173     
  -562590517.46104503       -7870075.2626128495        1154525903.2234178     
  -242394104.91390467        30667899.631593496        1506853700.2946098     
  -201140545.00031516        59700904.216585174        1486360599.7983284     
  -155159219.41294393        104493127.71418265        1468311923.6276674     
  -104450128.15176854        165044570.12445927        1452707671.7826233     
  -49013271.216816708        241355231.44732672        1439547844.2632046     
  -309108652.10553563        25033772.691588148        1421189746.2173986     
  -259431169.19436249        55067400.643751949        1404805926.2888780     
  -203269016.34680042        106716595.05054547        1392226709.7173796     
  -140622193.56285313        179981355.91194928        1383452096.5028987     
  -71490700.842531607        274861683.22794837        1378482086.6454408     
  -384712903.26060092        16732734.562552467        1333913795.3464539     
  -322725271.54783368        48932853.623134866        1323688977.6253943     
  -252496065.63609302        108604886.68028413        1318628942.2927532     
  -174025285.52537692        195748833.73402089        1318733689.3485320     
  -87312931.215686366        310364694.78434473        1324003218.7927284     
  -469206858.37911022        5764785.2444702983        1245025847.6818013     
  -391022852.06074601        41297263.154670462        1243009753.8078828     
  -302840367.28082836        110158002.60338996        1247518621.3537824     
  -204659404.03933930        212347003.59067419        1258552450.3195033     
  -96479962.336288273        347864266.11650360        1276111240.7050419     
  -562590517.46104503       -7870075.2626128495        1154525903.2234178     
  -464323910.73310435        32160629.238358915        1162768254.8363404     
  -354301921.28099924        111375942.81987345        1178895746.9004767     
  -232524549.10475120        229775865.48186308        1202908379.4158328     
  -98991794.204330295        387360397.22443712        1234806152.3824086     
  -49013271.216816708        241355231.44732672        1439547844.2632046     
  -39884420.519873604        322607104.62283903        1346220173.8412812     
  -23065568.206120312        429492316.52105474        1252941261.3185835     
   1443285.7244092524        562010867.14185953        1159711106.6951015     
   33642141.271734744        720162756.48531163        1066529709.9708656     
  -71490700.842531607        274861683.22794837        1378482086.6454408     
  -57231317.006357446        376695601.14828002        1296742373.9731958     
  -34017994.357392669        508375981.77791566        1214150764.7215550     
  -1850732.8956366479        669902825.11685824        1130707258.8905177     
   39270467.378904909        861276131.16507852        1046411856.4801117     
  -87312931.215686366        310364694.78434473        1324003218.7927284     
  -70496312.750618726        432008667.89638436        1255326057.2654822     
  -43461818.276767999        587712227.70436752        1184896344.6802289     
  -6209447.7941259146        777475374.20831120        1112714081.0369756     
   41260798.697292447        1001298107.4081974        1038779266.3357038     
  -96479962.336288273        347864266.11650360        1276111240.7050419     
  -79679407.752654463        488546304.86715794        1221971223.7181375     
  -51397039.964244455        667501054.30039132        1165178001.1946082     
  -11632858.971056283        884728514.41623831        1105731573.1344442     
   39613135.226924777        1140228685.2147031        1043631939.5376805     
  -98991794.204330295        387360397.22443712        1234806152.3824086     
  -84780602.012458861        546308512.06061435        1196677873.3311603     
  -57823659.419838965        747742461.56596160        1154995734.2646680     
  -18120966.426420450        991662245.74063718        1109759735.1829414     
   34327476.967774689        1278067864.5845604        1060969876.0859829     
  -2997904821.3320446        198614713.28309023        1163251298.2079346     
  -2997431185.6434274       -54882319.559271336        1197072300.8923762     
  -2967291558.1619740       -209492713.09218526        1213941223.3186517     
  -2907485938.8876834       -265216467.31563926        1213858065.4867618     
  -2818014327.8205609       -222053582.22965515        1196822827.3967044     
  -3271560381.6434083        149482220.56638288        977135104.02449656     
  -3274493519.5111647       -16574109.271240354        1014034522.8861622     
  -3260153208.6394725       -125052276.64402604        1045086803.1923015     
  -3228539449.0283289       -175952281.55197835        1070291944.9429148     
  -3179652240.6777415       -169274123.99510372        1089649948.1380022     
  -3630517070.4821801        74759389.291449547        832272022.16258085     
  -3605128577.0416317        5662283.9179720879        857791890.30585492     
  -3574859177.9150162       -47165135.835283756        888569561.59624028     
  -3539708873.1023345       -83722869.968325853        924605036.03374076     
  -3499677662.6035929       -104010918.48115373        965898313.61835670     
  -4074774887.8483806       -25553780.541710377        728662052.62218511     
  -3989336358.2348347        11826860.008364916        728344403.15144956     
  -3911409465.9886065        24168709.334042311        744389498.53046739     
  -3840994211.1097012        11471767.435317039        776797338.75923955     
  -3778090593.5981174       -26263965.687805414        825567923.83776891     
  -4604333833.7419949       -151457288.93309426        666305195.40331101     
  -4427116863.0907707        1919618.9999313354        625692061.42294872     
  -4269804072.8602428        88949258.863960266        612546613.99498296     
  -4132395463.0504270        109631630.65895653        626868853.11941230     
  -4014891033.6613145        63966734.384937763        668658778.79623628     
  -2818014327.8205609       -222053582.22965515        1196822827.3967044     
  -2688072213.0772095       -134906230.47508407        1178904457.6386871     
  -2566800497.4460011       -76660209.094327569        1171588254.5862904     
  -2454199180.9269428       -47315518.087397575        1174874218.2395153     
  -2350268263.5200257       -46872157.454281211        1188762348.5983596     
  -3179652240.6777415       -169274123.99510372        1089649948.1380022     
  -3039306068.1742821       -116346326.77353632        1075745208.6146560     
  -2903829860.6176405       -79651746.041364431        1067138244.0164628     
  -2773223618.0078149       -59190381.798582792        1063829054.3434260     
  -2647487340.3448119       -54962234.045200467        1065817639.5955454     
  -3499677662.6035929       -104010918.48115373        965898313.61835670     
  -3364082837.4270725       -89849297.318710446        960441044.18922794     
  -3229557543.0320354       -79252778.761221051        954977157.90478981     
  -3096101779.4184957       -72221362.808720708        949506654.76504290     
  -2963715546.5864444       -68755049.461175323        944029534.76998460     
  -3778090593.5981174       -26263965.687805414        825567923.83776891     
  -3662402520.8355742       -55415142.110594988        832991964.36240649     
  -3543983544.6891923       -75463307.253919840        835104996.25127184     
  -3422833665.1589766       -86408461.117797017        831907019.50436056     
  -3298952882.2449179       -88250603.702203393        823398034.12167442     
  -4014891033.6613145        63966734.384937763        668658778.79623628     
  -3934265118.3997941       -13043861.149194717        693397969.13419259     
  -3847107865.5891051       -68283331.519432068        707521759.05590987     
  -3753419275.2292595       -101751676.72580719        711030148.56138396     
  -3653199347.3202405       -113448896.76828289        703923137.65062153     
  -2350268263.5200257       -46872157.454281211        1188762348.5983596     
  -2179259096.4279776       -38365810.730676413        1144709417.1372941     
  -2007531500.8710775       -27464702.457568407        1107468968.3525653     
  -1835085476.8493209       -14168832.634933949        1077041002.2441680     
  -1661921024.3627069        1521798.7372199297        1053425518.8121079     
  -2647487340.3448119       -54962234.045200467        1065817639.5955454     
  -2452656645.5379653       -36384957.570906520        1017105484.9218844     
  -2257162049.3594155       -15594676.524274588        977581038.94849718     
  -2061003551.8091514        7408609.0947413445        947244301.67538142     
  -1864181152.8871868        32624899.286094308        926095273.10254765     
  -2963715546.5864444       -68755049.461175323        944029534.76998460     
  -2738276963.9963989       -38070935.215676904        890594541.94171894     
  -2512229007.1277947       -5355573.3749836683        848722483.83767009     
  -2285571675.9806333        29391036.060907960        818413360.45783317     
  -2058304970.5549121        66168893.091995001        799667171.80221486     
  -3298952882.2449179       -88250603.702203393        823398034.12167442     
  -3036120051.8032761       -43423743.664977074        765176588.19680393     
  -2772732374.1762209        3252606.9902882576        720893303.02008605     
  -2508789849.3637524        51778448.263586640        690548178.59151912     
  -2244292477.3658762        102153780.15493095        674141214.91111040     
  -3653199347.3202405       -113448896.76828289        703923137.65062153     
  -3346185908.9585986       -52443382.918809175        640851623.68713176     
  -3038672150.5046883        10229864.571553946        594093496.49573946     
  -2730658071.9585218        74570845.702773571        563648756.07644045     
  -2422143673.3200879        140579560.47488248        549517402.42923760     
  -1661921024.3627069        1521798.7372199297        1053425518.8121079     
  -1625743604.9975610       -21002641.476087749        1077330291.4577262     
  -1588385028.3713608       -39589890.819199502        1102002177.5062685     
  -1549845294.4840810       -54239949.292057276        1127441176.9577417     
  -1510124403.3357449       -64952816.894720197        1153647289.8121455     
  -1864181152.8871868        32624899.286094308        926095273.10254765     
  -1826683060.3928640        11033673.887322426        953163329.52529705     
  -1789196269.4868307       -10595223.472418308        980264817.68728614     
  -1751720780.1690943       -32261792.793145299        1007399737.5885173     
  -1714256592.4396610       -53966034.074873149        1034568089.2289851     
  -2058304970.5549121        66168893.091995001        799667171.80221486     
  -2021582438.2562261        44882012.510341287        828507310.01117742     
  -1986063666.3951981        19582597.136493564        856647198.29569328     
  -1951748654.9718308       -9729353.0295504332        884086836.65575612     
  -1918637403.9861183       -43053837.987788439        910826225.09137106     
  -2244292477.3658762        102153780.15493095        674141214.91111040     
  -2210441738.5876594        80542374.392935634        703362232.91536212     
  -2178987219.0964642        50943571.007529140        731149319.33147931     
  -2149928918.8922882        13357369.998734832        757502474.15945506     
  -2123266837.9751401       -32216228.633486390        782421697.39928889     
  -2422143673.3200879        140579560.47488248        549517402.42923760     
  -2393260961.3871641        118014759.53509521        577728098.23785973     
  -2367966927.5906315        83487698.140681982        603771180.79465425     
  -2346261571.9304719        36998376.291687369        627646650.09961879     
  -2328144894.4066944       -21453206.011917353        649354506.15275502     
  -1510124403.3357449       -64952816.894720197        1153647289.8121455     
  -1386747389.7915699       -51514757.064709306        1137404568.5067797     
  -1265175209.9608240       -44092809.612787247        1126940160.6072085     
  -1145407863.8435047       -42686974.538953125        1122254066.1134205     
  -1027445351.4396021       -47297251.843184054        1123346285.0254273     
  -1714256592.4396610       -53966034.074873149        1034568089.2289851     
  -1578845181.4359114       -47181255.328546047        1016465822.9862763     
  -1444012675.6268787       -42326160.564597487        1003377844.7106007     
  -1309759075.0125721       -39400749.783071995        995304154.40196884     
  -1176084379.5929756       -38405022.983919621        992244752.06037664     
  -1918637403.9861183       -43053837.987788439        910826225.09137106     
  -1773374525.3477981       -43577219.272649527        892294663.84979999     
  -1627464623.3854866       -41943856.144207060        878013365.13651884     
  -1480907698.0991824       -38153748.602453709        867982328.95153248     
  -1333703749.4888897       -32206896.647407472        862201555.29483342     
  -2123266837.9751401       -32216228.633486390        782421697.39928889     
  -1970335421.5272305       -40702648.897001982        764891091.09735560     
  -1815531053.2366347       -42945896.351558685        750846721.88496673     
  -1658853733.1033359       -38945970.997108340        740288589.76211643     
  -1500303461.1273360       -28702872.833653152        733216694.72880661     
  -2328144894.4066944       -21453206.011917353        649354506.15275502     
  -2169727869.9742112       -38557544.201642036        634255104.72894919     
  -2008211965.1803267       -45332281.186683536        621877914.95593464     
  -1843597180.0250261       -41777416.967008233        612222936.83371449     
  -1675883514.5083244       -27892951.542668283        605290170.36228943     
  -1027445351.4396021       -47297251.843184054        1123346285.0254273     
  -915615197.71935511       -52052306.946012199        1123369657.1107228     
  -800862674.14951301       -47066129.216862977        1128574050.8388226     
  -683187780.73007488       -32338718.655724466        1138959466.2097173     
  -562590517.46104503       -7870075.2626128495        1154525903.2234178     
  -1176084379.5929756       -38405022.983919621        992244752.06037664     
  -1051353991.0495063       -38521314.064155400        991017116.33545792     
  -925008692.35519731       -33254571.308277309        993461232.51885009     
  -797048483.51006365       -22604794.716306180        999577100.61055303     
  -667473364.51408577       -6571984.2881906927        1009364720.6105719     
  -1333703749.4888897       -32206896.647407472        862201555.29483342     
  -1200385325.3635898       -28978083.477485001        858197542.11114430     
  -1066759450.7862165       -24724435.467305541        856356011.10128248     
  -932826125.75677025       -19445952.616883337        856676962.26524615     
  -798585350.27524781       -13142634.926218241        859160395.60302949     
  -1500303461.1273360       -28702872.833653152        733216694.72880661     
  -1362709200.6616099       -23422615.185988843        724910934.43779993     
  -1226114949.4425597       -21475721.693927526        717258386.58612692     
  -1090520707.4702060       -22862192.357502580        710259051.17378795     
  -955926474.74452507       -27582027.176673651        703912928.20079195     
  -1675883514.5083244       -27892951.542668283        605290170.36228943     
  -1538325616.9435611       -21854909.189685404        591157293.31541157     
  -1403075188.3242331       -23508429.988148570        576168358.97337496     
  -1270132228.6503570       -32853513.938114524        560323367.33618915     
  -1139496737.9219227       -49890161.039565265        543622318.40385115     
  -562590517.46104503       -7870075.2626128495        1154525903.2234178     
  -464323910.73310435        32160629.238358915        1162768254.8363404     
  -354301921.28099924        111375942.81987345        1178895746.9004767     
  -232524549.10475120        229775865.48186308        1202908379.4158328     
  -98991794.204330295        387360397.22443712        1234806152.3824086     
  -667473364.51408577       -6571984.2881906927        1009364720.6105719     
  -550477834.01049578        24562279.004584968        1021946695.6424036     
  -422651941.51767671        91797748.928116292        1043103419.5600272     
  -283995687.03565687        195134425.48232436        1072834892.3634403     
  -134509070.56440246        334572308.66730726        1111141114.0526400     
  -798585350.27524781       -13142634.926218241        859160395.60302949     
  -660890586.18293154        9686280.1023176610        875002803.19633758     
  -513290480.83634037        65532999.311775714        900109568.11001170     
  -355785034.23548239        154397522.70212284        934480690.34404552     
  -188374246.38034832        276279850.27338529        978116169.89844191     
  -955926474.74452507       -27582027.176673651        703912928.20079195     
  -795562167.25042927       -12467367.468471497        721936577.49814546     
  -626217539.23700392        32581693.970835656        749914192.55043662     
  -447892590.70425373        107565157.14121103        787845773.35765553     
  -260587321.65217242        212483022.04270154        835731319.91981244     
  -1139496737.9219227       -49890161.039565265        543622318.40385115     
  -954492577.21298409       -41898663.707787752        562748018.54782319     
  -761433116.71965981       -7056167.0947138071        592517292.88129234     
  -560318356.44194508        54637328.799650222        632930141.40426767     
  -351148296.37985384        143181823.97528058        683986564.11675298     
  -98991794.204330295        387360397.22443712        1234806152.3824086     
  -84780602.012458861        546308512.06061435        1196677873.3311603     
  -57823659.419838965        747742461.56596160        1154995734.2646680     
  -18120966.426420450        991662245.74063718        1109759735.1829414     
   34327476.967774689        1278067864.5845604        1060969876.0859829     
  -134509070.56440246        334572308.66730726        1111141114.0526400     
  -126273422.00477004        483194223.90107358        1089985947.2949021     
  -94872977.793256372        709032124.64113975        1070171037.6666195     
  -40307737.929856360        1012086010.8874675        1051696385.1677930     
   37422297.585411429        1392355882.6400445        1034561989.7984104     
  -188374246.38034832        276279850.27338529        978116169.89844191     
  -172130949.61095133        418770523.45743835        986089668.22716057     
  -122303811.93858692        673207332.98471665        1000297540.8300349     
  -38892833.363232017        1039590278.8552858        1020739787.7070593     
   78101986.115098476        1517919361.0691168        1047416408.8582312     
  -260587321.65217242        212483022.04270154        835731319.91981244     
  -222353184.83103266        353037410.72958648        884989036.12794411     
  -140116161.85581693        640268086.59673071        945375243.75491714     
  -13876252.726523578        1074175049.6441307        1016889942.8007424     
   156366542.55686015        1654758299.8718317        1099533133.2654030     
  -351148296.37985384        143181823.97528058        683986564.11675298     
  -276940127.66498786        285994885.71760577        786684050.99724567     
  -148310027.54494795        610214385.47718287        905404146.44127345     
   34742003.980270088        1115840323.2540200        1040146850.4488435     
   272215966.91067749        1802872699.0481498        1190912163.0199449     
  -4604333833.7419949       -151457288.93309426        666305195.40331101     
  -4427116863.0907707        1919618.9999313354        625692061.42294872     
  -4269804072.8602428        88949258.863960266        612546613.99498296     
  -4132395463.0504270        109631630.65895653        626868853.11941230     
  -4014891033.6613145        63966734.384937763        668658778.79623628     
  -5028709447.7801180       -74738773.004099369        508511525.77770466     
  -4840134246.6124153       -23724635.426299334        505767339.16747284     
  -4657111539.4216967        8781188.8948581219        507914744.17642915     
  -4479641326.2079735        22778699.959366798        514953740.80456549     
  -4307723606.9712496        18267897.767223835        526884329.05188668     
  -5270208714.4790277        56842647.126658201        301665177.70986009     
  -5134778411.1754341       -13856924.164947510        353533572.65409529     
  -4990548915.4051342       -55225853.900833130        387717464.28429806     
  -4837520227.1681223       -67264142.081009388        404216852.60047549     
  -4675692346.4643850       -49971788.705454588        403031737.60262060     
  -5328831633.8386869        243286971.45919156        45766151.199786924     
  -5311049356.7798376        31522752.783985138        168990761.88281453     
  -5270116200.8105545       -103071869.52312756        251954774.31859952     
  -5206032165.9308434       -160496895.46214294        294658188.50714201     
  -5118797252.1407137       -140752325.03309226        297101004.44843930     
  -5204578205.8591261        484594199.99349141       -259185553.75251502     
  -5368947083.4256029        112414395.42052221       -47861093.146369576     
  -5495813395.6379528       -134756857.97199798        100626674.27931915     
  -5585177142.4961662       -256919560.18407631        186277748.52455550     
  -5637038324.0002394       -254073711.21568894        209092129.58933800     
  -4014891033.6613145        63966734.384937763        668658778.79623628     
  -3934265118.3997941       -13043861.149194717        693397969.13419259     
  -3847107865.5891051       -68283331.519432068        707521759.05590987     
  -3753419275.2292595       -101751676.72580719        711030148.56138396     
  -3653199347.3202405       -113448896.76828289        703923137.65062153     
  -4307723606.9712496        18267897.767223835        526884329.05188668     
  -4231576153.8798923       -21763598.348150730        534389468.72117221     
  -4154352875.4354596       -58209009.953263760        540531399.57916129     
  -4076053771.6379557       -91068337.048146963        545310121.62586057     
  -3996678842.4873729       -120341579.63276410        548725634.86126876     
  -4675692346.4643850       -49971788.705454588        403031737.60262060     
  -4577588522.3861990       -45093735.454972744        386938062.37445766     
  -4483864385.1510201       -54814638.347857952        378733369.93995327     
  -4394519934.7588634       -79134497.384140253        378417660.29910320     
  -4309555171.2097206       -118053312.56381011        385990933.45190501     
  -5118797252.1407137       -140752325.03309226        297101004.44843930     
  -4972302223.9186993       -83034272.469635963        251043750.09406021     
  -4835642394.7357950       -58100216.703217745        222127670.13828045     
  -4708817764.5919895       -65950157.733802319        210352764.58110875     
  -4591828333.4873009       -106584095.56143570        215719033.42253783     
  -5637038324.0002394       -254073711.21568894        209092129.58933800     
  -5415717258.4774084       -135585209.39218521        126706531.87997247     
  -5209686904.1897736       -68065745.019337177        70714300.174143374     
  -5018947261.1373310       -51515318.097134352        41115434.471880332     
  -4843498329.3200922       -85933928.625604630        37909934.773159802     
  -3653199347.3202405       -113448896.76828289        703923137.65062153     
  -3346185908.9585986       -52443382.918809175        640851623.68713176     
  -3038672150.5046883        10229864.571553946        594093496.49573946     
  -2730658071.9585218        74570845.702773571        563648756.07644045     
  -2422143673.3200879        140579560.47488248        549517402.42923760     
  -3996678842.4873729       -120341579.63276410        548725634.86126876     
  -3653857754.4882851       -67058483.685960770        495734156.31964868     
  -3309789970.3850021       -9619734.0585012436        455755733.31996745     
  -2964475490.1775131        51974669.249644876        428790365.86222810     
  -2617914313.8658161        117724726.23848331        414838053.94642413     
  -4309555171.2097206       -118053312.56381011        385990933.45190501     
  -3940355951.3736396       -75321489.859840631        343950262.34608430     
  -3569163659.4214125       -25946093.435368061        311622315.55204779     
  -3195978295.3530536        30072876.709541559        289007093.06979293     
  -2820799859.1685376        92735420.574964404        276104594.89932466     
  -4591828333.4873009       -106584095.56143570        215719033.42253783     
  -4205680499.6146617       -77232401.440393448        185499941.76644000     
  -3816793217.6139464       -38749213.559103727        161693243.19197348     
  -3425166487.4851394        8865468.0824897289        144298937.69913799     
  -3030800309.2282562        65611643.484347105        133317025.28793101     
  -4843498329.3200922       -85933928.625604630        37909934.773159802     
  -4449831399.2113390       -72791218.427649498        20383194.580723215     
  -4052678644.9625702       -48029094.429626703        5968516.2397552161     
  -3652040066.5737820       -11647556.631540775       -5334100.2497360241     
  -3247915664.0449572        36353394.966655016       -13524654.887758354     
  -2422143673.3200879        140579560.47488248        549517402.42923760     
  -2393260961.3871641        118014759.53509521        577728098.23785973     
  -2367966927.5906315        83487698.140681982        603771180.79465425     
  -2346261571.9304719        36998376.291687369        627646650.09961879     
  -2328144894.4066944       -21453206.011917353        649354506.15275502     
  -2617914313.8658161        117724726.23848331        414838053.94642413     
  -2597532946.0945334        85734350.383046269        437766987.53399312     
  -2578323432.8552308        49837792.754332662        458499171.53727311     
  -2560285774.1479158        10035053.352341056        477034605.95627576     
  -2543419969.9725804       -33673867.822934866        493373290.79098868     
  -2820799859.1685376        92735420.574964404        276104594.89932466     
  -2809003082.2230473        51294495.804647326        296571393.80429476     
  -2795961336.2051411        14003467.942372918        314812306.79253531     
  -2781674621.1148276       -19137663.011868715        330827333.86403388     
  -2766142936.9520903       -48128897.058039427        344616475.01878983     
  -3030800309.2282562        65611643.484347105        133317025.28793101     
  -3027671369.7727118        14695195.799903393        154141317.04877552     
  -3020880637.6403627       -24015276.295184970        172710586.56043097     
  -3010428112.8311911       -50519772.800879240        189024833.82289743     
  -2996313795.3452148       -64818293.717201710        203084058.83616272     
  -3247915664.0449572        36353394.966655016       -13524654.887758354     
  -3253537808.7435355       -24063549.631208420        10476757.267431529     
  -3253081337.1608825       -64218439.958312273        32194010.840972912     
  -3246546249.2970395       -84111276.014770150        51627105.832864828     
  -3233932545.1519728       -83742057.800493836        68776042.243107602     
  -2328144894.4066944       -21453206.011917353        649354506.15275502     
  -2169727869.9742112       -38557544.201642036        634255104.72894919     
  -2008211965.1803267       -45332281.186683536        621877914.95593464     
  -1843597180.0250261       -41777416.967008233        612222936.83371449     
  -1675883514.5083244       -27892951.542668283        605290170.36228943     
  -2543419969.9725804       -33673867.822934866        493373290.79098868     
  -2370702994.9990082       -31583619.879084349        478353636.42763937     
  -2197444615.2431455       -27688689.327591062        467182212.49120343     
  -2023644830.7049723       -21989076.168404341        459859018.98167729     
  -1849303641.3844974       -14484780.401548505        456384055.89907408     
  -2766142936.9520903       -48128897.058039427        344616475.01878983     
  -2575908814.9342332       -25878904.029670119        326692846.20693988     
  -2387690763.7131791       -10349146.990662932        313743466.59812218     
  -2201488783.2889357       -1539625.9410189390        305768336.19233882     
  -2017302873.6614890        549659.11930894852        302767454.98959124     
  -2996313795.3452148       -64818293.717201710        203084058.83616272     
  -2785345329.7798615       -21443396.653349519        179272734.06684795     
  -2578950410.5904312        6686345.8240962029        161561677.27669761     
  -2377129037.7769027        19570933.715198636        149950888.46568951     
  -2179881211.3392854        17210367.019933462        144440367.63384998     
  -3233932545.1519728       -83742057.800493836        68776042.243107602     
  -2999012539.5359244       -18277097.750192285        36093300.007377774     
  -2771223555.8749032        23417789.116685987        10636844.526922518     
  -2550565594.1688995        41342602.800178289       -7593324.1982530421     
  -2337038654.4179049        35497343.300297856       -18597206.168156590     
  -1675883514.5083244       -27892951.542668283        605290170.36228943     
  -1538325616.9435611       -21854909.189685404        591157293.31541157     
  -1403075188.3242331       -23508429.988148570        576168358.97337496     
  -1270132228.6503570       -32853513.938114524        560323367.33618915     
  -1139496737.9219227       -49890161.039565265        543622318.40385115     
  -1849303641.3844974       -14484780.401548505        456384055.89907408     
  -1716894935.2806964       -18963354.826338172        442805270.99757391     
  -1584634090.1525581       -23934799.170006990        428548538.44690073     
  -1452521106.0000927       -29399113.432596922        413613858.24704999     
  -1320555982.8233175       -35356297.614140153        398001230.39802498     
  -2017302873.6614890        549659.11930894852        302767454.98959124     
  -1889534474.3158519       -14292866.672393680        292262304.86487585     
  -1759754327.9761174       -22429569.150429130        281257316.73695517     
  -1627962434.6422956       -23860448.314839423        269752490.60583454     
  -1494158794.3143780       -18585504.165607929        257747826.47151223     
  -2179881211.3392854        17210367.019933462        144440367.63384998     
  -2056244234.0490422       -7843444.7278678417        139528394.91730595     
  -1928435901.7949214       -18992739.929434538        134294693.84353605     
  -1796456214.5769486       -16237518.584813595        128739264.41254547     
  -1660305172.3951085        422219.30602645874        122862106.62431480     
  -2337038654.4179049        35497343.300297856       -18597206.168156590     
  -2217024214.4802547        384911.00725114346       -15396458.845128559     
  -2090678811.6089613       -13624311.506983995       -12339330.233353583     
  -1958002445.8040626       -6530324.2425293922       -9425820.3328249380     
  -1818995117.0655193        21666872.800730348       -6655929.1435551131     
  -1139496737.9219227       -49890161.039565265        543622318.40385115     
  -954492577.21298409       -41898663.707787752        562748018.54782319     
  -761433116.71965981       -7056167.0947138071        592517292.88129234     
  -560318356.44194508        54637328.799650222        632930141.40426767     
  -351148296.37985384        143181823.97528058        683986564.11675298     
  -1320555982.8233175       -35356297.614140153        398001230.39802498     
  -1120101664.3256822       -15446025.589674711        420491832.46022528     
  -915991332.58223236        16650957.254157007        441473110.62590897     
  -708224987.59294784        60934650.917440146        460945064.89509237     
  -496802629.35785323        117405055.40010092        478907695.26776236     
  -1494158794.3143780       -18585504.165607929        257747826.47151223     
  -1312976883.9880874        2826772.7634978890        278470829.49028361     
  -1132538246.9545412        21761472.050126255        285531610.52652299     
  -952842883.21373367        38218593.694294930        278930169.58025008     
  -773890792.76567268        52198137.695965171        258666506.65144935     
  -1660305172.3951085        422219.30602645874        122862106.62431480     
  -1533118236.2001982        12919731.351776183        136685009.63799480     
  -1411073859.8365803        8275377.2932133675        124692792.58313677     
  -1294172043.3042912       -13510842.869781733        86885455.459748298     
  -1182412786.6033092       -52438929.137123942        23262998.267819811     
  -1818995117.0655193        21666872.800730348       -6655929.1435551131     
  -1780525720.9620128        14832850.175143480       -4865627.0966336457     
  -1751598171.2283909       -23807327.016714334       -41043343.204247721     
  -1732212467.8646290       -94253658.774766624       -115189077.46642856     
  -1722368610.8707492       -196506145.09911418       -227302829.88314015     
  -351148296.37985384        143181823.97528058        683986564.11675298     
  -276940127.66498786        285994885.71760577        786684050.99724567     
  -148310027.54494795        610214385.47718287        905404146.44127345     
   34742003.980270088        1115840323.2540200        1040146850.4488435     
   272215966.91067749        1802872699.0481498        1190912163.0199449     
  -496802629.35785323        117405055.40010092        478907695.26776236     
  -387922564.27908444        223146025.26232126        597589099.52253520     
  -229929334.42865944        492597544.36341518        735473682.85063815     
  -22822939.806590140        925759612.70328331        892561445.25207007     
   233396619.58709922        1522632230.2819457        1068852386.7268553     
  -773890792.76567268        52198137.695965171        258666506.65144935     
  -621251487.00927639        123593218.97226480        387138267.20803827     
  -424807783.11477196        341002960.70892632        537993777.34775794     
  -184559681.08217090        704427362.90590990        711233037.07060385     
   99492819.088545144        1213866425.5632756        906856046.37658918     
  -1182412786.6033092       -52438929.137123942        23262998.267819811     
  -976926895.85558641       -12663533.152648747        155331554.05376047     
  -732945373.60330486        155430634.51368523        312964429.93263745     
  -450468219.84644306        451843573.86195272        496161625.90443742     
  -129495434.58502036        876575284.89209521        704923141.96916401     
  -1722368610.8707492       -196506145.09911418       -227302829.88314015     
  -1454948790.8180234       -185624231.11245370       -97831039.940300569     
  -1154342105.8942230       -64119434.222221553        60385640.605264537     
  -820548556.09941673        168008245.57135755        247347211.75355166     
  -453568141.43357670        510758808.26840436        463053673.50457394     
 </DataArray>
 <DataArray  type="Float64" Name="VM" NumberOfComponents="1" format="ascii">
   5481432725.6544533     
   5426660757.1258078     
   5432485748.4749632     
   5470773965.1223259     
   5526272770.4755497     
   5455121410.9482374     
   5334915900.5225630     
   5237555612.6803932     
   5153003714.3123980     
   5076043868.8171062     
   5324556656.2562475     
   5164294992.3136492     
   5008392223.7029600     
   4854987861.7516356     
   4703004057.9400721     
   5068866927.4570494     
   4907140733.9958067     
   4743794875.1216383     
   4578785487.2528906     
   4412293108.0077524     
   4675184927.5728846     
   4558764676.9112062     
   4443486638.8860207     
   4326736133.7989149     
   4209700042.9676676     
   5526272770.4755497     
   5353713644.4518404     
   5177438658.4565840     
   4993896672.1670094     
   4801557111.7992287     
   5076043868.8171062     
   4950442575.2305651     
   4822228033.2708702     
   4690363681.9859543     
   4554825498.7655430     
   4703004057.9400721     
   4604247242.6678143     
   4504728601.7711468     
   4404532789.8926697     
   4303999504.8087234     
   4412293108.0077524     
   4321033683.8893518     
   4230453595.9914284     
   4140458608.0557275     
   4050957479.1470962     
   4209700042.9676676     
   4107273543.3445277     
   4005492351.5921025     
   3902984033.0109019     
   3798790333.8810768     
   4801557111.7992287     
   4414027084.5694885     
   4028891987.1878667     
   3646241847.0001163     
   3266327992.9727445     
   4554825498.7655430     
   4179967547.1064587     
   3807879711.3080621     
   3438702650.7600708     
   3072821365.1685534     
   4303999504.8087234     
   3948441455.5800118     
   3596987872.1557798     
   3249902927.7912712     
   2907885984.2462754     
   4050957479.1470962     
   3721210571.5397553     
   3397955665.1827564     
   3081635517.0559583     
   2773409376.1820760     
   3798790333.8810768     
   3500899537.9842796     
   3213029662.3554163     
   2935776157.8470554     
   2670759197.2161379     
   3266327992.9727445     
   3241623736.5633478     
   3221934734.0897670     
   3206565457.7315793     
   3195106683.3556228     
   3072821365.1685534     
   3046765577.2328048     
   3023778422.0773983     
   3003387185.5706906     
   2985232182.6332822     
   2907885984.2462754     
   2881159406.0370746     
   2855533108.5448003     
   2830757018.6749015     
   2806601717.1580019     
   2773409376.1820760     
   2748116698.8497162     
   2722020926.4071269     
   2695096017.3977470     
   2667343961.7526870     
   2670759197.2161379     
   2650542384.2555332     
   2627841810.4371567     
   2602871686.2068810     
   2575996206.5095363     
   3195106683.3556228     
   2990569376.2555628     
   2783067323.7961116     
   2571519790.1032615     
   2355208256.8711872     
   2985232182.6332822     
   2792005955.6458921     
   2597417980.8661866     
   2401063074.7064500     
   2202790021.0465126     
   2806601717.1580019     
   2624785481.8548746     
   2443720229.4357591     
   2263547778.9975381     
   2084616122.8378472     
   2667343961.7526870     
   2496561909.0220246     
   2328832913.7573543     
   2164609606.1515064     
   2004546381.7025924     
   2575996206.5095363     
   2415033101.1634579     
   2259232137.3813825     
   2109034356.0479839     
   1965132761.0161192     
   2355208256.8711872     
   2217377054.4959831     
   2084009648.7462435     
   1954813637.9534853     
   1829961071.3767979     
   2202790021.0465126     
   2066513568.0982099     
   1933055779.5369079     
   1802240266.6847489     
   1674096693.7757647     
   2084616122.8378472     
   1949304925.2098963     
   1815236861.9233236     
   1682345476.0319219     
   1550608927.3211722     
   2004546381.7025924     
   1871833122.1909056     
   1739158332.1041119     
   1606613921.8248005     
   1474328025.8641353     
   1965132761.0161192     
   1838941048.7531900     
   1712337129.5430970     
   1585709221.1021976     
   1459680728.4846761     
   1829961071.3767979     
   1788008150.2671328     
   1741268427.3380420     
   1698817821.7553911     
   1679795228.2997131     
   1674096693.7757647     
   1557714444.4812963     
   1431614459.7608902     
   1296235206.2000408     
   1157786197.4466352     
   1550608927.3211722     
   1400094917.1262715     
   1245932196.5202336     
   1085906373.0366800     
   918015438.84492862     
   1474328025.8641353     
   1329663616.7137821     
   1199693720.7571254     
   1088972984.3666089     
   1003484767.2465247     
   1459680728.4846761     
   1350139103.9884977     
   1275808606.0539756     
   1244732051.8329589     
   1263960864.9722335     
   1679795228.2997131     
   1382017121.9028986     
   1128512522.4634807     
   1011398811.8256528     
   1158239464.1931143     
   1157786197.4466352     
   1007253122.6594456     
   984443990.37110579     
   1161531092.9066913     
   1545773496.8596342     
   918015438.84492862     
   963140320.64208031     
   1144516184.2459581     
   1475752815.9187183     
   1956978077.1017563     
   1003484767.2465247     
   1165409642.8184118     
   1425323499.3075166     
   1807948589.6798229     
   2333418511.4127064     
   1263960864.9722335     
   1447172330.0341144     
   1715846256.2300763     
   2110274037.9334376     
   2662422976.7383895     
   4675184927.5728846     
   4558764676.9112062     
   4443486638.8860207     
   4326736133.7989149     
   4209700042.9676676     
   4253605786.6906991     
   4189699547.1530161     
   4129962336.4798083     
   4075251301.6013227     
   4027420673.0812521     
   3941533904.9277091     
   3901899403.4528270     
   3870646204.2834878     
   3847710652.3794484     
   3833201716.6825304     
   3752182408.4368019     
   3708518547.4611130     
   3676026026.7545729     
   3650059172.5079889     
   3628032502.4408665     
   3698887813.7464604     
   3622436599.6352859     
   3556408407.8845816     
   3488990600.9207745     
   3414954871.8374810     
   4209700042.9676676     
   4107273543.3445277     
   4005492351.5921025     
   3902984033.0109019     
   3798790333.8810768     
   4027420673.0812521     
   3910874182.0573068     
   3793451475.6791368     
   3674738447.3462024     
   3554391190.0471640     
   3833201716.6825304     
   3713516707.4134245     
   3593927571.7256360     
   3474499397.5455618     
   3355315499.1812921     
   3628032502.4408665     
   3516957311.8438282     
   3409344382.4799352     
   3305347390.2478786     
   3205401711.3714056     
   3414954871.8374810     
   3324265527.6786680     
   3242749954.1707315     
   3170204896.0401807     
   3107292023.7744365     
   3798790333.8810768     
   3500899537.9842796     
   3213029662.3554163     
   2935776157.8470554     
   2670759197.2161379     
   3554391190.0471640     
   3293107441.0260472     
   3042389780.8245068     
   2803066040.5312023     
   2576809324.5291634     
   3355315499.1812921     
   3126473638.0330682     
   2908411685.1225748     
   2702087791.2632504     
   2509102681.5860224     
   3205401711.3714056     
   3005182113.1846733     
   2815460565.0733442     
   2637209718.2767158     
   2471843825.7905898     
   3107292023.7744365     
   2932253777.4969358     
   2766814677.0410953     
   2611855756.0405707     
   2468527683.0551977     
   2670759197.2161379     
   2650542384.2555332     
   2627841810.4371567     
   2602871686.2068810     
   2575996206.5095363     
   2576809324.5291634     
   2560220559.1388402     
   2542700123.8952465     
   2524385099.6965580     
   2505483460.8274741     
   2509102681.5860224     
   2497762150.6775322     
   2487017876.3702316     
   2476945053.0409036     
   2467636845.2099805     
   2471843825.7905898     
   2466294546.6880527     
   2462749671.8757577     
   2461222363.8854613     
   2461720884.2301855     
   2468527683.0551977     
   2468047840.6072464     
   2470804877.5486360     
   2476745780.2141547     
   2485822580.7874870     
   2575996206.5095363     
   2415033101.1634579     
   2259232137.3813825     
   2109034356.0479839     
   1965132761.0161192     
   2505483460.8274741     
   2357722544.2533512     
   2216154348.8792496     
   2081535100.2917831     
   1954863534.3956339     
   2467636845.2099805     
   2336246284.9096546     
   2212433187.6113968     
   2097193617.2854762     
   1991738698.8002582     
   2461720884.2301855     
   2349488144.6653471     
   2246362805.3454638     
   2153440689.2268796     
   2071987154.9271374     
   2485822580.7874870     
   2394859400.0774488     
   2314478275.5448108     
   2245718120.8577924     
   2189750265.4364910     
   1965132761.0161192     
   1838941048.7531900     
   1712337129.5430970     
   1585709221.1021976     
   1459680728.4846761     
   1954863534.3956339     
   1844476708.7005794     
   1738063901.7032847     
   1636529907.3802285     
   1540996436.7941942     
   1991738698.8002582     
   1901706818.6253943     
   1819958467.7528529     
   1747595280.1865251     
   1685789284.3565285     
   2071987154.9271374     
   2003166071.3281813     
   1945991215.8101318     
   1901379304.2922590     
   1870194816.8952699     
   2189750265.4364910     
   2139924968.9766307     
   2104029674.1984653     
   2082638683.7363708     
   2076278535.0094802     
   1459680728.4846761     
   1350139103.9884977     
   1275808606.0539756     
   1244732051.8329589     
   1263960864.9722335     
   1540996436.7941942     
   1478760725.5156131     
   1449388518.8642373     
   1456866003.1705201     
   1504581562.4988184     
   1685789284.3565285     
   1655343306.5245974     
   1652873511.9006295     
   1680808253.1548586     
   1741836139.5482061     
   1870194816.8952699     
   1857491660.2340529     
   1868168676.0749023     
   1904487446.6796672     
   1969501978.9029610     
   2076278535.0094802     
   2070665103.1691051     
   2084893447.9737308     
   2121617033.2267640     
   2184589582.1370616     
   1263960864.9722335     
   1447172330.0341144     
   1715846256.2300763     
   2110274037.9334376     
   2662422976.7383895     
   1504581562.4988184     
   1613131154.4804683     
   1788991537.0981808     
   2066675005.6408315     
   2476054528.4908333     
   1741836139.5482061     
   1787232407.3617258     
   1884751353.8683999     
   2061170142.0448158     
   2341552902.2606220     
   1969501978.9029610     
   1968411621.5035117     
   2003694979.4226794     
   2094023296.1288476     
   2258075665.7902846     
   2184589582.1370616     
   2155938518.2065082     
   2146565862.9495609     
   2167116117.5027270     
   2228841455.8207664     
   3698887813.7464604     
   3622436599.6352859     
   3556408407.8845816     
   3488990600.9207745     
   3414954871.8374810     
   3641623208.4953289     
   3522306051.1561604     
   3403101976.2039366     
   3281009686.5215745     
   3154791284.1846447     
   3526182402.0018167     
   3382736999.1128421     
   3238871651.0085545     
   3094598017.8386574     
   2949948363.3857489     
   3348119391.6452527     
   3204079450.9102221     
   3067335605.2833104     
   2935867765.8890462     
   2808945555.0046096     
   3110205729.7441778     
   2990980010.4781003     
   2894610918.2436242     
   2811646700.5212960     
   2738937722.6322231     
   3414954871.8374810     
   3324265527.6786680     
   3242749954.1707315     
   3170204896.0401807     
   3107292023.7744365     
   3154791284.1846447     
   3097532663.5928068     
   3051182737.3735485     
   3016314051.9229727     
   2993885882.4815669     
   2949948363.3857489     
   2919494888.6229296     
   2901975758.5816526     
   2898027811.6428270     
   2908387843.0356345     
   2808945555.0046096     
   2796441766.6544404     
   2799128587.1457772     
   2816984437.1246319     
   2850117275.6620083     
   2738937722.6322231     
   2733249173.3939543     
   2745264406.4354234     
   2773665141.6931729     
   2817660819.7179589     
   3107292023.7744365     
   2932253777.4969358     
   2766814677.0410953     
   2611855756.0405707     
   2468527683.0551977     
   2993885882.4815669     
   2839397996.9979482     
   2693999982.7714839     
   2558495095.1341534     
   2433873360.1979818     
   2908387843.0356345     
   2773273695.9544063     
   2646511682.5615630     
   2528799063.5005689     
   2420953275.9528284     
   2850117275.6620083     
   2733449576.0817428     
   2624194413.1230545     
   2522922113.6652684     
   2430275330.4898257     
   2817660819.7179589     
   2718771996.6289296     
   2626198982.0323277     
   2540371984.3966179     
   2461764770.9743152     
   2468527683.0551977     
   2468047840.6072464     
   2470804877.5486360     
   2476745780.2141547     
   2485822580.7874870     
   2433873360.1979818     
   2439927097.1768456     
   2450373322.0423813     
   2465272751.4773970     
   2484677073.7714477     
   2420953275.9528284     
   2435056165.8358021     
   2454847676.6142826     
   2480464032.6384010     
   2512028015.0882702     
   2430275330.4898257     
   2453206882.8756170     
   2483247118.9321995     
   2520572404.9752131     
   2565351240.9053574     
   2461764770.9743152     
   2493519996.3736615     
   2533950551.9119959     
   2583245510.7880063     
   2641600650.6503973     
   2485822580.7874870     
   2394859400.0774488     
   2314478275.5448108     
   2245718120.8577924     
   2189750265.4364910     
   2484677073.7714477     
   2415762551.8054113     
   2357617045.6700187     
   2311000866.1689954     
   2276693528.7105942     
   2512028015.0882702     
   2462031618.9445310     
   2422509150.6183434     
   2393937243.3216376     
   2376762513.8957701     
   2565351240.9053574     
   2530708535.6120367     
   2505890711.0765285     
   2491133434.0033150     
   2486640626.4556465     
   2641600650.6503973     
   2618586092.6422343     
   2604527612.5350976     
   2599478292.5494242     
   2603487173.4838681     
   2189750265.4364910     
   2139924968.9766307     
   2104029674.1984653     
   2082638683.7363708     
   2076278535.0094802     
   2276693528.7105942     
   2239023573.5459619     
   2214698229.9626117     
   2204087615.8586674     
   2207523781.1756206     
   2376762513.8957701     
   2349069774.2699227     
   2334168378.6347113     
   2332291752.3681998     
   2343650852.6920404     
   2486640626.4556465     
   2466936208.5466747     
   2459596093.2523026     
   2464767700.9347334     
   2482590153.5715780     
   2603487173.4838681     
   2590030678.4979868     
   2588695782.9117799     
   2599578320.1767459     
   2622775886.3766322     
   2076278535.0094802     
   2070665103.1691051     
   2084893447.9737308     
   2121617033.2267640     
   2184589582.1370616     
   2207523781.1756206     
   2192252775.3732448     
   2192285446.1627884     
   2209592344.4563136     
   2247055750.6104770     
   2343650852.6920404     
   2319223017.0472732     
   2306364766.7246938     
   2306478542.9968481     
   2321637827.5511975     
   2482590153.5715780     
   2450522843.3348103     
   2426784811.5107136     
   2412321777.9667478     
   2408515829.0917683     
   2622775886.3766322     
   2585311098.2669730     
   2553238330.5415826     
   2527146057.0617199     
   2507863280.9050121     
   2184589582.1370616     
   2155938518.2065082     
   2146565862.9495609     
   2167116117.5027270     
   2228841455.8207664     
   2247055750.6104770     
   2182566009.9220438     
   2134344445.4633691     
   2112131323.1721466     
   2126975670.5618179     
   2321637827.5511975     
   2224766675.6540337     
   2141208928.3774767     
   2079358576.0700352     
   2049432382.9956248     
   2408515829.0917683     
   2282839488.9692807     
   2167806156.1717768     
   2070147277.3103077     
   1998611856.7775466     
   2507863280.9050121     
   2357002200.2585845     
   2214607767.9761286     
   2085626215.5105011     
   1976865004.2870679     
   3110205729.7441778     
   2990980010.4781003     
   2894610918.2436242     
   2811646700.5212960     
   2738937722.6322231     
   2792002947.0075850     
   2751125692.4100113     
   2728865292.0157228     
   2719883786.2416325     
   2722944332.7524533     
   2572512815.4652009     
   2596281925.5235968     
   2633957657.8472018     
   2683169773.1583261     
   2743534571.9865789     
   2453027360.1161923     
   2525957114.1852179     
   2607538902.1680326     
   2697185990.6772056     
   2794826731.5137258     
   2426897801.5926223     
   2533217258.8952856     
   2642605127.4523501     
   2755061407.2637873     
   2870586098.3295970     
   2738937722.6322231     
   2733249173.3939543     
   2745264406.4354234     
   2773665141.6931729     
   2817660819.7179589     
   2722944332.7524533     
   2718645571.3007064     
   2724333427.5366850     
   2739143710.5941892     
   2762515422.6140952     
   2743534571.9865789     
   2736113453.3616519     
   2730885949.0542393     
   2727467150.5999031     
   2725609652.1638789     
   2794826731.5137258     
   2783887665.8651977     
   2767411557.5762830     
   2745315132.2693124     
   2717552976.3167334     
   2870586098.3295970     
   2859475461.1485724     
   2835576941.6286931     
   2798890539.7699537     
   2749416255.5723495     
   2817660819.7179589     
   2718771996.6289296     
   2626198982.0323277     
   2540371984.3966179     
   2461764770.9743152     
   2762515422.6140952     
   2661136051.1477184     
   2573389482.7148042     
   2499855743.1937680     
   2441132710.9157033     
   2725609652.1638789     
   2622521928.7277918     
   2540287375.9103913     
   2479369829.1776042     
   2440223752.4558525     
   2717552976.3167334     
   2609699962.1633277     
   2529946679.0836792     
   2478473838.8323889     
   2455451302.6954107     
   2749416255.5723495     
   2629374297.6747417     
   2544994618.3666821     
   2496277217.6481729     
   2483222095.5192080     
   2461764770.9743152     
   2493519996.3736615     
   2533950551.9119959     
   2583245510.7880063     
   2641600650.6503973     
   2441132710.9157033     
   2488073571.4558930     
   2540375942.4170456     
   2598119459.1788640     
   2661387018.5657439     
   2440223752.4558525     
   2499126084.2833490     
   2559973442.5479236     
   2622793839.7235732     
   2687616745.4012074     
   2455451302.6954107     
   2524121443.8932753     
   2591246300.0679870     
   2656832088.3221245     
   2720885440.9169827     
   2483222095.5192080     
   2560466428.5926781     
   2632640676.5783181     
   2699744839.4761200     
   2761778917.2860961     
   2641600650.6503973     
   2618586092.6422343     
   2604527612.5350976     
   2599478292.5494242     
   2603487173.4838681     
   2661387018.5657439     
   2639539119.0745535     
   2628001289.1223435     
   2626830975.6605129     
   2636076799.3615694     
   2687616745.4012074     
   2666364128.9591079     
   2656876306.1361327     
   2659192058.8704605     
   2673342703.3319750     
   2720885440.9169827     
   2699145278.5009971     
   2690784886.5969243     
   2695817564.6067824     
   2714253699.2752094     
   2761778917.2860961     
   2737956837.3287401     
   2729363458.1151419     
   2735998779.6453009     
   2757862801.9192171     
   2603487173.4838681     
   2590030678.4979868     
   2588695782.9117799     
   2599578320.1767459     
   2622775886.3766322     
   2636076799.3615694     
   2627017029.2811713     
   2628432133.3066726     
   2640362677.3185067     
   2662853893.8347068     
   2673342703.3319750     
   2667990957.2856755     
   2671663470.3330259     
   2684373323.8551307     
   2706136966.3687592     
   2714253699.2752094     
   2712253743.4798026     
   2717979106.7306762     
   2731432023.7685165     
   2752615822.3928432     
   2757862801.9192171     
   2759157433.4504967     
   2766990919.2875075     
   2781363259.4302578     
   2802274453.8787436     
   2622775886.3766322     
   2585311098.2669730     
   2553238330.5415826     
   2527146057.0617199     
   2507863280.9050121     
   2662853893.8347068     
   2617495352.6333122     
   2577625031.2251468     
   2543579939.0001559     
   2515835766.4839606     
   2706136966.3687592     
   2655084611.3184638     
   2609750730.2128329     
   2570286442.1945477     
   2536904960.9827890     
   2752615822.3928432     
   2698037651.5855803     
   2649548312.6961660     
   2607185591.0139270     
   2571002640.3501101     
   2802274453.8787436     
   2746301447.2021022     
   2696934433.0914612     
   2654173411.5468230     
   2618018382.5681725     
   2507863280.9050121     
   2357002200.2585845     
   2214607767.9761286     
   2085626215.5105011     
   1976865004.2870679     
   2515835766.4839606     
   2347873111.4320841     
   2183599331.7684898     
   2026095564.1111529     
   1879888459.9223669     
   2536904960.9827890     
   2356890092.2620406     
   2176576537.8361840     
   1997428282.7491927     
   1821708151.0354438     
   2571002640.3501101     
   2384146020.9738312     
   2194002866.6857510     
   2000949869.6512220     
   1805588023.7073450     
   2618018382.5681725     
   2429599216.1823549     
   2236017122.0109849     
   2037272100.0540717     
   1833364150.3116231     
   2426897801.5926223     
   2533217258.8952856     
   2642605127.4523501     
   2755061407.2637873     
   2870586098.3295970     
   2453027018.1069703     
   2525956886.3376713     
   2607538768.6379547     
   2697185938.9146657     
   2794826751.3928089     
   2572512287.7953663     
   2596281578.6655693     
   2633957460.9514093     
   2683169697.7638407     
   2743534590.7595248     
   2792002336.5553889     
   2751125296.1979914     
   2728865076.1510968     
   2719883703.1791763     
   2722944329.7874527     
   3110205082.8237896     
   2990979590.8312249     
   2894610697.0735178     
   2811646610.9373174     
   2738937679.8667464     
   2870586098.3295970     
   2859475461.1485724     
   2835576941.6286931     
   2798890539.7699537     
   2749416255.5723495     
   2794826751.3928089     
   2783887676.7914934     
   2767411559.1058021     
   2745315124.2727427     
   2717552958.8133721     
   2743534590.7595248     
   2736113459.4140010     
   2730885942.7297044     
   2727467132.3056192     
   2725609622.2890816     
   2722944329.7874527     
   2718645556.6241055     
   2724333403.5201640     
   2739143678.8353977     
   2762515384.1973286     
   2738937679.8667464     
   2733249123.5746822     
   2745264355.2527637     
   2773665092.7051792     
   2817660775.1916556     
   2749416255.5723495     
   2629374297.6747417     
   2544994618.3666821     
   2496277217.6481729     
   2483222095.5192080     
   2717552958.8133721     
   2609699949.3749704     
   2529946670.4445734     
   2478473833.8906565     
   2455451301.0802264     
   2725609622.2890816     
   2622521907.0124779     
   2540287361.0848475     
   2479369820.0863771     
   2440223748.0247240     
   2762515384.1973286     
   2661136023.5865259     
   2573389463.8381200     
   2499855730.8398361     
   2441132702.9218283     
   2817660775.1916556     
   2718771965.4071946     
   2626198960.8128834     
   2540371969.7185335     
   2461764759.2377210     
   2483222095.5192080     
   2560466428.5926781     
   2632640676.5783181     
   2699744839.4761200     
   2761778917.2860961     
   2455451301.0802264     
   2524121441.1922283     
   2591246296.6839447     
   2656832084.6621671     
   2720885437.3927417     
   2440223748.0247240     
   2499126078.0590463     
   2559973435.3698988     
   2622793832.4283738     
   2687616738.8209329     
   2441132702.9218283     
   2488073561.1746478     
   2540375931.1606712     
   2598119448.2444177     
   2661387009.2279987     
   2461764759.2377210     
   2493519981.8582449     
   2533950536.4469123     
   2583245496.1822710     
   2641600638.6742926     
   2761778917.2860961     
   2737956837.3287401     
   2729363458.1151419     
   2735998779.6453009     
   2757862801.9192171     
   2720885437.3927417     
   2699145276.2193694     
   2690784885.4557753     
   2695817564.4985576     
   2714253700.0886374     
   2687616738.8209329     
   2666364124.6357827     
   2656876303.8543601     
   2659192058.4069095     
   2673342704.4570341     
   2661387009.2279987     
   2639539112.8133612     
   2628001285.5963397     
   2626830974.5201373     
   2636076800.2488484     
   2641600638.6742926     
   2618586084.4048047     
   2604527607.5533037     
   2599478290.3340220     
   2603487173.5356979     
   2757862801.9192171     
   2759157433.4504967     
   2766990919.2875075     
   2781363259.4302578     
   2802274453.8787436     
   2714253700.0886374     
   2712253744.2125735     
   2717979107.3211389     
   2731432024.1556406     
   2752615822.5153065     
   2673342704.4570341     
   2667990958.4508162     
   2671663471.4170256     
   2684373324.7367506     
   2706136966.9267802     
   2636076800.2488484     
   2627017030.5446563     
   2628432134.7661104     
   2640362678.7913256     
   2662853895.1387248     
   2603487173.5356979     
   2590030679.4904995     
   2588695784.6056290     
   2599578322.3252444     
   2622775888.7332115     
   2802274453.8787436     
   2746301447.2021022     
   2696934433.0914612     
   2654173411.5468230     
   2618018382.5681725     
   2752615822.5153065     
   2698037651.8596258     
   2649548313.1053133     
   2607185591.5418344     
   2571002640.9817429     
   2706136966.9267802     
   2655084612.0807877     
   2609750731.1461802     
   2570286443.2648392     
   2536904962.1549344     
   2662853895.1387248     
   2617495354.0973721     
   2577625032.7983780     
   2543579940.6289740     
   2515835768.1077747     
   2622775888.7332115     
   2585311100.6447515     
   2553238332.8706350     
   2527146059.2666607     
   2507863282.8943067     
   2618018382.5681725     
   2429599216.1823549     
   2236017122.0109849     
   2037272100.0540717     
   1833364150.3116231     
   2571002640.9817429     
   2384146021.3355379     
   2194002866.7542768     
   2000949869.3840964     
   1805588023.0298920     
   2536904962.1549344     
   2356890092.9444151     
   2176576537.9862614     
   1997428282.2949338     
   1821708149.8596373     
   2515835768.1077747     
   2347873112.3974600     
   2183599332.0196404     
   2026095563.5634048     
   1879888458.4547722     
   2507863282.8943067     
   2357002201.4729986     
   2214607768.3535347     
   2085626214.9708538     
   1976865002.7397330     
   3110205082.8237896     
   2990979590.8312249     
   2894610697.0735178     
   2811646610.9373174     
   2738937679.8667464     
   3348118974.6879063     
   3204079198.0333486     
   3067335475.7038484     
   2935867706.0678663     
   2808945503.8163366     
   3526182109.3394256     
   3382736825.2686586     
   3238871559.0808225     
   3094597970.3297410     
   2949948321.7404604     
   3641622987.3136134     
   3522305911.9324389     
   3403101898.1581907     
   3281009650.1520176     
   3154791271.0419712     
   3698887654.0095992     
   3622436484.7671056     
   3556408344.0938425     
   3488990587.4514890     
   3414954905.9174218     
   2738937679.8667464     
   2733249123.5746822     
   2745264355.2527637     
   2773665092.7051792     
   2817660775.1916556     
   2808945503.8163366     
   2796441712.4704671     
   2799128534.5138326     
   2816984389.8700843     
   2850117237.1202126     
   2949948321.7404604     
   2919494842.8494854     
   2901975712.3704910     
   2898027768.8392167     
   2908387807.6330047     
   3154791271.0419712     
   3097532640.1485777     
   3051182706.8359427     
   3016314017.9026666     
   2993885849.0935750     
   3414954905.9174218     
   3324265540.6794505     
   3242749949.2503953     
   3170204876.3811574     
   3107291993.0192604     
   2817660775.1916556     
   2718771965.4071946     
   2626198960.8128834     
   2540371969.7185335     
   2461764759.2377210     
   2850117237.1202126     
   2733449548.0588846     
   2624194393.5441437     
   2522922100.3475900     
   2430275321.1349926     
   2908387807.6330047     
   2773273668.7808466     
   2646511662.8955998     
   2528799050.5683837     
   2420953268.9101725     
   2993885849.0935750     
   2839397969.4606733     
   2693999961.7495708     
   2558495081.3142767     
   2433873354.2859235     
   3107291993.0192604     
   2932253749.5617356     
   2766814653.9146471     
   2611855739.8360705     
   2468527676.0571465     
   2461764759.2377210     
   2493519981.8582449     
   2533950536.4469123     
   2583245496.1822710     
   2641600638.6742926     
   2430275321.1349926     
   2453206872.8106675     
   2483247109.1440678     
   2520572396.4319081     
   2565351234.5448780     
   2420953268.9101725     
   2435056160.0707045     
   2454847672.3172755     
   2480464029.9656057     
   2512028014.1571503     
   2433873354.2859235     
   2439927094.8166556     
   2450373322.6669931     
   2465272754.4506969     
   2484677078.3901811     
   2468527676.0571465     
   2468047840.0445967     
   2470804882.1473060     
   2476745788.5802240     
   2485822591.4146223     
   2641600638.6742926     
   2618586084.4048047     
   2604527607.5533037     
   2599478290.3340220     
   2603487173.5356979     
   2565351234.5448780     
   2530708531.7882099     
   2505890709.4303069     
   2491133434.1605468     
   2486640628.0275292     
   2512028014.1571503     
   2462031619.5133576     
   2422509152.4527478     
   2393937246.1619639     
   2376762517.4594259     
   2484677078.3901811     
   2415762557.0077100     
   2357617051.3508434     
   2311000872.1869760     
   2276693534.8896461     
   2485822591.4146223     
   2394859410.4402490     
   2314478285.6763954     
   2245718130.7442708     
   2189750275.0144601     
   2603487173.5356979     
   2590030679.4904995     
   2588695784.6056290     
   2599578322.3252444     
   2622775888.7332115     
   2486640628.0275292     
   2466936210.8034530     
   2459596096.0840116     
   2464767704.2214484     
   2482590157.1898470     
   2376762517.4594259     
   2349069778.1144018     
   2334168382.7704563     
   2332291756.7990203     
   2343650857.4190254     
   2276693534.8896461     
   2239023579.4225225     
   2214698235.6560655     
   2204087621.4942036     
   2207523786.8843141     
   2189750275.0144601     
   2139924977.4672296     
   2104029681.8103902     
   2082638690.7092869     
   2076278541.6096802     
   2622775888.7332115     
   2585311100.6447515     
   2553238332.8706350     
   2527146059.2666607     
   2507863282.8943067     
   2482590157.1898470     
   2450522846.6402378     
   2426784814.4656386     
   2412321780.5305085     
   2408515831.2101016     
   2343650857.4190254     
   2319223021.1847563     
   2306364770.2660751     
   2306478545.9354725     
   2321637829.8722768     
   2207523786.8843141     
   2192252780.2658682     
   2192285450.2625823     
   2209592347.7908225     
   2247055753.2085247     
   2076278541.6096802     
   2070665108.7649422     
   2084893452.6176834     
   2121617036.9831371     
   2184589585.0861688     
   2507863282.8943067     
   2357002201.4729986     
   2214607768.3535347     
   2085626214.9708538     
   1976865002.7397330     
   2408515831.2101016     
   2282839490.2637992     
   2167806156.5763035     
   2070147276.7487454     
   1998611855.1775272     
   2321637829.8722768     
   2224766677.1059713     
   2141208928.8974998     
   2079358575.5957317     
   2049432381.4826038     
   2247055753.2085247     
   2182566011.6102648     
   2134344446.1887729     
   2112131322.8925893     
   2126975669.2641010     
   2184589585.0861688     
   2155938520.2100902     
   2146565863.9691226     
   2167116117.5195351     
   2228841454.8504004     
   3698887654.0095992     
   3622436484.7671056     
   3556408344.0938425     
   3488990587.4514890     
   3414954905.9174218     
   3752182219.7382913     
   3708518401.9812145     
   3676025940.2468204     
   3650059155.6038446     
   3628032563.4540482     
   3941533782.8026981     
   3901899301.7822576     
   3870646143.8149080     
   3847710651.4840121     
   3833201792.4923830     
   4253605839.7427392     
   4189699569.8013096     
   4129962352.3917713     
   4075251334.5862346     
   4027420747.6028571     
   4675185267.2781935     
   4558764903.9216938     
   4443486779.7701120     
   4326736216.5558844     
   4209700097.5129328     
   3414954905.9174218     
   3324265540.6794505     
   3242749949.2503953     
   3170204876.3811574     
   3107291993.0192604     
   3628032563.4540482     
   3516957350.9490104     
   3409344399.8787327     
   3305347386.0710573     
   3205401685.9427476     
   3833201792.4923830     
   3713516763.4366722     
   3593927605.5037155     
   3474499406.5605369     
   3355315480.9144688     
   4027420747.6028571     
   3910874242.9943495     
   3793451518.1988635     
   3674738466.7662663     
   3554391181.7171912     
   4209700097.5129328     
   4107273595.3477421     
   4005492394.1603765     
   3902984059.8136168     
   3798790338.9066586     
   3107291993.0192604     
   2932253749.5617356     
   2766814653.9146471     
   2611855739.8360705     
   2468527676.0571465     
   3205401685.9427476     
   3005182087.7327261     
   2815460541.7438431     
   2637209699.4524965     
   2471843814.1973810     
   3355315480.9144688     
   3126473616.9000030     
   2908411663.3229208     
   2702087771.3948965     
   2509102666.8404593     
   3554391181.7171912     
   3293107426.8817458     
   3042389762.9950719     
   2803066021.7452726     
   2576809308.4321718     
   3798790338.9066586     
   3500899534.0528288     
   3213029651.3873873     
   2935776142.5918813     
   2670759181.7211685     
   2468527676.0571465     
   2468047840.0445967     
   2470804882.1473060     
   2476745788.5802240     
   2485822591.4146223     
   2471843814.1973810     
   2466294542.1268749     
   2462749673.3491321     
   2461222370.2846165     
   2461720894.3397045     
   2509102666.8404593     
   2497762143.6444545     
   2487017876.2517519     
   2476945058.9485221     
   2467636856.1711287     
   2576809308.4321718     
   2560220551.4215837     
   2542700123.8860111     
   2524385106.6618896     
   2505483473.9853630     
   2670759181.7211685     
   2650542377.7241101     
   2627841812.2550988     
   2602871695.7289114     
   2575996223.0829287     
   2485822591.4146223     
   2394859410.4402490     
   2314478285.6763954     
   2245718130.7442708     
   2189750275.0144601     
   2461720894.3397045     
   2349488154.4850798     
   2246362815.0059843     
   2153440698.8306026     
   2071987164.5494735     
   2467636856.1711287     
   2336246295.2464871     
   2212433197.5161428     
   2097193626.9504309     
   1991738708.4235775     
   2505483473.9853630     
   2357722556.1547060     
   2216154359.7278662     
   2081535110.3226299     
   1954863543.8848536     
   2575996223.0829287     
   2415033115.5762267     
   2259232149.7917881     
   2109034366.6738703     
   1965132770.1447618     
   2189750275.0144601     
   2139924977.4672296     
   2104029681.8103902     
   2082638690.7092869     
   2076278541.6096802     
   2071987164.5494735     
   2003166079.8497646     
   1945991223.3816693     
   1901379311.0939674     
   1870194823.1370544     
   1991738708.4235775     
   1901706827.1328189     
   1819958475.2402141     
   1747595286.7738962     
   1685789290.1929390     
   1954863543.8848536     
   1844476717.0812714     
   1738063909.0189447     
   1636529913.6891923     
   1540996442.1762967     
   1965132770.1447618     
   1838941056.8199351     
   1712337136.5432034     
   1585709227.0356786     
   1459680733.3607602     
   2076278541.6096802     
   2070665108.7649422     
   2084893452.6176834     
   2121617036.9831371     
   2184589585.0861688     
   1870194823.1370544     
   1857491665.5626948     
   1868168680.5216005     
   1904487450.2893832     
   1969501981.7407961     
   1685789290.1929390     
   1655343311.5419104     
   1652873516.1085262     
   1680808256.5779464     
   1741836142.2367392     
   1540996442.1762967     
   1478760730.1784413     
   1449388522.7979307     
   1456866006.3755472     
   1504581565.0065818     
   1459680733.3607602     
   1350139108.2438357     
   1275808609.6741104     
   1244732054.7939787     
   1263960867.2761846     
   2184589585.0861688     
   2155938520.2100902     
   2146565863.9691226     
   2167116117.5195351     
   2228841454.8504004     
   1969501981.7407961     
   1968411623.4065928     
   2003694980.3514557     
   2094023296.0942588     
   2258075664.8750486     
   1741836142.2367392     
   1787232409.1610591     
   1884751354.7468245     
   2061170142.0512919     
   2341552901.5416160     
   1504581565.0065818     
   1613131156.1740358     
   1788991537.9604657     
   2066675005.7609398     
   2476054528.0653610     
   1263960867.2761846     
   1447172331.6212914     
   1715846257.1020973     
   2110274038.2197545     
   2662422976.6722927     
   4675185267.2781935     
   4558764903.9216938     
   4443486779.7701120     
   4326736216.5558844     
   4209700097.5129328     
   5068867421.4274216     
   4907141099.1785088     
   4743795119.7412224     
   4578785619.7733574     
   4412293137.7243290     
   5324557186.5904665     
   5164295409.0711994     
   5008392510.8797579     
   4854988007.9119997     
   4703004054.1134758     
   5455121819.3254995     
   5334916258.2740812     
   5237555868.5151043     
   5153003833.6890993     
   5076043826.7854366     
   5481432815.0005627     
   5426660923.0779848     
   5432485888.4287043     
   5470774014.4565182     
   5526272688.3228579     
   4209700097.5129328     
   4107273595.3477421     
   4005492394.1603765     
   3902984059.8136168     
   3798790338.9066586     
   4412293137.7243290     
   4321033717.6821051     
   4230453630.0964270     
   4140458638.7063031     
   4050957502.5722799     
   4703004054.1134758     
   4604247251.3703299     
   4504728622.3310137     
   4404532821.5676069     
   4303999546.5602856     
   5076043826.7854366     
   4950442555.1775703     
   4822228036.8556671     
   4690363711.4650707     
   4554825556.2521334     
   5526272688.3228579     
   5353713594.3137264     
   5177438642.9611759     
   4993896695.9941978     
   4801557180.3269243     
   3798790338.9066586     
   3500899534.0528288     
   3213029651.3873873     
   2935776142.5918813     
   2670759181.7211685     
   4050957502.5722799     
   3721210586.7411103     
   3397955672.6658421     
   3081635517.8340383     
   2773409372.0244913     
   4303999546.5602856     
   3948441492.3395576     
   3596987903.2817998     
   3249902952.8676505     
   2907886003.0932803     
   4554825556.2521334     
   4179967606.2358503     
   3807879770.5228071     
   3438702708.5735288     
   3072821420.0039372     
   4801557180.3269243     
   4414027165.4584398     
   4028892078.1616697     
   3646241945.8692079     
   3266328097.4049602     
   2670759181.7211685     
   2650542377.7241101     
   2627841812.2550988     
   2602871695.7289114     
   2575996223.0829287     
   2773409372.0244913     
   2748116698.8936052     
   2722020931.1830029     
   2695096027.5619807     
   2667343978.0688577     
   2907886003.0932803     
   2881159421.6432786     
   2855533122.0513315     
   2830757031.4117508     
   2806601730.6138568     
   3072821420.0039372     
   3046765618.2552233     
   3023778450.4372034     
   3003387202.6563492     
   2985232190.0617671     
   3266328097.4049602     
   3241623813.1737847     
   3221934783.4317236     
   3206565480.7095704     
   3195106681.2672534     
   2575996223.0829287     
   2415033115.5762267     
   2259232149.7917881     
   2109034366.6738703     
   1965132770.1447618     
   2667343978.0688577     
   2496561923.4764271     
   2328832926.2349949     
   2164609616.5373325     
   2004546389.8839238     
   2806601730.6138568     
   2624785494.2465630     
   2443720240.4902577     
   2263547788.4084787     
   2084616130.2579396     
   2985232190.0617671     
   2792005963.4970164     
   2597417988.7932582     
   2401063082.3396502     
   2202790027.9864631     
   3195106681.2672534     
   2990569376.9202218     
   2783067326.8345842     
   2571519795.1711574     
   2355208263.6740537     
   1965132770.1447618     
   1838941056.8199351     
   1712337136.5432034     
   1585709227.0356786     
   1459680733.3607602     
   2004546389.8839238     
   1871833129.2695966     
   1739158338.1032650     
   1606613926.7695427     
   1474328029.7822559     
   2084616130.2579396     
   1949304931.4784741     
   1815236867.0975308     
   1682345480.1657493     
   1550608930.4684925     
   2202790027.9864631     
   2066513573.7887063     
   1933055784.0713832     
   1802240270.1458495     
   1674096696.2458494     
   2355208263.6740537     
   2217377059.8629990     
   2084009652.8078055     
   1954813640.8203924     
   1829961073.1625047     
   1459680733.3607602     
   1350139108.2438357     
   1275808609.6741104     
   1244732054.7939787     
   1263960867.2761846     
   1474328029.7822559     
   1329663620.1155324     
   1199693723.6163266     
   1088972986.6607661     
   1003484768.9691616     
   1550608930.4684925     
   1400094919.8026195     
   1245932198.6838064     
   1085906374.6517367     
   918015439.88030148     
   1674096696.2458494     
   1557714446.5367329     
   1431614461.3438118     
   1296235207.2572522     
   1157786197.9440575     
   1829961073.1625047     
   1788008151.7389016     
   1741268428.4366257     
   1698817822.4427979     
   1679795228.6011746     
   1263960867.2761846     
   1447172331.6212914     
   1715846257.1020973     
   2110274038.2197545     
   2662422976.6722927     
   1003484768.9691616     
   1165409644.0308623     
   1425323499.9669333     
   1807948589.8834181     
   2333418511.3564539     
   918015439.88030148     
   963140321.43217492     
   1144516184.6720212     
   1475752816.0221214     
   1956978077.0445688     
   1157786197.9440575     
   1007253123.0226231     
   984443990.54696298     
   1161531092.8937798     
   1545773496.7894378     
   1679795228.6011746     
   1382017122.0367460     
   1128512522.4517388     
   1011398811.6959333     
   1158239464.0887697     
 </DataArray>
 <DataArray  type="Float64" Name="strain" NumberOfComponents="3" format="ascii">
   8.9165933769653094E-002  -3.4099477595382344E-002  -1.1231379995803259E-002
   9.0044518310163801E-002  -2.8718316563247193E-002  -2.0739868690159424E-003
   9.0923102850674509E-002  -2.5233121355962895E-002   4.3604838450038708E-003
   9.1801687391185161E-002  -2.3643891973529535E-002   8.0720321462562916E-003
   9.2680271931695812E-002  -2.3950628415946862E-002   9.0606580347415422E-003
   9.0030284998323884E-002  -3.0698952077748309E-002   1.9831971286153882E-003
   8.8675095498147394E-002  -2.7080631193058202E-002   7.3229302272158070E-003
   8.7319905997971015E-002  -2.4632717722413405E-002   1.0918037657210222E-002
   8.5964716497794580E-002  -2.3355211665813815E-002   1.2768519418597524E-002
   8.4609526997618201E-002  -2.3248113023259465E-002   1.2874375511378322E-002
   8.8121014446175372E-002  -2.7298426560114386E-002   1.3072154900186317E-002
   8.5510347649472823E-002  -2.5442945822869212E-002   1.5319786381405825E-002
   8.2899680852770136E-002  -2.4032314088863971E-002   1.6801088938179665E-002
   8.0289014056067615E-002  -2.3066531358098205E-002   1.7516062570507626E-002
   7.7678347259364927E-002  -2.2545597630572234E-002   1.7464707278389641E-002
   8.3438122113207891E-002  -2.3897901042480407E-002   2.2035493318909666E-002
   8.0550274764139923E-002  -2.3805260452680346E-002   2.1916581593553523E-002
   7.7662427415071941E-002  -2.3431910455314398E-002   2.2009637687912600E-002
   7.4774580066003932E-002  -2.2777851050382540E-002   2.2314661601986613E-002
   7.1886732716935922E-002  -2.1843082237884809E-002   2.2831653335775727E-002
   7.5981607999421330E-002  -2.0497375524846428E-002   2.8873212384785074E-002
   7.3794876842148749E-002  -2.2167575082491342E-002   2.7113315863658949E-002
   7.1608145684876279E-002  -2.2831506821764810E-002   2.6543683906408849E-002
   6.9421414527603698E-002  -2.2489170742666886E-002   2.7164316513034650E-002
   6.7234683370331172E-002  -2.1140566845197495E-002   2.8975213683536061E-002
   9.2680271931695812E-002  -2.3950628415946862E-002   9.0606580347415422E-003
   8.9584029273876042E-002  -2.4818832374783661E-002   5.4906152534773822E-003
   8.6487786616056272E-002  -2.4914005541609469E-002   3.0642852139221022E-003
   8.3391543958236447E-002  -2.4236147916422972E-002   1.7816679160752857E-003
   8.0295301300416733E-002  -2.2785259499225496E-002   1.6427633599366276E-003
   8.4609526997618201E-002  -2.3248113023259465E-002   1.2874375511378322E-002
   8.2456532931601656E-002  -2.3477606003324852E-002   1.0878561256442737E-002
   8.0303538865585139E-002  -2.3209874814583947E-002   9.6255314434050554E-003
   7.8150544799568622E-002  -2.2444919457036923E-002   9.1152860722656798E-003
   7.5997550733552077E-002  -2.1182739930683758E-002   9.3478251430245130E-003
   7.7678347259364927E-002  -2.2545597630572234E-002   1.7464707278389641E-002
   7.6067673485341422E-002  -2.2136379631865599E-002   1.6767314926576543E-002
   7.4456999711317889E-002  -2.1505744087558440E-002   1.6411778716851441E-002
   7.2846325937294398E-002  -2.0653690997650655E-002   1.6398098649214501E-002
   7.1235652163270852E-002  -1.9580220362142131E-002   1.6726274723665224E-002
   7.1886732716935922E-002  -2.1843082237884809E-002   2.2831653335775727E-002
   7.0417450935095244E-002  -2.0795153260406513E-002   2.3156876263879710E-002
   6.8948169153254607E-002  -1.9801613360533148E-002   2.3423027034261513E-002
   6.7478887371413887E-002  -1.8862462538264388E-002   2.3630105646921265E-002
   6.6009605589573278E-002  -1.7977700793600448E-002   2.3778112101858651E-002
   6.7234683370331172E-002  -2.1140566845197495E-002   2.8975213683536061E-002
   6.5505865280863163E-002  -1.9453926888947509E-002   3.0047245268351924E-002
   6.3777047191395153E-002  -1.8097482633507481E-002   3.0659276395635177E-002
   6.2048229101927185E-002  -1.7071234078878273E-002   3.0811307065386276E-002
   6.0319411012459190E-002  -1.6375181225058821E-002   3.0503337277604625E-002
   8.0295301300416733E-002  -2.2785259499225496E-002   1.6427633599366276E-003
   7.3799899208191189E-002  -2.1035969661247156E-002   8.8327093882911711E-004
   6.7304497115965700E-002  -1.9462907773719396E-002   2.5863473373743950E-004
   6.0809095023740184E-002  -1.8066073836642216E-002  -2.3114525533823871E-004
   5.4313692931514668E-002  -1.6845467850015394E-002  -5.8606902839830610E-004
   7.5997550733552077E-002  -2.1182739930683758E-002   9.3478251430245130E-003
   6.9708512001916800E-002  -1.9741195523695465E-002   8.0383306840813851E-003
   6.3419473270281551E-002  -1.8438145524243110E-002   7.0067067303034025E-003
   5.7130434538646330E-002  -1.7273589932326763E-002   6.2529532816898853E-003
   5.0841395807011025E-002  -1.6247528747946327E-002   5.7770703382407085E-003
   7.1235652163270852E-002  -1.9580220362142131E-002   1.6726274723665224E-002
   6.5295991081374571E-002  -1.8446421386143913E-002   1.4904511769801676E-002
   5.9356329999478250E-002  -1.7413383274767047E-002   1.3503633610251184E-002
   5.3416668917581921E-002  -1.6481106028011866E-002   1.2523640245013762E-002
   4.7477007835685647E-002  -1.5649589645877371E-002   1.1964531674090173E-002
   6.6009605589573278E-002  -1.7977700793600448E-002   2.3778112101858651E-002
   6.0562336446564537E-002  -1.7151647248592514E-002   2.1481814195988810E-002
   5.5115067303555837E-002  -1.6388621025291039E-002   1.9749415373580791E-002
   4.9667798160547068E-002  -1.5688622123696247E-002   1.8580915634634668E-002
   4.4220529017538382E-002  -1.5051650543808248E-002   1.7976314979150559E-002
   6.0319411012459190E-002  -1.6375181225058821E-002   3.0503337277604625E-002
   5.5507548097486731E-002  -1.5856873111040837E-002   2.7770237962642996E-002
   5.0695685182514272E-002  -1.5363858775814851E-002   2.5744052020292119E-002
   4.5883822267541785E-002  -1.4896138219381055E-002   2.4424779450551978E-002
   4.1071959352569354E-002  -1.4453711441739348E-002   2.3812420253422339E-002
   5.4313692931514668E-002  -1.6845467850015394E-002  -5.8606902839830610E-004
   5.4105311072450091E-002  -1.5866629711333458E-002   4.5399281894253907E-004
   5.3896929213385458E-002  -1.5195099318088379E-002   1.3950741596496230E-003
   5.3688547354320881E-002  -1.4830876670282517E-002   2.2371749937231677E-003
   5.3480165495256249E-002  -1.4773961767914345E-002   2.9802953211628402E-003
   5.0841395807011025E-002  -1.6247528747946327E-002   5.7770703382407085E-003
   5.0534664767800608E-002  -1.5383276722119033E-002   6.6794568377432362E-003
   5.0227933728590218E-002  -1.4704148605861528E-002   7.4841254835877891E-003
   4.9921202689379870E-002  -1.4210144399174417E-002   8.1910762757740341E-003
   4.9614471650169467E-002  -1.3901264102057054E-002   8.8003092143026374E-003
   4.7477007835685647E-002  -1.5649589645877371E-002   1.1964531674090173E-002
   4.7073190269305065E-002  -1.4899923732904941E-002   1.2851426661622423E-002
   4.6669372702924566E-002  -1.4213197893634233E-002   1.3641866448472845E-002
   4.6265555136543970E-002  -1.3589412128066206E-002   1.4335851034640662E-002
   4.5861737570163458E-002  -1.3028566436199873E-002   1.4933380420126430E-002
   4.4220529017538382E-002  -1.5051650543808248E-002   1.7976314979150559E-002
   4.3720887576963338E-002  -1.4416570743690793E-002   1.8969902290581230E-002
   4.3221246136388315E-002  -1.3722247181407160E-002   1.9868297054304929E-002
   4.2721604695813306E-002  -1.2968679856957717E-002   2.0671499270322156E-002
   4.2221963255238248E-002  -1.2155868770342526E-002   2.1379508938632621E-002
   4.1071959352569354E-002  -1.4453711441739348E-002   2.3812420253422339E-002
   4.0477756690775468E-002  -1.3933217754476646E-002   2.5034883724618706E-002
   3.9883554028981555E-002  -1.3231296469180004E-002   2.6163417301084402E-002
   3.9289351367187683E-002  -1.2347947585849596E-002   2.7198020982818483E-002
   3.8695148705393811E-002  -1.1283171104485179E-002   2.8138694769822004E-002
   5.3480165495256249E-002  -1.4773961767914345E-002   2.9802953211628402E-003
   4.9892156833606371E-002  -1.4690444360660027E-002   1.5640430574735964E-003
   4.6304148171956550E-002  -1.4246414198198332E-002   4.6092993684687666E-004
   4.2716139510306672E-002  -1.3441871280525750E-002  -3.2904404071848470E-004
   3.9128130848656850E-002  -1.2276815607644487E-002  -8.0587887522165502E-004
   4.9614471650169467E-002  -1.3901264102057054E-002   8.8003092143026374E-003
   4.6315205048830577E-002  -1.3569336680269162E-002   7.7684850900037183E-003
   4.3015938447491686E-002  -1.3006191099569742E-002   7.0010059432649707E-003
   3.9716671846152768E-002  -1.2211827359958391E-002   6.4978717740859504E-003
   3.6417405244813850E-002  -1.1186245461435984E-002   6.2590825824667684E-003
   4.5861737570163458E-002  -1.3028566436199873E-002   1.4933380420126430E-002
   4.2802418863633507E-002  -1.2448228999877464E-002   1.4156689838919656E-002
   3.9743100157103528E-002  -1.1765968000941401E-002   1.3595550069771228E-002
   3.6683781450573591E-002  -1.0981783439391039E-002   1.3249961112680633E-002
   3.3624462744043626E-002  -1.0095675315227259E-002   1.3119922967648023E-002
   4.2221963255238248E-002  -1.2155868770342526E-002   2.1379508938632621E-002
   3.9353798278015217E-002  -1.1327121319486183E-002   2.0728657304220896E-002
   3.6485633300792214E-002  -1.0525744902313158E-002   2.0244562316365462E-002
   3.3617468323569183E-002  -9.7517395188242394E-003   1.9927223975065540E-002
   3.0749303346346173E-002  -9.0051051690188677E-003   1.9776642280321777E-002
   3.8695148705393811E-002  -1.1283171104485179E-002   2.8138694769822004E-002
   3.5969343291975764E-002  -1.0206013639094569E-002   2.7484387485907591E-002
   3.3243537878557661E-002  -9.2855218036849430E-003   2.6948042683047124E-002
   3.0517732465139641E-002  -8.5216955982570577E-003   2.6529660361241020E-002
   2.7791927051721566E-002  -7.9145350228102540E-003   2.6229240520488362E-002
   3.9128130848656850E-002  -1.2276815607644487E-002  -8.0587887522165502E-004
   3.6952328041084281E-002  -1.1091536227058274E-002  -6.6717983988717755E-004
   3.4776525233511713E-002  -1.0226322186271841E-002  -5.3470428336388487E-004
   3.2600722425939171E-002  -9.6811734852837728E-003  -4.0845220565249862E-004
   3.0424919618366575E-002  -9.4560901240954287E-003  -2.8842360675218615E-004
   3.6417405244813850E-002  -1.1186245461435984E-002   6.2590825824667684E-003
   3.4231519916222641E-002  -1.0150497064264630E-002   6.0462304279602641E-003
   3.2045634587631433E-002  -9.3256338287081020E-003   5.8194367102276656E-003
   2.9859749259040225E-002  -8.7116557547652629E-003   5.5787014292693338E-003
   2.7673863930449016E-002  -8.3085628424370839E-003   5.3240245850846302E-003
   3.3624462744043626E-002  -1.0095675315227259E-002   1.3119922967648023E-002
   3.1420776810019341E-002  -9.2094579014709854E-003   1.2664699801485324E-002
   2.9217090875995042E-002  -8.4249454711443073E-003   1.2187816987682065E-002
   2.7013404941970805E-002  -7.7421380242469612E-003   1.1689274526238580E-002
   2.4809719007946485E-002  -7.1610355607785170E-003   1.1169072417154757E-002
   3.0749303346346173E-002  -9.0051051690188677E-003   1.9776642280321777E-002
   2.8520098722474456E-002  -8.2684187386775632E-003   1.9188228280687586E-002
   2.6290894098602659E-002  -7.5242571135807623E-003   1.8570436548999023E-002
   2.4061689474730932E-002  -6.7726202937278893E-003   1.7923267085254942E-002
   2.1832484850859098E-002  -6.0135082791199501E-003   1.7246719889456891E-002
   2.7791927051721566E-002  -7.9145350228102540E-003   2.6229240520488362E-002
   2.5529485653587869E-002  -7.3273795758841409E-003   2.5616815865567522E-002
   2.3267044255454256E-002  -6.6235687560168566E-003   2.4967295394177913E-002
   2.1004602857320656E-002  -5.8031025632097819E-003   2.4280679106319480E-002
   1.8742161459187001E-002  -4.8659809974614943E-003   2.3556967001991835E-002
   3.0424919618366575E-002  -9.4560901240954287E-003  -2.8842360675218615E-004
   2.9749592910189304E-002  -9.1498427622167533E-003  -2.1084384922209765E-004
   2.9074266202011922E-002  -8.3612020591585789E-003  -1.7785448768650181E-003
   2.8398939493834624E-002  -7.0901680149191293E-003  -4.9915266896811694E-003
   2.7723612785657270E-002  -5.3367406295015130E-003  -9.8497892876689974E-003
   2.7673863930449016E-002  -8.3085628424370839E-003   5.3240245850846302E-003
   2.5616569228595898E-002  -7.8809200272781377E-003   5.9230170537545312E-003
   2.3559274526742835E-002  -7.1932922448434411E-003   5.4033543202460788E-003
   2.1501979824889689E-002  -6.2456794951343264E-003   3.7650363845587731E-003
   1.9444685123036654E-002  -5.0380817781481291E-003   1.0080632466920036E-003
   2.4809719007946485E-002  -7.1610355607785170E-003   1.1169072417154757E-002
   2.1897081895411646E-002  -6.6119972923393000E-003   1.2067069223060167E-002
   1.8984444782876822E-002  -6.0253824305291914E-003   1.2373036409780380E-002
   1.6071807670341991E-002  -5.4011909753475251E-003   1.2086973977316562E-002
   1.3159170557807132E-002  -4.7394229267956334E-003   1.1208881925667602E-002
   2.1832484850859098E-002  -6.0135082791199501E-003   1.7246719889456891E-002
   1.8591130910636529E-002  -5.3430745574007954E-003   1.8221312658693450E-002
   1.5349776970413859E-002  -4.8574726162147197E-003   1.9130501391738941E-002
   1.2108423030191299E-002  -4.5567024555617230E-003   1.9974286088593765E-002
   8.8670690899686141E-003  -4.4407640754426936E-003   2.0752666749257853E-002
   1.8742161459187001E-002  -4.8659809974614943E-003   2.3556967001991835E-002
   1.5698716274270552E-002  -4.0741518224617357E-003   2.4385747360654464E-002
   1.2655271089354131E-002  -3.6895628019001092E-003   2.5675749266120707E-002
   9.6118259044376958E-003  -3.7122139357763304E-003   2.7426972718389980E-002
   6.5683807195212607E-003  -4.1421052240899758E-003   2.9639417717462813E-002
   2.7723612785657270E-002  -5.3367406295015130E-003  -9.8497892876689974E-003
   2.3321025356337843E-002  -4.1810067672929385E-003  -4.2393450590743065E-003
   1.8918437927018528E-002  -4.7030532926862767E-003   2.6167110970034546E-003
   1.4515850497699184E-002  -6.9028802056790572E-003   1.0718379180564064E-002
   1.0113263068379785E-002  -1.0780487506274028E-002   2.0065659191607743E-002
   1.9444685123036654E-002  -5.0380817781481291E-003   1.0080632466920036E-003
   1.6218797259870077E-002  -4.6735755947224789E-003   6.7310340003494673E-003
   1.2992909396703500E-002  -6.2552374456923410E-003   1.3561791958830116E-002
   9.7670215335370070E-003  -9.7830673310569383E-003   2.1500337122132340E-002
   6.5411336703704581E-003  -1.5257065250817714E-002   3.0546669490258083E-002
   1.3159170557807132E-002  -4.7394229267956334E-003   1.1208881925667602E-002
   1.0972157538132965E-002  -5.1661444221522412E-003   1.6775991557593628E-002
   8.7851445184589094E-003  -7.8074215986989048E-003   2.3313063671681844E-002
   6.5981314987846804E-003  -1.2663254456435277E-002   3.0820098267932083E-002
   4.4111184791107427E-003  -1.9733642995361400E-002   3.9297095346345179E-002
   8.8670690899686141E-003  -4.4407640754426936E-003   2.0752666749257853E-002
   7.5811061911265770E-003  -5.6587132495818926E-003   2.5895527612658037E-002
   6.2951432922846544E-003  -9.3596057517056630E-003   3.1870526235559540E-002
   5.0091803934426953E-003  -1.5543441581813165E-002   3.8677662617963730E-002
   3.7232174946006807E-003  -2.4210220739904864E-002   4.6316936759869642E-002
   6.5683807195212607E-003  -4.1421052240899758E-003   2.9639417717462813E-002
   6.0456432188510378E-003  -6.1512820770117660E-003   3.4089642165542555E-002
   5.5229057181808705E-003  -1.0911789904711755E-002   3.9234179650463497E-002
   5.0001682175106199E-003  -1.8423628707190942E-002   4.5073030172226414E-002
   4.4774307168404803E-003  -2.8686798484448328E-002   5.1606193730831418E-002
   7.5981607999421330E-002  -2.0497375524846428E-002   2.8873212384785074E-002
   7.3794876842148749E-002  -2.2167575082491342E-002   2.7113315863658949E-002
   7.1608145684876279E-002  -2.2831506821764810E-002   2.6543683906408849E-002
   6.9421414527603698E-002  -2.2489170742666886E-002   2.7164316513034650E-002
   6.7234683370331172E-002  -2.1140566845197495E-002   2.8975213683536061E-002
   6.7785149071607598E-002  -1.9947972905303146E-002   3.1575342162542430E-002
   6.6548075654808914E-002  -2.0143793315747671E-002   3.1561582789025433E-002
   6.5311002238010257E-002  -1.9959857908070894E-002   3.2256874332580399E-002
   6.4073928821211573E-002  -1.9396166682273043E-002   3.3661216793207244E-002
   6.2836855404412917E-002  -1.8452719638353932E-002   3.5774610170905968E-002
   6.0882422296558741E-002  -1.9398570285759892E-002   3.6065107087625184E-002
   6.0113792973429947E-002  -1.8120011549003959E-002   3.7170972861467283E-002
   5.9345163650301153E-002  -1.7088208994377067E-002   3.8504675905577081E-002
   5.8576534327172386E-002  -1.6303162621879148E-002   4.0066216219954931E-002
   5.7807905004043550E-002  -1.5764872431510424E-002   4.1855593804600591E-002
   5.5273427674274733E-002  -1.8849167666216651E-002   4.2342507160033807E-002
   5.4492028798011780E-002  -1.6096229782260253E-002   4.3941486080984436E-002
   5.3710629921748840E-002  -1.4216560080683113E-002   4.5287088625399020E-002
   5.2929231045485886E-002  -1.3210158561485306E-002   4.6379314793277379E-002
   5.2147832169222946E-002  -1.3077025224666861E-002   4.7218164584619748E-002
   5.0958165204755601E-002  -1.8299765046673355E-002   5.0407542379767800E-002
   4.9682783128554481E-002  -1.4072448015516548E-002   5.1873122447576914E-002
   4.8407401052353360E-002  -1.1344911166989227E-002   5.2604112492045857E-002
   4.7132018976152268E-002  -1.0117154501091370E-002   5.2600512513174588E-002
   4.5856636899951175E-002  -1.0389178017823353E-002   5.1862322510963232E-002
   6.7234683370331172E-002  -2.1140566845197495E-002   2.8975213683536061E-002
   6.5505865280863163E-002  -1.9453926888947509E-002   3.0047245268351924E-002
   6.3777047191395153E-002  -1.8097482633507481E-002   3.0659276395635177E-002
   6.2048229101927185E-002  -1.7071234078878273E-002   3.0811307065386276E-002
   6.0319411012459190E-002  -1.6375181225058821E-002   3.0503337277604625E-002
   6.2836855404412917E-002  -1.8452719638353932E-002   3.5774610170905968E-002
   6.0762965296757163E-002  -1.7388425978332706E-002   3.6096318617251683E-002
   5.8689075189101422E-002  -1.6462194904228428E-002   3.6187883484754213E-002
   5.6615185081445717E-002  -1.5674026416041188E-002   3.6049304773413719E-002
   5.4541294973789928E-002  -1.5023920513770772E-002   3.5680582483230194E-002
   5.7807905004043550E-002  -1.5764872431510424E-002   4.1855593804600591E-002
   5.5618799756889395E-002  -1.5322925067718027E-002   4.1619112227369373E-002
   5.3429694509735219E-002  -1.4826907174949201E-002   4.1382343949984350E-002
   5.1240589262581071E-002  -1.4276818753204268E-002   4.1145288972445695E-002
   4.9051484015426902E-002  -1.3672659802482806E-002   4.0907947294753347E-002
   5.2147832169222946E-002  -1.3077025224666861E-002   4.7218164584619748E-002
   5.0073368661259735E-002  -1.3257424157103369E-002   4.6615626098704885E-002
   4.7998905153296502E-002  -1.3191619445670200E-002   4.6242657791325768E-002
   4.5924441645333311E-002  -1.2879611090367237E-002   4.6099259662481996E-002
   4.3849978137370065E-002  -1.2321399091194798E-002   4.6185431712174277E-002
   4.5856636899951175E-002  -1.0389178017823353E-002   5.1862322510963232E-002
   4.4126672009868223E-002  -1.1191923246488600E-002   5.1085860231258162E-002
   4.2396707119785312E-002  -1.1556331716390866E-002   5.0768825008778135E-002
   4.0666742229702388E-002  -1.1482403427530305E-002   5.0911216843522955E-002
   3.8936777339619449E-002  -1.0970138379906735E-002   5.1513035735492929E-002
   6.0319411012459190E-002  -1.6375181225058821E-002   3.0503337277604625E-002
   5.5507548097486731E-002  -1.5856873111040837E-002   2.7770237962642996E-002
   5.0695685182514272E-002  -1.5363858775814851E-002   2.5744052020292119E-002
   4.5883822267541785E-002  -1.4896138219381055E-002   2.4424779450551978E-002
   4.1071959352569354E-002  -1.4453711441739348E-002   2.3812420253422339E-002
   5.4541294973789928E-002  -1.5023920513770772E-002   3.5680582483230194E-002
   5.0384882201306588E-002  -1.4456871133004034E-002   3.3157652900512313E-002
   4.6228469428823318E-002  -1.3917872209327220E-002   3.1238710230162087E-002
   4.2072056656340000E-002  -1.3406923742740370E-002   2.9923754472179806E-002
   3.7915643883856709E-002  -1.2924025733243583E-002   2.9212785626564819E-002
   4.9051484015426902E-002  -1.3672659802482806E-002   4.0907947294753347E-002
   4.5447594925189787E-002  -1.3056869154967260E-002   3.8592430765981442E-002
   4.1843705834952713E-002  -1.2471885642839541E-002   3.6777974689334074E-002
   3.8239816744715674E-002  -1.1917709266099688E-002   3.5464579064811694E-002
   3.4635927654478579E-002  -1.1394340024747707E-002   3.4652243892413892E-002
   4.3849978137370065E-002  -1.2321399091194798E-002   4.6185431712174277E-002
   4.0695686269136298E-002  -1.1656867176930555E-002   4.4074571559050237E-002
   3.7541394400902553E-002  -1.1025899076351969E-002   4.2361845397808032E-002
   3.4387102532668801E-002  -1.0428494789459172E-002   4.1047253228447614E-002
   3.1232810664435045E-002  -9.8646543162519973E-003   4.0130795050969122E-002
   3.8936777339619449E-002  -1.0970138379906735E-002   5.1513035735492929E-002
   3.6129156233146081E-002  -1.0256865198893711E-002   4.9604075279718773E-002
   3.3321535126672727E-002  -9.5799125098642579E-003   4.7990322355583814E-002
   3.0513914020199352E-002  -8.9392803128184109E-003   4.6671776963087830E-002
   2.7706292913726005E-002  -8.3349686077561214E-003   4.5648439102230431E-002
   4.1071959352569354E-002  -1.4453711441739348E-002   2.3812420253422339E-002
   4.0477756690775468E-002  -1.3933217754476646E-002   2.5034883724618706E-002
   3.9883554028981555E-002  -1.3231296469180004E-002   2.6163417301084402E-002
   3.9289351367187683E-002  -1.2347947585849596E-002   2.7198020982818483E-002
   3.8695148705393811E-002  -1.1283171104485179E-002   2.8138694769822004E-002
   3.7915643883856709E-002  -1.2924025733243583E-002   2.9212785626564819E-002
   3.7243407768198594E-002  -1.2394581860176251E-002   3.0479029669095326E-002
   3.6571171652540535E-002  -1.1743995802878104E-002   3.1683136698628322E-002
   3.5898935536882420E-002  -1.0972267561349058E-002   3.2825106715163782E-002
   3.5226699421224361E-002  -1.0079397135589252E-002   3.3904939718702010E-002
   3.4635927654478579E-002  -1.1394340024747707E-002   3.4652243892413892E-002
   3.3917450966689966E-002  -1.0855945965875802E-002   3.5901983092475054E-002
   3.3198974278901387E-002  -1.0256695136576191E-002   3.7121378161272381E-002
   3.2480497591112822E-002  -9.5965875368486282E-003   3.8310429098806130E-002
   3.1762020903324209E-002  -8.8756231666933250E-003   3.9469135905076086E-002
   3.1232810664435045E-002  -9.8646543162519973E-003   4.0130795050969122E-002
   3.0499886286249632E-002  -9.3173100715753798E-003   4.1303743994757919E-002
   2.9766961908064223E-002  -8.7693944702743123E-003   4.2478141689016452E-002
   2.9034037529878761E-002  -8.2209075123481443E-003   4.3653988133745103E-002
   2.8301113151693341E-002  -7.6718491977975090E-003   4.4831283328944031E-002
   2.7706292913726005E-002  -8.3349686077561214E-003   4.5648439102230431E-002
   2.6990713726877447E-002  -7.7786741772748469E-003   4.6684312375943726E-002
   2.6275134540028888E-002  -7.2820938039723365E-003   4.7753427281860744E-002
   2.5559555353180358E-002  -6.8452274878476500E-003   4.8855783819981222E-002
   2.4843976166331772E-002  -6.4680752289014709E-003   4.9991381990305506E-002
   3.8695148705393811E-002  -1.1283171104485179E-002   2.8138694769822004E-002
   3.5969343291975764E-002  -1.0206013639094569E-002   2.7484387485907591E-002
   3.3243537878557661E-002  -9.2855218036849430E-003   2.6948042683047124E-002
   3.0517732465139641E-002  -8.5216955982570577E-003   2.6529660361241020E-002
   2.7791927051721566E-002  -7.9145350228102540E-003   2.6229240520488362E-002
   3.5226699421224361E-002  -1.0079397135589252E-002   3.3904939718702010E-002
   3.2635410375729590E-002  -9.1732996822992408E-003   3.3145280208350336E-002
   3.0044121330234735E-002  -8.3618903581795523E-003   3.2536690952791325E-002
   2.7452832284739950E-002  -7.6451691632306515E-003   3.2079171952024935E-002
   2.4861543239245193E-002  -7.0231360974517543E-003   3.1772723206050901E-002
   3.1762020903324209E-002  -8.8756231666933250E-003   3.9469135905076086E-002
   2.9338355999491306E-002  -8.1405857255040792E-003   3.8666101669098007E-002
   2.6914691095658472E-002  -7.4382589126741477E-003   3.8047245461651155E-002
   2.4491026191825659E-002  -6.7686427282040197E-003   3.7612567282735689E-002
   2.2067361287992748E-002  -6.1317371720933656E-003   3.7362067132351628E-002
   2.8301113151693341E-002  -7.6718491977975090E-003   4.4831283328944031E-002
   2.6078180163261064E-002  -7.1078717687088344E-003   4.4046851868150418E-002
   2.3855247174828724E-002  -6.5146274671687501E-003   4.3479706209626684E-002
   2.1632314186396405E-002  -5.8921162931775007E-003   4.3129846353372706E-002
   1.9409381197964048E-002  -5.2403382467349213E-003   4.2997272299388926E-002
   2.4843976166331772E-002  -6.4680752289014709E-003   4.9991381990305506E-002
   2.2854882867038684E-002  -6.0751578119137006E-003   4.9287530805507407E-002
   2.0865789567745568E-002  -5.5909960216632415E-003   4.8834073196717787E-002
   1.8876696268452481E-002  -5.0155898581510650E-003   4.8631009163936589E-002
   1.6887602969159393E-002  -4.3489393213764771E-003   4.8678338707163871E-002
   2.7791927051721566E-002  -7.9145350228102540E-003   2.6229240520488362E-002
   2.5529485653587869E-002  -7.3273795758841409E-003   2.5616815865567522E-002
   2.3267044255454256E-002  -6.6235687560168566E-003   2.4967295394177913E-002
   2.1004602857320656E-002  -5.8031025632097819E-003   2.4280679106319480E-002
   1.8742161459187001E-002  -4.8659809974614943E-003   2.3556967001991835E-002
   2.4861543239245193E-002  -7.0231360974517543E-003   3.1772723206050901E-002
   2.2594706867734987E-002  -6.4231690859083979E-003   3.1412806952267169E-002
   2.0327870496224781E-002  -5.7726460536648982E-003   3.1081196568199077E-002
   1.8061034124714617E-002  -5.0715670007219216E-003   3.0777892053847233E-002
   1.5794197753204370E-002  -4.3199319270788017E-003   3.0502893409210974E-002
   2.2067361287992748E-002  -6.1317371720933656E-003   3.7362067132351628E-002
   1.9861531629290941E-002  -5.5189585959328769E-003   3.7188559927463338E-002
   1.7655701970589195E-002  -4.9217233513131758E-003   3.7108760278476219E-002
   1.5449872311887439E-002  -4.3400314382345088E-003   3.7122668185390124E-002
   1.3244042653185642E-002  -3.7738828566963867E-003   3.7230283648204715E-002
   1.9409381197964048E-002  -5.2403382467349213E-003   4.2997272299388926E-002
   1.7329959938255823E-002  -4.6147481059574114E-003   4.2944074791156001E-002
   1.5250538678547492E-002  -4.0708006489616685E-003   4.3049986525009229E-002
   1.3171117418839244E-002  -3.6084958757467613E-003   4.3315007500948521E-002
   1.1091696159130932E-002  -3.2278337863138329E-003   4.3739137718973801E-002
   1.6887602969159393E-002  -4.3489393213764771E-003   4.8678338707163871E-002
   1.4999991794629547E-002  -3.7105376159816128E-003   4.8679351543345684E-002
   1.3112380620099742E-002  -3.2198779466094396E-003   4.8904875307798357E-002
   1.1224769445569917E-002  -2.8769603132593330E-003   4.9354910000522140E-002
   9.3371582710400913E-003  -2.6817847159313901E-003   5.0029455621517060E-002
   1.8742161459187001E-002  -4.8659809974614943E-003   2.3556967001991835E-002
   1.5698716274270552E-002  -4.0741518224617357E-003   2.4385747360654464E-002
   1.2655271089354131E-002  -3.6895628019001092E-003   2.5675749266120707E-002
   9.6118259044376958E-003  -3.7122139357763304E-003   2.7426972718389980E-002
   6.5683807195212607E-003  -4.1421052240899758E-003   2.9639417717462813E-002
   1.5794197753204370E-002  -4.3199319270788017E-003   3.0502893409210974E-002
   1.3197032598731812E-002  -3.7700213890403678E-003   3.1283918234305097E-002
   1.0599867444259212E-002  -3.6741159429113379E-003   3.2496281573483887E-002
   8.0027022897866465E-003  -4.0322155886913513E-003   3.4139983426746956E-002
   5.4055371353140536E-003  -4.8443203263806023E-003   3.6215023794094470E-002
   1.3244042653185642E-002  -3.7738828566963867E-003   3.7230283648204715E-002
   1.1063274496438236E-002  -3.4658909556189443E-003   3.7916788002258672E-002
   8.8825063396908918E-003  -3.6586690839224695E-003   3.9004747837678141E-002
   6.7017381829434612E-003  -4.3522172416065978E-003   4.0494163154463698E-002
   4.5209700261961416E-003  -5.5465354286715618E-003   4.2385033952614948E-002
   1.1091696159130932E-002  -3.2278337863138329E-003   4.3739137718973801E-002
   9.2974419673900605E-003  -3.1617605221974932E-003   4.4284356664515551E-002
   7.5031877756491904E-003  -3.6432222249333165E-003   4.5201148058704399E-002
   5.7089335839082917E-003  -4.6722188945219536E-003   4.6489511901540596E-002
   3.9146793921675041E-003  -6.2487505309625768E-003   4.8149448193023886E-002
   9.3371582710400913E-003  -2.6817847159313901E-003   5.0029455621517060E-002
   7.8995350115870777E-003  -2.8576300887761530E-003   5.0386624221075316E-002
   6.4619117521340641E-003  -3.6277753659448853E-003   5.1085482236562452E-002
   5.0242884926810505E-003  -4.9922205474369902E-003   5.2126029667977802E-002
   3.5866652332280369E-003  -6.9509656332532588E-003   5.3508266515321812E-002
   6.5683807195212607E-003  -4.1421052240899758E-003   2.9639417717462813E-002
   6.0456432188510378E-003  -6.1512820770117660E-003   3.4089642165542555E-002
   5.5229057181808705E-003  -1.0911789904711755E-002   3.9234179650463497E-002
   5.0001682175106199E-003  -1.8423628707190942E-002   4.5073030172226414E-002
   4.4774307168404803E-003  -2.8686798484448328E-002   5.1606193730831418E-002
   5.4055371353140536E-003  -4.8443203263806023E-003   3.6215023794094470E-002
   5.4710734667928751E-003  -6.9957227872465833E-003   3.8349524847959671E-002
   5.5366097982717244E-003  -1.1371715602555676E-002   4.0966260529281318E-002
   5.6021461297506153E-003  -1.7972298772308437E-002   4.4065230838059466E-002
   5.6676824612293952E-003  -2.6797472296505198E-002   4.7646435774294060E-002
   4.5209700261961416E-003  -5.5465354286715618E-003   4.2385033952614948E-002
   4.9627017804387552E-003  -7.8401634974812895E-003   4.2730552232600666E-002
   5.4044335346813271E-003  -1.1831641300399487E-002   4.3346226730657633E-002
   5.8461652889238783E-003  -1.7520968837426432E-002   4.4232057446786044E-002
   6.2878970431666237E-003  -2.4908146108562068E-002   4.5388044380984871E-002
   3.9146793921675041E-003  -6.2487505309625768E-003   4.8149448193023886E-002
   4.5205281597886296E-003  -8.6846042077159402E-003   4.7232724319465583E-002
   5.1263769274097863E-003  -1.2291566998243242E-002   4.6374078254592527E-002
   5.7322256950310350E-003  -1.7069638902544287E-002   4.5573509998405648E-002
   6.3380744626521796E-003  -2.3018819920618938E-002   4.4831019550904710E-002
   3.5866652332280369E-003  -6.9509656332532588E-003   5.3508266515321812E-002
   4.1445526048425607E-003  -9.5290449179505909E-003   5.1856041108553574E-002
   4.7024399764570846E-003  -1.2751492696087080E-002   5.0049815101085804E-002
   5.2603273480716362E-003  -1.6618308967661997E-002   4.8089588492918584E-002
   5.8182147196861322E-003  -2.1129493732675808E-002   4.5975361284052330E-002
   5.0958165204755601E-002  -1.8299765046673355E-002   5.0407542379767800E-002
   4.9682783128554481E-002  -1.4072448015516548E-002   5.1873122447576914E-002
   4.8407401052353360E-002  -1.1344911166989227E-002   5.2604112492045857E-002
   4.7132018976152268E-002  -1.0117154501091370E-002   5.2600512513174588E-002
   4.5856636899951175E-002  -1.0389178017823353E-002   5.1862322510963232E-002
   4.6719367746568069E-002  -1.4824699030108690E-002   5.7822831269021102E-002
   4.4882189092943003E-002  -1.2448984218923015E-002   5.7178949302146370E-002
   4.3045010439317799E-002  -1.0856395926104878E-002   5.6146064203763613E-002
   4.1207831785692678E-002  -1.0046934151654224E-002   5.4724175973873093E-002
   3.9370653132067557E-002  -1.0020598895571220E-002   5.2913284612474437E-002
   4.1339768158279250E-002  -1.1349633013543969E-002   6.3028191106172402E-002
   3.9286379819062252E-002  -1.0825520422329621E-002   6.0991500768875773E-002
   3.7232991479845268E-002  -1.0367880685220605E-002   5.8911394191903506E-002
   3.5179603140628277E-002  -9.9767138022170219E-003   5.6787871375255525E-002
   3.3126214801411313E-002  -9.6520197733189206E-003   5.4620932318931781E-002
   3.4819366439888789E-002  -7.8745669969792625E-003   6.6023621891221226E-002
   3.2895355306912233E-002  -9.2020566257361713E-003   6.3310776847764955E-002
   3.0971344173935666E-002  -9.8793654443364055E-003   6.0900102456465065E-002
   2.9047333040959140E-002  -9.9064934527799027E-003   5.8791598717321931E-002
   2.7123321907982577E-002  -9.2834406510666767E-003   5.6985265630335194E-002
   2.7158162591396945E-002  -4.3995009804145835E-003   6.6809123624167688E-002
   2.5709115556493051E-002  -7.5785928291426941E-003   6.4136777538813805E-002
   2.4260068521589115E-002  -9.3908502034520114E-003   6.2112188997448692E-002
   2.2811021486685214E-002  -9.8362731033426118E-003   6.0735358000072293E-002
   2.1361974451781285E-002  -8.9148615288144883E-003   6.0006284546684607E-002
   4.5856636899951175E-002  -1.0389178017823353E-002   5.1862322510963232E-002
   4.4126672009868223E-002  -1.1191923246488600E-002   5.1085860231258162E-002
   4.2396707119785312E-002  -1.1556331716390866E-002   5.0768825008778135E-002
   4.0666742229702388E-002  -1.1482403427530305E-002   5.0911216843522955E-002
   3.8936777339619449E-002  -1.0970138379906735E-002   5.1513035735492929E-002
   3.9370653132067557E-002  -1.0020598895571220E-002   5.2913284612474437E-002
   3.8088029988630007E-002  -1.0270039550667215E-002   5.2701238186803251E-002
   3.6805406845192512E-002  -1.0287905509754294E-002   5.2924448197198132E-002
   3.5522783701755010E-002  -1.0074196772832448E-002   5.3582914643658705E-002
   3.4240160558317537E-002  -9.6289133399014570E-003   5.4676637526185318E-002
   3.3126214801411313E-002  -9.6520197733189206E-003   5.4620932318931781E-002
   3.2266762783460183E-002  -9.3481558548459132E-003   5.4766539684540691E-002
   3.1407310765509011E-002  -9.0194793031178333E-003   5.5323232865056290E-002
   3.0547858747557881E-002  -8.6659901181344243E-003   5.6291011860478746E-002
   2.9688406729606716E-002  -8.2876882998960955E-003   5.7669876670808057E-002
   2.7123321907982577E-002  -9.2834406510666767E-003   5.6985265630335194E-002
   2.6662870394358690E-002  -8.4262721590245698E-003   5.7281764724470163E-002
   2.6202418880734841E-002  -7.7510530964811780E-003   5.7965179012352853E-002
   2.5741967367110957E-002  -7.2577834634365394E-003   5.9035508493983285E-002
   2.5281515853487105E-002  -6.9464632598907478E-003   6.0492753169361500E-002
   2.1361974451781285E-002  -8.9148615288144883E-003   6.0006284546684607E-002
   2.1276352821325603E-002  -7.5043884632031710E-003   6.0246913306591821E-002
   2.1190731190869949E-002  -6.4826268898447587E-003   6.0850286639087675E-002
   2.1105109560414274E-002  -5.8495768087385609E-003   6.1816404544172185E-002
   2.1019487929958613E-002  -5.6052382198854001E-003   6.3145267021845253E-002
   3.8936777339619449E-002  -1.0970138379906735E-002   5.1513035735492929E-002
   3.6129156233146081E-002  -1.0256865198893711E-002   4.9604075279718773E-002
   3.3321535126672727E-002  -9.5799125098642579E-003   4.7990322355583814E-002
   3.0513914020199352E-002  -8.9392803128184109E-003   4.6671776963087830E-002
   2.7706292913726005E-002  -8.3349686077561214E-003   4.5648439102230431E-002
   3.4240160558317537E-002  -9.6289133399014570E-003   5.4676637526185318E-002
   3.1704370163513004E-002  -9.0742463441829124E-003   5.2864599171823567E-002
   2.9168579768708479E-002  -8.5323869188985157E-003   5.1301014709160445E-002
   2.6632789373903964E-002  -8.0033350640481143E-003   4.9985884138196178E-002
   2.4096998979099463E-002  -7.4870907796316111E-003   4.8919207458930525E-002
   2.9688406729606716E-002  -8.2876882998960955E-003   5.7669876670808057E-002
   2.7377693406530852E-002  -7.8916274894723221E-003   5.5978273339408052E-002
   2.5066980083454964E-002  -7.4848613279328152E-003   5.4488370259766758E-002
   2.2756266760379049E-002  -7.0673898152777033E-003   5.3200167431883931E-002
   2.0445553437303185E-002  -6.6392129515069620E-003   5.2113664855759675E-002
   2.5281515853487105E-002  -6.9464632598907478E-003   6.0492753169361500E-002
   2.3149125962199653E-002  -6.7090086347615166E-003   5.8945097782472963E-002
   2.1016736070912201E-002  -6.4373357369670661E-003   5.7552389007403046E-002
   1.8884346179624759E-002  -6.1314445665072940E-003   5.6314626844151401E-002
   1.6751956288337293E-002  -5.7913351233822713E-003   5.5231811292717883E-002
   2.1019487929958613E-002  -5.6052382198854001E-003   6.3145267021845253E-002
   1.9018667830519392E-002  -5.5263897800509332E-003   6.1765072501018148E-002
   1.7017847731080171E-002  -5.3898101460013309E-003   6.0493070952068989E-002
   1.5017027631640936E-002  -5.1954993177369575E-003   5.9329262374997985E-002
   1.3016207532201729E-002  -4.9434572952576916E-003   5.8273646769805176E-002
   2.7706292913726005E-002  -8.3349686077561214E-003   4.5648439102230431E-002
   2.6990713726877447E-002  -7.7786741772748469E-003   4.6684312375943726E-002
   2.6275134540028888E-002  -7.2820938039723365E-003   4.7753427281860744E-002
   2.5559555353180358E-002  -6.8452274878476500E-003   4.8855783819981222E-002
   2.4843976166331772E-002  -6.4680752289014709E-003   4.9991381990305506E-002
   2.4096998979099463E-002  -7.4870907796316111E-003   4.8919207458930525E-002
   2.3438718341047507E-002  -6.9915431170589348E-003   4.9892836176851113E-002
   2.2780437702995572E-002  -6.5245811277400978E-003   5.0947820360160989E-002
   2.2122157064943627E-002  -6.0862048116748155E-003   5.2084160008860556E-002
   2.1463876426891682E-002  -5.6764141688633307E-003   5.3301855122949660E-002
   2.0445553437303185E-002  -6.6392129515069620E-003   5.2113664855759675E-002
   1.9892685181233709E-002  -6.2044120568428007E-003   5.3056177401811955E-002
   1.9339816925164233E-002  -5.7670684515078521E-003   5.4128159246439649E-002
   1.8786948669094750E-002  -5.3271821355018682E-003   5.5329610389642778E-002
   1.8234080413025280E-002  -4.8847531088250795E-003   5.6660530831421169E-002
   1.6751956288337293E-002  -5.7913351233822713E-003   5.5231811292717883E-002
   1.6352614247436090E-002  -5.4172809966267776E-003   5.6174336050826675E-002
   1.5953272206534877E-002  -5.0095557752757210E-003   5.7294443940696847E-002
   1.5553930165633664E-002  -4.5681594593290327E-003   5.8592134962328041E-002
   1.5154588124732433E-002  -4.0930920487867728E-003   6.0067409115720491E-002
   1.3016207532201729E-002  -4.9434572952576916E-003   5.8273646769805176E-002
   1.2818505539654620E-002  -4.6301499364106991E-003   5.9247312123895224E-002
   1.2620803547107512E-002  -4.2520430990434510E-003   6.0446674442932224E-002
   1.2423101554560403E-002  -3.8091367831561071E-003   6.1871733726916373E-002
   1.2225399562013295E-002  -3.3014309887485771E-003   6.3522489975847418E-002
   2.4843976166331772E-002  -6.4680752289014709E-003   4.9991381990305506E-002
   2.2854882867038684E-002  -6.0751578119137006E-003   4.9287530805507407E-002
   2.0865789567745568E-002  -5.5909960216632415E-003   4.8834073196717787E-002
   1.8876696268452481E-002  -5.0155898581510650E-003   4.8631009163936589E-002
   1.6887602969159393E-002  -4.3489393213764771E-003   4.8678338707163871E-002
   2.1463876426891682E-002  -5.6764141688633307E-003   5.3301855122949660E-002
   1.9716574609419169E-002  -5.2572160362006626E-003   5.2809028082645926E-002
   1.7969272791946628E-002  -4.7906172505824129E-003   5.2549390429975029E-002
   1.6221970974474080E-002  -4.2766178120078671E-003   5.2522942164936720E-002
   1.4474669157001574E-002  -3.7152177204780035E-003   5.2729683287530804E-002
   1.8234080413025280E-002  -4.8847531088250795E-003   5.6660530831421169E-002
   1.6711365888997409E-002  -4.4392742604879021E-003   5.6334884215305886E-002
   1.5188651364969517E-002  -3.9902384795011403E-003   5.6225222798447411E-002
   1.3665936840941660E-002  -3.5376457658651689E-003   5.6331546580845437E-002
   1.2143222316913789E-002  -3.0814961195795298E-003   5.6653855562500577E-002
   1.5154588124732433E-002  -4.0930920487867728E-003   6.0067409115720491E-002
   1.3839256705773330E-002  -3.6213324847751693E-003   5.9865099203487225E-002
   1.2523925286814225E-002  -3.1898597084199787E-003   5.9861570302134792E-002
   1.1208593867855120E-002  -2.7986737197223319E-003   6.0056822411663276E-002
   9.8932624488959914E-003  -2.4477745186810007E-003   6.0450855532072426E-002
   1.2225399562013295E-002  -3.3014309887485771E-003   6.3522489975847418E-002
   1.1100247059747048E-002  -2.8033907090623256E-003   6.3399673047189853E-002
   9.9750945574807737E-003  -2.3894809373390391E-003   6.3458432941037368E-002
   8.8499420552144992E-003  -2.0597016735794949E-003   6.3698769657389548E-002
   7.7247895529482247E-003  -1.8140529177825826E-003   6.4120683196246753E-002
   1.6887602969159393E-002  -4.3489393213764771E-003   4.8678338707163871E-002
   1.4999991794629547E-002  -3.7105376159816128E-003   4.8679351543345684E-002
   1.3112380620099742E-002  -3.2198779466094396E-003   4.8904875307798357E-002
   1.1224769445569917E-002  -2.8769603132593330E-003   4.9354910000522140E-002
   9.3371582710400913E-003  -2.6817847159313901E-003   5.0029455621517060E-002
   1.4474669157001574E-002  -3.7152177204780035E-003   5.2729683287530804E-002
   1.2818236435726355E-002  -3.1968234310817967E-003   5.2678273474143833E-002
   1.1161803714451107E-002  -2.8118413989082769E-003   5.2864709638994645E-002
   9.5053709931758948E-003  -2.5602716239584572E-003   5.3288991782083850E-002
   7.8489382719006406E-003  -2.4421141062314078E-003   5.3951119903411282E-002
   1.2143222316913789E-002  -3.0814961195795298E-003   5.6653855562500577E-002
   1.0731303098860355E-002  -2.6831092461812034E-003   5.6564352878343271E-002
   9.3193838808069591E-003  -2.4038048512071419E-003   5.6726031222391504E-002
   7.9074646627535303E-003  -2.2435829346571443E-003   5.7138890594644998E-002
   6.4955454447001293E-003  -2.2024434965314810E-003   5.7802930995103974E-002
   9.8932624488959914E-003  -2.4477745186810007E-003   6.0450855532072426E-002
   8.7391917840316229E-003  -2.1693950612808877E-003   6.0337589755944096E-002
   7.5851211191672258E-003  -1.9957683035060486E-003   6.0488840057988429E-002
   6.4310504543028564E-003  -1.9268942453560499E-003   6.0904606438205222E-002
   5.2769797894384601E-003  -1.9627728868316374E-003   6.1584888896594983E-002
   7.7247895529482247E-003  -1.8140529177825826E-003   6.4120683196246753E-002
   6.8419024912401011E-003  -1.6556808763807385E-003   6.3997984106946348E-002
   5.9590154295319636E-003  -1.5877317558048165E-003   6.4153136145785772E-002
   5.0761283678238400E-003  -1.6102055560549486E-003   6.4586139312765106E-002
   4.1932413061157026E-003  -1.7231022771316828E-003   6.5296993607884435E-002
   9.3371582710400913E-003  -2.6817847159313901E-003   5.0029455621517060E-002
   7.8995350115870777E-003  -2.8576300887761530E-003   5.0386624221075316E-002
   6.4619117521340641E-003  -3.6277753659448853E-003   5.1085482236562452E-002
   5.0242884926810505E-003  -4.9922205474369902E-003   5.2126029667977802E-002
   3.5866652332280369E-003  -6.9509656332532588E-003   5.3508266515321812E-002
   7.8489382719006406E-003  -2.4421141062314078E-003   5.3951119903411282E-002
   6.7235338832620367E-003  -2.6434020344647813E-003   5.3863755860283802E-002
   5.5981294946233773E-003  -3.3501685973955087E-003   5.4059140142856565E-002
   4.4727251059847595E-003  -4.5624137950239091E-003   5.4537272751129295E-002
   3.3473207173461139E-003  -6.2801376273498022E-003   5.5298153685102602E-002
   6.4955454447001293E-003  -2.2024434965314810E-003   5.7802930995103974E-002
   5.6234188366475757E-003  -2.4291739801535206E-003   5.7359855578916902E-002
   4.7512922285950221E-003  -3.0725618288465484E-003   5.7140587398201825E-002
   3.8791656205424685E-003  -4.1326070426109321E-003   5.7145126452958564E-002
   3.0070390124898871E-003  -5.6093096214465121E-003   5.7373472743187132E-002
   5.2769797894384601E-003  -1.9627728868316374E-003   6.1584888896594983E-002
   4.5991898717436946E-003  -2.2149459258420379E-003   6.0874923376974671E-002
   3.9213999540489292E-003  -2.7949550602974355E-003   6.0329824002597822E-002
   3.2436100363541498E-003  -3.7028002901980141E-003   5.9949590773464664E-002
   2.5658201186593982E-003  -4.9384816155431388E-003   5.9734223689575185E-002
   4.1932413061157026E-003  -1.7231022771316828E-003   6.5296993607884435E-002
   3.6508469885504075E-003  -2.0007178715308327E-003   6.4408959254456777E-002
   3.1084526709851262E-003  -2.5173482917482393E-003   6.3626849956044562E-002
   2.5660583534198658E-003  -3.2729935377847699E-003   6.2950665712647985E-002
   2.0236640358545777E-003  -4.2676536096397655E-003   6.2380406524266574E-002
   3.5866652332280369E-003  -6.9509656332532588E-003   5.3508266515321812E-002
   4.1445526048425607E-003  -9.5290449179505909E-003   5.1856041108553574E-002
   4.7024399764570846E-003  -1.2751492696087080E-002   5.0049815101085804E-002
   5.2603273480716362E-003  -1.6618308967661997E-002   4.8089588492918584E-002
   5.8182147196861322E-003  -2.1129493732675808E-002   4.5975361284052330E-002
   3.3473207173461139E-003  -6.2801376273498022E-003   5.5298153685102602E-002
   3.7707216685685385E-003  -8.5408355001019842E-003   5.2952086299870582E-002
   4.1941226197909770E-003  -1.1382002819007697E-002   5.0491046674553508E-002
   4.6175235710134224E-003  -1.4803639584068828E-002   4.7915034809151852E-002
   5.0409245222358678E-003  -1.8805745795284379E-002   4.5224050703664975E-002
   3.0070390124898871E-003  -5.6093096214465121E-003   5.7373472743187132E-002
   3.3349819039346362E-003  -7.5526260822526003E-003   5.4397462426775622E-002
   3.6629247953793298E-003  -1.0012512941929216E-002   5.1345508230893275E-002
   3.9908676868240373E-003  -1.2988970200475996E-002   4.8217610155540540E-002
   4.3188105782687725E-003  -1.6481997857893171E-002   4.5013768200717119E-002
   2.5658201186593982E-003  -4.9384816155431388E-003   5.9734223689575185E-002
   2.8373333109407428E-003  -6.5644166644036051E-003   5.6192169489268168E-002
   3.1088465032221013E-003  -8.6430230648506176E-003   5.2613199770105215E-002
   3.3803596955034529E-003  -1.1174300816883328E-002   4.8997314532085785E-002
   3.6518728877848322E-003  -1.4158249920501853E-002   4.5344513775210482E-002
   2.0236640358545777E-003  -4.2676536096397655E-003   6.2380406524266574E-002
   2.2777758895869415E-003  -5.5762072465547208E-003   5.8336207487348468E-002
   2.5318877433193332E-003  -7.2735331877714637E-003   5.4294121292188802E-002
   2.7859995970517457E-003  -9.3596314332900221E-003   5.0254147938786964E-002
   3.0401114507840887E-003  -1.1834501983110535E-002   4.6216287427143676E-002
   2.7158162591396945E-002  -4.3995009804145835E-003   6.6809123624167688E-002
   2.5709115556493051E-002  -7.5785928291426941E-003   6.4136777538813805E-002
   2.4260068521589115E-002  -9.3908502034520114E-003   6.2112188997448692E-002
   2.2811021486685214E-002  -9.8362731033426118E-003   6.0735358000072293E-002
   2.1361974451781285E-002  -8.9148615288144883E-003   6.0006284546684607E-002
   1.9287073184806422E-002  -3.2996234306630345E-003   6.3837746510442772E-002
   1.8414409886237659E-002  -5.6839434429105662E-003   6.3011037977346307E-002
   1.7541746587668883E-002  -7.0431372375632517E-003   6.2689339372931197E-002
   1.6669083289100099E-002  -7.3772048146208344E-003   6.2872650697197677E-002
   1.5796419990531330E-002  -6.6861461740835848E-003   6.3560971950145789E-002
   1.2137014792119961E-002  -2.1997458809115411E-003   6.1831995361610409E-002
   1.1697987614579124E-002  -3.7892940566784661E-003   6.2509216123947359E-002
   1.1258960437038282E-002  -4.6954242716743116E-003   6.3548699199658554E-002
   1.0819933259497436E-002  -4.9181365258990882E-003   6.4950444588744188E-002
   1.0380906081956590E-002  -4.4574308193526258E-003   6.6714452291203971E-002
   5.7079874133376240E-003  -1.0998683311600477E-003   6.0791870177670466E-002
   5.5598487415174837E-003  -1.8946446704464076E-003   6.2631311978617099E-002
   5.4117100696973426E-003  -2.3477113057854340E-003   6.4690268477630819E-002
   5.2635713978771998E-003  -2.4590682371771876E-003   6.6968739674711647E-002
   5.1154327260570630E-003  -2.2287154646217222E-003   6.9466725569859597E-002
  -8.9515406476170511E-009   9.2185915012699127E-009   6.0717370958623118E-002
  -6.7329472899779752E-009   4.7157857896440447E-009   6.3377325541355556E-002
  -4.5143539531555810E-009   1.6601034297236694E-009   6.6114047206847965E-002
  -2.2957606007206754E-009   5.1544542939430116E-011   6.8927535955100108E-002
  -7.7167255224663833E-011  -1.0989076315581769E-010   7.1817791786112251E-002
   2.1361974451781285E-002  -8.9148615288144883E-003   6.0006284546684607E-002
   2.1276352821325603E-002  -7.5043884632031710E-003   6.0246913306591821E-002
   2.1190731190869949E-002  -6.4826268898447587E-003   6.0850286639087675E-002
   2.1105109560414274E-002  -5.8495768087385609E-003   6.1816404544172185E-002
   2.1019487929958613E-002  -5.6052382198854001E-003   6.3145267021845253E-002
   1.5796419990531330E-002  -6.6861461740835848E-003   6.3560971950145789E-002
   1.5988208138157746E-002  -5.6282912602181878E-003   6.3526183886625898E-002
   1.6179996285784162E-002  -4.8619700172916058E-003   6.3683470806681491E-002
   1.6371784433410592E-002  -4.3871824453035196E-003   6.4032832710312571E-002
   1.6563572581037009E-002  -4.2039285442544427E-003   6.4574269597519218E-002
   1.0380906081956590E-002  -4.4574308193526258E-003   6.6714452291203971E-002
   1.0679434418651934E-002  -3.7521940572330659E-003   6.6501425225571023E-002
   1.0977962755347289E-002  -3.2413131447384461E-003   6.6309803554500335E-002
   1.1276491092042646E-002  -2.9247880818684766E-003   6.6139587277992073E-002
   1.1575019428737988E-002  -2.8026188686235687E-003   6.5990776396046127E-002
   5.1154327260570630E-003  -2.2287154646217222E-003   6.9466725569859597E-002
   5.3500316628081867E-003  -1.8760968542480411E-003   6.9172637323427225E-002
   5.5846305995593251E-003  -1.6206562721852620E-003   6.8729284882544150E-002
   5.8192295363104565E-003  -1.4623937184334900E-003   6.8136668247210236E-002
   6.0538284730615941E-003  -1.4013091929927085E-003   6.7394787417425564E-002
  -7.7167255224663833E-011  -1.0989076315581769E-010   7.1817791786112251E-002
  -1.2937349455621749E-010   3.4873706700189189E-010   7.1539820180194502E-002
  -1.8157973562249463E-010   6.0036785265449311E-010   7.0941914790812938E-002
  -2.3378598189294220E-010   6.4500154869917559E-010   7.0024075617967460E-002
  -2.8599221602032543E-010   4.8263820717764361E-010   6.8786302661657917E-002
   2.1019487929958613E-002  -5.6052382198854001E-003   6.3145267021845253E-002
   1.9018667830519392E-002  -5.5263897800509332E-003   6.1765072501018148E-002
   1.7017847731080171E-002  -5.3898101460013309E-003   6.0493070952068989E-002
   1.5017027631640936E-002  -5.1954993177369575E-003   5.9329262374997985E-002
   1.3016207532201729E-002  -4.9434572952576916E-003   5.8273646769805176E-002
   1.6563572581037009E-002  -4.2039285442544427E-003   6.4574269597519218E-002
   1.4768948473602259E-002  -4.1447922720024288E-003   6.2809955097220704E-002
   1.2974324366167508E-002  -4.0423575864062533E-003   6.1349839609052770E-002
   1.1179700258732765E-002  -3.8966244874656941E-003   6.0193923133015942E-002
   9.3850761512980080E-003  -3.7075929751808623E-003   5.9342205669109638E-002
   1.1575019428737988E-002  -2.8026188686235687E-003   6.5990776396046127E-002
   1.0182597353560426E-002  -2.7631947639542020E-003   6.3827909135405370E-002
   8.7901752783828661E-003  -2.6949050268111133E-003   6.2165246927148220E-002
   7.3977532032053067E-003  -2.5977496571943735E-003   6.1002789771274532E-002
   6.0053311280277299E-003  -2.4717286551039774E-003   6.0340537667784439E-002
   6.0538284730615941E-003  -1.4013091929927085E-003   6.7394787417425564E-002
   5.2596144703939019E-003  -1.3815972559058642E-003   6.4818934615572144E-002
   4.4654004677262202E-003  -1.3474524672160322E-003   6.2939292906355013E-002
   3.6711864650585367E-003  -1.2988748269230814E-003   6.1755862289773956E-002
   2.8769724623908463E-003  -1.2358643350271203E-003   6.1268642765829336E-002
  -2.8599221602032543E-010   4.8263820717764361E-010   6.8786302661657917E-002
  -1.7589731407530174E-010   2.5214247356686315E-010   6.5783031537721137E-002
  -6.5802412130278043E-011   9.2379118243890446E-011   6.3671977546673281E-002
   4.4292489814745650E-011   3.3482418226871147E-012   6.2453140688514444E-002
   1.5438739175976934E-010  -1.4950263249602358E-011   6.2126520963244447E-002
   1.3016207532201729E-002  -4.9434572952576916E-003   5.8273646769805176E-002
   1.2818505539654620E-002  -4.6301499364106991E-003   5.9247312123895224E-002
   1.2620803547107512E-002  -4.2520430990434510E-003   6.0446674442932224E-002
   1.2423101554560403E-002  -3.8091367831561071E-003   6.1871733726916373E-002
   1.2225399562013295E-002  -3.3014309887485771E-003   6.3522489975847418E-002
   9.3850761512980080E-003  -3.7075929751808623E-003   5.9342205669109638E-002
   9.3690032552155578E-003  -3.4726124530093661E-003   6.0579889054825503E-002
   9.3529303591331214E-003  -3.1890323244088692E-003   6.1955133668523482E-002
   9.3368574630506816E-003  -2.8568525893795244E-003   6.3467939510203533E-002
   9.3207845669682488E-003  -2.4760732479213177E-003   6.5118306579866170E-002
   6.0053311280277299E-003  -2.4717286551039774E-003   6.0340537667784439E-002
   6.0827515914452061E-003  -2.3150749696080053E-003   6.1826039213034478E-002
   6.1601720548626962E-003  -2.1260215497743012E-003   6.3360966249302000E-002
   6.2375925182801793E-003  -1.9045683956031671E-003   6.4945318776587074E-002
   6.3150129816976486E-003  -1.6507155070941137E-003   6.6579096794889880E-002
   2.8769724623908463E-003  -1.2358643350271203E-003   6.1268642765829336E-002
   2.9597505483435378E-003  -1.1575374862066029E-003   6.2985762598522441E-002
   3.0425286342962207E-003  -1.0630107751396708E-003   6.4664172185268279E-002
   3.1253067202489104E-003  -9.5228420182647509E-004   6.6303871526067010E-002
   3.2080848062015950E-003  -8.2535776626693758E-004   6.7904860620918633E-002
   1.5438739175976934E-010  -1.4950263249602358E-011   6.2126520963244447E-002
   1.2591055975619270E-010  -2.8052005163203830E-012   6.4059059211289238E-002
   9.7433713874828243E-011  -5.0506820947759934E-013   6.5864751476422179E-002
   6.8956871462910740E-011  -8.0501508237240671E-012   6.7543597758643104E-002
   4.0480035989887142E-011  -2.5439761408563299E-011   6.9095598057952290E-002
   1.2225399562013295E-002  -3.3014309887485771E-003   6.3522489975847418E-002
   1.1100247059747048E-002  -2.8033907090623256E-003   6.3399673047189853E-002
   9.9750945574807737E-003  -2.3894809373390391E-003   6.3458432941037368E-002
   8.8499420552144992E-003  -2.0597016735794949E-003   6.3698769657389548E-002
   7.7247895529482247E-003  -1.8140529177825826E-003   6.4120683196246753E-002
   9.3207845669682488E-003  -2.4760732479213177E-003   6.5118306579866170E-002
   8.4021367127935787E-003  -2.1025430426192537E-003   6.4845646693217462E-002
   7.4834888586189433E-003  -1.7921107160595584E-003   6.4804419280246994E-002
   6.5648410044442801E-003  -1.5447762682412602E-003   6.4994624340954682E-002
   5.6461931502696378E-003  -1.3605396991649421E-003   6.5416261875341275E-002
   6.3150129816976486E-003  -1.6507155070941137E-003   6.6579096794889880E-002
   5.6527254267880814E-003  -1.4016953761766260E-003   6.6177626579471016E-002
   4.9904378718785176E-003  -1.1947404947796336E-003   6.6057444488904105E-002
   4.3281503169689574E-003  -1.0298508629034142E-003   6.6218550523188924E-002
   3.6658627620593867E-003  -9.0702648054752366E-004   6.6660944682325418E-002
   3.2080848062015950E-003  -8.2535776626693758E-004   6.7904860620918633E-002
   2.8520132017305477E-003  -7.0084770973388721E-004   6.7395612705951208E-002
   2.4959415972595151E-003  -5.9737027349993088E-004   6.7217508567009060E-002
   2.1398699927884755E-003  -5.1492545756531838E-004   6.7370548204091898E-002
   1.7837983883174351E-003  -4.5351326193010522E-004   6.7854731617200348E-002
   4.0480035989887142E-011  -2.5439761408563299E-011   6.9095598057952290E-002
   3.7620982717978535E-011  -4.3290815376906266E-011   6.8499605072657399E-002
   3.4761925976622976E-011  -5.2220144874937091E-011   6.8284611514561222E-002
   3.1902869235267417E-011  -5.2227368263491059E-011   6.8450617383663759E-002
   2.9043815963358810E-011  -4.3312464725886457E-011   6.8997622679965009E-002
   7.7247895529482247E-003  -1.8140529177825826E-003   6.4120683196246753E-002
   6.8419024912401011E-003  -1.6556808763807385E-003   6.3997984106946348E-002
   5.9590154295319636E-003  -1.5877317558048165E-003   6.4153136145785772E-002
   5.0761283678238400E-003  -1.6102055560549486E-003   6.4586139312765106E-002
   4.1932413061157026E-003  -1.7231022771316828E-003   6.5296993607884435E-002
   5.6461931502696378E-003  -1.3605396991649421E-003   6.5416261875341275E-002
   5.0268748760242538E-003  -1.2417606654037128E-003   6.5298426403474941E-002
   4.4075566017788628E-003  -1.1907988235300981E-003   6.5429877378394313E-002
   3.7882383275334823E-003  -1.2076541735443411E-003   6.5810614800099407E-002
   3.1689200532880740E-003  -1.2923267154461016E-003   6.6440638668590124E-002
   3.6658627620593867E-003  -9.0702648054752366E-004   6.6660944682325418E-002
   3.2815485939225141E-003  -8.2784045442693688E-004   6.6570578556831933E-002
   2.8972344257856587E-003  -7.9386589125550466E-004   6.6700934196769798E-002
   2.5129202576488069E-003  -8.0510279103329294E-004   6.7052011602139139E-002
   2.1286060895119446E-003  -8.6155115376057578E-004   6.7623810772939802E-002
   1.7837983883174351E-003  -4.5351326193010522E-004   6.7854731617200348E-002
   1.6059236449348898E-003  -4.1392024344986955E-004   6.7814440567017742E-002
   1.4280489015523505E-003  -3.9693295898051567E-004   6.7966306600912532E-002
   1.2501741581698155E-003  -4.0255140852268716E-004   6.8310329718884344E-002
   1.0722994147872797E-003  -4.3077559207496674E-004   6.8846509920933496E-002
   2.9043815963358810E-011  -4.3312464725886457E-011   6.8997622679965009E-002
   2.9061378303829599E-011  -3.2473246314168591E-011   6.9030012434032062E-002
   2.9078940644300388E-011  -2.6706192812753216E-011   6.9225994590822015E-002
   2.9096496045877274E-011  -2.6011748310850180E-011   6.9585569150335091E-002
   2.9114065325241967E-011  -3.0389468719249635E-011   7.0108736112571179E-002
   4.1932413061157026E-003  -1.7231022771316828E-003   6.5296993607884435E-002
   3.6508469885504075E-003  -2.0007178715308327E-003   6.4408959254456777E-002
   3.1084526709851262E-003  -2.5173482917482393E-003   6.3626849956044562E-002
   2.5660583534198658E-003  -3.2729935377847699E-003   6.2950665712647985E-002
   2.0236640358545777E-003  -4.2676536096397655E-003   6.2380406524266574E-002
   3.1689200532880740E-003  -1.2923267154461016E-003   6.6440638668590124E-002
   2.7398691716200574E-003  -1.5005384126693389E-003   6.5334892012809509E-002
   2.3108182899520269E-003  -1.8880112286475959E-003   6.4349907173807702E-002
   1.8817674082839998E-003  -2.4547451633804354E-003   6.3485684151585217E-002
   1.4527165266159797E-003  -3.2007402168683363E-003   6.2742222946141957E-002
   2.1286060895119446E-003  -8.6155115376057578E-004   6.7623810772939802E-002
   1.8277354055049669E-003  -1.0003589538082058E-003   6.6360105521869633E-002
   1.5268647214980099E-003  -1.2586741655466055E-003   6.5231998849342124E-002
   1.2259940374910513E-003  -1.6364967889763195E-003   6.4239490755357981E-002
   9.2512335348407526E-004  -2.1338268240969072E-003   6.3382581239916524E-002
   1.0722994147872797E-003  -4.3077559207496674E-004   6.8846509920933496E-002
   9.1444569020517411E-004  -5.0017949494655933E-004   6.7484599781637317E-002
   7.5659196562308240E-004  -6.2933710244567759E-004   6.6273124982648021E-002
   5.9873824104098765E-004  -8.1824841457209425E-004   6.5212085523965541E-002
   4.4088451645888510E-004  -1.0669134313253670E-003   6.4301481405589750E-002
   2.9114065325241967E-011  -3.0389468719249635E-011   7.0108736112571179E-002
   2.5720654772687368E-011  -3.6085634480542694E-011   6.8708374792113003E-002
   2.2327244220132769E-011  -3.9344749680481073E-011   6.7473285573725450E-002
   1.8933835402301646E-011  -4.0167924542089395E-011   6.6403468457408577E-002
   1.5540423115023572E-011  -3.8554270886947961E-011   6.5498923443161994E-002
   2.0236640358545777E-003  -4.2676536096397655E-003   6.2380406524266574E-002
   2.2777758895869415E-003  -5.5762072465547208E-003   5.8336207487348468E-002
   2.5318877433193332E-003  -7.2735331877714637E-003   5.4294121292188802E-002
   2.7859995970517457E-003  -9.3596314332900221E-003   5.0254147938786964E-002
   3.0401114507840887E-003  -1.1834501983110535E-002   4.6216287427143676E-002
   1.4527165266159797E-003  -3.2007402168683363E-003   6.2742222946141957E-002
   1.6925310207583227E-003  -4.1821554441980879E-003   5.8384792277366815E-002
   1.9323455149007074E-003  -5.4551499004571180E-003   5.3996654047653636E-002
   2.1721600090430747E-003  -7.0197235856454474E-003   4.9577808257001532E-002
   2.4119745031854212E-003  -8.8758764997634021E-003   4.5128254905412168E-002
   9.2512335348407526E-004  -2.1338268240969072E-003   6.3382581239916524E-002
   1.1178200853399836E-003  -2.7881036418411775E-003   5.8809112014656717E-002
   1.3105168171958920E-003  -3.6367666131427723E-003   5.4172114825762452E-002
   1.5032135490518194E-003  -4.6798157380010391E-003   4.9471589673233618E-002
   1.6959102809077087E-003  -5.9172510164162695E-003   4.4707536557069938E-002
   4.4088451645888510E-004  -1.0669134313253670E-003   6.4301481405589750E-002
   5.5364308333191552E-004  -1.3940518394846280E-003   5.9609166699217835E-002
   6.6640165020495287E-004  -1.8183833258286486E-003   5.4820503626514971E-002
   7.7916021707796030E-004  -2.3399078903565476E-003   4.9935492187481036E-002
   8.9191878395102064E-004  -2.9586255330691369E-003   4.4954132382115930E-002
   1.5540423115023572E-011  -3.8554270886947961E-011   6.5498923443161994E-002
   1.4734130582283456E-011  -3.7127745322607097E-011   6.0784956331050743E-002
   1.3927834580096388E-011  -3.8514025302305299E-011   5.5941820449911694E-002
   1.3121521230674560E-011  -4.2711986725230133E-011   5.0969515799745069E-002
   1.2315246045169204E-011  -4.9722004291652411E-011   4.5868042380551088E-002
  -8.9515406476170511E-009   9.2185915012699127E-009   6.0717370958623118E-002
  -6.7329472899779752E-009   4.7157857896440447E-009   6.3377325541355556E-002
  -4.5143539531555810E-009   1.6601034297236694E-009   6.6114047206847965E-002
  -2.2957606007206754E-009   5.1544542939430116E-011   6.8927535955100108E-002
  -7.7167255224663833E-011  -1.0989076315581769E-010   7.1817791786112251E-002
  -5.7080043882889314E-003   1.0998788640374513E-003   6.0791857897674134E-002
  -5.5598615036155687E-003   1.8946503127966752E-003   6.2631303557303536E-002
  -5.4117186189422319E-003   2.3477136168744556E-003   6.4690263466333178E-002
  -5.2635757342688856E-003   2.4590687762704559E-003   6.6968737624762686E-002
  -5.1154328495955324E-003   2.2287157909849364E-003   6.9466726032592546E-002
  -1.2137028982681316E-002   2.1997485094834290E-003   6.1831975584192830E-002
  -1.1697998265287739E-002   3.7892959098076856E-003   6.2509202728914040E-002
  -1.1258967547894131E-002   4.6954255736453496E-003   6.3548691289675746E-002
  -1.0819936830500544E-002   4.9181375009963429E-003   6.4950441266477837E-002
  -1.0380906113106951E-002   4.4574316918607471E-003   6.6714452659320175E-002
  -1.9287082734717853E-002   3.2996181549293929E-003   6.3837724018178860E-002
  -1.8414417017963754E-002   5.6839415068186613E-003   6.3011023056187138E-002
  -1.7541751301209683E-002   7.0431375304162540E-003   6.2689330676875835E-002
  -1.6669085584455592E-002   7.3772062257222151E-003   6.2872646880245284E-002
  -1.5796419867701514E-002   6.6861475927365299E-003   6.3560971666295318E-002
  -2.7158165644398484E-002   4.3994878003753568E-003   6.6809103199632514E-002
  -2.5709117761643675E-002   7.5785871038296093E-003   6.4136764539122482E-002
  -2.4260069878888856E-002   9.3908494871872417E-003   6.2112181627933416E-002
  -2.2811021996134030E-002   9.8362749504480665E-003   6.0735354466065095E-002
  -2.1361974113379218E-002   8.9148634936122573E-003   6.0006283053517739E-002
  -7.7167255224663833E-011  -1.0989076315581769E-010   7.1817791786112251E-002
  -1.2937349455621749E-010   3.4873706700189189E-010   7.1539820180194502E-002
  -1.8157973562249463E-010   6.0036785265449311E-010   7.0941914790812938E-002
  -2.3378598189294220E-010   6.4500154869917559E-010   7.0024075617967460E-002
  -2.8599221602032543E-010   4.8263820717764361E-010   6.8786302661657917E-002
  -5.1154328495955324E-003   2.2287157909849364E-003   6.9466726032592546E-002
  -5.3500318896786700E-003   1.8760976312405947E-003   6.9172637525562200E-002
  -5.5846309297617990E-003   1.6206572672599479E-003   6.8729284826241979E-002
  -5.8192299698449261E-003   1.4623946990431728E-003   6.8136667934631856E-002
  -6.0538290099280655E-003   1.4013099265899887E-003   6.7394786850731969E-002
  -1.0380906113106951E-002   4.4574316918607471E-003   6.6714452659320175E-002
  -1.0679434549892864E-002   3.7521949137441918E-003   6.6501425253937901E-002
  -1.0977962986678774E-002   3.2413139341521055E-003   6.6309803247439875E-002
  -1.1276491423464685E-002   2.9247887530845767E-003   6.6139586639826095E-002
  -1.1575019860250599E-002   2.8026193705416869E-003   6.5990775431096674E-002
  -1.5796419867701514E-002   6.6861475927365299E-003   6.3560971666295318E-002
  -1.5988208110016094E-002   5.6282921962477542E-003   6.3526183365321870E-002
  -1.6179996352330656E-002   4.8619706010442597E-003   6.3683470054406818E-002
  -1.6371784594645222E-002   4.3871828071260907E-003   6.4032831733550150E-002
  -1.6563572836959802E-002   4.2039288144932879E-003   6.4574268402751933E-002
  -2.1361974113379218E-002   8.9148634936122573E-003   6.0006283053517739E-002
  -2.1276352570048337E-002   7.5043894787512888E-003   6.0246911859713925E-002
  -2.1190731026717452E-002   6.4826272679363445E-003   6.0850285247142782E-002
  -2.1105109483386585E-002   5.8495768611677122E-003   6.1816403215803992E-002
  -2.1019487940055689E-002   5.6052382584451665E-003   6.3145265765697844E-002
  -2.8599221602032543E-010   4.8263820717764361E-010   6.8786302661657917E-002
  -1.7589731407530174E-010   2.5214247356686315E-010   6.5783031537721137E-002
  -6.5802412130278043E-011   9.2379118243890446E-011   6.3671977546673281E-002
   4.4292489814745650E-011   3.3482418226871147E-012   6.2453140688514444E-002
   1.5438739175976934E-010  -1.4950263249602358E-011   6.2126520963244447E-002
  -6.0538290099280655E-003   1.4013099265899887E-003   6.7394786850731969E-002
  -5.2596147988648919E-003   1.3815976712283073E-003   6.4818934223063646E-002
  -4.4654005878017183E-003   1.3474526542858051E-003   6.2939292664442870E-002
  -3.6711863767385534E-003   1.2988748757628253E-003   6.1755862174869711E-002
  -2.8769721656753781E-003   1.2358643356586985E-003   6.1268642754344294E-002
  -1.1575019860250599E-002   2.8026193705416869E-003   6.5990775431096674E-002
  -1.0182597612060501E-002   2.7631950903140579E-003   6.3827908467383634E-002
  -8.7901753638703842E-003   2.6949052161925405E-003   6.2165246508876872E-002
  -7.3977531156802839E-003   2.5977497481771850E-003   6.1002789555576489E-002
  -6.0053308674901835E-003   2.4717286862678822E-003   6.0340537607482203E-002
  -1.6563572836959802E-002   4.2039288144932879E-003   6.4574268402751933E-002
  -1.4768948615484116E-002   4.1447925093998500E-003   6.2809954270681173E-002
  -1.2974324394008408E-002   4.0423577780992516E-003   6.1349839079975141E-002
  -1.1179700172532723E-002   3.8966246205916011E-003   6.0193922830634246E-002
  -9.3850759510570141E-003   3.7075930368768995E-003   5.9342205522658141E-002
  -2.1019487940055689E-002   5.6052382584451665E-003   6.3145265765697844E-002
  -1.9018667809135748E-002   5.5263899284856421E-003   6.1765071632956081E-002
  -1.7017847678215792E-002   5.3898103400058656E-003   6.0493070377737823E-002
  -1.5017027547295843E-002   5.1954994930061039E-003   5.9329262000043223E-002
  -1.3016207416375894E-002   4.9434573874860832E-003   5.8273646499872267E-002
   1.5438739175976934E-010  -1.4950263249602358E-011   6.2126520963244447E-002
   1.2591055975619270E-010  -2.8052005163203830E-012   6.4059059211289238E-002
   9.7433713874828243E-011  -5.0506820947759934E-013   6.5864751476422179E-002
   6.8956871462910740E-011  -8.0501508237240671E-012   6.7543597758643104E-002
   4.0480035989887142E-011  -2.5439761408563299E-011   6.9095598057952290E-002
  -2.8769721656753781E-003   1.2358643356586985E-003   6.1268642754344294E-002
  -2.9597503034751484E-003   1.1575374804788929E-003   6.2985762555018004E-002
  -3.0425284412749186E-003   1.0630107567278779E-003   6.4664172119957702E-002
  -3.1253065790746845E-003   9.5228416440573671E-004   6.6303871449163526E-002
  -3.2080847168744660E-003   8.2535770351255255E-004   6.7904860542635059E-002
  -6.0053308674901835E-003   2.4717286862678822E-003   6.0340537607482203E-002
  -6.0827513674349626E-003   2.3150749637630974E-003   6.1826039102058583E-002
  -6.1601718673797434E-003   2.1260215139608379E-003   6.3360966108078939E-002
  -6.2375923673245381E-003   1.9045683368615167E-003   6.4945318625543230E-002
  -6.3150128672693172E-003   1.6507154324649220E-003   6.6579096654451470E-002
  -9.3850759510570141E-003   3.7075930368768995E-003   5.9342205522658141E-002
  -9.3690030659689116E-003   3.4726124470472464E-003   6.0579888852411098E-002
  -9.3529301808807953E-003   3.1890322711939575E-003   6.1955133440786112E-002
  -9.3368572957926756E-003   2.8568525093172394E-003   6.3467939287782799E-002
  -9.3207844107045766E-003   2.4760731614172637E-003   6.5118306393401465E-002
  -1.3016207416375894E-002   4.9434573874860832E-003   5.8273646499872267E-002
  -1.2818505399076960E-002   4.6301499303313398E-003   5.9247311806075675E-002
  -1.2620803381778040E-002   4.2520430284268690E-003   6.0446674118078997E-002
  -1.2423101364479109E-002   3.8091366817729656E-003   6.1871733435881995E-002
  -1.2225399347180185E-002   3.3014308903694944E-003   6.3522489759484824E-002
   4.0480035989887142E-011  -2.5439761408563299E-011   6.9095598057952290E-002
   3.7620982717978535E-011  -4.3290815376906266E-011   6.8499605072657399E-002
   3.4761925976622976E-011  -5.2220144874937091E-011   6.8284611514561222E-002
   3.1902869235267417E-011  -5.2227368263491059E-011   6.8450617383663759E-002
   2.9043815963358810E-011  -4.3312464725886457E-011   6.8997622679965009E-002
  -3.2080847168744660E-003   8.2535770351255255E-004   6.7904860542635059E-002
  -2.8520131194800756E-003   7.0084762400168810E-004   6.7395612657483339E-002
  -2.4959415220856939E-003   5.9737017582561780E-004   6.7217508545639654E-002
  -2.1398699246913087E-003   5.1492535898553515E-004   6.7370548207104058E-002
  -1.7837983272969218E-003   4.5351317348063525E-004   6.7854731641876775E-002
  -6.3150128672693172E-003   1.6507154324649220E-003   6.6579096654451470E-002
  -5.6527253235120513E-003   1.4016952912941361E-003   6.6177626491855990E-002
  -4.9904377797547863E-003   1.1947404038719495E-003   6.6057444448678240E-002
  -4.3281502359975282E-003   1.0298507701986641E-003   6.6218550524918096E-002
  -3.6658626922402692E-003   9.0702639027395726E-004   6.6660944720575516E-002
  -9.3207844107045766E-003   2.4760731614172637E-003   6.5118306393401465E-002
  -8.4021365744749599E-003   2.1025429585866118E-003   6.4845646575775864E-002
  -7.4834887382453598E-003   1.7921106319178856E-003   6.4804419223677218E-002
  -6.5648409020157492E-003   1.5447761814115137E-003   6.4994624337105608E-002
  -5.6461930657861446E-003   1.3605396070671127E-003   6.5416261916061161E-002
  -1.2225399347180185E-002   3.3014308903694944E-003   6.3522489759484824E-002
  -1.1100246872368789E-002   2.8033906258792540E-003   6.3399672909242366E-002
  -9.9750943975574075E-003   2.3894808599640993E-003   6.3458432870636350E-002
  -8.8499419227460255E-003   2.0597015926247658E-003   6.3698769643666719E-002
  -7.7247894479346296E-003   1.8140528238604903E-003   6.4120683228333863E-002
   2.9043815963358810E-011  -4.3312464725886457E-011   6.8997622679965009E-002
   2.9061378303829599E-011  -3.2473246314168591E-011   6.9030012434032062E-002
   2.9078940644300388E-011  -2.6706192812753216E-011   6.9225994590822015E-002
   2.9096496045877274E-011  -2.6011748310850180E-011   6.9585569150335091E-002
   2.9114065325241967E-011  -3.0389468719249635E-011   7.0108736112571179E-002
  -1.7837983272969218E-003   4.5351317348063525E-004   6.7854731641876775E-002
  -1.6059235845942849E-003   4.1392016797769937E-004   6.7814440589101355E-002
  -1.4280488418916409E-003   3.9693289114373087E-004   6.7966306618973182E-002
  -1.2501740991889927E-003   4.0255134297853545E-004   6.8310329731492481E-002
  -1.0722993564863600E-003   4.3077552348202985E-004   6.8846509926658361E-002
  -3.6658626922402692E-003   9.0702639027395726E-004   6.6660944720575516E-002
  -3.2815485269283625E-003   8.2784036842858955E-004   6.6570578594699115E-002
  -2.8972343616164714E-003   7.9386580899332149E-004   6.6700934231394116E-002
  -2.5129201963045734E-003   8.0510271196837513E-004   6.7052011630660310E-002
  -2.1286060309926736E-003   8.6155107735330638E-004   6.7623810792497907E-002
  -5.6461930657861446E-003   1.3605396070671127E-003   6.5416261916061161E-002
  -5.0268747979408399E-003   1.2417605688793965E-003   6.5298426450824870E-002
  -4.4075565300955299E-003   1.1907987268431341E-003   6.5429877428084177E-002
  -3.7882382622502304E-003   1.2076540809581038E-003   6.5810614847839163E-002
  -3.1689199944049157E-003   1.2923266312245274E-003   6.6440638710089261E-002
  -7.7247894479346296E-003   1.8140528238604903E-003   6.4120683228333863E-002
  -6.8419023976317370E-003   1.6556807693303144E-003   6.3997984157479149E-002
  -5.9590153473288374E-003   1.5877316446927525E-003   6.4153136209044059E-002
  -5.0761282970259412E-003   1.6102054499483112E-003   6.4586139383028873E-002
  -4.1932412467230451E-003   1.7231021850960815E-003   6.5296993679433091E-002
   2.9114065325241967E-011  -3.0389468719249635E-011   7.0108736112571179E-002
   2.5720654772687368E-011  -3.6085634480542694E-011   6.8708374792113003E-002
   2.2327244220132769E-011  -3.9344749680481073E-011   6.7473285573725450E-002
   1.8933835402301646E-011  -4.0167924542089395E-011   6.6403468457408577E-002
   1.5540423115023572E-011  -3.8554270886947961E-011   6.5498923443161994E-002
  -1.0722993564863600E-003   4.3077552348202985E-004   6.8846509926658361E-002
  -9.1444563880422464E-004   5.0017942175517582E-004   6.7484599790953115E-002
  -7.5659192112209270E-004   6.2933702689998983E-004   6.6273124995328475E-002
  -5.9873820343996510E-004   8.1824833891576410E-004   6.5212085539784428E-002
  -4.4088448575782535E-004   1.0669133578028456E-003   6.4301481424320683E-002
  -2.1286060309926736E-003   8.6155107735330638E-004   6.7623810792497907E-002
  -1.8277353542250994E-003   1.0003588795962359E-003   6.6360105545980291E-002
  -1.5268646774575182E-003   1.2586740931449514E-003   6.5231998877552849E-002
  -1.2259940006899366E-003   1.6364967179993417E-003   6.4239490787215914E-002
  -9.2512332392236281E-004   2.1338267541594069E-003   6.3382581274969318E-002
  -3.1689199944049157E-003   1.2923266312245274E-003   6.6440638710089261E-002
  -2.7398691205419768E-003   1.5005383374373377E-003   6.5334892057193839E-002
  -2.3108182466790379E-003   1.8880111593896909E-003   6.4349907220398628E-002
  -1.8817673728161095E-003   2.4547450970825307E-003   6.3485684199703879E-002
  -1.4527164989531602E-003   3.2007401505159128E-003   6.2742222995109176E-002
  -4.1932412467230451E-003   1.7231021850960815E-003   6.5296993679433091E-002
  -3.6508469377548453E-003   2.0007177952779953E-003   6.4408959324594228E-002
  -3.1084526287866454E-003   2.5173482256344304E-003   6.3626850023865589E-002
  -2.5660583198184386E-003   3.2729934761664969E-003   6.2950665777247006E-002
  -2.0236640108502457E-003   4.2676535468728627E-003   6.2380406584738868E-002
   1.5540423115023572E-011  -3.8554270886947961E-011   6.5498923443161994E-002
   1.4734130582283456E-011  -3.7127745322607097E-011   6.0784956331050743E-002
   1.3927834580096388E-011  -3.8514025302305299E-011   5.5941820449911694E-002
   1.3121521230674560E-011  -4.2711986725230133E-011   5.0969515799745069E-002
   1.2315246045169204E-011  -4.9722004291652411E-011   4.5868042380551088E-002
  -4.4088448575782535E-004   1.0669133578028456E-003   6.4301481424320683E-002
  -5.5364305417574325E-004   1.3940517670655850E-003   5.9609166712293216E-002
  -6.6640162259365768E-004   1.8183832502097763E-003   5.4820503634070372E-002
  -7.7916019101159032E-004   2.3399078072350032E-003   4.9935492189651431E-002
  -8.9191875942949000E-004   2.9586254381410715E-003   4.4954132379037226E-002
  -9.2512332392236281E-004   2.1338267541594069E-003   6.3382581274969318E-002
  -1.1178200571200815E-003   2.7881035712595259E-003   5.8809112039719530E-002
  -1.3105167903178080E-003   3.6367665389336612E-003   5.4172114841105234E-002
  -1.5032135235155250E-003   4.6798156571817087E-003   4.9471589679127112E-002
  -1.6959102567132532E-003   5.9172509260039252E-003   4.4707536553785565E-002
  -1.4527164989531602E-003   3.2007401505159128E-003   6.2742222995109176E-002
  -1.6925309940988504E-003   4.1821553754533836E-003   5.8384792313328895E-002
  -1.9323454892445546E-003   5.4551498276572824E-003   5.3996654071016982E-002
  -2.1721599843902767E-003   7.0197235071286675E-003   4.9577808268173124E-002
  -2.4119744795359352E-003   8.8758764138667789E-003   4.5128254904797049E-002
  -2.0236640108502457E-003   4.2676535468728627E-003   6.2380406584738868E-002
  -2.2777758651120888E-003   5.5762071796466861E-003   5.8336207533122186E-002
  -2.5318877193739459E-003   7.2735331163815142E-003   5.4294121323805289E-002
  -2.7859995736358098E-003   9.3596313570756123E-003   5.0254147956787731E-002
  -3.0401114278976460E-003   1.1834501901729855E-002   4.6216287432070846E-002
  -2.7158165644398484E-002   4.3994878003753568E-003   6.6809103199632514E-002
  -2.5709117761643675E-002   7.5785871038296093E-003   6.4136764539122482E-002
  -2.4260069878888856E-002   9.3908494871872417E-003   6.2112181627933416E-002
  -2.2811021996134030E-002   9.8362749504480665E-003   6.0735354466065095E-002
  -2.1361974113379218E-002   8.9148634936122573E-003   6.0006283053517739E-002
  -3.4819363028122427E-002   7.8745581822928234E-003   6.6023614027674288E-002
  -3.2895352632776931E-002   9.2020529784295479E-003   6.3310772621931105E-002
  -3.0971342237431462E-002   9.8793652585421055E-003   6.0900100492048539E-002
  -2.9047331842085963E-002   9.9064950226305099E-003   5.8791597638026459E-002
  -2.7123321446740453E-002   9.2834422706946640E-003   5.6985264059864926E-002
  -4.1339760202288967E-002   1.1349628564210207E-002   6.3028193146362460E-002
  -3.9286373767813111E-002   1.0825518853029445E-002   6.0991503399458580E-002
  -3.7232987333337283E-002   1.0367881029896983E-002   5.8911396454954981E-002
  -3.5179600898861449E-002   9.9767150948129220E-003   5.6787872312851477E-002
  -3.3126214464385614E-002   9.6520210477770707E-003   5.4620930973148213E-002
  -4.6719357166897936E-002   1.4824698946127618E-002   5.7822840555696552E-002
  -4.4882181166752154E-002   1.2448984727629391E-002   5.7178956871704781E-002
  -4.3045005166606344E-002   1.0856396801251937E-002   5.6146069516652686E-002
  -4.1207829166460527E-002   1.0046935166995322E-002   5.4724178490540384E-002
  -3.9370653166314711E-002   1.0020599824859561E-002   5.2913283793368002E-002
  -5.0958153921949523E-002   1.8299769328045057E-002   5.0407556255677166E-002
  -4.9682774829594101E-002   1.4072450602229281E-002   5.1873133038669639E-002
  -4.8407395737238637E-002   1.1344912572606780E-002   5.2604119677141570E-002
  -4.7132016644883194E-002   1.0117155239177764E-002   5.2600516171093015E-002
  -4.5856637552527738E-002   1.0389178601941884E-002   5.1862322520523862E-002
  -2.1361974113379218E-002   8.9148634936122573E-003   6.0006283053517739E-002
  -2.1276352570048337E-002   7.5043894787512888E-003   6.0246911859713925E-002
  -2.1190731026717452E-002   6.4826272679363445E-003   6.0850285247142782E-002
  -2.1105109483386585E-002   5.8495768611677122E-003   6.1816403215803992E-002
  -2.1019487940055689E-002   5.6052382584451665E-003   6.3145265765697844E-002
  -2.7123321446740453E-002   9.2834422706946640E-003   5.6985264059864926E-002
  -2.6662869991842371E-002   8.4262730817638021E-003   5.7281763235151967E-002
  -2.6202418536944237E-002   7.7510535348667003E-003   5.7965177652340952E-002
  -2.5741967082046131E-002   7.2577836300036468E-003   5.9035507311431902E-002
  -2.5281515627148025E-002   6.9464633671744158E-003   6.0492752212424783E-002
  -3.3126214464385614E-002   9.6520210477770707E-003   5.4620930973148213E-002
  -3.2266762437250858E-002   9.3481566847762737E-003   5.4766538355513927E-002
  -3.1407310410116115E-002   9.0194798017971187E-003   5.5323231640450908E-002
  -3.0547858382981383E-002   8.6659903988395275E-003   5.6291010827959356E-002
  -2.9688406355846610E-002   8.2876884759036096E-003   5.7669875918039085E-002
  -3.9370653166314711E-002   1.0020599824859561E-002   5.2913283793368002E-002
  -3.8088029906273892E-002   1.0270040287788822E-002   5.2701237220799890E-002
  -3.6805406646233045E-002   1.0287906068727450E-002   5.2924447211472589E-002
  -3.5522783386192171E-002   1.0074197167675436E-002   5.3582913765386105E-002
  -3.4240160126151359E-002   9.6289135846328588E-003   5.4676636882540347E-002
  -4.5856637552527738E-002   1.0389178601941884E-002   5.1862322520523862E-002
  -4.4126672398911410E-002   1.1191923890801314E-002   5.1085859831009772E-002
  -4.2396707245295047E-002   1.1556332335657879E-002   5.0768824365405918E-002
  -4.0666742091678726E-002   1.1482403936511423E-002   5.0911216123712327E-002
  -3.8936776938062356E-002   1.0970138693362108E-002   5.1513035105928917E-002
  -2.1019487940055689E-002   5.6052382584451665E-003   6.3145265765697844E-002
  -1.9018667809135748E-002   5.5263899284856421E-003   6.1765071632956081E-002
  -1.7017847678215792E-002   5.3898103400058656E-003   6.0493070377737823E-002
  -1.5017027547295843E-002   5.1954994930061039E-003   5.9329262000043223E-002
  -1.3016207416375894E-002   4.9434573874860832E-003   5.8273646499872267E-002
  -2.5281515627148025E-002   6.9464633671744158E-003   6.0492752212424783E-002
  -2.3149125780564807E-002   6.7090087721880243E-003   5.8945097093782400E-002
  -2.1016735933981560E-002   6.4373358708535305E-003   5.7552388528942816E-002
  -1.8884346087398321E-002   6.1314446631707369E-003   5.6314626517906446E-002
  -1.6751956240815099E-002   5.7913351491397647E-003   5.5231811060672820E-002
  -2.9688406355846610E-002   8.2876884759036096E-003   5.7669875918039085E-002
  -2.7377693117320676E-002   7.8916276158904619E-003   5.5978272765667844E-002
  -2.5066979878794773E-002   7.4848614017009110E-003   5.4488369843379021E-002
  -2.2756266640268856E-002   7.0673898333352015E-003   5.3200167151172512E-002
  -2.0445553401742932E-002   6.6392129107933073E-003   5.2113664689048364E-002
  -3.4240160126151359E-002   9.6289135846328588E-003   5.4676636882540347E-002
  -3.1704369819403388E-002   9.0742464595927053E-003   5.2864598648612440E-002
  -2.9168579512655404E-002   8.5323869325484893E-003   5.1301014321046168E-002
  -2.6632789205907396E-002   8.0033350034998604E-003   4.9985883899841717E-002
  -2.4096998899159453E-002   7.4870906724468639E-003   4.8919207384999081E-002
  -3.8936776938062356E-002   1.0970138693362108E-002   5.1513035105928917E-002
  -3.6129155886812911E-002   1.0256865303295282E-002   4.9604074742616078E-002
  -3.3321534835563452E-002   9.5799124633959148E-003   4.7990321961944499E-002
  -3.0513913784314013E-002   8.9392801736643719E-003   4.6671776763913944E-002
  -2.7706292733064547E-002   8.3349684341005315E-003   4.5648439148524678E-002
  -1.3016207416375894E-002   4.9434573874860832E-003   5.8273646499872267E-002
  -1.2818505399076960E-002   4.6301499303313398E-003   5.9247311806075675E-002
  -1.2620803381778040E-002   4.2520430284268690E-003   6.0446674118078997E-002
  -1.2423101364479109E-002   3.8091366817729656E-003   6.1871733435881995E-002
  -1.2225399347180185E-002   3.3014308903694944E-003   6.3522489759484824E-002
  -1.6751956240815099E-002   5.7913351491397647E-003   5.5231811060672820E-002
  -1.6352614145842184E-002   5.4172809478449380E-003   5.6174335845797507E-002
  -1.5953272050869258E-002   5.0095556783710388E-003   5.7294443780470439E-002
  -1.5553929955896353E-002   4.5681593407178901E-003   5.8592134864691572E-002
  -1.5154587860923413E-002   4.0930919348855510E-003   6.0067409098461033E-002
  -2.0445553401742932E-002   6.6392129107933073E-003   5.2113664689048364E-002
  -1.9892685085347570E-002   6.2044119653587859E-003   5.3056177329664542E-002
  -1.9339816768952210E-002   5.7670683283152571E-003   5.4128159263577454E-002
  -1.8786948452556844E-002   5.3271819996628684E-003   5.5329610490786885E-002
  -1.8234080136161481E-002   4.8847529794014410E-003   5.6660531011293175E-002
  -2.4096998899159453E-002   7.4870906724468639E-003   4.8919207384999081E-002
  -2.3438718217593187E-002   6.9915429828725645E-003   4.9892836257676945E-002
  -2.2780437536026894E-002   6.5245809782593957E-003   5.0947820567400118E-002
  -2.2122156854460659E-002   6.0862046586077087E-003   5.2084160314168314E-002
  -2.1463876172894365E-002   5.6764140239173588E-003   5.3301855497981734E-002
  -2.7706292733064547E-002   8.3349684341005315E-003   4.5648439148524678E-002
  -2.6990713542578912E-002   7.7786740003863430E-003   4.6684312629834801E-002
  -2.6275134352093346E-002   7.2820936282034787E-003   4.7753427691938299E-002
  -2.5559555161607732E-002   6.8452273175527850E-003   4.8855784334835478E-002
  -2.4843975971122145E-002   6.4680750684333876E-003   4.9991382558526309E-002
  -1.2225399347180185E-002   3.3014308903694944E-003   6.3522489759484824E-002
  -1.1100246872368789E-002   2.8033906258792540E-003   6.3399672909242366E-002
  -9.9750943975574075E-003   2.3894808599640993E-003   6.3458432870636350E-002
  -8.8499419227460255E-003   2.0597015926247658E-003   6.3698769643666719E-002
  -7.7247894479346296E-003   1.8140528238604903E-003   6.4120683228333863E-002
  -1.5154587860923413E-002   4.0930919348855510E-003   6.0067409098461033E-002
  -1.3839256478315375E-002   3.6213323855457946E-003   5.9865099222753737E-002
  -1.2523925095707343E-002   3.1898596173709354E-003   5.9861570351003479E-002
  -1.1208593713099317E-002   2.7986736303604286E-003   6.0056822483209718E-002
  -9.8932623304913009E-003   2.4477744245148259E-003   6.0450855619372801E-002
  -1.8234080136161481E-002   4.8847529794014410E-003   5.6660531011293175E-002
  -1.6711365653436561E-002   4.4392741452125850E-003   5.6334884392710630E-002
  -1.5188651170711637E-002   3.9902383747775494E-003   5.6225222970405081E-002
  -1.3665936687986699E-002   3.5376456680963689E-003   5.6331546744376571E-002
  -1.2143222205261765E-002   3.0814960251693280E-003   5.6653855714624973E-002
  -2.1463876172894365E-002   5.6764140239173588E-003   5.3301855497981734E-002
  -1.9716574397732306E-002   5.2572159048791395E-003   5.2809028419112933E-002
  -1.7969272622570205E-002   4.7906171321843855E-003   5.2549390728841357E-002
  -1.6221970847408139E-002   4.2766177058321704E-003   5.2522942427167138E-002
  -1.4474669072246045E-002   3.7152176258236358E-003   5.2729683514090193E-002
  -2.4843975971122145E-002   6.4680750684333876E-003   4.9991382558526309E-002
  -2.2854882711202618E-002   6.0751576645460270E-003   4.9287531301960452E-002
  -2.0865789451283132E-002   5.5909958895909995E-003   4.8834073626312369E-002
  -1.8876696191363646E-002   5.0155897435683050E-003   4.8631009531581559E-002
  -1.6887602931444118E-002   4.3489392264782767E-003   4.8678339017768524E-002
  -7.7247894479346296E-003   1.8140528238604903E-003   6.4120683228333863E-002
  -6.8419023976317370E-003   1.6556807693303144E-003   6.3997984157479149E-002
  -5.9590153473288374E-003   1.5877316446927525E-003   6.4153136209044059E-002
  -5.0761282970259412E-003   1.6102054499483112E-003   6.4586139383028873E-002
  -4.1932412467230451E-003   1.7231021850960815E-003   6.5296993679433091E-002
  -9.8932623304913009E-003   2.4477744245148259E-003   6.0450855619372801E-002
  -8.7391916808393331E-003   2.1693949618718511E-003   6.0337589850800455E-002
  -7.5851210311874175E-003   1.9957682044694502E-003   6.0488840158506474E-002
  -6.4310503815354480E-003   1.9268941523084282E-003   6.0904606542490858E-002
  -5.2769797318835340E-003   1.9627728053874804E-003   6.1584889002753940E-002
  -1.2143222205261765E-002   3.0814960251693280E-003   5.6653855714624973E-002
  -1.0731303002402024E-002   2.6831091544134433E-003   5.6564353023683012E-002
  -9.3193837995422715E-003   2.4038047642463561E-003   5.6726031362878057E-002
  -7.9074645966825396E-003   2.2435828546682086E-003   5.7138890732210339E-002
  -6.4955453938227783E-003   2.2024434256788794E-003   5.7802931131679669E-002
  -1.4474669072246045E-002   3.7152176258236358E-003   5.2729683514090193E-002
  -1.2818236362319699E-002   3.1968233469551188E-003   5.2678273676126722E-002
  -1.1161803652393450E-002   2.8118413240231024E-003   5.2864709822158948E-002
  -9.5053709424671468E-003   2.5602715570281574E-003   5.3288991952187094E-002
  -7.8489382325408561E-003   2.4421140459700563E-003   5.3951120066211389E-002
  -1.6887602931444118E-002   4.3489392264782767E-003   4.8678339017768524E-002
  -1.4999991760592524E-002   3.7105375394965723E-003   4.8679351808131321E-002
  -1.3112380589740902E-002   3.2198778837998487E-003   4.8904875536348980E-002
  -1.1224769418889294E-002   2.8769602593883004E-003   4.9354910202421082E-002
  -9.3371582480376858E-003   2.6817846662616773E-003   5.0029455806348100E-002
  -4.1932412467230451E-003   1.7231021850960815E-003   6.5296993679433091E-002
  -3.6508469377548453E-003   2.0007177952779953E-003   6.4408959324594228E-002
  -3.1084526287866454E-003   2.5173482256344304E-003   6.3626850023865589E-002
  -2.5660583198184386E-003   3.2729934761664969E-003   6.2950665777247006E-002
  -2.0236640108502457E-003   4.2676535468728627E-003   6.2380406584738868E-002
  -5.2769797318835340E-003   1.9627728053874804E-003   6.1584889002753940E-002
  -4.5991898231248010E-003   2.2149458567010116E-003   6.0874923472518050E-002
  -3.9213999143660680E-003   2.7949549992430933E-003   6.0329824087753114E-002
  -3.2436100056072985E-003   3.7028002330134202E-003   5.9949590848458939E-002
  -2.5658200968486020E-003   4.9384815580117980E-003   5.9734223754635773E-002
  -6.4955453938227783E-003   2.2024434256788794E-003   5.7802931131679669E-002
  -5.6234187939129023E-003   2.4291739181247496E-003   5.7359855697100420E-002
  -4.7512921940029706E-003   3.0725617728518673E-003   5.7140587499352635E-002
  -3.8791655940930529E-003   4.1326069898605655E-003   5.7145126538436383E-002
  -3.0070389941831629E-003   5.6093095691508443E-003   5.7373472814351567E-002
  -7.8489382325408561E-003   2.4421140459700563E-003   5.3951120066211389E-002
  -6.7235338501191195E-003   2.6434019795482377E-003   5.3863755998341589E-002
  -5.5981294676974228E-003   3.3501685464606412E-003   5.4059140258663901E-002
  -4.4727250852756922E-003   4.5624137467079329E-003   5.4537272847178478E-002
  -3.3473207028539894E-003   6.2801375802898352E-003   5.5298153763885152E-002
  -9.3371582480376858E-003   2.6817846662616773E-003   5.0029455806348100E-002
  -7.8995349917435342E-003   2.8576300409715039E-003   5.0386624376241418E-002
  -6.4619117354493549E-003   3.6277753200695539E-003   5.1085482365687329E-002
  -5.0242884791551687E-003   4.9922205035548076E-003   5.2126029774686083E-002
  -3.5866652228610241E-003   6.9509655914289370E-003   5.3508266603237709E-002
  -2.0236640108502457E-003   4.2676535468728627E-003   6.2380406584738868E-002
  -2.2777758651120888E-003   5.5762071796466861E-003   5.8336207533122186E-002
  -2.5318877193739459E-003   7.2735331163815142E-003   5.4294121323805289E-002
  -2.7859995736358098E-003   9.3596313570756123E-003   5.0254147956787731E-002
  -3.0401114278976460E-003   1.1834501901729855E-002   4.6216287432070846E-002
  -2.5658200968486020E-003   4.9384815580117980E-003   5.9734223754635773E-002
  -2.8373332891806907E-003   6.5644166041697871E-003   5.6192169538838488E-002
  -3.1088464815127899E-003   8.6430230014188925E-003   5.2613199804600719E-002
  -3.3803596738449029E-003   1.1174300749759156E-002   4.8997314551922438E-002
  -3.6518728661769778E-003   1.4158249849190119E-002   4.5344513780804840E-002
  -3.0070389941831629E-003   5.6093095691508443E-003   5.7373472814351567E-002
  -3.3349818853255671E-003   7.5526260286928326E-003   5.4397462481504233E-002
  -3.6629247764679712E-003   1.0012512886456632E-002   5.1345508269476592E-002
  -3.9908676676103216E-003   1.2988970142442484E-002   4.8217610178268949E-002
  -4.3188105587527795E-003   1.6481997796650161E-002   4.5013768207880500E-002
  -3.3473207028539894E-003   6.2801375802898352E-003   5.5298153763885152E-002
  -3.7707216535466975E-003   8.5408354532159059E-003   5.2952086361119297E-002
  -4.1941226042393649E-003   1.1382002771494412E-002   5.0491046718433026E-002
  -4.6175235549321299E-003   1.4803639535125920E-002   4.7915034835825918E-002
  -5.0409245056247682E-003   1.8805745744110425E-002   4.5224050713299491E-002
  -3.5866652228610241E-003   6.9509655914289370E-003   5.3508266603237709E-002
  -4.1445525938440531E-003   9.5290448777392012E-003   5.1856041177683609E-002
  -4.7024399648271237E-003   1.2751492656531888E-002   5.0049815151468946E-002
  -5.2603273358101943E-003   1.6618308927809390E-002   4.8089588524594135E-002
  -5.8182147067932233E-003   2.1129493691570467E-002   4.5975361297059258E-002
  -5.0958153921949523E-002   1.8299769328045057E-002   5.0407556255677166E-002
  -4.9682774829594101E-002   1.4072450602229281E-002   5.1873133038669639E-002
  -4.8407395737238637E-002   1.1344912572606780E-002   5.2604119677141570E-002
  -4.7132016644883194E-002   1.0117155239177764E-002   5.2600516171093015E-002
  -4.5856637552527738E-002   1.0389178601941884E-002   5.1862322520523862E-002
  -5.5273417463555380E-002   1.8849172250990087E-002   4.2342521174394854E-002
  -5.4492021445496544E-002   1.6096232443035152E-002   4.3941495991733692E-002
  -5.3710625427437750E-002   1.4216561432463595E-002   4.5287094804999733E-002
  -5.2929229409378921E-002   1.3210159219275337E-002   4.6379317614192977E-002
  -5.2147833391320168E-002   1.3077025803470310E-002   4.7218164419313424E-002
  -6.0882414787826918E-002   1.9398575173935062E-002   3.6065120960378505E-002
  -6.0113787703617055E-002   1.8120014283841024E-002   3.7170981913253714E-002
  -5.9345160619407186E-002   1.7088210292320355E-002   3.8504681002503746E-002
  -5.8576533535197282E-002   1.6303163199372910E-002   4.0066218228128767E-002
  -5.7807906450987448E-002   1.5764873004998736E-002   4.1855593590128790E-002
  -6.7785145894764462E-002   1.9947978096880065E-002   3.1575355613628023E-002
  -6.6548073603955732E-002   2.0143796124646923E-002   3.1561590803229483E-002
  -6.5311001313146988E-002   1.9959859152177073E-002   3.2256878269653587E-002
  -6.4073929022338272E-002   1.9396167179470455E-002   3.3661218012900382E-002
  -6.2836856731529597E-002   1.8452720206527162E-002   3.5774610032969986E-002
  -7.5981610784367770E-002   2.0497381019825067E-002   2.8873225134143476E-002
  -7.3794879146512504E-002   2.2167577965452712E-002   2.7113322661661110E-002
  -7.1608147508657183E-002   2.2831508012033888E-002   2.6543686606449263E-002
  -6.9421415870801889E-002   2.2489171159568073E-002   2.7164316968507865E-002
  -6.7234684232946595E-002   2.1140567408055533E-002   2.8975213747836903E-002
  -4.5856637552527738E-002   1.0389178601941884E-002   5.1862322520523862E-002
  -4.4126672398911410E-002   1.1191923890801314E-002   5.1085859831009772E-002
  -4.2396707245295047E-002   1.1556332335657879E-002   5.0768824365405918E-002
  -4.0666742091678726E-002   1.1482403936511423E-002   5.0911216123712327E-002
  -3.8936776938062356E-002   1.0970138693362108E-002   5.1513035105928917E-002
  -5.2147833391320168E-002   1.3077025803470310E-002   4.7218164419313424E-002
  -5.0073369502370353E-002   1.3257424894645806E-002   4.6615625706635092E-002
  -4.7998905613420517E-002   1.3191620202398793E-002   4.6242657240713386E-002
  -4.5924441724470667E-002   1.2879611726729360E-002   4.6099259021548461E-002
  -4.3849977835520859E-002   1.2321399467637384E-002   4.6185431049140302E-002
  -5.7807906450987448E-002   1.5764873004998736E-002   4.1855593590128790E-002
  -5.5618800803857650E-002   1.5322925898490186E-002   4.1619111914866544E-002
  -5.3429695156727817E-002   1.4826908069139826E-002   4.1382343509207560E-002
  -5.1240589509597992E-002   1.4276819516947132E-002   4.1145288373151859E-002
  -4.9051483862468194E-002   1.3672660241912632E-002   4.0907946506699336E-002
  -6.2836856731529597E-002   1.8452720206527162E-002   3.5774610032969986E-002
  -6.0762966303373266E-002   1.7388426902334622E-002   3.6096318455704282E-002
  -5.8689075875216941E-002   1.6462195935880632E-002   3.6187883170888446E-002
  -5.6615185447060623E-002   1.5674027307164932E-002   3.6049304178522291E-002
  -5.4541295018904278E-002   1.5023921016187866E-002   3.5680581478605894E-002
  -6.7234684232946595E-002   2.1140567408055533E-002   2.8975213747836903E-002
  -6.5505866000917262E-002   1.9453927906179058E-002   3.0047245329148348E-002
  -6.3777047768887929E-002   1.8097483802621661E-002   3.0659276225756094E-002
  -6.2048229536858623E-002   1.7071235097382842E-002   3.0811306437659974E-002
  -6.0319411304829262E-002   1.6375181790463156E-002   3.0503335964860268E-002
  -3.8936776938062356E-002   1.0970138693362108E-002   5.1513035105928917E-002
  -3.6129155886812911E-002   1.0256865303295282E-002   4.9604074742616078E-002
  -3.3321534835563452E-002   9.5799124633959148E-003   4.7990321961944499E-002
  -3.0513913784314013E-002   8.9392801736643719E-003   4.6671776763913944E-002
  -2.7706292733064547E-002   8.3349684341005315E-003   4.5648439148524678E-002
  -4.3849977835520859E-002   1.2321399467637384E-002   4.6185431049140302E-002
  -4.0695685971111561E-002   1.1656867268174720E-002   4.4074571013281660E-002
  -3.7541394106702215E-002   1.1025898971392500E-002   4.2361845021101546E-002
  -3.4387102242292897E-002   1.0428494577291447E-002   4.1047253072599862E-002
  -3.1232810377883585E-002   9.8646540858708387E-003   4.0130795167777067E-002
  -4.9051483862468194E-002   1.3672660241912632E-002   4.0907946506699336E-002
  -4.5447594723861597E-002   1.3056869233054047E-002   3.8592430150807822E-002
  -4.1843705585254992E-002   1.2471885479389246E-002   3.6777974299632372E-002
  -3.8239816446648422E-002   1.1917708980918299E-002   3.5464578953172773E-002
  -3.4635927308041846E-002   1.1394339737641146E-002   3.4652244111429309E-002
  -5.4541295018904278E-002   1.5023921016187866E-002   3.5680581478605894E-002
  -5.0384882145063051E-002   1.4456871197933430E-002   3.3157652155194839E-002
  -4.6228469271221796E-002   1.3917871987385911E-002   3.1238709797537061E-002
  -4.2072056397380472E-002   1.3406923384545206E-002   2.9923754405632493E-002
  -3.7915643523539259E-002   1.2924025389411564E-002   2.9212785979481452E-002
  -6.0319411304829262E-002   1.6375181790463156E-002   3.0503335964860268E-002
  -5.5507548234715931E-002   1.5856873162812840E-002   2.7770237026442379E-002
  -5.0695685164602572E-002   1.5363858495382673E-002   2.5744051514815375E-002
  -4.5883822094489227E-002   1.4896137788172167E-002   2.4424779429979088E-002
  -4.1071959024375881E-002   1.4453711041181816E-002   2.3812420771933629E-002
  -2.7706292733064547E-002   8.3349684341005315E-003   4.5648439148524678E-002
  -2.6990713542578912E-002   7.7786740003863430E-003   4.6684312629834801E-002
  -2.6275134352093346E-002   7.2820936282034787E-003   4.7753427691938299E-002
  -2.5559555161607732E-002   6.8452273175527850E-003   4.8855784334835478E-002
  -2.4843975971122145E-002   6.4680750684333876E-003   4.9991382558526309E-002
  -3.1232810377883585E-002   9.8646540858708387E-003   4.0130795167777067E-002
  -3.0499886042651012E-002   9.3173098667530263E-003   4.1303744279429538E-002
  -2.9766961707418417E-002   8.7693942895605143E-003   4.2478142099782401E-002
  -2.9034037372185847E-002   8.2209073542930493E-003   4.3653988628835752E-002
  -2.8301113036953318E-002   7.6718490609504197E-003   4.4831283866589355E-002
  -3.4635927308041846E-002   1.1394339737641146E-002   3.4652244111429309E-002
  -3.3917450700155477E-002   1.0855945733120154E-002   3.5901983433817689E-002
  -3.3198974092269101E-002   1.0256694950917550E-002   3.7121378592813378E-002
  -3.2480497484382760E-002   9.5965873910333135E-003   3.8310429588416101E-002
  -3.1762020876496364E-002   8.8756230534674518E-003   3.9469136420626078E-002
  -3.7915643523539259E-002   1.2924025389411564E-002   2.9212785979481452E-002
  -3.7243407515092336E-002   1.2394581599487225E-002   3.0479030092999026E-002
  -3.6571171506645385E-002   1.1743995612274474E-002   3.1683137171030773E-002
  -3.5898935498198475E-002   1.0972267427773689E-002   3.2825107213576385E-002
  -3.5226699489751573E-002   1.0079397045984262E-002   3.3904940220635851E-002
  -4.1071959024375881E-002   1.4453711041181816E-002   2.3812420771933629E-002
  -4.0477756487461547E-002   1.3933217465854075E-002   2.5034884256973922E-002
  -3.9883553950547268E-002   1.3231296273631191E-002   2.6163417834435015E-002
  -3.9289351413632975E-002   1.2347947464513818E-002   2.7198021504316813E-002
  -3.8695148876718655E-002   1.1283171038501516E-002   2.8138695266619385E-002
  -2.4843975971122145E-002   6.4680750684333876E-003   4.9991382558526309E-002
  -2.2854882711202618E-002   6.0751576645460270E-003   4.9287531301960452E-002
  -2.0865789451283132E-002   5.5909958895909995E-003   4.8834073626312369E-002
  -1.8876696191363646E-002   5.0155897435683050E-003   4.8631009531581559E-002
  -1.6887602931444118E-002   4.3489392264782767E-003   4.8678339017768524E-002
  -2.8301113036953318E-002   7.6718490609504197E-003   4.4831283866589355E-002
  -2.6078180080622460E-002   7.1078716517037899E-003   4.4046852329405306E-002
  -2.3855247124291656E-002   6.5146273687244349E-003   4.3479706604126034E-002
  -2.1632314167960843E-002   5.8921162120116610E-003   4.3129846690751983E-002
  -1.9409381211629995E-002   5.2403381815662176E-003   4.2997272589282987E-002
  -3.1762020876496364E-002   8.8756230534674518E-003   3.9469136420626078E-002
  -2.9338355992766720E-002   8.1405856388614972E-003   3.8666102100158001E-002
  -2.6914691109037076E-002   7.4382588478573153E-003   3.8047245822582482E-002
  -2.4491026225307438E-002   6.7686426804550170E-003   3.7612567587899742E-002
  -2.2067361341577794E-002   6.1317371366543250E-003   3.7362067396109450E-002
  -3.5226699489751573E-002   1.0079397045984262E-002   3.3904940220635851E-002
  -3.2635410447635502E-002   9.1732996260194544E-003   3.3145280614218744E-002
  -3.0044121405519451E-002   8.3618903269905287E-003   3.2536691281681893E-002
  -2.7452832363403391E-002   7.6451691488982065E-003   3.2079172223025046E-002
  -2.4861543321287333E-002   7.0231360917424601E-003   3.1772723438248288E-002
  -3.8695148876718655E-002   1.1283171038501516E-002   2.8138695266619385E-002
  -3.5969343445228646E-002   1.0206013613177023E-002   2.7484387871587801E-002
  -3.3243538013738694E-002   9.2855218061235756E-003   2.6948042981423836E-002
  -3.0517732582248727E-002   8.5216956173416597E-003   2.6529660596127630E-002
  -2.7791927150758733E-002   7.9145350468304843E-003   2.6229240715699209E-002
  -1.6887602931444118E-002   4.3489392264782767E-003   4.8678339017768524E-002
  -1.4999991760592524E-002   3.7105375394965723E-003   4.8679351808131321E-002
  -1.3112380589740902E-002   3.2198778837998487E-003   4.8904875536348980E-002
  -1.1224769418889294E-002   2.8769602593883004E-003   4.9354910202421082E-002
  -9.3371582480376858E-003   2.6817846662616773E-003   5.0029455806348100E-002
  -1.9409381211629995E-002   5.2403381815662176E-003   4.2997272589282987E-002
  -1.7329959947170993E-002   4.6147480541782748E-003   4.2944075041203178E-002
  -1.5250538682711902E-002   4.0708006066380309E-003   4.3049986742483504E-002
  -1.3171117418252862E-002   3.6084958389452151E-003   4.3315007693123964E-002
  -1.1091696153793809E-002   3.2278337511005839E-003   4.3739137893124780E-002
  -2.2067361341577794E-002   6.1317371366543250E-003   3.7362067396109450E-002
  -1.9861531672005741E-002   5.5189585688598664E-003   3.7188560158149586E-002
  -1.7655702002433750E-002   4.9217233294759910E-003   3.7108760481055575E-002
  -1.5449872332861755E-002   4.3400314185024630E-003   3.7122668364827333E-002
  -1.3244042663289705E-002   3.7738828359392684E-003   3.7230283809464609E-002
  -2.4861543321287333E-002   7.0231360917424601E-003   3.1772723438248288E-002
  -2.2594706935096888E-002   6.4231690835415689E-003   3.1412807158971330E-002
  -2.0327870548906356E-002   5.7726460523140066E-003   3.1081196752065499E-002
  -1.8061034162715924E-002   5.0715669980593223E-003   3.0777892217530814E-002
  -1.5794197776525382E-002   4.3199319207780640E-003   3.0502893555367651E-002
  -2.7791927150758733E-002   7.9145350468304843E-003   2.6229240715699209E-002
  -2.5529485736444257E-002   7.3273795982230494E-003   2.5616816043667834E-002
  -2.3267044322129810E-002   6.6235687751520222E-003   2.4967295555512914E-002
  -2.1004602907815376E-002   5.8031025776165424E-003   2.4280679251234866E-002
  -1.8742161493500886E-002   4.8659810056168595E-003   2.3556967130833550E-002
  -9.3371582480376858E-003   2.6817846662616773E-003   5.0029455806348100E-002
  -7.8995349917435342E-003   2.8576300409715039E-003   5.0386624376241418E-002
  -6.4619117354493549E-003   3.6277753200695539E-003   5.1085482365687329E-002
  -5.0242884791551687E-003   4.9922205035548076E-003   5.2126029774686083E-002
  -3.5866652228610241E-003   6.9509655914289370E-003   5.3508266603237709E-002
  -1.1091696153793809E-002   3.2278337511005839E-003   4.3739137893124780E-002
  -9.2974419618645221E-003   3.1617604867955618E-003   4.4284356811170822E-002
  -7.5031877699351934E-003   3.6432221897236550E-003   4.5201148180934514E-002
  -5.7089335780059029E-003   4.6722188598836908E-003   4.6489512002415745E-002
  -3.9146793860765777E-003   6.2487504972771335E-003   4.8149448275614404E-002
  -1.3244042663289705E-002   3.7738828359392684E-003   3.7230283809464609E-002
  -1.1063274503560448E-002   3.4658909326199527E-003   3.7916788138507962E-002
  -8.8825063438312188E-003   3.6586690593779642E-003   3.9004747951433841E-002
  -6.7017381841019876E-003   4.3522172162127927E-003   4.0494163248241975E-002
  -4.5209700243727322E-003   5.5465354031248304E-003   4.2385034028932483E-002
  -1.5794197776525382E-002   4.3199319207780640E-003   3.0502893555367651E-002
  -1.3197032616831464E-002   3.7700213784442882E-003   3.1283918358252970E-002
  -1.0599867457137577E-002   3.6741159290322803E-003   3.2496281677185587E-002
  -8.0027022974436170E-003   4.0322155725414522E-003   3.4139983512165073E-002
  -5.4055371377497146E-003   4.8443203089725551E-003   3.6215023863191871E-002
  -1.8742161493500886E-002   4.8659810056168595E-003   2.3556967130833550E-002
  -1.5698716301677462E-002   4.0741518242684571E-003   2.4385747470405672E-002
  -1.2655271109854094E-002   3.6895627986864021E-003   2.5675749358189337E-002
  -9.6118259180306698E-003   3.7122139288705627E-003   2.7426972794184934E-002
  -6.5683807262073013E-003   4.1421052148206128E-003   2.9639417778392629E-002
  -3.5866652228610241E-003   6.9509655914289370E-003   5.3508266603237709E-002
  -4.1445525938440531E-003   9.5290448777392012E-003   5.1856041177683609E-002
  -4.7024399648271237E-003   1.2751492656531888E-002   5.0049815151468946E-002
  -5.2603273358101943E-003   1.6618308927809390E-002   4.8089588524594135E-002
  -5.8182147067932233E-003   2.1129493691570467E-002   4.5975361297059258E-002
  -3.9146793860765777E-003   6.2487504972771335E-003   4.8149448275614404E-002
  -4.5205281529182018E-003   8.6846041750417435E-003   4.7232724382779090E-002
  -5.1263769197599715E-003   1.2291566966318612E-002   4.6374078298886845E-002
  -5.7322256866016094E-003   1.7069638871107073E-002   4.5573510023937697E-002
  -6.3380744534433653E-003   2.3018819889407016E-002   4.4831019557931118E-002
  -4.5209700243727322E-003   5.5465354031248304E-003   4.2385034028932483E-002
  -4.9627017774697135E-003   7.8401634723453961E-003   4.2730552289843626E-002
  -5.4044335305666984E-003   1.1831641276104879E-002   4.3346226769301513E-002
  -5.8461652836636277E-003   1.7520968814404254E-002   4.4232057467305901E-002
  -6.2878970367606091E-003   2.4908146087243122E-002   4.5388044383856685E-002
  -5.4055371377497146E-003   4.8443203089725551E-003   3.6215023863191871E-002
  -5.4710734674984773E-003   6.9957227696482716E-003   3.8349524898877579E-002
  -5.5366097972472696E-003   1.1371715585891264E-002   4.0966260562713075E-002
  -5.6021461269960462E-003   1.7972298757701462E-002   4.4065230854698836E-002
  -5.6676824567448228E-003   2.6797472285079560E-002   4.7646435774834128E-002
  -6.5683807262073013E-003   4.1421052148206128E-003   2.9639417778392629E-002
  -6.0456432230044932E-003   6.1512820669517021E-003   3.4089642209880644E-002
  -5.5229057198017129E-003   1.0911789895677787E-002   3.9234179679121850E-002
  -5.0001682165989325E-003   1.8423628700998985E-002   4.5073030186116553E-002
  -4.4774307133961244E-003   2.8686798482915776E-002   5.1606193730864280E-002
  -7.5981610784367770E-002   2.0497381019825067E-002   2.8873225134143476E-002
  -7.3794879146512504E-002   2.2167577965452712E-002   2.7113322661661110E-002
  -7.1608147508657183E-002   2.2831508012033888E-002   2.6543686606449263E-002
  -6.9421415870801889E-002   2.2489171159568073E-002   2.7164316968507865E-002
  -6.7234684232946595E-002   2.1140567408055533E-002   2.8975213747836903E-002
  -8.3438130264648136E-002   2.3897901022165602E-002   2.2035499450367202E-002
  -8.0550280933075424E-002   2.3805260642623755E-002   2.1916584697257158E-002
  -7.7662431601502574E-002   2.3431910845356119E-002   2.2009638914311930E-002
  -7.4774582269929737E-002   2.2777851630362653E-002   2.2314662101531171E-002
  -7.1886732938356956E-002   2.1843082997643315E-002   2.2831654258915091E-002
  -8.8121025143617082E-002   2.7298421024506109E-002   1.3072157700760603E-002
  -8.5510355565432503E-002   2.5442943319794714E-002   1.5319788148344129E-002
  -8.2899685987248076E-002   2.4032313678678453E-002   1.6801090118986249E-002
  -8.0289016409063649E-002   2.3066532101157118E-002   1.7516063612687271E-002
  -7.7678346830879139E-002   2.2545598587231014E-002   1.7464708629446893E-002
  -9.0030295421274081E-002   3.0698941026846630E-002   1.9831998853241002E-003
  -8.8675103043583878E-002   2.7080625996965604E-002   7.3229330149219632E-003
  -8.7319910665893619E-002   2.4632716512000653E-002   1.0918040220472646E-002
  -8.5964718288203346E-002   2.3355212571951837E-002   1.2768521501976153E-002
  -8.4609525910513100E-002   2.3248114176818699E-002   1.2874376859432369E-002
  -8.9165941097619550E-002   3.4099461029187150E-002  -1.1231373995942318E-002
  -9.0044523367529328E-002   2.8718308674136717E-002  -2.0739807030093482E-003
  -9.0923105637439217E-002   2.5233119345323130E-002   4.3604892187704969E-003
  -9.1801687907349050E-002   2.3643893042746222E-002   8.0720357693974051E-003
  -9.2680270177258883E-002   2.3950629766406384E-002   9.0606589488713141E-003
  -6.7234684232946595E-002   2.1140567408055533E-002   2.8975213747836903E-002
  -6.5505866000917262E-002   1.9453927906179058E-002   3.0047245329148348E-002
  -6.3777047768887929E-002   1.8097483802621661E-002   3.0659276225756094E-002
  -6.2048229536858623E-002   1.7071235097382842E-002   3.0811306437659974E-002
  -6.0319411304829262E-002   1.6375181790463156E-002   3.0503335964860268E-002
  -7.1886732938356956E-002   2.1843082997643315E-002   2.2831654258915091E-002
  -7.0417451239590784E-002   2.0795154130263616E-002   2.3156876977917462E-002
  -6.8948169540824666E-002   1.9801614211289564E-002   2.3423027315096989E-002
  -6.7478887842058521E-002   1.8862463240720662E-002   2.3630105270453956E-002
  -6.6009606143292390E-002   1.7977701218557463E-002   2.3778110843988315E-002
  -7.7678346830879139E-002   2.2545598587231014E-002   1.7464708629446893E-002
  -7.6067673362495120E-002   2.2136380354348117E-002   1.6767316036226498E-002
  -7.4456999894111045E-002   2.1505744619957468E-002   1.6411779364064641E-002
  -7.2846326425727026E-002   2.0653691384058648E-002   1.6398098612961140E-002
  -7.1235652957342965E-002   1.9580220646651769E-002   1.6726273782915885E-002
  -8.4609525910513100E-002   2.3248114176818699E-002   1.2874376859432369E-002
  -8.2456532369630131E-002   2.3477606578432897E-002   1.0878562504075942E-002
  -8.0303538828747162E-002   2.3209875028625343E-002   9.6255323726588196E-003
  -7.8150545287864151E-002   2.2444919527396578E-002   9.1152864651813797E-003
  -7.5997551746981168E-002   2.1182740074745909E-002   9.3478247816433067E-003
  -9.2680270177258883E-002   2.3950629766406384E-002   9.0606589488713141E-003
  -8.9584028260995874E-002   2.4818832802517288E-002   5.4906163814654740E-003
  -8.6487786344732864E-002   2.4914005437293246E-002   3.0642863408795462E-003
  -8.3391544428469855E-002   2.4236147670734419E-002   1.7816688271148143E-003
  -8.0295302512206845E-002   2.2785259502840383E-002   1.6427638401702582E-003
  -6.0319411304829262E-002   1.6375181790463156E-002   3.0503335964860268E-002
  -5.5507548234715931E-002   1.5856873162812840E-002   2.7770237026442379E-002
  -5.0695685164602572E-002   1.5363858495382673E-002   2.5744051514815375E-002
  -4.5883822094489227E-002   1.4896137788172167E-002   2.4424779429979088E-002
  -4.1071959024375881E-002   1.4453711041181816E-002   2.3812420771933629E-002
  -6.6009606143292390E-002   1.7977701218557463E-002   2.3778110843988315E-002
  -6.0562336823041615E-002   1.7151647377675411E-002   2.1481813440518110E-002
  -5.5115067502790861E-002   1.6388620950949992E-002   1.9749415110531923E-002
  -4.9667798182540107E-002   1.5688621938381647E-002   1.8580915854029885E-002
  -4.4220528862289346E-002   1.5051650339970468E-002   1.7976315671011711E-002
  -7.1235652957342965E-002   1.9580220646651769E-002   1.6726273782915885E-002
  -6.5295991740261461E-002   1.8446421592537524E-002   1.4904511368330320E-002
  -5.9356330523180033E-002   1.7413383406517595E-002   1.3503633673922072E-002
  -5.3416669306098605E-002   1.6481106088590963E-002   1.2523640699691026E-002
  -4.7477008089017114E-002   1.5649589638758760E-002   1.1964532445637402E-002
  -7.5997551746981168E-002   2.1182740074745909E-002   9.3478247816433067E-003
  -6.9708512986375731E-002   1.9741195807400087E-002   8.0383308098790664E-003
  -6.3419474225770253E-002   1.8438145862084667E-002   7.0067072049855173E-003
  -5.7130435465164775E-002   1.7273590238800526E-002   6.2529539669626466E-003
  -5.0841396704559338E-002   1.6247528937547065E-002   5.7770710958103440E-003
  -8.0295302512206845E-002   2.2785259502840383E-002   1.6427638401702582E-003
  -7.3799900561384080E-002   2.1035970022262540E-002   8.8327176516467265E-004
  -6.7304498610561370E-002   1.9462908317652405E-002   2.5863570372272604E-004
  -6.0809096659738660E-002   1.8066074389009895E-002  -2.3114434415522772E-004
  -5.4313694708915894E-002   1.6845468236335703E-002  -5.8606837846952864E-004
  -4.1071959024375881E-002   1.4453711041181816E-002   2.3812420771933629E-002
  -4.0477756487461547E-002   1.3933217465854075E-002   2.5034884256973922E-002
  -3.9883553950547268E-002   1.3231296273631191E-002   2.6163417834435015E-002
  -3.9289351413632975E-002   1.2347947464513818E-002   2.7198021504316813E-002
  -3.8695148876718655E-002   1.1283171038501516E-002   2.8138695266619385E-002
  -4.4220528862289346E-002   1.5051650339970468E-002   1.7976315671011711E-002
  -4.3720887520157459E-002   1.4416570570190107E-002   1.8969902793139704E-002
  -4.3221246178025509E-002   1.3722247043515032E-002   1.9868297433281834E-002
  -4.2721604835893642E-002   1.2968679759945267E-002   2.0671499591438616E-002
  -4.2221963493761672E-002   1.2155868719480656E-002   2.1379509267609509E-002
  -4.7477008089017114E-002   1.5649589638758760E-002   1.1964532445637402E-002
  -4.7073190516074032E-002   1.4899923674526028E-002   1.2851427064852775E-002
  -4.6669372943130887E-002   1.4213197813398588E-002   1.3641866627676531E-002
  -4.6265555370187783E-002   1.3589412055376325E-002   1.4335851134108134E-002
  -4.5861737797244645E-002   1.3028566400459796E-002   1.4933380584147560E-002
  -5.0841396704559338E-002   1.6247528937547065E-002   5.7770710958103440E-003
  -5.0534665475211377E-002   1.5383276778861948E-002   6.6794570721136065E-003
  -5.0227934245863456E-002   1.4704148583282065E-002   7.4841254176186752E-003
  -4.9921203016515453E-002   1.4210144350807967E-002   8.1910761323255553E-003
  -4.9614471787167574E-002   1.3901264081439380E-002   8.8003092162337176E-003
  -5.4313694708915894E-002   1.6845468236335703E-002  -5.8606837846952864E-004
  -5.4105312397569549E-002   1.5866629883197536E-002   4.5399281492203292E-004
  -5.3896930086223149E-002   1.5195099353165875E-002   1.3950738031088261E-003
  -5.3688547774876805E-002   1.4830876646239027E-002   2.2371745860908093E-003
  -5.3480165463530405E-002   1.4773961762418297E-002   2.9802951638679964E-003
  -3.8695148876718655E-002   1.1283171038501516E-002   2.8138695266619385E-002
  -3.5969343445228646E-002   1.0206013613177023E-002   2.7484387871587801E-002
  -3.3243538013738694E-002   9.2855218061235756E-003   2.6948042981423836E-002
  -3.0517732582248727E-002   8.5216956173416597E-003   2.6529660596127630E-002
  -2.7791927150758733E-002   7.9145350468304843E-003   2.6229240715699209E-002
  -4.2221963493761672E-002   1.2155868719480656E-002   2.1379509267609509E-002
  -3.9353798483921384E-002   1.1327121310343635E-002   2.0728657578531040E-002
  -3.6485633474081139E-002   1.0525744920755878E-002   2.0244562541285482E-002
  -3.3617468464240852E-002   9.7517395507181227E-003   1.9927224155872683E-002
  -3.0749303454400551E-002   9.0051052002300125E-003   1.9776642422293211E-002
  -4.5861737797244645E-002   1.3028566400459796E-002   1.4933380584147560E-002
  -4.2802419062088870E-002   1.2448229007509998E-002   1.4156690002300729E-002
  -3.9743100326933005E-002   1.1765968035388180E-002   1.3595550219251962E-002
  -3.6683781591777168E-002   1.0981783484094364E-002   1.3249961235001349E-002
  -3.3624462856621365E-002   1.0095675353629263E-002   1.3119923049548954E-002
  -4.9614471787167574E-002   1.3901264081439380E-002   8.8003092162337176E-003
  -4.6315205179730951E-002   1.3569336704676818E-002   7.7684851428967451E-003
  -4.3015938572294334E-002   1.3006191150020427E-002   7.0010060153235625E-003
  -3.9716671964857710E-002   1.2211827417471160E-002   6.4978718335132121E-003
  -3.6417405357421093E-002   1.1186245507028653E-002   6.2590825974668321E-003
  -5.3480165463530405E-002   1.4773961762418297E-002   2.9802951638679964E-003
  -4.9892156836847779E-002   1.4690444401843084E-002   1.5640430003197037E-003
  -4.6304148210165152E-002   1.4246414264652618E-002   4.6092992949997580E-004
  -4.2716139583482554E-002   1.3441871350847470E-002  -3.2904404859096514E-004
  -3.9128130956799900E-002   1.2276815660427820E-002  -8.0587893395345223E-004
  -2.7791927150758733E-002   7.9145350468304843E-003   2.6229240715699209E-002
  -2.5529485736444257E-002   7.3273795982230494E-003   2.5616816043667834E-002
  -2.3267044322129810E-002   6.6235687751520222E-003   2.4967295555512914E-002
  -2.1004602907815376E-002   5.8031025776165424E-003   2.4280679251234866E-002
  -1.8742161493500886E-002   4.8659810056168595E-003   2.3556967130833550E-002
  -3.0749303454400551E-002   9.0051052002300125E-003   1.9776642422293211E-002
  -2.8520098813879916E-002   8.2684187626311800E-003   1.9188228409894870E-002
  -2.6290894173359267E-002   7.5242571312626738E-003   1.8570436666032364E-002
  -2.4061689532838562E-002   6.7726203061238485E-003   1.7923267190705500E-002
  -2.1832484892317927E-002   6.0135082872142531E-003   1.7246719983914416E-002
  -3.3624462856621365E-002   1.0095675353629263E-002   1.3119923049548954E-002
  -3.1420776905235565E-002   9.2094579270393662E-003   1.2664699877477953E-002
  -2.9217090953849813E-002   8.4249454873734364E-003   1.2187817058601391E-002
  -2.7013405002464064E-002   7.7421380346308216E-003   1.1689274592919498E-002
  -2.4809719051078261E-002   7.1610355688117577E-003   1.1169072480432196E-002
  -3.6417405357421093E-002   1.1186245507028653E-002   6.2590825974668321E-003
  -3.4231520010511364E-002   1.0150497091447414E-002   6.0462304464165909E-003
  -3.2045634663601517E-002   9.3256338434840325E-003   5.8194367332198953E-003
  -2.9859749316691744E-002   8.7116557631378502E-003   5.5787014578769709E-003
  -2.7673863969781942E-002   8.3085628504093179E-003   5.3240246203869745E-003
  -3.9128130956799900E-002   1.2276815660427820E-002  -8.0587893395345223E-004
  -3.6952328129707168E-002   1.1091536255855461E-002  -6.6717988328890421E-004
  -3.4776525302614436E-002   1.0226322199595073E-002  -5.3470431011198860E-004
  -3.2600722475521732E-002   9.6811734916448233E-003  -4.0845221442241397E-004
  -3.0424919648428972E-002   9.4560901320064339E-003  -2.8842359622072156E-004
  -1.8742161493500886E-002   4.8659810056168595E-003   2.3556967130833550E-002
  -1.5698716301677462E-002   4.0741518242684571E-003   2.4385747470405672E-002
  -1.2655271109854094E-002   3.6895627986864021E-003   2.5675749358189337E-002
  -9.6118259180306698E-003   3.7122139288705627E-003   2.7426972794184934E-002
  -6.5683807262073013E-003   4.1421052148206128E-003   2.9639417778392629E-002
  -2.1832484892317927E-002   6.0135082872142531E-003   1.7246719983914416E-002
  -1.8591130944146328E-002   5.3430745618004982E-003   1.8221312739943096E-002
  -1.5349776995974659E-002   4.8574726171471128E-003   1.9130501460456056E-002
  -1.2108423047802998E-002   4.5567024532554082E-003   1.9974286145454004E-002
  -8.8670690996313917E-003   4.4407640701242812E-003   2.0752666794936370E-002
  -2.4809719051078261E-002   7.1610355688117577E-003   1.1169072480432196E-002
  -2.1897081930285611E-002   6.6119972993320675E-003   1.2067069277912290E-002
  -1.8984444809492983E-002   6.0253824356081426E-003   1.2373036456149331E-002
  -1.6071807688700368E-002   5.4011909776402502E-003   1.2086974015144171E-002
  -1.3159170567907705E-002   4.7394229254277831E-003   1.1208881954896138E-002
  -2.7673863969781942E-002   8.3085628504093179E-003   5.3240246203869745E-003
  -2.5616569260095520E-002   7.8809200368639282E-003   5.9230170843131077E-003
  -2.3559274550409071E-002   7.1932922540697899E-003   5.4033543452692602E-003
  -2.1501979840722614E-002   6.2456795020250939E-003   3.7650364032557598E-003
  -1.9444685131036199E-002   5.0380817807311462E-003   1.0080632582721918E-003
  -3.0424919648428972E-002   9.4560901320064339E-003  -2.8842359622072156E-004
  -2.9749592933575930E-002   9.1498427743957889E-003  -2.1084384085412466E-004
  -2.9074266218722944E-002   8.3612020725300495E-003  -1.7785448721840680E-003
  -2.8398939503869985E-002   7.0901680264103678E-003  -4.9915266902119046E-003
  -2.7723612789016916E-002   5.3367406360351755E-003  -9.8497892949360732E-003
  -6.5683807262073013E-003   4.1421052148206128E-003   2.9639417778392629E-002
  -6.0456432230044932E-003   6.1512820669517021E-003   3.4089642209880644E-002
  -5.5229057198017129E-003   1.0911789895677787E-002   3.9234179679121850E-002
  -5.0001682165989325E-003   1.8423628700998985E-002   4.5073030186116553E-002
  -4.4774307133961244E-003   2.8686798482915776E-002   5.1606193730864280E-002
  -8.8670690996313917E-003   4.4407640701242812E-003   2.0752666794936370E-002
  -7.5811061976296806E-003   5.6587132424341102E-003   2.5895527645976524E-002
  -6.2951432956280667E-003   9.3596057448668835E-003   3.1870526256860987E-002
  -5.0091803936262516E-003   1.5543441577421005E-002   3.8677662627589704E-002
  -3.7232174916247418E-003   2.4210220740096933E-002   4.6316936758163729E-002
  -1.3159170567907705E-002   4.7394229254277831E-003   1.1208881954896138E-002
  -1.0972157545015931E-002   5.1661444179174620E-003   1.6775991579014993E-002
  -8.7851445221241650E-003   7.8074215940559660E-003   2.3313063685069510E-002
  -6.5981314992323986E-003   1.2663254453842688E-002   3.0820098273059503E-002
  -4.4111184763406253E-003   1.9733642997278533E-002   3.9297095342985533E-002
  -1.9444685131036199E-002   5.0380817807311462E-003   1.0080632582721918E-003
  -1.6218797265163197E-002   4.6735755934004530E-003   6.7310340089962867E-003
  -1.2992909399290174E-002   6.2552374432446115E-003   1.3561791963747623E-002
  -9.7670215334171480E-003   9.7830673302647612E-003   2.1500337122525623E-002
  -6.5411336675441495E-003   1.5257065254460023E-002   3.0546669485330441E-002
  -2.7723612789016916E-002   5.3367406360351755E-003  -9.8497892949360732E-003
  -2.3321025358071457E-002   4.1810067688825558E-003  -4.2393450640796915E-003
  -1.8918437927125942E-002   4.7030532924340895E-003   2.6167110928947968E-003
  -1.4515850496180399E-002   6.9028802066863765E-003   1.0718379175987239E-002
  -1.0113263065234968E-002   1.0780487511641290E-002   2.0065659185198204E-002
 </DataArray>
 </PointData>
 </Piece>
 </UnstructuredGrid>
 </VTKFile>
