 <VTKFile type="UnstructuredGrid"  version="0.1"   >
 <UnstructuredGrid>
 <Piece  NumberOfPoints="          1600 "  NumberOfCells="         1024 ">
 <Points>
 <DataArray  type="Float64" NumberOfComponents="3"  format="ascii" >
   0.0000000000000000        0.0000000000000000        0.0000000000000000     
   3.1250000000000000E-002   0.0000000000000000        0.0000000000000000     
   6.2500000000000000E-002   0.0000000000000000        0.0000000000000000     
   9.3750000000000000E-002   0.0000000000000000        0.0000000000000000     
  0.12500000000000000        0.0000000000000000        0.0000000000000000     
   0.0000000000000000        3.1250000000000000E-002   0.0000000000000000     
   3.1250000000000000E-002   3.1250000000000000E-002   0.0000000000000000     
   6.2500000000000000E-002   3.1250000000000000E-002   0.0000000000000000     
   9.3750000000000000E-002   3.1250000000000000E-002   0.0000000000000000     
  0.12500000000000000        3.1250000000000000E-002   0.0000000000000000     
   0.0000000000000000        6.2500000000000000E-002   0.0000000000000000     
   3.1250000000000000E-002   6.2500000000000000E-002   0.0000000000000000     
   6.2500000000000000E-002   6.2500000000000000E-002   0.0000000000000000     
   9.3750000000000000E-002   6.2500000000000000E-002   0.0000000000000000     
  0.12500000000000000        6.2500000000000000E-002   0.0000000000000000     
   0.0000000000000000        9.3750000000000000E-002   0.0000000000000000     
   3.1250000000000000E-002   9.3750000000000000E-002   0.0000000000000000     
   6.2500000000000000E-002   9.3750000000000000E-002   0.0000000000000000     
   9.3750000000000000E-002   9.3750000000000000E-002   0.0000000000000000     
  0.12500000000000000        9.3750000000000000E-002   0.0000000000000000     
   0.0000000000000000       0.12500000000000000        0.0000000000000000     
   3.1250000000000000E-002  0.12500000000000000        0.0000000000000000     
   6.2500000000000000E-002  0.12500000000000000        0.0000000000000000     
   9.3750000000000000E-002  0.12500000000000000        0.0000000000000000     
  0.12500000000000000       0.12500000000000000        0.0000000000000000     
  0.12500000000000000        0.0000000000000000        0.0000000000000000     
  0.15625000000000000        0.0000000000000000        0.0000000000000000     
  0.18750000000000000        0.0000000000000000        0.0000000000000000     
  0.21875000000000000        0.0000000000000000        0.0000000000000000     
  0.25000000000000000        0.0000000000000000        0.0000000000000000     
  0.12500000000000000        3.1250000000000000E-002   0.0000000000000000     
  0.15625000000000000        3.1250000000000000E-002   0.0000000000000000     
  0.18750000000000000        3.1250000000000000E-002   0.0000000000000000     
  0.21875000000000000        3.1250000000000000E-002   0.0000000000000000     
  0.25000000000000000        3.1250000000000000E-002   0.0000000000000000     
  0.12500000000000000        6.2500000000000000E-002   0.0000000000000000     
  0.15625000000000000        6.2500000000000000E-002   0.0000000000000000     
  0.18750000000000000        6.2500000000000000E-002   0.0000000000000000     
  0.21875000000000000        6.2500000000000000E-002   0.0000000000000000     
  0.25000000000000000        6.2500000000000000E-002   0.0000000000000000     
  0.12500000000000000        9.3750000000000000E-002   0.0000000000000000     
  0.15625000000000000        9.3750000000000000E-002   0.0000000000000000     
  0.18750000000000000        9.3750000000000000E-002   0.0000000000000000     
  0.21875000000000000        9.3750000000000000E-002   0.0000000000000000     
  0.25000000000000000        9.3750000000000000E-002   0.0000000000000000     
  0.12500000000000000       0.12500000000000000        0.0000000000000000     
  0.15625000000000000       0.12500000000000000        0.0000000000000000     
  0.18750000000000000       0.12500000000000000        0.0000000000000000     
  0.21875000000000000       0.12500000000000000        0.0000000000000000     
  0.25000000000000000       0.12500000000000000        0.0000000000000000     
  0.25000000000000000        0.0000000000000000        0.0000000000000000     
  0.28125000000000000        0.0000000000000000        0.0000000000000000     
  0.31250000000000000        0.0000000000000000        0.0000000000000000     
  0.34375000000000000        0.0000000000000000        0.0000000000000000     
  0.37500000000000000        0.0000000000000000        0.0000000000000000     
  0.25000000000000000        3.1250000000000000E-002   0.0000000000000000     
  0.28125000000000000        3.1250000000000000E-002   0.0000000000000000     
  0.31250000000000000        3.1250000000000000E-002   0.0000000000000000     
  0.34375000000000000        3.1250000000000000E-002   0.0000000000000000     
  0.37500000000000000        3.1250000000000000E-002   0.0000000000000000     
  0.25000000000000000        6.2500000000000000E-002   0.0000000000000000     
  0.28125000000000000        6.2500000000000000E-002   0.0000000000000000     
  0.31250000000000000        6.2500000000000000E-002   0.0000000000000000     
  0.34375000000000000        6.2500000000000000E-002   0.0000000000000000     
  0.37500000000000000        6.2500000000000000E-002   0.0000000000000000     
  0.25000000000000000        9.3750000000000000E-002   0.0000000000000000     
  0.28125000000000000        9.3750000000000000E-002   0.0000000000000000     
  0.31250000000000000        9.3750000000000000E-002   0.0000000000000000     
  0.34375000000000000        9.3750000000000000E-002   0.0000000000000000     
  0.37500000000000000        9.3750000000000000E-002   0.0000000000000000     
  0.25000000000000000       0.12500000000000000        0.0000000000000000     
  0.28125000000000000       0.12500000000000000        0.0000000000000000     
  0.31250000000000000       0.12500000000000000        0.0000000000000000     
  0.34375000000000000       0.12500000000000000        0.0000000000000000     
  0.37500000000000000       0.12500000000000000        0.0000000000000000     
  0.37500000000000000        0.0000000000000000        0.0000000000000000     
  0.40625000000000000        0.0000000000000000        0.0000000000000000     
  0.43750000000000000        0.0000000000000000        0.0000000000000000     
  0.46875000000000000        0.0000000000000000        0.0000000000000000     
  0.50000000000000000        0.0000000000000000        0.0000000000000000     
  0.37500000000000000        3.1250000000000000E-002   0.0000000000000000     
  0.40625000000000000        3.1250000000000000E-002   0.0000000000000000     
  0.43750000000000000        3.1250000000000000E-002   0.0000000000000000     
  0.46875000000000000        3.1250000000000000E-002   0.0000000000000000     
  0.50000000000000000        3.1250000000000000E-002   0.0000000000000000     
  0.37500000000000000        6.2500000000000000E-002   0.0000000000000000     
  0.40625000000000000        6.2500000000000000E-002   0.0000000000000000     
  0.43750000000000000        6.2500000000000000E-002   0.0000000000000000     
  0.46875000000000000        6.2500000000000000E-002   0.0000000000000000     
  0.50000000000000000        6.2500000000000000E-002   0.0000000000000000     
  0.37500000000000000        9.3750000000000000E-002   0.0000000000000000     
  0.40625000000000000        9.3750000000000000E-002   0.0000000000000000     
  0.43750000000000000        9.3750000000000000E-002   0.0000000000000000     
  0.46875000000000000        9.3750000000000000E-002   0.0000000000000000     
  0.50000000000000000        9.3750000000000000E-002   0.0000000000000000     
  0.37500000000000000       0.12500000000000000        0.0000000000000000     
  0.40625000000000000       0.12500000000000000        0.0000000000000000     
  0.43750000000000000       0.12500000000000000        0.0000000000000000     
  0.46875000000000000       0.12500000000000000        0.0000000000000000     
  0.50000000000000000       0.12500000000000000        0.0000000000000000     
  0.50000000000000000        0.0000000000000000        0.0000000000000000     
  0.53125000000000000        0.0000000000000000        0.0000000000000000     
  0.56250000000000000        0.0000000000000000        0.0000000000000000     
  0.59375000000000000        0.0000000000000000        0.0000000000000000     
  0.62500000000000000        0.0000000000000000        0.0000000000000000     
  0.50000000000000000        3.1250000000000000E-002   0.0000000000000000     
  0.53125000000000000        3.1250000000000000E-002   0.0000000000000000     
  0.56250000000000000        3.1250000000000000E-002   0.0000000000000000     
  0.59375000000000000        3.1250000000000000E-002   0.0000000000000000     
  0.62500000000000000        3.1250000000000000E-002   0.0000000000000000     
  0.50000000000000000        6.2500000000000000E-002   0.0000000000000000     
  0.53125000000000000        6.2500000000000000E-002   0.0000000000000000     
  0.56250000000000000        6.2500000000000000E-002   0.0000000000000000     
  0.59375000000000000        6.2500000000000000E-002   0.0000000000000000     
  0.62500000000000000        6.2500000000000000E-002   0.0000000000000000     
  0.50000000000000000        9.3750000000000000E-002   0.0000000000000000     
  0.53125000000000000        9.3750000000000000E-002   0.0000000000000000     
  0.56250000000000000        9.3750000000000000E-002   0.0000000000000000     
  0.59375000000000000        9.3750000000000000E-002   0.0000000000000000     
  0.62500000000000000        9.3750000000000000E-002   0.0000000000000000     
  0.50000000000000000       0.12500000000000000        0.0000000000000000     
  0.53125000000000000       0.12500000000000000        0.0000000000000000     
  0.56250000000000000       0.12500000000000000        0.0000000000000000     
  0.59375000000000000       0.12500000000000000        0.0000000000000000     
  0.62500000000000000       0.12500000000000000        0.0000000000000000     
  0.62500000000000000        0.0000000000000000        0.0000000000000000     
  0.65625000000000000        0.0000000000000000        0.0000000000000000     
  0.68750000000000000        0.0000000000000000        0.0000000000000000     
  0.71875000000000000        0.0000000000000000        0.0000000000000000     
  0.75000000000000000        0.0000000000000000        0.0000000000000000     
  0.62500000000000000        3.1250000000000000E-002   0.0000000000000000     
  0.65625000000000000        3.1250000000000000E-002   0.0000000000000000     
  0.68750000000000000        3.1250000000000000E-002   0.0000000000000000     
  0.71875000000000000        3.1250000000000000E-002   0.0000000000000000     
  0.75000000000000000        3.1250000000000000E-002   0.0000000000000000     
  0.62500000000000000        6.2500000000000000E-002   0.0000000000000000     
  0.65625000000000000        6.2500000000000000E-002   0.0000000000000000     
  0.68750000000000000        6.2500000000000000E-002   0.0000000000000000     
  0.71875000000000000        6.2500000000000000E-002   0.0000000000000000     
  0.75000000000000000        6.2500000000000000E-002   0.0000000000000000     
  0.62500000000000000        9.3750000000000000E-002   0.0000000000000000     
  0.65625000000000000        9.3750000000000000E-002   0.0000000000000000     
  0.68750000000000000        9.3750000000000000E-002   0.0000000000000000     
  0.71875000000000000        9.3750000000000000E-002   0.0000000000000000     
  0.75000000000000000        9.3750000000000000E-002   0.0000000000000000     
  0.62500000000000000       0.12500000000000000        0.0000000000000000     
  0.65625000000000000       0.12500000000000000        0.0000000000000000     
  0.68750000000000000       0.12500000000000000        0.0000000000000000     
  0.71875000000000000       0.12500000000000000        0.0000000000000000     
  0.75000000000000000       0.12500000000000000        0.0000000000000000     
  0.75000000000000000        0.0000000000000000        0.0000000000000000     
  0.78125000000000000        0.0000000000000000        0.0000000000000000     
  0.81250000000000000        0.0000000000000000        0.0000000000000000     
  0.84375000000000000        0.0000000000000000        0.0000000000000000     
  0.87500000000000000        0.0000000000000000        0.0000000000000000     
  0.75000000000000000        3.1250000000000000E-002   0.0000000000000000     
  0.78125000000000000        3.1250000000000000E-002   0.0000000000000000     
  0.81250000000000000        3.1250000000000000E-002   0.0000000000000000     
  0.84375000000000000        3.1250000000000000E-002   0.0000000000000000     
  0.87500000000000000        3.1250000000000000E-002   0.0000000000000000     
  0.75000000000000000        6.2500000000000000E-002   0.0000000000000000     
  0.78125000000000000        6.2500000000000000E-002   0.0000000000000000     
  0.81250000000000000        6.2500000000000000E-002   0.0000000000000000     
  0.84375000000000000        6.2500000000000000E-002   0.0000000000000000     
  0.87500000000000000        6.2500000000000000E-002   0.0000000000000000     
  0.75000000000000000        9.3750000000000000E-002   0.0000000000000000     
  0.78125000000000000        9.3750000000000000E-002   0.0000000000000000     
  0.81250000000000000        9.3750000000000000E-002   0.0000000000000000     
  0.84375000000000000        9.3750000000000000E-002   0.0000000000000000     
  0.87500000000000000        9.3750000000000000E-002   0.0000000000000000     
  0.75000000000000000       0.12500000000000000        0.0000000000000000     
  0.78125000000000000       0.12500000000000000        0.0000000000000000     
  0.81250000000000000       0.12500000000000000        0.0000000000000000     
  0.84375000000000000       0.12500000000000000        0.0000000000000000     
  0.87500000000000000       0.12500000000000000        0.0000000000000000     
  0.87500000000000000        0.0000000000000000        0.0000000000000000     
  0.90625000000000000        0.0000000000000000        0.0000000000000000     
  0.93750000000000000        0.0000000000000000        0.0000000000000000     
  0.96875000000000000        0.0000000000000000        0.0000000000000000     
   1.0000000000000000        0.0000000000000000        0.0000000000000000     
  0.87500000000000000        3.1250000000000000E-002   0.0000000000000000     
  0.90625000000000000        3.1250000000000000E-002   0.0000000000000000     
  0.93750000000000000        3.1250000000000000E-002   0.0000000000000000     
  0.96875000000000000        3.1250000000000000E-002   0.0000000000000000     
   1.0000000000000000        3.1250000000000000E-002   0.0000000000000000     
  0.87500000000000000        6.2500000000000000E-002   0.0000000000000000     
  0.90625000000000000        6.2500000000000000E-002   0.0000000000000000     
  0.93750000000000000        6.2500000000000000E-002   0.0000000000000000     
  0.96875000000000000        6.2500000000000000E-002   0.0000000000000000     
   1.0000000000000000        6.2500000000000000E-002   0.0000000000000000     
  0.87500000000000000        9.3750000000000000E-002   0.0000000000000000     
  0.90625000000000000        9.3750000000000000E-002   0.0000000000000000     
  0.93750000000000000        9.3750000000000000E-002   0.0000000000000000     
  0.96875000000000000        9.3750000000000000E-002   0.0000000000000000     
   1.0000000000000000        9.3750000000000000E-002   0.0000000000000000     
  0.87500000000000000       0.12500000000000000        0.0000000000000000     
  0.90625000000000000       0.12500000000000000        0.0000000000000000     
  0.93750000000000000       0.12500000000000000        0.0000000000000000     
  0.96875000000000000       0.12500000000000000        0.0000000000000000     
   1.0000000000000000       0.12500000000000000        0.0000000000000000     
   0.0000000000000000       0.12500000000000000        0.0000000000000000     
   3.1250000000000000E-002  0.12500000000000000        0.0000000000000000     
   6.2500000000000000E-002  0.12500000000000000        0.0000000000000000     
   9.3750000000000000E-002  0.12500000000000000        0.0000000000000000     
  0.12500000000000000       0.12500000000000000        0.0000000000000000     
   0.0000000000000000       0.15625000000000000        0.0000000000000000     
   3.1250000000000000E-002  0.15625000000000000        0.0000000000000000     
   6.2500000000000000E-002  0.15625000000000000        0.0000000000000000     
   9.3750000000000000E-002  0.15625000000000000        0.0000000000000000     
  0.12500000000000000       0.15625000000000000        0.0000000000000000     
   0.0000000000000000       0.18750000000000000        0.0000000000000000     
   3.1250000000000000E-002  0.18750000000000000        0.0000000000000000     
   6.2500000000000000E-002  0.18750000000000000        0.0000000000000000     
   9.3750000000000000E-002  0.18750000000000000        0.0000000000000000     
  0.12500000000000000       0.18750000000000000        0.0000000000000000     
   0.0000000000000000       0.21875000000000000        0.0000000000000000     
   3.1250000000000000E-002  0.21875000000000000        0.0000000000000000     
   6.2500000000000000E-002  0.21875000000000000        0.0000000000000000     
   9.3750000000000000E-002  0.21875000000000000        0.0000000000000000     
  0.12500000000000000       0.21875000000000000        0.0000000000000000     
   0.0000000000000000       0.25000000000000000        0.0000000000000000     
   3.1250000000000000E-002  0.25000000000000000        0.0000000000000000     
   6.2500000000000000E-002  0.25000000000000000        0.0000000000000000     
   9.3750000000000000E-002  0.25000000000000000        0.0000000000000000     
  0.12500000000000000       0.25000000000000000        0.0000000000000000     
  0.12500000000000000       0.12500000000000000        0.0000000000000000     
  0.15625000000000000       0.12500000000000000        0.0000000000000000     
  0.18750000000000000       0.12500000000000000        0.0000000000000000     
  0.21875000000000000       0.12500000000000000        0.0000000000000000     
  0.25000000000000000       0.12500000000000000        0.0000000000000000     
  0.12500000000000000       0.15625000000000000        0.0000000000000000     
  0.15625000000000000       0.15625000000000000        0.0000000000000000     
  0.18750000000000000       0.15625000000000000        0.0000000000000000     
  0.21875000000000000       0.15625000000000000        0.0000000000000000     
  0.25000000000000000       0.15625000000000000        0.0000000000000000     
  0.12500000000000000       0.18750000000000000        0.0000000000000000     
  0.15625000000000000       0.18750000000000000        0.0000000000000000     
  0.18750000000000000       0.18750000000000000        0.0000000000000000     
  0.21875000000000000       0.18750000000000000        0.0000000000000000     
  0.25000000000000000       0.18750000000000000        0.0000000000000000     
  0.12500000000000000       0.21875000000000000        0.0000000000000000     
  0.15625000000000000       0.21875000000000000        0.0000000000000000     
  0.18750000000000000       0.21875000000000000        0.0000000000000000     
  0.21875000000000000       0.21875000000000000        0.0000000000000000     
  0.25000000000000000       0.21875000000000000        0.0000000000000000     
  0.12500000000000000       0.25000000000000000        0.0000000000000000     
  0.15625000000000000       0.25000000000000000        0.0000000000000000     
  0.18750000000000000       0.25000000000000000        0.0000000000000000     
  0.21875000000000000       0.25000000000000000        0.0000000000000000     
  0.25000000000000000       0.25000000000000000        0.0000000000000000     
  0.25000000000000000       0.12500000000000000        0.0000000000000000     
  0.28125000000000000       0.12500000000000000        0.0000000000000000     
  0.31250000000000000       0.12500000000000000        0.0000000000000000     
  0.34375000000000000       0.12500000000000000        0.0000000000000000     
  0.37500000000000000       0.12500000000000000        0.0000000000000000     
  0.25000000000000000       0.15625000000000000        0.0000000000000000     
  0.28125000000000000       0.15625000000000000        0.0000000000000000     
  0.31250000000000000       0.15625000000000000        0.0000000000000000     
  0.34375000000000000       0.15625000000000000        0.0000000000000000     
  0.37500000000000000       0.15625000000000000        0.0000000000000000     
  0.25000000000000000       0.18750000000000000        0.0000000000000000     
  0.28125000000000000       0.18750000000000000        0.0000000000000000     
  0.31250000000000000       0.18750000000000000        0.0000000000000000     
  0.34375000000000000       0.18750000000000000        0.0000000000000000     
  0.37500000000000000       0.18750000000000000        0.0000000000000000     
  0.25000000000000000       0.21875000000000000        0.0000000000000000     
  0.28125000000000000       0.21875000000000000        0.0000000000000000     
  0.31250000000000000       0.21875000000000000        0.0000000000000000     
  0.34375000000000000       0.21875000000000000        0.0000000000000000     
  0.37500000000000000       0.21875000000000000        0.0000000000000000     
  0.25000000000000000       0.25000000000000000        0.0000000000000000     
  0.28125000000000000       0.25000000000000000        0.0000000000000000     
  0.31250000000000000       0.25000000000000000        0.0000000000000000     
  0.34375000000000000       0.25000000000000000        0.0000000000000000     
  0.37500000000000000       0.25000000000000000        0.0000000000000000     
  0.37500000000000000       0.12500000000000000        0.0000000000000000     
  0.40625000000000000       0.12500000000000000        0.0000000000000000     
  0.43750000000000000       0.12500000000000000        0.0000000000000000     
  0.46875000000000000       0.12500000000000000        0.0000000000000000     
  0.50000000000000000       0.12500000000000000        0.0000000000000000     
  0.37500000000000000       0.15625000000000000        0.0000000000000000     
  0.40625000000000000       0.15625000000000000        0.0000000000000000     
  0.43750000000000000       0.15625000000000000        0.0000000000000000     
  0.46875000000000000       0.15625000000000000        0.0000000000000000     
  0.50000000000000000       0.15625000000000000        0.0000000000000000     
  0.37500000000000000       0.18750000000000000        0.0000000000000000     
  0.40625000000000000       0.18750000000000000        0.0000000000000000     
  0.43750000000000000       0.18750000000000000        0.0000000000000000     
  0.46875000000000000       0.18750000000000000        0.0000000000000000     
  0.50000000000000000       0.18750000000000000        0.0000000000000000     
  0.37500000000000000       0.21875000000000000        0.0000000000000000     
  0.40625000000000000       0.21875000000000000        0.0000000000000000     
  0.43750000000000000       0.21875000000000000        0.0000000000000000     
  0.46875000000000000       0.21875000000000000        0.0000000000000000     
  0.50000000000000000       0.21875000000000000        0.0000000000000000     
  0.37500000000000000       0.25000000000000000        0.0000000000000000     
  0.40625000000000000       0.25000000000000000        0.0000000000000000     
  0.43750000000000000       0.25000000000000000        0.0000000000000000     
  0.46875000000000000       0.25000000000000000        0.0000000000000000     
  0.50000000000000000       0.25000000000000000        0.0000000000000000     
  0.50000000000000000       0.12500000000000000        0.0000000000000000     
  0.53125000000000000       0.12500000000000000        0.0000000000000000     
  0.56250000000000000       0.12500000000000000        0.0000000000000000     
  0.59375000000000000       0.12500000000000000        0.0000000000000000     
  0.62500000000000000       0.12500000000000000        0.0000000000000000     
  0.50000000000000000       0.15625000000000000        0.0000000000000000     
  0.53125000000000000       0.15625000000000000        0.0000000000000000     
  0.56250000000000000       0.15625000000000000        0.0000000000000000     
  0.59375000000000000       0.15625000000000000        0.0000000000000000     
  0.62500000000000000       0.15625000000000000        0.0000000000000000     
  0.50000000000000000       0.18750000000000000        0.0000000000000000     
  0.53125000000000000       0.18750000000000000        0.0000000000000000     
  0.56250000000000000       0.18750000000000000        0.0000000000000000     
  0.59375000000000000       0.18750000000000000        0.0000000000000000     
  0.62500000000000000       0.18750000000000000        0.0000000000000000     
  0.50000000000000000       0.21875000000000000        0.0000000000000000     
  0.53125000000000000       0.21875000000000000        0.0000000000000000     
  0.56250000000000000       0.21875000000000000        0.0000000000000000     
  0.59375000000000000       0.21875000000000000        0.0000000000000000     
  0.62500000000000000       0.21875000000000000        0.0000000000000000     
  0.50000000000000000       0.25000000000000000        0.0000000000000000     
  0.53125000000000000       0.25000000000000000        0.0000000000000000     
  0.56250000000000000       0.25000000000000000        0.0000000000000000     
  0.59375000000000000       0.25000000000000000        0.0000000000000000     
  0.62500000000000000       0.25000000000000000        0.0000000000000000     
  0.62500000000000000       0.12500000000000000        0.0000000000000000     
  0.65625000000000000       0.12500000000000000        0.0000000000000000     
  0.68750000000000000       0.12500000000000000        0.0000000000000000     
  0.71875000000000000       0.12500000000000000        0.0000000000000000     
  0.75000000000000000       0.12500000000000000        0.0000000000000000     
  0.62500000000000000       0.15625000000000000        0.0000000000000000     
  0.65625000000000000       0.15625000000000000        0.0000000000000000     
  0.68750000000000000       0.15625000000000000        0.0000000000000000     
  0.71875000000000000       0.15625000000000000        0.0000000000000000     
  0.75000000000000000       0.15625000000000000        0.0000000000000000     
  0.62500000000000000       0.18750000000000000        0.0000000000000000     
  0.65625000000000000       0.18750000000000000        0.0000000000000000     
  0.68750000000000000       0.18750000000000000        0.0000000000000000     
  0.71875000000000000       0.18750000000000000        0.0000000000000000     
  0.75000000000000000       0.18750000000000000        0.0000000000000000     
  0.62500000000000000       0.21875000000000000        0.0000000000000000     
  0.65625000000000000       0.21875000000000000        0.0000000000000000     
  0.68750000000000000       0.21875000000000000        0.0000000000000000     
  0.71875000000000000       0.21875000000000000        0.0000000000000000     
  0.75000000000000000       0.21875000000000000        0.0000000000000000     
  0.62500000000000000       0.25000000000000000        0.0000000000000000     
  0.65625000000000000       0.25000000000000000        0.0000000000000000     
  0.68750000000000000       0.25000000000000000        0.0000000000000000     
  0.71875000000000000       0.25000000000000000        0.0000000000000000     
  0.75000000000000000       0.25000000000000000        0.0000000000000000     
  0.75000000000000000       0.12500000000000000        0.0000000000000000     
  0.78125000000000000       0.12500000000000000        0.0000000000000000     
  0.81250000000000000       0.12500000000000000        0.0000000000000000     
  0.84375000000000000       0.12500000000000000        0.0000000000000000     
  0.87500000000000000       0.12500000000000000        0.0000000000000000     
  0.75000000000000000       0.15625000000000000        0.0000000000000000     
  0.78125000000000000       0.15625000000000000        0.0000000000000000     
  0.81250000000000000       0.15625000000000000        0.0000000000000000     
  0.84375000000000000       0.15625000000000000        0.0000000000000000     
  0.87500000000000000       0.15625000000000000        0.0000000000000000     
  0.75000000000000000       0.18750000000000000        0.0000000000000000     
  0.78125000000000000       0.18750000000000000        0.0000000000000000     
  0.81250000000000000       0.18750000000000000        0.0000000000000000     
  0.84375000000000000       0.18750000000000000        0.0000000000000000     
  0.87500000000000000       0.18750000000000000        0.0000000000000000     
  0.75000000000000000       0.21875000000000000        0.0000000000000000     
  0.78125000000000000       0.21875000000000000        0.0000000000000000     
  0.81250000000000000       0.21875000000000000        0.0000000000000000     
  0.84375000000000000       0.21875000000000000        0.0000000000000000     
  0.87500000000000000       0.21875000000000000        0.0000000000000000     
  0.75000000000000000       0.25000000000000000        0.0000000000000000     
  0.78125000000000000       0.25000000000000000        0.0000000000000000     
  0.81250000000000000       0.25000000000000000        0.0000000000000000     
  0.84375000000000000       0.25000000000000000        0.0000000000000000     
  0.87500000000000000       0.25000000000000000        0.0000000000000000     
  0.87500000000000000       0.12500000000000000        0.0000000000000000     
  0.90625000000000000       0.12500000000000000        0.0000000000000000     
  0.93750000000000000       0.12500000000000000        0.0000000000000000     
  0.96875000000000000       0.12500000000000000        0.0000000000000000     
   1.0000000000000000       0.12500000000000000        0.0000000000000000     
  0.87500000000000000       0.15625000000000000        0.0000000000000000     
  0.90625000000000000       0.15625000000000000        0.0000000000000000     
  0.93750000000000000       0.15625000000000000        0.0000000000000000     
  0.96875000000000000       0.15625000000000000        0.0000000000000000     
   1.0000000000000000       0.15625000000000000        0.0000000000000000     
  0.87500000000000000       0.18750000000000000        0.0000000000000000     
  0.90625000000000000       0.18750000000000000        0.0000000000000000     
  0.93750000000000000       0.18750000000000000        0.0000000000000000     
  0.96875000000000000       0.18750000000000000        0.0000000000000000     
   1.0000000000000000       0.18750000000000000        0.0000000000000000     
  0.87500000000000000       0.21875000000000000        0.0000000000000000     
  0.90625000000000000       0.21875000000000000        0.0000000000000000     
  0.93750000000000000       0.21875000000000000        0.0000000000000000     
  0.96875000000000000       0.21875000000000000        0.0000000000000000     
   1.0000000000000000       0.21875000000000000        0.0000000000000000     
  0.87500000000000000       0.25000000000000000        0.0000000000000000     
  0.90625000000000000       0.25000000000000000        0.0000000000000000     
  0.93750000000000000       0.25000000000000000        0.0000000000000000     
  0.96875000000000000       0.25000000000000000        0.0000000000000000     
   1.0000000000000000       0.25000000000000000        0.0000000000000000     
   0.0000000000000000       0.25000000000000000        0.0000000000000000     
   3.1250000000000000E-002  0.25000000000000000        0.0000000000000000     
   6.2500000000000000E-002  0.25000000000000000        0.0000000000000000     
   9.3750000000000000E-002  0.25000000000000000        0.0000000000000000     
  0.12500000000000000       0.25000000000000000        0.0000000000000000     
   0.0000000000000000       0.28125000000000000        0.0000000000000000     
   3.1250000000000000E-002  0.28125000000000000        0.0000000000000000     
   6.2500000000000000E-002  0.28125000000000000        0.0000000000000000     
   9.3750000000000000E-002  0.28125000000000000        0.0000000000000000     
  0.12500000000000000       0.28125000000000000        0.0000000000000000     
   0.0000000000000000       0.31250000000000000        0.0000000000000000     
   3.1250000000000000E-002  0.31250000000000000        0.0000000000000000     
   6.2500000000000000E-002  0.31250000000000000        0.0000000000000000     
   9.3750000000000000E-002  0.31250000000000000        0.0000000000000000     
  0.12500000000000000       0.31250000000000000        0.0000000000000000     
   0.0000000000000000       0.34375000000000000        0.0000000000000000     
   3.1250000000000000E-002  0.34375000000000000        0.0000000000000000     
   6.2500000000000000E-002  0.34375000000000000        0.0000000000000000     
   9.3750000000000000E-002  0.34375000000000000        0.0000000000000000     
  0.12500000000000000       0.34375000000000000        0.0000000000000000     
   0.0000000000000000       0.37500000000000000        0.0000000000000000     
   3.1250000000000000E-002  0.37500000000000000        0.0000000000000000     
   6.2500000000000000E-002  0.37500000000000000        0.0000000000000000     
   9.3750000000000000E-002  0.37500000000000000        0.0000000000000000     
  0.12500000000000000       0.37500000000000000        0.0000000000000000     
  0.12500000000000000       0.25000000000000000        0.0000000000000000     
  0.15625000000000000       0.25000000000000000        0.0000000000000000     
  0.18750000000000000       0.25000000000000000        0.0000000000000000     
  0.21875000000000000       0.25000000000000000        0.0000000000000000     
  0.25000000000000000       0.25000000000000000        0.0000000000000000     
  0.12500000000000000       0.28125000000000000        0.0000000000000000     
  0.15625000000000000       0.28125000000000000        0.0000000000000000     
  0.18750000000000000       0.28125000000000000        0.0000000000000000     
  0.21875000000000000       0.28125000000000000        0.0000000000000000     
  0.25000000000000000       0.28125000000000000        0.0000000000000000     
  0.12500000000000000       0.31250000000000000        0.0000000000000000     
  0.15625000000000000       0.31250000000000000        0.0000000000000000     
  0.18750000000000000       0.31250000000000000        0.0000000000000000     
  0.21875000000000000       0.31250000000000000        0.0000000000000000     
  0.25000000000000000       0.31250000000000000        0.0000000000000000     
  0.12500000000000000       0.34375000000000000        0.0000000000000000     
  0.15625000000000000       0.34375000000000000        0.0000000000000000     
  0.18750000000000000       0.34375000000000000        0.0000000000000000     
  0.21875000000000000       0.34375000000000000        0.0000000000000000     
  0.25000000000000000       0.34375000000000000        0.0000000000000000     
  0.12500000000000000       0.37500000000000000        0.0000000000000000     
  0.15625000000000000       0.37500000000000000        0.0000000000000000     
  0.18750000000000000       0.37500000000000000        0.0000000000000000     
  0.21875000000000000       0.37500000000000000        0.0000000000000000     
  0.25000000000000000       0.37500000000000000        0.0000000000000000     
  0.25000000000000000       0.25000000000000000        0.0000000000000000     
  0.28125000000000000       0.25000000000000000        0.0000000000000000     
  0.31250000000000000       0.25000000000000000        0.0000000000000000     
  0.34375000000000000       0.25000000000000000        0.0000000000000000     
  0.37500000000000000       0.25000000000000000        0.0000000000000000     
  0.25000000000000000       0.28125000000000000        0.0000000000000000     
  0.28125000000000000       0.28125000000000000        0.0000000000000000     
  0.31250000000000000       0.28125000000000000        0.0000000000000000     
  0.34375000000000000       0.28125000000000000        0.0000000000000000     
  0.37500000000000000       0.28125000000000000        0.0000000000000000     
  0.25000000000000000       0.31250000000000000        0.0000000000000000     
  0.28125000000000000       0.31250000000000000        0.0000000000000000     
  0.31250000000000000       0.31250000000000000        0.0000000000000000     
  0.34375000000000000       0.31250000000000000        0.0000000000000000     
  0.37500000000000000       0.31250000000000000        0.0000000000000000     
  0.25000000000000000       0.34375000000000000        0.0000000000000000     
  0.28125000000000000       0.34375000000000000        0.0000000000000000     
  0.31250000000000000       0.34375000000000000        0.0000000000000000     
  0.34375000000000000       0.34375000000000000        0.0000000000000000     
  0.37500000000000000       0.34375000000000000        0.0000000000000000     
  0.25000000000000000       0.37500000000000000        0.0000000000000000     
  0.28125000000000000       0.37500000000000000        0.0000000000000000     
  0.31250000000000000       0.37500000000000000        0.0000000000000000     
  0.34375000000000000       0.37500000000000000        0.0000000000000000     
  0.37500000000000000       0.37500000000000000        0.0000000000000000     
  0.37500000000000000       0.25000000000000000        0.0000000000000000     
  0.40625000000000000       0.25000000000000000        0.0000000000000000     
  0.43750000000000000       0.25000000000000000        0.0000000000000000     
  0.46875000000000000       0.25000000000000000        0.0000000000000000     
  0.50000000000000000       0.25000000000000000        0.0000000000000000     
  0.37500000000000000       0.28125000000000000        0.0000000000000000     
  0.40625000000000000       0.28125000000000000        0.0000000000000000     
  0.43750000000000000       0.28125000000000000        0.0000000000000000     
  0.46875000000000000       0.28125000000000000        0.0000000000000000     
  0.50000000000000000       0.28125000000000000        0.0000000000000000     
  0.37500000000000000       0.31250000000000000        0.0000000000000000     
  0.40625000000000000       0.31250000000000000        0.0000000000000000     
  0.43750000000000000       0.31250000000000000        0.0000000000000000     
  0.46875000000000000       0.31250000000000000        0.0000000000000000     
  0.50000000000000000       0.31250000000000000        0.0000000000000000     
  0.37500000000000000       0.34375000000000000        0.0000000000000000     
  0.40625000000000000       0.34375000000000000        0.0000000000000000     
  0.43750000000000000       0.34375000000000000        0.0000000000000000     
  0.46875000000000000       0.34375000000000000        0.0000000000000000     
  0.50000000000000000       0.34375000000000000        0.0000000000000000     
  0.37500000000000000       0.37500000000000000        0.0000000000000000     
  0.40625000000000000       0.37500000000000000        0.0000000000000000     
  0.43750000000000000       0.37500000000000000        0.0000000000000000     
  0.46875000000000000       0.37500000000000000        0.0000000000000000     
  0.50000000000000000       0.37500000000000000        0.0000000000000000     
  0.50000000000000000       0.25000000000000000        0.0000000000000000     
  0.53125000000000000       0.25000000000000000        0.0000000000000000     
  0.56250000000000000       0.25000000000000000        0.0000000000000000     
  0.59375000000000000       0.25000000000000000        0.0000000000000000     
  0.62500000000000000       0.25000000000000000        0.0000000000000000     
  0.50000000000000000       0.28125000000000000        0.0000000000000000     
  0.53125000000000000       0.28125000000000000        0.0000000000000000     
  0.56250000000000000       0.28125000000000000        0.0000000000000000     
  0.59375000000000000       0.28125000000000000        0.0000000000000000     
  0.62500000000000000       0.28125000000000000        0.0000000000000000     
  0.50000000000000000       0.31250000000000000        0.0000000000000000     
  0.53125000000000000       0.31250000000000000        0.0000000000000000     
  0.56250000000000000       0.31250000000000000        0.0000000000000000     
  0.59375000000000000       0.31250000000000000        0.0000000000000000     
  0.62500000000000000       0.31250000000000000        0.0000000000000000     
  0.50000000000000000       0.34375000000000000        0.0000000000000000     
  0.53125000000000000       0.34375000000000000        0.0000000000000000     
  0.56250000000000000       0.34375000000000000        0.0000000000000000     
  0.59375000000000000       0.34375000000000000        0.0000000000000000     
  0.62500000000000000       0.34375000000000000        0.0000000000000000     
  0.50000000000000000       0.37500000000000000        0.0000000000000000     
  0.53125000000000000       0.37500000000000000        0.0000000000000000     
  0.56250000000000000       0.37500000000000000        0.0000000000000000     
  0.59375000000000000       0.37500000000000000        0.0000000000000000     
  0.62500000000000000       0.37500000000000000        0.0000000000000000     
  0.62500000000000000       0.25000000000000000        0.0000000000000000     
  0.65625000000000000       0.25000000000000000        0.0000000000000000     
  0.68750000000000000       0.25000000000000000        0.0000000000000000     
  0.71875000000000000       0.25000000000000000        0.0000000000000000     
  0.75000000000000000       0.25000000000000000        0.0000000000000000     
  0.62500000000000000       0.28125000000000000        0.0000000000000000     
  0.65625000000000000       0.28125000000000000        0.0000000000000000     
  0.68750000000000000       0.28125000000000000        0.0000000000000000     
  0.71875000000000000       0.28125000000000000        0.0000000000000000     
  0.75000000000000000       0.28125000000000000        0.0000000000000000     
  0.62500000000000000       0.31250000000000000        0.0000000000000000     
  0.65625000000000000       0.31250000000000000        0.0000000000000000     
  0.68750000000000000       0.31250000000000000        0.0000000000000000     
  0.71875000000000000       0.31250000000000000        0.0000000000000000     
  0.75000000000000000       0.31250000000000000        0.0000000000000000     
  0.62500000000000000       0.34375000000000000        0.0000000000000000     
  0.65625000000000000       0.34375000000000000        0.0000000000000000     
  0.68750000000000000       0.34375000000000000        0.0000000000000000     
  0.71875000000000000       0.34375000000000000        0.0000000000000000     
  0.75000000000000000       0.34375000000000000        0.0000000000000000     
  0.62500000000000000       0.37500000000000000        0.0000000000000000     
  0.65625000000000000       0.37500000000000000        0.0000000000000000     
  0.68750000000000000       0.37500000000000000        0.0000000000000000     
  0.71875000000000000       0.37500000000000000        0.0000000000000000     
  0.75000000000000000       0.37500000000000000        0.0000000000000000     
  0.75000000000000000       0.25000000000000000        0.0000000000000000     
  0.78125000000000000       0.25000000000000000        0.0000000000000000     
  0.81250000000000000       0.25000000000000000        0.0000000000000000     
  0.84375000000000000       0.25000000000000000        0.0000000000000000     
  0.87500000000000000       0.25000000000000000        0.0000000000000000     
  0.75000000000000000       0.28125000000000000        0.0000000000000000     
  0.78125000000000000       0.28125000000000000        0.0000000000000000     
  0.81250000000000000       0.28125000000000000        0.0000000000000000     
  0.84375000000000000       0.28125000000000000        0.0000000000000000     
  0.87500000000000000       0.28125000000000000        0.0000000000000000     
  0.75000000000000000       0.31250000000000000        0.0000000000000000     
  0.78125000000000000       0.31250000000000000        0.0000000000000000     
  0.81250000000000000       0.31250000000000000        0.0000000000000000     
  0.84375000000000000       0.31250000000000000        0.0000000000000000     
  0.87500000000000000       0.31250000000000000        0.0000000000000000     
  0.75000000000000000       0.34375000000000000        0.0000000000000000     
  0.78125000000000000       0.34375000000000000        0.0000000000000000     
  0.81250000000000000       0.34375000000000000        0.0000000000000000     
  0.84375000000000000       0.34375000000000000        0.0000000000000000     
  0.87500000000000000       0.34375000000000000        0.0000000000000000     
  0.75000000000000000       0.37500000000000000        0.0000000000000000     
  0.78125000000000000       0.37500000000000000        0.0000000000000000     
  0.81250000000000000       0.37500000000000000        0.0000000000000000     
  0.84375000000000000       0.37500000000000000        0.0000000000000000     
  0.87500000000000000       0.37500000000000000        0.0000000000000000     
  0.87500000000000000       0.25000000000000000        0.0000000000000000     
  0.90625000000000000       0.25000000000000000        0.0000000000000000     
  0.93750000000000000       0.25000000000000000        0.0000000000000000     
  0.96875000000000000       0.25000000000000000        0.0000000000000000     
   1.0000000000000000       0.25000000000000000        0.0000000000000000     
  0.87500000000000000       0.28125000000000000        0.0000000000000000     
  0.90625000000000000       0.28125000000000000        0.0000000000000000     
  0.93750000000000000       0.28125000000000000        0.0000000000000000     
  0.96875000000000000       0.28125000000000000        0.0000000000000000     
   1.0000000000000000       0.28125000000000000        0.0000000000000000     
  0.87500000000000000       0.31250000000000000        0.0000000000000000     
  0.90625000000000000       0.31250000000000000        0.0000000000000000     
  0.93750000000000000       0.31250000000000000        0.0000000000000000     
  0.96875000000000000       0.31250000000000000        0.0000000000000000     
   1.0000000000000000       0.31250000000000000        0.0000000000000000     
  0.87500000000000000       0.34375000000000000        0.0000000000000000     
  0.90625000000000000       0.34375000000000000        0.0000000000000000     
  0.93750000000000000       0.34375000000000000        0.0000000000000000     
  0.96875000000000000       0.34375000000000000        0.0000000000000000     
   1.0000000000000000       0.34375000000000000        0.0000000000000000     
  0.87500000000000000       0.37500000000000000        0.0000000000000000     
  0.90625000000000000       0.37500000000000000        0.0000000000000000     
  0.93750000000000000       0.37500000000000000        0.0000000000000000     
  0.96875000000000000       0.37500000000000000        0.0000000000000000     
   1.0000000000000000       0.37500000000000000        0.0000000000000000     
   0.0000000000000000       0.37500000000000000        0.0000000000000000     
   3.1250000000000000E-002  0.37500000000000000        0.0000000000000000     
   6.2500000000000000E-002  0.37500000000000000        0.0000000000000000     
   9.3750000000000000E-002  0.37500000000000000        0.0000000000000000     
  0.12500000000000000       0.37500000000000000        0.0000000000000000     
   0.0000000000000000       0.40625000000000000        0.0000000000000000     
   3.1250000000000000E-002  0.40625000000000000        0.0000000000000000     
   6.2500000000000000E-002  0.40625000000000000        0.0000000000000000     
   9.3750000000000000E-002  0.40625000000000000        0.0000000000000000     
  0.12500000000000000       0.40625000000000000        0.0000000000000000     
   0.0000000000000000       0.43750000000000000        0.0000000000000000     
   3.1250000000000000E-002  0.43750000000000000        0.0000000000000000     
   6.2500000000000000E-002  0.43750000000000000        0.0000000000000000     
   9.3750000000000000E-002  0.43750000000000000        0.0000000000000000     
  0.12500000000000000       0.43750000000000000        0.0000000000000000     
   0.0000000000000000       0.46875000000000000        0.0000000000000000     
   3.1250000000000000E-002  0.46875000000000000        0.0000000000000000     
   6.2500000000000000E-002  0.46875000000000000        0.0000000000000000     
   9.3750000000000000E-002  0.46875000000000000        0.0000000000000000     
  0.12500000000000000       0.46875000000000000        0.0000000000000000     
   0.0000000000000000       0.50000000000000000        0.0000000000000000     
   3.1250000000000000E-002  0.50000000000000000        0.0000000000000000     
   6.2500000000000000E-002  0.50000000000000000        0.0000000000000000     
   9.3750000000000000E-002  0.50000000000000000        0.0000000000000000     
  0.12500000000000000       0.50000000000000000        0.0000000000000000     
  0.12500000000000000       0.37500000000000000        0.0000000000000000     
  0.15625000000000000       0.37500000000000000        0.0000000000000000     
  0.18750000000000000       0.37500000000000000        0.0000000000000000     
  0.21875000000000000       0.37500000000000000        0.0000000000000000     
  0.25000000000000000       0.37500000000000000        0.0000000000000000     
  0.12500000000000000       0.40625000000000000        0.0000000000000000     
  0.15625000000000000       0.40625000000000000        0.0000000000000000     
  0.18750000000000000       0.40625000000000000        0.0000000000000000     
  0.21875000000000000       0.40625000000000000        0.0000000000000000     
  0.25000000000000000       0.40625000000000000        0.0000000000000000     
  0.12500000000000000       0.43750000000000000        0.0000000000000000     
  0.15625000000000000       0.43750000000000000        0.0000000000000000     
  0.18750000000000000       0.43750000000000000        0.0000000000000000     
  0.21875000000000000       0.43750000000000000        0.0000000000000000     
  0.25000000000000000       0.43750000000000000        0.0000000000000000     
  0.12500000000000000       0.46875000000000000        0.0000000000000000     
  0.15625000000000000       0.46875000000000000        0.0000000000000000     
  0.18750000000000000       0.46875000000000000        0.0000000000000000     
  0.21875000000000000       0.46875000000000000        0.0000000000000000     
  0.25000000000000000       0.46875000000000000        0.0000000000000000     
  0.12500000000000000       0.50000000000000000        0.0000000000000000     
  0.15625000000000000       0.50000000000000000        0.0000000000000000     
  0.18750000000000000       0.50000000000000000        0.0000000000000000     
  0.21875000000000000       0.50000000000000000        0.0000000000000000     
  0.25000000000000000       0.50000000000000000        0.0000000000000000     
  0.25000000000000000       0.37500000000000000        0.0000000000000000     
  0.28125000000000000       0.37500000000000000        0.0000000000000000     
  0.31250000000000000       0.37500000000000000        0.0000000000000000     
  0.34375000000000000       0.37500000000000000        0.0000000000000000     
  0.37500000000000000       0.37500000000000000        0.0000000000000000     
  0.25000000000000000       0.40625000000000000        0.0000000000000000     
  0.28125000000000000       0.40625000000000000        0.0000000000000000     
  0.31250000000000000       0.40625000000000000        0.0000000000000000     
  0.34375000000000000       0.40625000000000000        0.0000000000000000     
  0.37500000000000000       0.40625000000000000        0.0000000000000000     
  0.25000000000000000       0.43750000000000000        0.0000000000000000     
  0.28125000000000000       0.43750000000000000        0.0000000000000000     
  0.31250000000000000       0.43750000000000000        0.0000000000000000     
  0.34375000000000000       0.43750000000000000        0.0000000000000000     
  0.37500000000000000       0.43750000000000000        0.0000000000000000     
  0.25000000000000000       0.46875000000000000        0.0000000000000000     
  0.28125000000000000       0.46875000000000000        0.0000000000000000     
  0.31250000000000000       0.46875000000000000        0.0000000000000000     
  0.34375000000000000       0.46875000000000000        0.0000000000000000     
  0.37500000000000000       0.46875000000000000        0.0000000000000000     
  0.25000000000000000       0.50000000000000000        0.0000000000000000     
  0.28125000000000000       0.50000000000000000        0.0000000000000000     
  0.31250000000000000       0.50000000000000000        0.0000000000000000     
  0.34375000000000000       0.50000000000000000        0.0000000000000000     
  0.37500000000000000       0.50000000000000000        0.0000000000000000     
  0.37500000000000000       0.37500000000000000        0.0000000000000000     
  0.40625000000000000       0.37500000000000000        0.0000000000000000     
  0.43750000000000000       0.37500000000000000        0.0000000000000000     
  0.46875000000000000       0.37500000000000000        0.0000000000000000     
  0.50000000000000000       0.37500000000000000        0.0000000000000000     
  0.37500000000000000       0.40625000000000000        0.0000000000000000     
  0.40625000000000000       0.40625000000000000        0.0000000000000000     
  0.43750000000000000       0.40625000000000000        0.0000000000000000     
  0.46875000000000000       0.40625000000000000        0.0000000000000000     
  0.50000000000000000       0.40625000000000000        0.0000000000000000     
  0.37500000000000000       0.43750000000000000        0.0000000000000000     
  0.40625000000000000       0.43750000000000000        0.0000000000000000     
  0.43750000000000000       0.43750000000000000        0.0000000000000000     
  0.46875000000000000       0.43750000000000000        0.0000000000000000     
  0.50000000000000000       0.43750000000000000        0.0000000000000000     
  0.37500000000000000       0.46875000000000000        0.0000000000000000     
  0.40625000000000000       0.46875000000000000        0.0000000000000000     
  0.43750000000000000       0.46875000000000000        0.0000000000000000     
  0.46875000000000000       0.46875000000000000        0.0000000000000000     
  0.50000000000000000       0.46875000000000000        0.0000000000000000     
  0.37500000000000000       0.50000000000000000        0.0000000000000000     
  0.40625000000000000       0.50000000000000000        0.0000000000000000     
  0.43750000000000000       0.50000000000000000        0.0000000000000000     
  0.46875000000000000       0.50000000000000000        0.0000000000000000     
  0.50000000000000000       0.50000000000000000        0.0000000000000000     
  0.50000000000000000       0.37500000000000000        0.0000000000000000     
  0.53125000000000000       0.37500000000000000        0.0000000000000000     
  0.56250000000000000       0.37500000000000000        0.0000000000000000     
  0.59375000000000000       0.37500000000000000        0.0000000000000000     
  0.62500000000000000       0.37500000000000000        0.0000000000000000     
  0.50000000000000000       0.40625000000000000        0.0000000000000000     
  0.53125000000000000       0.40625000000000000        0.0000000000000000     
  0.56250000000000000       0.40625000000000000        0.0000000000000000     
  0.59375000000000000       0.40625000000000000        0.0000000000000000     
  0.62500000000000000       0.40625000000000000        0.0000000000000000     
  0.50000000000000000       0.43750000000000000        0.0000000000000000     
  0.53125000000000000       0.43750000000000000        0.0000000000000000     
  0.56250000000000000       0.43750000000000000        0.0000000000000000     
  0.59375000000000000       0.43750000000000000        0.0000000000000000     
  0.62500000000000000       0.43750000000000000        0.0000000000000000     
  0.50000000000000000       0.46875000000000000        0.0000000000000000     
  0.53125000000000000       0.46875000000000000        0.0000000000000000     
  0.56250000000000000       0.46875000000000000        0.0000000000000000     
  0.59375000000000000       0.46875000000000000        0.0000000000000000     
  0.62500000000000000       0.46875000000000000        0.0000000000000000     
  0.50000000000000000       0.50000000000000000        0.0000000000000000     
  0.53125000000000000       0.50000000000000000        0.0000000000000000     
  0.56250000000000000       0.50000000000000000        0.0000000000000000     
  0.59375000000000000       0.50000000000000000        0.0000000000000000     
  0.62500000000000000       0.50000000000000000        0.0000000000000000     
  0.62500000000000000       0.37500000000000000        0.0000000000000000     
  0.65625000000000000       0.37500000000000000        0.0000000000000000     
  0.68750000000000000       0.37500000000000000        0.0000000000000000     
  0.71875000000000000       0.37500000000000000        0.0000000000000000     
  0.75000000000000000       0.37500000000000000        0.0000000000000000     
  0.62500000000000000       0.40625000000000000        0.0000000000000000     
  0.65625000000000000       0.40625000000000000        0.0000000000000000     
  0.68750000000000000       0.40625000000000000        0.0000000000000000     
  0.71875000000000000       0.40625000000000000        0.0000000000000000     
  0.75000000000000000       0.40625000000000000        0.0000000000000000     
  0.62500000000000000       0.43750000000000000        0.0000000000000000     
  0.65625000000000000       0.43750000000000000        0.0000000000000000     
  0.68750000000000000       0.43750000000000000        0.0000000000000000     
  0.71875000000000000       0.43750000000000000        0.0000000000000000     
  0.75000000000000000       0.43750000000000000        0.0000000000000000     
  0.62500000000000000       0.46875000000000000        0.0000000000000000     
  0.65625000000000000       0.46875000000000000        0.0000000000000000     
  0.68750000000000000       0.46875000000000000        0.0000000000000000     
  0.71875000000000000       0.46875000000000000        0.0000000000000000     
  0.75000000000000000       0.46875000000000000        0.0000000000000000     
  0.62500000000000000       0.50000000000000000        0.0000000000000000     
  0.65625000000000000       0.50000000000000000        0.0000000000000000     
  0.68750000000000000       0.50000000000000000        0.0000000000000000     
  0.71875000000000000       0.50000000000000000        0.0000000000000000     
  0.75000000000000000       0.50000000000000000        0.0000000000000000     
  0.75000000000000000       0.37500000000000000        0.0000000000000000     
  0.78125000000000000       0.37500000000000000        0.0000000000000000     
  0.81250000000000000       0.37500000000000000        0.0000000000000000     
  0.84375000000000000       0.37500000000000000        0.0000000000000000     
  0.87500000000000000       0.37500000000000000        0.0000000000000000     
  0.75000000000000000       0.40625000000000000        0.0000000000000000     
  0.78125000000000000       0.40625000000000000        0.0000000000000000     
  0.81250000000000000       0.40625000000000000        0.0000000000000000     
  0.84375000000000000       0.40625000000000000        0.0000000000000000     
  0.87500000000000000       0.40625000000000000        0.0000000000000000     
  0.75000000000000000       0.43750000000000000        0.0000000000000000     
  0.78125000000000000       0.43750000000000000        0.0000000000000000     
  0.81250000000000000       0.43750000000000000        0.0000000000000000     
  0.84375000000000000       0.43750000000000000        0.0000000000000000     
  0.87500000000000000       0.43750000000000000        0.0000000000000000     
  0.75000000000000000       0.46875000000000000        0.0000000000000000     
  0.78125000000000000       0.46875000000000000        0.0000000000000000     
  0.81250000000000000       0.46875000000000000        0.0000000000000000     
  0.84375000000000000       0.46875000000000000        0.0000000000000000     
  0.87500000000000000       0.46875000000000000        0.0000000000000000     
  0.75000000000000000       0.50000000000000000        0.0000000000000000     
  0.78125000000000000       0.50000000000000000        0.0000000000000000     
  0.81250000000000000       0.50000000000000000        0.0000000000000000     
  0.84375000000000000       0.50000000000000000        0.0000000000000000     
  0.87500000000000000       0.50000000000000000        0.0000000000000000     
  0.87500000000000000       0.37500000000000000        0.0000000000000000     
  0.90625000000000000       0.37500000000000000        0.0000000000000000     
  0.93750000000000000       0.37500000000000000        0.0000000000000000     
  0.96875000000000000       0.37500000000000000        0.0000000000000000     
   1.0000000000000000       0.37500000000000000        0.0000000000000000     
  0.87500000000000000       0.40625000000000000        0.0000000000000000     
  0.90625000000000000       0.40625000000000000        0.0000000000000000     
  0.93750000000000000       0.40625000000000000        0.0000000000000000     
  0.96875000000000000       0.40625000000000000        0.0000000000000000     
   1.0000000000000000       0.40625000000000000        0.0000000000000000     
  0.87500000000000000       0.43750000000000000        0.0000000000000000     
  0.90625000000000000       0.43750000000000000        0.0000000000000000     
  0.93750000000000000       0.43750000000000000        0.0000000000000000     
  0.96875000000000000       0.43750000000000000        0.0000000000000000     
   1.0000000000000000       0.43750000000000000        0.0000000000000000     
  0.87500000000000000       0.46875000000000000        0.0000000000000000     
  0.90625000000000000       0.46875000000000000        0.0000000000000000     
  0.93750000000000000       0.46875000000000000        0.0000000000000000     
  0.96875000000000000       0.46875000000000000        0.0000000000000000     
   1.0000000000000000       0.46875000000000000        0.0000000000000000     
  0.87500000000000000       0.50000000000000000        0.0000000000000000     
  0.90625000000000000       0.50000000000000000        0.0000000000000000     
  0.93750000000000000       0.50000000000000000        0.0000000000000000     
  0.96875000000000000       0.50000000000000000        0.0000000000000000     
   1.0000000000000000       0.50000000000000000        0.0000000000000000     
   0.0000000000000000       0.50000000000000000        0.0000000000000000     
   3.1250000000000000E-002  0.50000000000000000        0.0000000000000000     
   6.2500000000000000E-002  0.50000000000000000        0.0000000000000000     
   9.3750000000000000E-002  0.50000000000000000        0.0000000000000000     
  0.12500000000000000       0.50000000000000000        0.0000000000000000     
   0.0000000000000000       0.53125000000000000        0.0000000000000000     
   3.1250000000000000E-002  0.53125000000000000        0.0000000000000000     
   6.2500000000000000E-002  0.53125000000000000        0.0000000000000000     
   9.3750000000000000E-002  0.53125000000000000        0.0000000000000000     
  0.12500000000000000       0.53125000000000000        0.0000000000000000     
   0.0000000000000000       0.56250000000000000        0.0000000000000000     
   3.1250000000000000E-002  0.56250000000000000        0.0000000000000000     
   6.2500000000000000E-002  0.56250000000000000        0.0000000000000000     
   9.3750000000000000E-002  0.56250000000000000        0.0000000000000000     
  0.12500000000000000       0.56250000000000000        0.0000000000000000     
   0.0000000000000000       0.59375000000000000        0.0000000000000000     
   3.1250000000000000E-002  0.59375000000000000        0.0000000000000000     
   6.2500000000000000E-002  0.59375000000000000        0.0000000000000000     
   9.3750000000000000E-002  0.59375000000000000        0.0000000000000000     
  0.12500000000000000       0.59375000000000000        0.0000000000000000     
   0.0000000000000000       0.62500000000000000        0.0000000000000000     
   3.1250000000000000E-002  0.62500000000000000        0.0000000000000000     
   6.2500000000000000E-002  0.62500000000000000        0.0000000000000000     
   9.3750000000000000E-002  0.62500000000000000        0.0000000000000000     
  0.12500000000000000       0.62500000000000000        0.0000000000000000     
  0.12500000000000000       0.50000000000000000        0.0000000000000000     
  0.15625000000000000       0.50000000000000000        0.0000000000000000     
  0.18750000000000000       0.50000000000000000        0.0000000000000000     
  0.21875000000000000       0.50000000000000000        0.0000000000000000     
  0.25000000000000000       0.50000000000000000        0.0000000000000000     
  0.12500000000000000       0.53125000000000000        0.0000000000000000     
  0.15625000000000000       0.53125000000000000        0.0000000000000000     
  0.18750000000000000       0.53125000000000000        0.0000000000000000     
  0.21875000000000000       0.53125000000000000        0.0000000000000000     
  0.25000000000000000       0.53125000000000000        0.0000000000000000     
  0.12500000000000000       0.56250000000000000        0.0000000000000000     
  0.15625000000000000       0.56250000000000000        0.0000000000000000     
  0.18750000000000000       0.56250000000000000        0.0000000000000000     
  0.21875000000000000       0.56250000000000000        0.0000000000000000     
  0.25000000000000000       0.56250000000000000        0.0000000000000000     
  0.12500000000000000       0.59375000000000000        0.0000000000000000     
  0.15625000000000000       0.59375000000000000        0.0000000000000000     
  0.18750000000000000       0.59375000000000000        0.0000000000000000     
  0.21875000000000000       0.59375000000000000        0.0000000000000000     
  0.25000000000000000       0.59375000000000000        0.0000000000000000     
  0.12500000000000000       0.62500000000000000        0.0000000000000000     
  0.15625000000000000       0.62500000000000000        0.0000000000000000     
  0.18750000000000000       0.62500000000000000        0.0000000000000000     
  0.21875000000000000       0.62500000000000000        0.0000000000000000     
  0.25000000000000000       0.62500000000000000        0.0000000000000000     
  0.25000000000000000       0.50000000000000000        0.0000000000000000     
  0.28125000000000000       0.50000000000000000        0.0000000000000000     
  0.31250000000000000       0.50000000000000000        0.0000000000000000     
  0.34375000000000000       0.50000000000000000        0.0000000000000000     
  0.37500000000000000       0.50000000000000000        0.0000000000000000     
  0.25000000000000000       0.53125000000000000        0.0000000000000000     
  0.28125000000000000       0.53125000000000000        0.0000000000000000     
  0.31250000000000000       0.53125000000000000        0.0000000000000000     
  0.34375000000000000       0.53125000000000000        0.0000000000000000     
  0.37500000000000000       0.53125000000000000        0.0000000000000000     
  0.25000000000000000       0.56250000000000000        0.0000000000000000     
  0.28125000000000000       0.56250000000000000        0.0000000000000000     
  0.31250000000000000       0.56250000000000000        0.0000000000000000     
  0.34375000000000000       0.56250000000000000        0.0000000000000000     
  0.37500000000000000       0.56250000000000000        0.0000000000000000     
  0.25000000000000000       0.59375000000000000        0.0000000000000000     
  0.28125000000000000       0.59375000000000000        0.0000000000000000     
  0.31250000000000000       0.59375000000000000        0.0000000000000000     
  0.34375000000000000       0.59375000000000000        0.0000000000000000     
  0.37500000000000000       0.59375000000000000        0.0000000000000000     
  0.25000000000000000       0.62500000000000000        0.0000000000000000     
  0.28125000000000000       0.62500000000000000        0.0000000000000000     
  0.31250000000000000       0.62500000000000000        0.0000000000000000     
  0.34375000000000000       0.62500000000000000        0.0000000000000000     
  0.37500000000000000       0.62500000000000000        0.0000000000000000     
  0.37500000000000000       0.50000000000000000        0.0000000000000000     
  0.40625000000000000       0.50000000000000000        0.0000000000000000     
  0.43750000000000000       0.50000000000000000        0.0000000000000000     
  0.46875000000000000       0.50000000000000000        0.0000000000000000     
  0.50000000000000000       0.50000000000000000        0.0000000000000000     
  0.37500000000000000       0.53125000000000000        0.0000000000000000     
  0.40625000000000000       0.53125000000000000        0.0000000000000000     
  0.43750000000000000       0.53125000000000000        0.0000000000000000     
  0.46875000000000000       0.53125000000000000        0.0000000000000000     
  0.50000000000000000       0.53125000000000000        0.0000000000000000     
  0.37500000000000000       0.56250000000000000        0.0000000000000000     
  0.40625000000000000       0.56250000000000000        0.0000000000000000     
  0.43750000000000000       0.56250000000000000        0.0000000000000000     
  0.46875000000000000       0.56250000000000000        0.0000000000000000     
  0.50000000000000000       0.56250000000000000        0.0000000000000000     
  0.37500000000000000       0.59375000000000000        0.0000000000000000     
  0.40625000000000000       0.59375000000000000        0.0000000000000000     
  0.43750000000000000       0.59375000000000000        0.0000000000000000     
  0.46875000000000000       0.59375000000000000        0.0000000000000000     
  0.50000000000000000       0.59375000000000000        0.0000000000000000     
  0.37500000000000000       0.62500000000000000        0.0000000000000000     
  0.40625000000000000       0.62500000000000000        0.0000000000000000     
  0.43750000000000000       0.62500000000000000        0.0000000000000000     
  0.46875000000000000       0.62500000000000000        0.0000000000000000     
  0.50000000000000000       0.62500000000000000        0.0000000000000000     
  0.50000000000000000       0.50000000000000000        0.0000000000000000     
  0.53125000000000000       0.50000000000000000        0.0000000000000000     
  0.56250000000000000       0.50000000000000000        0.0000000000000000     
  0.59375000000000000       0.50000000000000000        0.0000000000000000     
  0.62500000000000000       0.50000000000000000        0.0000000000000000     
  0.50000000000000000       0.53125000000000000        0.0000000000000000     
  0.53125000000000000       0.53125000000000000        0.0000000000000000     
  0.56250000000000000       0.53125000000000000        0.0000000000000000     
  0.59375000000000000       0.53125000000000000        0.0000000000000000     
  0.62500000000000000       0.53125000000000000        0.0000000000000000     
  0.50000000000000000       0.56250000000000000        0.0000000000000000     
  0.53125000000000000       0.56250000000000000        0.0000000000000000     
  0.56250000000000000       0.56250000000000000        0.0000000000000000     
  0.59375000000000000       0.56250000000000000        0.0000000000000000     
  0.62500000000000000       0.56250000000000000        0.0000000000000000     
  0.50000000000000000       0.59375000000000000        0.0000000000000000     
  0.53125000000000000       0.59375000000000000        0.0000000000000000     
  0.56250000000000000       0.59375000000000000        0.0000000000000000     
  0.59375000000000000       0.59375000000000000        0.0000000000000000     
  0.62500000000000000       0.59375000000000000        0.0000000000000000     
  0.50000000000000000       0.62500000000000000        0.0000000000000000     
  0.53125000000000000       0.62500000000000000        0.0000000000000000     
  0.56250000000000000       0.62500000000000000        0.0000000000000000     
  0.59375000000000000       0.62500000000000000        0.0000000000000000     
  0.62500000000000000       0.62500000000000000        0.0000000000000000     
  0.62500000000000000       0.50000000000000000        0.0000000000000000     
  0.65625000000000000       0.50000000000000000        0.0000000000000000     
  0.68750000000000000       0.50000000000000000        0.0000000000000000     
  0.71875000000000000       0.50000000000000000        0.0000000000000000     
  0.75000000000000000       0.50000000000000000        0.0000000000000000     
  0.62500000000000000       0.53125000000000000        0.0000000000000000     
  0.65625000000000000       0.53125000000000000        0.0000000000000000     
  0.68750000000000000       0.53125000000000000        0.0000000000000000     
  0.71875000000000000       0.53125000000000000        0.0000000000000000     
  0.75000000000000000       0.53125000000000000        0.0000000000000000     
  0.62500000000000000       0.56250000000000000        0.0000000000000000     
  0.65625000000000000       0.56250000000000000        0.0000000000000000     
  0.68750000000000000       0.56250000000000000        0.0000000000000000     
  0.71875000000000000       0.56250000000000000        0.0000000000000000     
  0.75000000000000000       0.56250000000000000        0.0000000000000000     
  0.62500000000000000       0.59375000000000000        0.0000000000000000     
  0.65625000000000000       0.59375000000000000        0.0000000000000000     
  0.68750000000000000       0.59375000000000000        0.0000000000000000     
  0.71875000000000000       0.59375000000000000        0.0000000000000000     
  0.75000000000000000       0.59375000000000000        0.0000000000000000     
  0.62500000000000000       0.62500000000000000        0.0000000000000000     
  0.65625000000000000       0.62500000000000000        0.0000000000000000     
  0.68750000000000000       0.62500000000000000        0.0000000000000000     
  0.71875000000000000       0.62500000000000000        0.0000000000000000     
  0.75000000000000000       0.62500000000000000        0.0000000000000000     
  0.75000000000000000       0.50000000000000000        0.0000000000000000     
  0.78125000000000000       0.50000000000000000        0.0000000000000000     
  0.81250000000000000       0.50000000000000000        0.0000000000000000     
  0.84375000000000000       0.50000000000000000        0.0000000000000000     
  0.87500000000000000       0.50000000000000000        0.0000000000000000     
  0.75000000000000000       0.53125000000000000        0.0000000000000000     
  0.78125000000000000       0.53125000000000000        0.0000000000000000     
  0.81250000000000000       0.53125000000000000        0.0000000000000000     
  0.84375000000000000       0.53125000000000000        0.0000000000000000     
  0.87500000000000000       0.53125000000000000        0.0000000000000000     
  0.75000000000000000       0.56250000000000000        0.0000000000000000     
  0.78125000000000000       0.56250000000000000        0.0000000000000000     
  0.81250000000000000       0.56250000000000000        0.0000000000000000     
  0.84375000000000000       0.56250000000000000        0.0000000000000000     
  0.87500000000000000       0.56250000000000000        0.0000000000000000     
  0.75000000000000000       0.59375000000000000        0.0000000000000000     
  0.78125000000000000       0.59375000000000000        0.0000000000000000     
  0.81250000000000000       0.59375000000000000        0.0000000000000000     
  0.84375000000000000       0.59375000000000000        0.0000000000000000     
  0.87500000000000000       0.59375000000000000        0.0000000000000000     
  0.75000000000000000       0.62500000000000000        0.0000000000000000     
  0.78125000000000000       0.62500000000000000        0.0000000000000000     
  0.81250000000000000       0.62500000000000000        0.0000000000000000     
  0.84375000000000000       0.62500000000000000        0.0000000000000000     
  0.87500000000000000       0.62500000000000000        0.0000000000000000     
  0.87500000000000000       0.50000000000000000        0.0000000000000000     
  0.90625000000000000       0.50000000000000000        0.0000000000000000     
  0.93750000000000000       0.50000000000000000        0.0000000000000000     
  0.96875000000000000       0.50000000000000000        0.0000000000000000     
   1.0000000000000000       0.50000000000000000        0.0000000000000000     
  0.87500000000000000       0.53125000000000000        0.0000000000000000     
  0.90625000000000000       0.53125000000000000        0.0000000000000000     
  0.93750000000000000       0.53125000000000000        0.0000000000000000     
  0.96875000000000000       0.53125000000000000        0.0000000000000000     
   1.0000000000000000       0.53125000000000000        0.0000000000000000     
  0.87500000000000000       0.56250000000000000        0.0000000000000000     
  0.90625000000000000       0.56250000000000000        0.0000000000000000     
  0.93750000000000000       0.56250000000000000        0.0000000000000000     
  0.96875000000000000       0.56250000000000000        0.0000000000000000     
   1.0000000000000000       0.56250000000000000        0.0000000000000000     
  0.87500000000000000       0.59375000000000000        0.0000000000000000     
  0.90625000000000000       0.59375000000000000        0.0000000000000000     
  0.93750000000000000       0.59375000000000000        0.0000000000000000     
  0.96875000000000000       0.59375000000000000        0.0000000000000000     
   1.0000000000000000       0.59375000000000000        0.0000000000000000     
  0.87500000000000000       0.62500000000000000        0.0000000000000000     
  0.90625000000000000       0.62500000000000000        0.0000000000000000     
  0.93750000000000000       0.62500000000000000        0.0000000000000000     
  0.96875000000000000       0.62500000000000000        0.0000000000000000     
   1.0000000000000000       0.62500000000000000        0.0000000000000000     
   0.0000000000000000       0.62500000000000000        0.0000000000000000     
   3.1250000000000000E-002  0.62500000000000000        0.0000000000000000     
   6.2500000000000000E-002  0.62500000000000000        0.0000000000000000     
   9.3750000000000000E-002  0.62500000000000000        0.0000000000000000     
  0.12500000000000000       0.62500000000000000        0.0000000000000000     
   0.0000000000000000       0.65625000000000000        0.0000000000000000     
   3.1250000000000000E-002  0.65625000000000000        0.0000000000000000     
   6.2500000000000000E-002  0.65625000000000000        0.0000000000000000     
   9.3750000000000000E-002  0.65625000000000000        0.0000000000000000     
  0.12500000000000000       0.65625000000000000        0.0000000000000000     
   0.0000000000000000       0.68750000000000000        0.0000000000000000     
   3.1250000000000000E-002  0.68750000000000000        0.0000000000000000     
   6.2500000000000000E-002  0.68750000000000000        0.0000000000000000     
   9.3750000000000000E-002  0.68750000000000000        0.0000000000000000     
  0.12500000000000000       0.68750000000000000        0.0000000000000000     
   0.0000000000000000       0.71875000000000000        0.0000000000000000     
   3.1250000000000000E-002  0.71875000000000000        0.0000000000000000     
   6.2500000000000000E-002  0.71875000000000000        0.0000000000000000     
   9.3750000000000000E-002  0.71875000000000000        0.0000000000000000     
  0.12500000000000000       0.71875000000000000        0.0000000000000000     
   0.0000000000000000       0.75000000000000000        0.0000000000000000     
   3.1250000000000000E-002  0.75000000000000000        0.0000000000000000     
   6.2500000000000000E-002  0.75000000000000000        0.0000000000000000     
   9.3750000000000000E-002  0.75000000000000000        0.0000000000000000     
  0.12500000000000000       0.75000000000000000        0.0000000000000000     
  0.12500000000000000       0.62500000000000000        0.0000000000000000     
  0.15625000000000000       0.62500000000000000        0.0000000000000000     
  0.18750000000000000       0.62500000000000000        0.0000000000000000     
  0.21875000000000000       0.62500000000000000        0.0000000000000000     
  0.25000000000000000       0.62500000000000000        0.0000000000000000     
  0.12500000000000000       0.65625000000000000        0.0000000000000000     
  0.15625000000000000       0.65625000000000000        0.0000000000000000     
  0.18750000000000000       0.65625000000000000        0.0000000000000000     
  0.21875000000000000       0.65625000000000000        0.0000000000000000     
  0.25000000000000000       0.65625000000000000        0.0000000000000000     
  0.12500000000000000       0.68750000000000000        0.0000000000000000     
  0.15625000000000000       0.68750000000000000        0.0000000000000000     
  0.18750000000000000       0.68750000000000000        0.0000000000000000     
  0.21875000000000000       0.68750000000000000        0.0000000000000000     
  0.25000000000000000       0.68750000000000000        0.0000000000000000     
  0.12500000000000000       0.71875000000000000        0.0000000000000000     
  0.15625000000000000       0.71875000000000000        0.0000000000000000     
  0.18750000000000000       0.71875000000000000        0.0000000000000000     
  0.21875000000000000       0.71875000000000000        0.0000000000000000     
  0.25000000000000000       0.71875000000000000        0.0000000000000000     
  0.12500000000000000       0.75000000000000000        0.0000000000000000     
  0.15625000000000000       0.75000000000000000        0.0000000000000000     
  0.18750000000000000       0.75000000000000000        0.0000000000000000     
  0.21875000000000000       0.75000000000000000        0.0000000000000000     
  0.25000000000000000       0.75000000000000000        0.0000000000000000     
  0.25000000000000000       0.62500000000000000        0.0000000000000000     
  0.28125000000000000       0.62500000000000000        0.0000000000000000     
  0.31250000000000000       0.62500000000000000        0.0000000000000000     
  0.34375000000000000       0.62500000000000000        0.0000000000000000     
  0.37500000000000000       0.62500000000000000        0.0000000000000000     
  0.25000000000000000       0.65625000000000000        0.0000000000000000     
  0.28125000000000000       0.65625000000000000        0.0000000000000000     
  0.31250000000000000       0.65625000000000000        0.0000000000000000     
  0.34375000000000000       0.65625000000000000        0.0000000000000000     
  0.37500000000000000       0.65625000000000000        0.0000000000000000     
  0.25000000000000000       0.68750000000000000        0.0000000000000000     
  0.28125000000000000       0.68750000000000000        0.0000000000000000     
  0.31250000000000000       0.68750000000000000        0.0000000000000000     
  0.34375000000000000       0.68750000000000000        0.0000000000000000     
  0.37500000000000000       0.68750000000000000        0.0000000000000000     
  0.25000000000000000       0.71875000000000000        0.0000000000000000     
  0.28125000000000000       0.71875000000000000        0.0000000000000000     
  0.31250000000000000       0.71875000000000000        0.0000000000000000     
  0.34375000000000000       0.71875000000000000        0.0000000000000000     
  0.37500000000000000       0.71875000000000000        0.0000000000000000     
  0.25000000000000000       0.75000000000000000        0.0000000000000000     
  0.28125000000000000       0.75000000000000000        0.0000000000000000     
  0.31250000000000000       0.75000000000000000        0.0000000000000000     
  0.34375000000000000       0.75000000000000000        0.0000000000000000     
  0.37500000000000000       0.75000000000000000        0.0000000000000000     
  0.37500000000000000       0.62500000000000000        0.0000000000000000     
  0.40625000000000000       0.62500000000000000        0.0000000000000000     
  0.43750000000000000       0.62500000000000000        0.0000000000000000     
  0.46875000000000000       0.62500000000000000        0.0000000000000000     
  0.50000000000000000       0.62500000000000000        0.0000000000000000     
  0.37500000000000000       0.65625000000000000        0.0000000000000000     
  0.40625000000000000       0.65625000000000000        0.0000000000000000     
  0.43750000000000000       0.65625000000000000        0.0000000000000000     
  0.46875000000000000       0.65625000000000000        0.0000000000000000     
  0.50000000000000000       0.65625000000000000        0.0000000000000000     
  0.37500000000000000       0.68750000000000000        0.0000000000000000     
  0.40625000000000000       0.68750000000000000        0.0000000000000000     
  0.43750000000000000       0.68750000000000000        0.0000000000000000     
  0.46875000000000000       0.68750000000000000        0.0000000000000000     
  0.50000000000000000       0.68750000000000000        0.0000000000000000     
  0.37500000000000000       0.71875000000000000        0.0000000000000000     
  0.40625000000000000       0.71875000000000000        0.0000000000000000     
  0.43750000000000000       0.71875000000000000        0.0000000000000000     
  0.46875000000000000       0.71875000000000000        0.0000000000000000     
  0.50000000000000000       0.71875000000000000        0.0000000000000000     
  0.37500000000000000       0.75000000000000000        0.0000000000000000     
  0.40625000000000000       0.75000000000000000        0.0000000000000000     
  0.43750000000000000       0.75000000000000000        0.0000000000000000     
  0.46875000000000000       0.75000000000000000        0.0000000000000000     
  0.50000000000000000       0.75000000000000000        0.0000000000000000     
  0.50000000000000000       0.62500000000000000        0.0000000000000000     
  0.53125000000000000       0.62500000000000000        0.0000000000000000     
  0.56250000000000000       0.62500000000000000        0.0000000000000000     
  0.59375000000000000       0.62500000000000000        0.0000000000000000     
  0.62500000000000000       0.62500000000000000        0.0000000000000000     
  0.50000000000000000       0.65625000000000000        0.0000000000000000     
  0.53125000000000000       0.65625000000000000        0.0000000000000000     
  0.56250000000000000       0.65625000000000000        0.0000000000000000     
  0.59375000000000000       0.65625000000000000        0.0000000000000000     
  0.62500000000000000       0.65625000000000000        0.0000000000000000     
  0.50000000000000000       0.68750000000000000        0.0000000000000000     
  0.53125000000000000       0.68750000000000000        0.0000000000000000     
  0.56250000000000000       0.68750000000000000        0.0000000000000000     
  0.59375000000000000       0.68750000000000000        0.0000000000000000     
  0.62500000000000000       0.68750000000000000        0.0000000000000000     
  0.50000000000000000       0.71875000000000000        0.0000000000000000     
  0.53125000000000000       0.71875000000000000        0.0000000000000000     
  0.56250000000000000       0.71875000000000000        0.0000000000000000     
  0.59375000000000000       0.71875000000000000        0.0000000000000000     
  0.62500000000000000       0.71875000000000000        0.0000000000000000     
  0.50000000000000000       0.75000000000000000        0.0000000000000000     
  0.53125000000000000       0.75000000000000000        0.0000000000000000     
  0.56250000000000000       0.75000000000000000        0.0000000000000000     
  0.59375000000000000       0.75000000000000000        0.0000000000000000     
  0.62500000000000000       0.75000000000000000        0.0000000000000000     
  0.62500000000000000       0.62500000000000000        0.0000000000000000     
  0.65625000000000000       0.62500000000000000        0.0000000000000000     
  0.68750000000000000       0.62500000000000000        0.0000000000000000     
  0.71875000000000000       0.62500000000000000        0.0000000000000000     
  0.75000000000000000       0.62500000000000000        0.0000000000000000     
  0.62500000000000000       0.65625000000000000        0.0000000000000000     
  0.65625000000000000       0.65625000000000000        0.0000000000000000     
  0.68750000000000000       0.65625000000000000        0.0000000000000000     
  0.71875000000000000       0.65625000000000000        0.0000000000000000     
  0.75000000000000000       0.65625000000000000        0.0000000000000000     
  0.62500000000000000       0.68750000000000000        0.0000000000000000     
  0.65625000000000000       0.68750000000000000        0.0000000000000000     
  0.68750000000000000       0.68750000000000000        0.0000000000000000     
  0.71875000000000000       0.68750000000000000        0.0000000000000000     
  0.75000000000000000       0.68750000000000000        0.0000000000000000     
  0.62500000000000000       0.71875000000000000        0.0000000000000000     
  0.65625000000000000       0.71875000000000000        0.0000000000000000     
  0.68750000000000000       0.71875000000000000        0.0000000000000000     
  0.71875000000000000       0.71875000000000000        0.0000000000000000     
  0.75000000000000000       0.71875000000000000        0.0000000000000000     
  0.62500000000000000       0.75000000000000000        0.0000000000000000     
  0.65625000000000000       0.75000000000000000        0.0000000000000000     
  0.68750000000000000       0.75000000000000000        0.0000000000000000     
  0.71875000000000000       0.75000000000000000        0.0000000000000000     
  0.75000000000000000       0.75000000000000000        0.0000000000000000     
  0.75000000000000000       0.62500000000000000        0.0000000000000000     
  0.78125000000000000       0.62500000000000000        0.0000000000000000     
  0.81250000000000000       0.62500000000000000        0.0000000000000000     
  0.84375000000000000       0.62500000000000000        0.0000000000000000     
  0.87500000000000000       0.62500000000000000        0.0000000000000000     
  0.75000000000000000       0.65625000000000000        0.0000000000000000     
  0.78125000000000000       0.65625000000000000        0.0000000000000000     
  0.81250000000000000       0.65625000000000000        0.0000000000000000     
  0.84375000000000000       0.65625000000000000        0.0000000000000000     
  0.87500000000000000       0.65625000000000000        0.0000000000000000     
  0.75000000000000000       0.68750000000000000        0.0000000000000000     
  0.78125000000000000       0.68750000000000000        0.0000000000000000     
  0.81250000000000000       0.68750000000000000        0.0000000000000000     
  0.84375000000000000       0.68750000000000000        0.0000000000000000     
  0.87500000000000000       0.68750000000000000        0.0000000000000000     
  0.75000000000000000       0.71875000000000000        0.0000000000000000     
  0.78125000000000000       0.71875000000000000        0.0000000000000000     
  0.81250000000000000       0.71875000000000000        0.0000000000000000     
  0.84375000000000000       0.71875000000000000        0.0000000000000000     
  0.87500000000000000       0.71875000000000000        0.0000000000000000     
  0.75000000000000000       0.75000000000000000        0.0000000000000000     
  0.78125000000000000       0.75000000000000000        0.0000000000000000     
  0.81250000000000000       0.75000000000000000        0.0000000000000000     
  0.84375000000000000       0.75000000000000000        0.0000000000000000     
  0.87500000000000000       0.75000000000000000        0.0000000000000000     
  0.87500000000000000       0.62500000000000000        0.0000000000000000     
  0.90625000000000000       0.62500000000000000        0.0000000000000000     
  0.93750000000000000       0.62500000000000000        0.0000000000000000     
  0.96875000000000000       0.62500000000000000        0.0000000000000000     
   1.0000000000000000       0.62500000000000000        0.0000000000000000     
  0.87500000000000000       0.65625000000000000        0.0000000000000000     
  0.90625000000000000       0.65625000000000000        0.0000000000000000     
  0.93750000000000000       0.65625000000000000        0.0000000000000000     
  0.96875000000000000       0.65625000000000000        0.0000000000000000     
   1.0000000000000000       0.65625000000000000        0.0000000000000000     
  0.87500000000000000       0.68750000000000000        0.0000000000000000     
  0.90625000000000000       0.68750000000000000        0.0000000000000000     
  0.93750000000000000       0.68750000000000000        0.0000000000000000     
  0.96875000000000000       0.68750000000000000        0.0000000000000000     
   1.0000000000000000       0.68750000000000000        0.0000000000000000     
  0.87500000000000000       0.71875000000000000        0.0000000000000000     
  0.90625000000000000       0.71875000000000000        0.0000000000000000     
  0.93750000000000000       0.71875000000000000        0.0000000000000000     
  0.96875000000000000       0.71875000000000000        0.0000000000000000     
   1.0000000000000000       0.71875000000000000        0.0000000000000000     
  0.87500000000000000       0.75000000000000000        0.0000000000000000     
  0.90625000000000000       0.75000000000000000        0.0000000000000000     
  0.93750000000000000       0.75000000000000000        0.0000000000000000     
  0.96875000000000000       0.75000000000000000        0.0000000000000000     
   1.0000000000000000       0.75000000000000000        0.0000000000000000     
   0.0000000000000000       0.75000000000000000        0.0000000000000000     
   3.1250000000000000E-002  0.75000000000000000        0.0000000000000000     
   6.2500000000000000E-002  0.75000000000000000        0.0000000000000000     
   9.3750000000000000E-002  0.75000000000000000        0.0000000000000000     
  0.12500000000000000       0.75000000000000000        0.0000000000000000     
   0.0000000000000000       0.78125000000000000        0.0000000000000000     
   3.1250000000000000E-002  0.78125000000000000        0.0000000000000000     
   6.2500000000000000E-002  0.78125000000000000        0.0000000000000000     
   9.3750000000000000E-002  0.78125000000000000        0.0000000000000000     
  0.12500000000000000       0.78125000000000000        0.0000000000000000     
   0.0000000000000000       0.81250000000000000        0.0000000000000000     
   3.1250000000000000E-002  0.81250000000000000        0.0000000000000000     
   6.2500000000000000E-002  0.81250000000000000        0.0000000000000000     
   9.3750000000000000E-002  0.81250000000000000        0.0000000000000000     
  0.12500000000000000       0.81250000000000000        0.0000000000000000     
   0.0000000000000000       0.84375000000000000        0.0000000000000000     
   3.1250000000000000E-002  0.84375000000000000        0.0000000000000000     
   6.2500000000000000E-002  0.84375000000000000        0.0000000000000000     
   9.3750000000000000E-002  0.84375000000000000        0.0000000000000000     
  0.12500000000000000       0.84375000000000000        0.0000000000000000     
   0.0000000000000000       0.87500000000000000        0.0000000000000000     
   3.1250000000000000E-002  0.87500000000000000        0.0000000000000000     
   6.2500000000000000E-002  0.87500000000000000        0.0000000000000000     
   9.3750000000000000E-002  0.87500000000000000        0.0000000000000000     
  0.12500000000000000       0.87500000000000000        0.0000000000000000     
  0.12500000000000000       0.75000000000000000        0.0000000000000000     
  0.15625000000000000       0.75000000000000000        0.0000000000000000     
  0.18750000000000000       0.75000000000000000        0.0000000000000000     
  0.21875000000000000       0.75000000000000000        0.0000000000000000     
  0.25000000000000000       0.75000000000000000        0.0000000000000000     
  0.12500000000000000       0.78125000000000000        0.0000000000000000     
  0.15625000000000000       0.78125000000000000        0.0000000000000000     
  0.18750000000000000       0.78125000000000000        0.0000000000000000     
  0.21875000000000000       0.78125000000000000        0.0000000000000000     
  0.25000000000000000       0.78125000000000000        0.0000000000000000     
  0.12500000000000000       0.81250000000000000        0.0000000000000000     
  0.15625000000000000       0.81250000000000000        0.0000000000000000     
  0.18750000000000000       0.81250000000000000        0.0000000000000000     
  0.21875000000000000       0.81250000000000000        0.0000000000000000     
  0.25000000000000000       0.81250000000000000        0.0000000000000000     
  0.12500000000000000       0.84375000000000000        0.0000000000000000     
  0.15625000000000000       0.84375000000000000        0.0000000000000000     
  0.18750000000000000       0.84375000000000000        0.0000000000000000     
  0.21875000000000000       0.84375000000000000        0.0000000000000000     
  0.25000000000000000       0.84375000000000000        0.0000000000000000     
  0.12500000000000000       0.87500000000000000        0.0000000000000000     
  0.15625000000000000       0.87500000000000000        0.0000000000000000     
  0.18750000000000000       0.87500000000000000        0.0000000000000000     
  0.21875000000000000       0.87500000000000000        0.0000000000000000     
  0.25000000000000000       0.87500000000000000        0.0000000000000000     
  0.25000000000000000       0.75000000000000000        0.0000000000000000     
  0.28125000000000000       0.75000000000000000        0.0000000000000000     
  0.31250000000000000       0.75000000000000000        0.0000000000000000     
  0.34375000000000000       0.75000000000000000        0.0000000000000000     
  0.37500000000000000       0.75000000000000000        0.0000000000000000     
  0.25000000000000000       0.78125000000000000        0.0000000000000000     
  0.28125000000000000       0.78125000000000000        0.0000000000000000     
  0.31250000000000000       0.78125000000000000        0.0000000000000000     
  0.34375000000000000       0.78125000000000000        0.0000000000000000     
  0.37500000000000000       0.78125000000000000        0.0000000000000000     
  0.25000000000000000       0.81250000000000000        0.0000000000000000     
  0.28125000000000000       0.81250000000000000        0.0000000000000000     
  0.31250000000000000       0.81250000000000000        0.0000000000000000     
  0.34375000000000000       0.81250000000000000        0.0000000000000000     
  0.37500000000000000       0.81250000000000000        0.0000000000000000     
  0.25000000000000000       0.84375000000000000        0.0000000000000000     
  0.28125000000000000       0.84375000000000000        0.0000000000000000     
  0.31250000000000000       0.84375000000000000        0.0000000000000000     
  0.34375000000000000       0.84375000000000000        0.0000000000000000     
  0.37500000000000000       0.84375000000000000        0.0000000000000000     
  0.25000000000000000       0.87500000000000000        0.0000000000000000     
  0.28125000000000000       0.87500000000000000        0.0000000000000000     
  0.31250000000000000       0.87500000000000000        0.0000000000000000     
  0.34375000000000000       0.87500000000000000        0.0000000000000000     
  0.37500000000000000       0.87500000000000000        0.0000000000000000     
  0.37500000000000000       0.75000000000000000        0.0000000000000000     
  0.40625000000000000       0.75000000000000000        0.0000000000000000     
  0.43750000000000000       0.75000000000000000        0.0000000000000000     
  0.46875000000000000       0.75000000000000000        0.0000000000000000     
  0.50000000000000000       0.75000000000000000        0.0000000000000000     
  0.37500000000000000       0.78125000000000000        0.0000000000000000     
  0.40625000000000000       0.78125000000000000        0.0000000000000000     
  0.43750000000000000       0.78125000000000000        0.0000000000000000     
  0.46875000000000000       0.78125000000000000        0.0000000000000000     
  0.50000000000000000       0.78125000000000000        0.0000000000000000     
  0.37500000000000000       0.81250000000000000        0.0000000000000000     
  0.40625000000000000       0.81250000000000000        0.0000000000000000     
  0.43750000000000000       0.81250000000000000        0.0000000000000000     
  0.46875000000000000       0.81250000000000000        0.0000000000000000     
  0.50000000000000000       0.81250000000000000        0.0000000000000000     
  0.37500000000000000       0.84375000000000000        0.0000000000000000     
  0.40625000000000000       0.84375000000000000        0.0000000000000000     
  0.43750000000000000       0.84375000000000000        0.0000000000000000     
  0.46875000000000000       0.84375000000000000        0.0000000000000000     
  0.50000000000000000       0.84375000000000000        0.0000000000000000     
  0.37500000000000000       0.87500000000000000        0.0000000000000000     
  0.40625000000000000       0.87500000000000000        0.0000000000000000     
  0.43750000000000000       0.87500000000000000        0.0000000000000000     
  0.46875000000000000       0.87500000000000000        0.0000000000000000     
  0.50000000000000000       0.87500000000000000        0.0000000000000000     
  0.50000000000000000       0.75000000000000000        0.0000000000000000     
  0.53125000000000000       0.75000000000000000        0.0000000000000000     
  0.56250000000000000       0.75000000000000000        0.0000000000000000     
  0.59375000000000000       0.75000000000000000        0.0000000000000000     
  0.62500000000000000       0.75000000000000000        0.0000000000000000     
  0.50000000000000000       0.78125000000000000        0.0000000000000000     
  0.53125000000000000       0.78125000000000000        0.0000000000000000     
  0.56250000000000000       0.78125000000000000        0.0000000000000000     
  0.59375000000000000       0.78125000000000000        0.0000000000000000     
  0.62500000000000000       0.78125000000000000        0.0000000000000000     
  0.50000000000000000       0.81250000000000000        0.0000000000000000     
  0.53125000000000000       0.81250000000000000        0.0000000000000000     
  0.56250000000000000       0.81250000000000000        0.0000000000000000     
  0.59375000000000000       0.81250000000000000        0.0000000000000000     
  0.62500000000000000       0.81250000000000000        0.0000000000000000     
  0.50000000000000000       0.84375000000000000        0.0000000000000000     
  0.53125000000000000       0.84375000000000000        0.0000000000000000     
  0.56250000000000000       0.84375000000000000        0.0000000000000000     
  0.59375000000000000       0.84375000000000000        0.0000000000000000     
  0.62500000000000000       0.84375000000000000        0.0000000000000000     
  0.50000000000000000       0.87500000000000000        0.0000000000000000     
  0.53125000000000000       0.87500000000000000        0.0000000000000000     
  0.56250000000000000       0.87500000000000000        0.0000000000000000     
  0.59375000000000000       0.87500000000000000        0.0000000000000000     
  0.62500000000000000       0.87500000000000000        0.0000000000000000     
  0.62500000000000000       0.75000000000000000        0.0000000000000000     
  0.65625000000000000       0.75000000000000000        0.0000000000000000     
  0.68750000000000000       0.75000000000000000        0.0000000000000000     
  0.71875000000000000       0.75000000000000000        0.0000000000000000     
  0.75000000000000000       0.75000000000000000        0.0000000000000000     
  0.62500000000000000       0.78125000000000000        0.0000000000000000     
  0.65625000000000000       0.78125000000000000        0.0000000000000000     
  0.68750000000000000       0.78125000000000000        0.0000000000000000     
  0.71875000000000000       0.78125000000000000        0.0000000000000000     
  0.75000000000000000       0.78125000000000000        0.0000000000000000     
  0.62500000000000000       0.81250000000000000        0.0000000000000000     
  0.65625000000000000       0.81250000000000000        0.0000000000000000     
  0.68750000000000000       0.81250000000000000        0.0000000000000000     
  0.71875000000000000       0.81250000000000000        0.0000000000000000     
  0.75000000000000000       0.81250000000000000        0.0000000000000000     
  0.62500000000000000       0.84375000000000000        0.0000000000000000     
  0.65625000000000000       0.84375000000000000        0.0000000000000000     
  0.68750000000000000       0.84375000000000000        0.0000000000000000     
  0.71875000000000000       0.84375000000000000        0.0000000000000000     
  0.75000000000000000       0.84375000000000000        0.0000000000000000     
  0.62500000000000000       0.87500000000000000        0.0000000000000000     
  0.65625000000000000       0.87500000000000000        0.0000000000000000     
  0.68750000000000000       0.87500000000000000        0.0000000000000000     
  0.71875000000000000       0.87500000000000000        0.0000000000000000     
  0.75000000000000000       0.87500000000000000        0.0000000000000000     
  0.75000000000000000       0.75000000000000000        0.0000000000000000     
  0.78125000000000000       0.75000000000000000        0.0000000000000000     
  0.81250000000000000       0.75000000000000000        0.0000000000000000     
  0.84375000000000000       0.75000000000000000        0.0000000000000000     
  0.87500000000000000       0.75000000000000000        0.0000000000000000     
  0.75000000000000000       0.78125000000000000        0.0000000000000000     
  0.78125000000000000       0.78125000000000000        0.0000000000000000     
  0.81250000000000000       0.78125000000000000        0.0000000000000000     
  0.84375000000000000       0.78125000000000000        0.0000000000000000     
  0.87500000000000000       0.78125000000000000        0.0000000000000000     
  0.75000000000000000       0.81250000000000000        0.0000000000000000     
  0.78125000000000000       0.81250000000000000        0.0000000000000000     
  0.81250000000000000       0.81250000000000000        0.0000000000000000     
  0.84375000000000000       0.81250000000000000        0.0000000000000000     
  0.87500000000000000       0.81250000000000000        0.0000000000000000     
  0.75000000000000000       0.84375000000000000        0.0000000000000000     
  0.78125000000000000       0.84375000000000000        0.0000000000000000     
  0.81250000000000000       0.84375000000000000        0.0000000000000000     
  0.84375000000000000       0.84375000000000000        0.0000000000000000     
  0.87500000000000000       0.84375000000000000        0.0000000000000000     
  0.75000000000000000       0.87500000000000000        0.0000000000000000     
  0.78125000000000000       0.87500000000000000        0.0000000000000000     
  0.81250000000000000       0.87500000000000000        0.0000000000000000     
  0.84375000000000000       0.87500000000000000        0.0000000000000000     
  0.87500000000000000       0.87500000000000000        0.0000000000000000     
  0.87500000000000000       0.75000000000000000        0.0000000000000000     
  0.90625000000000000       0.75000000000000000        0.0000000000000000     
  0.93750000000000000       0.75000000000000000        0.0000000000000000     
  0.96875000000000000       0.75000000000000000        0.0000000000000000     
   1.0000000000000000       0.75000000000000000        0.0000000000000000     
  0.87500000000000000       0.78125000000000000        0.0000000000000000     
  0.90625000000000000       0.78125000000000000        0.0000000000000000     
  0.93750000000000000       0.78125000000000000        0.0000000000000000     
  0.96875000000000000       0.78125000000000000        0.0000000000000000     
   1.0000000000000000       0.78125000000000000        0.0000000000000000     
  0.87500000000000000       0.81250000000000000        0.0000000000000000     
  0.90625000000000000       0.81250000000000000        0.0000000000000000     
  0.93750000000000000       0.81250000000000000        0.0000000000000000     
  0.96875000000000000       0.81250000000000000        0.0000000000000000     
   1.0000000000000000       0.81250000000000000        0.0000000000000000     
  0.87500000000000000       0.84375000000000000        0.0000000000000000     
  0.90625000000000000       0.84375000000000000        0.0000000000000000     
  0.93750000000000000       0.84375000000000000        0.0000000000000000     
  0.96875000000000000       0.84375000000000000        0.0000000000000000     
   1.0000000000000000       0.84375000000000000        0.0000000000000000     
  0.87500000000000000       0.87500000000000000        0.0000000000000000     
  0.90625000000000000       0.87500000000000000        0.0000000000000000     
  0.93750000000000000       0.87500000000000000        0.0000000000000000     
  0.96875000000000000       0.87500000000000000        0.0000000000000000     
   1.0000000000000000       0.87500000000000000        0.0000000000000000     
   0.0000000000000000       0.87500000000000000        0.0000000000000000     
   3.1250000000000000E-002  0.87500000000000000        0.0000000000000000     
   6.2500000000000000E-002  0.87500000000000000        0.0000000000000000     
   9.3750000000000000E-002  0.87500000000000000        0.0000000000000000     
  0.12500000000000000       0.87500000000000000        0.0000000000000000     
   0.0000000000000000       0.90625000000000000        0.0000000000000000     
   3.1250000000000000E-002  0.90625000000000000        0.0000000000000000     
   6.2500000000000000E-002  0.90625000000000000        0.0000000000000000     
   9.3750000000000000E-002  0.90625000000000000        0.0000000000000000     
  0.12500000000000000       0.90625000000000000        0.0000000000000000     
   0.0000000000000000       0.93750000000000000        0.0000000000000000     
   3.1250000000000000E-002  0.93750000000000000        0.0000000000000000     
   6.2500000000000000E-002  0.93750000000000000        0.0000000000000000     
   9.3750000000000000E-002  0.93750000000000000        0.0000000000000000     
  0.12500000000000000       0.93750000000000000        0.0000000000000000     
   0.0000000000000000       0.96875000000000000        0.0000000000000000     
   3.1250000000000000E-002  0.96875000000000000        0.0000000000000000     
   6.2500000000000000E-002  0.96875000000000000        0.0000000000000000     
   9.3750000000000000E-002  0.96875000000000000        0.0000000000000000     
  0.12500000000000000       0.96875000000000000        0.0000000000000000     
   0.0000000000000000        1.0000000000000000        0.0000000000000000     
   3.1250000000000000E-002   1.0000000000000000        0.0000000000000000     
   6.2500000000000000E-002   1.0000000000000000        0.0000000000000000     
   9.3750000000000000E-002   1.0000000000000000        0.0000000000000000     
  0.12500000000000000        1.0000000000000000        0.0000000000000000     
  0.12500000000000000       0.87500000000000000        0.0000000000000000     
  0.15625000000000000       0.87500000000000000        0.0000000000000000     
  0.18750000000000000       0.87500000000000000        0.0000000000000000     
  0.21875000000000000       0.87500000000000000        0.0000000000000000     
  0.25000000000000000       0.87500000000000000        0.0000000000000000     
  0.12500000000000000       0.90625000000000000        0.0000000000000000     
  0.15625000000000000       0.90625000000000000        0.0000000000000000     
  0.18750000000000000       0.90625000000000000        0.0000000000000000     
  0.21875000000000000       0.90625000000000000        0.0000000000000000     
  0.25000000000000000       0.90625000000000000        0.0000000000000000     
  0.12500000000000000       0.93750000000000000        0.0000000000000000     
  0.15625000000000000       0.93750000000000000        0.0000000000000000     
  0.18750000000000000       0.93750000000000000        0.0000000000000000     
  0.21875000000000000       0.93750000000000000        0.0000000000000000     
  0.25000000000000000       0.93750000000000000        0.0000000000000000     
  0.12500000000000000       0.96875000000000000        0.0000000000000000     
  0.15625000000000000       0.96875000000000000        0.0000000000000000     
  0.18750000000000000       0.96875000000000000        0.0000000000000000     
  0.21875000000000000       0.96875000000000000        0.0000000000000000     
  0.25000000000000000       0.96875000000000000        0.0000000000000000     
  0.12500000000000000        1.0000000000000000        0.0000000000000000     
  0.15625000000000000        1.0000000000000000        0.0000000000000000     
  0.18750000000000000        1.0000000000000000        0.0000000000000000     
  0.21875000000000000        1.0000000000000000        0.0000000000000000     
  0.25000000000000000        1.0000000000000000        0.0000000000000000     
  0.25000000000000000       0.87500000000000000        0.0000000000000000     
  0.28125000000000000       0.87500000000000000        0.0000000000000000     
  0.31250000000000000       0.87500000000000000        0.0000000000000000     
  0.34375000000000000       0.87500000000000000        0.0000000000000000     
  0.37500000000000000       0.87500000000000000        0.0000000000000000     
  0.25000000000000000       0.90625000000000000        0.0000000000000000     
  0.28125000000000000       0.90625000000000000        0.0000000000000000     
  0.31250000000000000       0.90625000000000000        0.0000000000000000     
  0.34375000000000000       0.90625000000000000        0.0000000000000000     
  0.37500000000000000       0.90625000000000000        0.0000000000000000     
  0.25000000000000000       0.93750000000000000        0.0000000000000000     
  0.28125000000000000       0.93750000000000000        0.0000000000000000     
  0.31250000000000000       0.93750000000000000        0.0000000000000000     
  0.34375000000000000       0.93750000000000000        0.0000000000000000     
  0.37500000000000000       0.93750000000000000        0.0000000000000000     
  0.25000000000000000       0.96875000000000000        0.0000000000000000     
  0.28125000000000000       0.96875000000000000        0.0000000000000000     
  0.31250000000000000       0.96875000000000000        0.0000000000000000     
  0.34375000000000000       0.96875000000000000        0.0000000000000000     
  0.37500000000000000       0.96875000000000000        0.0000000000000000     
  0.25000000000000000        1.0000000000000000        0.0000000000000000     
  0.28125000000000000        1.0000000000000000        0.0000000000000000     
  0.31250000000000000        1.0000000000000000        0.0000000000000000     
  0.34375000000000000        1.0000000000000000        0.0000000000000000     
  0.37500000000000000        1.0000000000000000        0.0000000000000000     
  0.37500000000000000       0.87500000000000000        0.0000000000000000     
  0.40625000000000000       0.87500000000000000        0.0000000000000000     
  0.43750000000000000       0.87500000000000000        0.0000000000000000     
  0.46875000000000000       0.87500000000000000        0.0000000000000000     
  0.50000000000000000       0.87500000000000000        0.0000000000000000     
  0.37500000000000000       0.90625000000000000        0.0000000000000000     
  0.40625000000000000       0.90625000000000000        0.0000000000000000     
  0.43750000000000000       0.90625000000000000        0.0000000000000000     
  0.46875000000000000       0.90625000000000000        0.0000000000000000     
  0.50000000000000000       0.90625000000000000        0.0000000000000000     
  0.37500000000000000       0.93750000000000000        0.0000000000000000     
  0.40625000000000000       0.93750000000000000        0.0000000000000000     
  0.43750000000000000       0.93750000000000000        0.0000000000000000     
  0.46875000000000000       0.93750000000000000        0.0000000000000000     
  0.50000000000000000       0.93750000000000000        0.0000000000000000     
  0.37500000000000000       0.96875000000000000        0.0000000000000000     
  0.40625000000000000       0.96875000000000000        0.0000000000000000     
  0.43750000000000000       0.96875000000000000        0.0000000000000000     
  0.46875000000000000       0.96875000000000000        0.0000000000000000     
  0.50000000000000000       0.96875000000000000        0.0000000000000000     
  0.37500000000000000        1.0000000000000000        0.0000000000000000     
  0.40625000000000000        1.0000000000000000        0.0000000000000000     
  0.43750000000000000        1.0000000000000000        0.0000000000000000     
  0.46875000000000000        1.0000000000000000        0.0000000000000000     
  0.50000000000000000        1.0000000000000000        0.0000000000000000     
  0.50000000000000000       0.87500000000000000        0.0000000000000000     
  0.53125000000000000       0.87500000000000000        0.0000000000000000     
  0.56250000000000000       0.87500000000000000        0.0000000000000000     
  0.59375000000000000       0.87500000000000000        0.0000000000000000     
  0.62500000000000000       0.87500000000000000        0.0000000000000000     
  0.50000000000000000       0.90625000000000000        0.0000000000000000     
  0.53125000000000000       0.90625000000000000        0.0000000000000000     
  0.56250000000000000       0.90625000000000000        0.0000000000000000     
  0.59375000000000000       0.90625000000000000        0.0000000000000000     
  0.62500000000000000       0.90625000000000000        0.0000000000000000     
  0.50000000000000000       0.93750000000000000        0.0000000000000000     
  0.53125000000000000       0.93750000000000000        0.0000000000000000     
  0.56250000000000000       0.93750000000000000        0.0000000000000000     
  0.59375000000000000       0.93750000000000000        0.0000000000000000     
  0.62500000000000000       0.93750000000000000        0.0000000000000000     
  0.50000000000000000       0.96875000000000000        0.0000000000000000     
  0.53125000000000000       0.96875000000000000        0.0000000000000000     
  0.56250000000000000       0.96875000000000000        0.0000000000000000     
  0.59375000000000000       0.96875000000000000        0.0000000000000000     
  0.62500000000000000       0.96875000000000000        0.0000000000000000     
  0.50000000000000000        1.0000000000000000        0.0000000000000000     
  0.53125000000000000        1.0000000000000000        0.0000000000000000     
  0.56250000000000000        1.0000000000000000        0.0000000000000000     
  0.59375000000000000        1.0000000000000000        0.0000000000000000     
  0.62500000000000000        1.0000000000000000        0.0000000000000000     
  0.62500000000000000       0.87500000000000000        0.0000000000000000     
  0.65625000000000000       0.87500000000000000        0.0000000000000000     
  0.68750000000000000       0.87500000000000000        0.0000000000000000     
  0.71875000000000000       0.87500000000000000        0.0000000000000000     
  0.75000000000000000       0.87500000000000000        0.0000000000000000     
  0.62500000000000000       0.90625000000000000        0.0000000000000000     
  0.65625000000000000       0.90625000000000000        0.0000000000000000     
  0.68750000000000000       0.90625000000000000        0.0000000000000000     
  0.71875000000000000       0.90625000000000000        0.0000000000000000     
  0.75000000000000000       0.90625000000000000        0.0000000000000000     
  0.62500000000000000       0.93750000000000000        0.0000000000000000     
  0.65625000000000000       0.93750000000000000        0.0000000000000000     
  0.68750000000000000       0.93750000000000000        0.0000000000000000     
  0.71875000000000000       0.93750000000000000        0.0000000000000000     
  0.75000000000000000       0.93750000000000000        0.0000000000000000     
  0.62500000000000000       0.96875000000000000        0.0000000000000000     
  0.65625000000000000       0.96875000000000000        0.0000000000000000     
  0.68750000000000000       0.96875000000000000        0.0000000000000000     
  0.71875000000000000       0.96875000000000000        0.0000000000000000     
  0.75000000000000000       0.96875000000000000        0.0000000000000000     
  0.62500000000000000        1.0000000000000000        0.0000000000000000     
  0.65625000000000000        1.0000000000000000        0.0000000000000000     
  0.68750000000000000        1.0000000000000000        0.0000000000000000     
  0.71875000000000000        1.0000000000000000        0.0000000000000000     
  0.75000000000000000        1.0000000000000000        0.0000000000000000     
  0.75000000000000000       0.87500000000000000        0.0000000000000000     
  0.78125000000000000       0.87500000000000000        0.0000000000000000     
  0.81250000000000000       0.87500000000000000        0.0000000000000000     
  0.84375000000000000       0.87500000000000000        0.0000000000000000     
  0.87500000000000000       0.87500000000000000        0.0000000000000000     
  0.75000000000000000       0.90625000000000000        0.0000000000000000     
  0.78125000000000000       0.90625000000000000        0.0000000000000000     
  0.81250000000000000       0.90625000000000000        0.0000000000000000     
  0.84375000000000000       0.90625000000000000        0.0000000000000000     
  0.87500000000000000       0.90625000000000000        0.0000000000000000     
  0.75000000000000000       0.93750000000000000        0.0000000000000000     
  0.78125000000000000       0.93750000000000000        0.0000000000000000     
  0.81250000000000000       0.93750000000000000        0.0000000000000000     
  0.84375000000000000       0.93750000000000000        0.0000000000000000     
  0.87500000000000000       0.93750000000000000        0.0000000000000000     
  0.75000000000000000       0.96875000000000000        0.0000000000000000     
  0.78125000000000000       0.96875000000000000        0.0000000000000000     
  0.81250000000000000       0.96875000000000000        0.0000000000000000     
  0.84375000000000000       0.96875000000000000        0.0000000000000000     
  0.87500000000000000       0.96875000000000000        0.0000000000000000     
  0.75000000000000000        1.0000000000000000        0.0000000000000000     
  0.78125000000000000        1.0000000000000000        0.0000000000000000     
  0.81250000000000000        1.0000000000000000        0.0000000000000000     
  0.84375000000000000        1.0000000000000000        0.0000000000000000     
  0.87500000000000000        1.0000000000000000        0.0000000000000000     
  0.87500000000000000       0.87500000000000000        0.0000000000000000     
  0.90625000000000000       0.87500000000000000        0.0000000000000000     
  0.93750000000000000       0.87500000000000000        0.0000000000000000     
  0.96875000000000000       0.87500000000000000        0.0000000000000000     
   1.0000000000000000       0.87500000000000000        0.0000000000000000     
  0.87500000000000000       0.90625000000000000        0.0000000000000000     
  0.90625000000000000       0.90625000000000000        0.0000000000000000     
  0.93750000000000000       0.90625000000000000        0.0000000000000000     
  0.96875000000000000       0.90625000000000000        0.0000000000000000     
   1.0000000000000000       0.90625000000000000        0.0000000000000000     
  0.87500000000000000       0.93750000000000000        0.0000000000000000     
  0.90625000000000000       0.93750000000000000        0.0000000000000000     
  0.93750000000000000       0.93750000000000000        0.0000000000000000     
  0.96875000000000000       0.93750000000000000        0.0000000000000000     
   1.0000000000000000       0.93750000000000000        0.0000000000000000     
  0.87500000000000000       0.96875000000000000        0.0000000000000000     
  0.90625000000000000       0.96875000000000000        0.0000000000000000     
  0.93750000000000000       0.96875000000000000        0.0000000000000000     
  0.96875000000000000       0.96875000000000000        0.0000000000000000     
   1.0000000000000000       0.96875000000000000        0.0000000000000000     
  0.87500000000000000        1.0000000000000000        0.0000000000000000     
  0.90625000000000000        1.0000000000000000        0.0000000000000000     
  0.93750000000000000        1.0000000000000000        0.0000000000000000     
  0.96875000000000000        1.0000000000000000        0.0000000000000000     
   1.0000000000000000        1.0000000000000000        0.0000000000000000     
 </DataArray>
 </Points>
 <Cells>
 <DataArray  type="Int32"  Name="connectivity"  format="ascii">
           0           1           6           5
           1           2           7           6
           2           3           8           7
           3           4           9           8
           5           6          11          10
           6           7          12          11
           7           8          13          12
           8           9          14          13
          10          11          16          15
          11          12          17          16
          12          13          18          17
          13          14          19          18
          15          16          21          20
          16          17          22          21
          17          18          23          22
          18          19          24          23
          25          26          31          30
          26          27          32          31
          27          28          33          32
          28          29          34          33
          30          31          36          35
          31          32          37          36
          32          33          38          37
          33          34          39          38
          35          36          41          40
          36          37          42          41
          37          38          43          42
          38          39          44          43
          40          41          46          45
          41          42          47          46
          42          43          48          47
          43          44          49          48
          50          51          56          55
          51          52          57          56
          52          53          58          57
          53          54          59          58
          55          56          61          60
          56          57          62          61
          57          58          63          62
          58          59          64          63
          60          61          66          65
          61          62          67          66
          62          63          68          67
          63          64          69          68
          65          66          71          70
          66          67          72          71
          67          68          73          72
          68          69          74          73
          75          76          81          80
          76          77          82          81
          77          78          83          82
          78          79          84          83
          80          81          86          85
          81          82          87          86
          82          83          88          87
          83          84          89          88
          85          86          91          90
          86          87          92          91
          87          88          93          92
          88          89          94          93
          90          91          96          95
          91          92          97          96
          92          93          98          97
          93          94          99          98
         100         101         106         105
         101         102         107         106
         102         103         108         107
         103         104         109         108
         105         106         111         110
         106         107         112         111
         107         108         113         112
         108         109         114         113
         110         111         116         115
         111         112         117         116
         112         113         118         117
         113         114         119         118
         115         116         121         120
         116         117         122         121
         117         118         123         122
         118         119         124         123
         125         126         131         130
         126         127         132         131
         127         128         133         132
         128         129         134         133
         130         131         136         135
         131         132         137         136
         132         133         138         137
         133         134         139         138
         135         136         141         140
         136         137         142         141
         137         138         143         142
         138         139         144         143
         140         141         146         145
         141         142         147         146
         142         143         148         147
         143         144         149         148
         150         151         156         155
         151         152         157         156
         152         153         158         157
         153         154         159         158
         155         156         161         160
         156         157         162         161
         157         158         163         162
         158         159         164         163
         160         161         166         165
         161         162         167         166
         162         163         168         167
         163         164         169         168
         165         166         171         170
         166         167         172         171
         167         168         173         172
         168         169         174         173
         175         176         181         180
         176         177         182         181
         177         178         183         182
         178         179         184         183
         180         181         186         185
         181         182         187         186
         182         183         188         187
         183         184         189         188
         185         186         191         190
         186         187         192         191
         187         188         193         192
         188         189         194         193
         190         191         196         195
         191         192         197         196
         192         193         198         197
         193         194         199         198
         200         201         206         205
         201         202         207         206
         202         203         208         207
         203         204         209         208
         205         206         211         210
         206         207         212         211
         207         208         213         212
         208         209         214         213
         210         211         216         215
         211         212         217         216
         212         213         218         217
         213         214         219         218
         215         216         221         220
         216         217         222         221
         217         218         223         222
         218         219         224         223
         225         226         231         230
         226         227         232         231
         227         228         233         232
         228         229         234         233
         230         231         236         235
         231         232         237         236
         232         233         238         237
         233         234         239         238
         235         236         241         240
         236         237         242         241
         237         238         243         242
         238         239         244         243
         240         241         246         245
         241         242         247         246
         242         243         248         247
         243         244         249         248
         250         251         256         255
         251         252         257         256
         252         253         258         257
         253         254         259         258
         255         256         261         260
         256         257         262         261
         257         258         263         262
         258         259         264         263
         260         261         266         265
         261         262         267         266
         262         263         268         267
         263         264         269         268
         265         266         271         270
         266         267         272         271
         267         268         273         272
         268         269         274         273
         275         276         281         280
         276         277         282         281
         277         278         283         282
         278         279         284         283
         280         281         286         285
         281         282         287         286
         282         283         288         287
         283         284         289         288
         285         286         291         290
         286         287         292         291
         287         288         293         292
         288         289         294         293
         290         291         296         295
         291         292         297         296
         292         293         298         297
         293         294         299         298
         300         301         306         305
         301         302         307         306
         302         303         308         307
         303         304         309         308
         305         306         311         310
         306         307         312         311
         307         308         313         312
         308         309         314         313
         310         311         316         315
         311         312         317         316
         312         313         318         317
         313         314         319         318
         315         316         321         320
         316         317         322         321
         317         318         323         322
         318         319         324         323
         325         326         331         330
         326         327         332         331
         327         328         333         332
         328         329         334         333
         330         331         336         335
         331         332         337         336
         332         333         338         337
         333         334         339         338
         335         336         341         340
         336         337         342         341
         337         338         343         342
         338         339         344         343
         340         341         346         345
         341         342         347         346
         342         343         348         347
         343         344         349         348
         350         351         356         355
         351         352         357         356
         352         353         358         357
         353         354         359         358
         355         356         361         360
         356         357         362         361
         357         358         363         362
         358         359         364         363
         360         361         366         365
         361         362         367         366
         362         363         368         367
         363         364         369         368
         365         366         371         370
         366         367         372         371
         367         368         373         372
         368         369         374         373
         375         376         381         380
         376         377         382         381
         377         378         383         382
         378         379         384         383
         380         381         386         385
         381         382         387         386
         382         383         388         387
         383         384         389         388
         385         386         391         390
         386         387         392         391
         387         388         393         392
         388         389         394         393
         390         391         396         395
         391         392         397         396
         392         393         398         397
         393         394         399         398
         400         401         406         405
         401         402         407         406
         402         403         408         407
         403         404         409         408
         405         406         411         410
         406         407         412         411
         407         408         413         412
         408         409         414         413
         410         411         416         415
         411         412         417         416
         412         413         418         417
         413         414         419         418
         415         416         421         420
         416         417         422         421
         417         418         423         422
         418         419         424         423
         425         426         431         430
         426         427         432         431
         427         428         433         432
         428         429         434         433
         430         431         436         435
         431         432         437         436
         432         433         438         437
         433         434         439         438
         435         436         441         440
         436         437         442         441
         437         438         443         442
         438         439         444         443
         440         441         446         445
         441         442         447         446
         442         443         448         447
         443         444         449         448
         450         451         456         455
         451         452         457         456
         452         453         458         457
         453         454         459         458
         455         456         461         460
         456         457         462         461
         457         458         463         462
         458         459         464         463
         460         461         466         465
         461         462         467         466
         462         463         468         467
         463         464         469         468
         465         466         471         470
         466         467         472         471
         467         468         473         472
         468         469         474         473
         475         476         481         480
         476         477         482         481
         477         478         483         482
         478         479         484         483
         480         481         486         485
         481         482         487         486
         482         483         488         487
         483         484         489         488
         485         486         491         490
         486         487         492         491
         487         488         493         492
         488         489         494         493
         490         491         496         495
         491         492         497         496
         492         493         498         497
         493         494         499         498
         500         501         506         505
         501         502         507         506
         502         503         508         507
         503         504         509         508
         505         506         511         510
         506         507         512         511
         507         508         513         512
         508         509         514         513
         510         511         516         515
         511         512         517         516
         512         513         518         517
         513         514         519         518
         515         516         521         520
         516         517         522         521
         517         518         523         522
         518         519         524         523
         525         526         531         530
         526         527         532         531
         527         528         533         532
         528         529         534         533
         530         531         536         535
         531         532         537         536
         532         533         538         537
         533         534         539         538
         535         536         541         540
         536         537         542         541
         537         538         543         542
         538         539         544         543
         540         541         546         545
         541         542         547         546
         542         543         548         547
         543         544         549         548
         550         551         556         555
         551         552         557         556
         552         553         558         557
         553         554         559         558
         555         556         561         560
         556         557         562         561
         557         558         563         562
         558         559         564         563
         560         561         566         565
         561         562         567         566
         562         563         568         567
         563         564         569         568
         565         566         571         570
         566         567         572         571
         567         568         573         572
         568         569         574         573
         575         576         581         580
         576         577         582         581
         577         578         583         582
         578         579         584         583
         580         581         586         585
         581         582         587         586
         582         583         588         587
         583         584         589         588
         585         586         591         590
         586         587         592         591
         587         588         593         592
         588         589         594         593
         590         591         596         595
         591         592         597         596
         592         593         598         597
         593         594         599         598
         600         601         606         605
         601         602         607         606
         602         603         608         607
         603         604         609         608
         605         606         611         610
         606         607         612         611
         607         608         613         612
         608         609         614         613
         610         611         616         615
         611         612         617         616
         612         613         618         617
         613         614         619         618
         615         616         621         620
         616         617         622         621
         617         618         623         622
         618         619         624         623
         625         626         631         630
         626         627         632         631
         627         628         633         632
         628         629         634         633
         630         631         636         635
         631         632         637         636
         632         633         638         637
         633         634         639         638
         635         636         641         640
         636         637         642         641
         637         638         643         642
         638         639         644         643
         640         641         646         645
         641         642         647         646
         642         643         648         647
         643         644         649         648
         650         651         656         655
         651         652         657         656
         652         653         658         657
         653         654         659         658
         655         656         661         660
         656         657         662         661
         657         658         663         662
         658         659         664         663
         660         661         666         665
         661         662         667         666
         662         663         668         667
         663         664         669         668
         665         666         671         670
         666         667         672         671
         667         668         673         672
         668         669         674         673
         675         676         681         680
         676         677         682         681
         677         678         683         682
         678         679         684         683
         680         681         686         685
         681         682         687         686
         682         683         688         687
         683         684         689         688
         685         686         691         690
         686         687         692         691
         687         688         693         692
         688         689         694         693
         690         691         696         695
         691         692         697         696
         692         693         698         697
         693         694         699         698
         700         701         706         705
         701         702         707         706
         702         703         708         707
         703         704         709         708
         705         706         711         710
         706         707         712         711
         707         708         713         712
         708         709         714         713
         710         711         716         715
         711         712         717         716
         712         713         718         717
         713         714         719         718
         715         716         721         720
         716         717         722         721
         717         718         723         722
         718         719         724         723
         725         726         731         730
         726         727         732         731
         727         728         733         732
         728         729         734         733
         730         731         736         735
         731         732         737         736
         732         733         738         737
         733         734         739         738
         735         736         741         740
         736         737         742         741
         737         738         743         742
         738         739         744         743
         740         741         746         745
         741         742         747         746
         742         743         748         747
         743         744         749         748
         750         751         756         755
         751         752         757         756
         752         753         758         757
         753         754         759         758
         755         756         761         760
         756         757         762         761
         757         758         763         762
         758         759         764         763
         760         761         766         765
         761         762         767         766
         762         763         768         767
         763         764         769         768
         765         766         771         770
         766         767         772         771
         767         768         773         772
         768         769         774         773
         775         776         781         780
         776         777         782         781
         777         778         783         782
         778         779         784         783
         780         781         786         785
         781         782         787         786
         782         783         788         787
         783         784         789         788
         785         786         791         790
         786         787         792         791
         787         788         793         792
         788         789         794         793
         790         791         796         795
         791         792         797         796
         792         793         798         797
         793         794         799         798
         800         801         806         805
         801         802         807         806
         802         803         808         807
         803         804         809         808
         805         806         811         810
         806         807         812         811
         807         808         813         812
         808         809         814         813
         810         811         816         815
         811         812         817         816
         812         813         818         817
         813         814         819         818
         815         816         821         820
         816         817         822         821
         817         818         823         822
         818         819         824         823
         825         826         831         830
         826         827         832         831
         827         828         833         832
         828         829         834         833
         830         831         836         835
         831         832         837         836
         832         833         838         837
         833         834         839         838
         835         836         841         840
         836         837         842         841
         837         838         843         842
         838         839         844         843
         840         841         846         845
         841         842         847         846
         842         843         848         847
         843         844         849         848
         850         851         856         855
         851         852         857         856
         852         853         858         857
         853         854         859         858
         855         856         861         860
         856         857         862         861
         857         858         863         862
         858         859         864         863
         860         861         866         865
         861         862         867         866
         862         863         868         867
         863         864         869         868
         865         866         871         870
         866         867         872         871
         867         868         873         872
         868         869         874         873
         875         876         881         880
         876         877         882         881
         877         878         883         882
         878         879         884         883
         880         881         886         885
         881         882         887         886
         882         883         888         887
         883         884         889         888
         885         886         891         890
         886         887         892         891
         887         888         893         892
         888         889         894         893
         890         891         896         895
         891         892         897         896
         892         893         898         897
         893         894         899         898
         900         901         906         905
         901         902         907         906
         902         903         908         907
         903         904         909         908
         905         906         911         910
         906         907         912         911
         907         908         913         912
         908         909         914         913
         910         911         916         915
         911         912         917         916
         912         913         918         917
         913         914         919         918
         915         916         921         920
         916         917         922         921
         917         918         923         922
         918         919         924         923
         925         926         931         930
         926         927         932         931
         927         928         933         932
         928         929         934         933
         930         931         936         935
         931         932         937         936
         932         933         938         937
         933         934         939         938
         935         936         941         940
         936         937         942         941
         937         938         943         942
         938         939         944         943
         940         941         946         945
         941         942         947         946
         942         943         948         947
         943         944         949         948
         950         951         956         955
         951         952         957         956
         952         953         958         957
         953         954         959         958
         955         956         961         960
         956         957         962         961
         957         958         963         962
         958         959         964         963
         960         961         966         965
         961         962         967         966
         962         963         968         967
         963         964         969         968
         965         966         971         970
         966         967         972         971
         967         968         973         972
         968         969         974         973
         975         976         981         980
         976         977         982         981
         977         978         983         982
         978         979         984         983
         980         981         986         985
         981         982         987         986
         982         983         988         987
         983         984         989         988
         985         986         991         990
         986         987         992         991
         987         988         993         992
         988         989         994         993
         990         991         996         995
         991         992         997         996
         992         993         998         997
         993         994         999         998
        1000        1001        1006        1005
        1001        1002        1007        1006
        1002        1003        1008        1007
        1003        1004        1009        1008
        1005        1006        1011        1010
        1006        1007        1012        1011
        1007        1008        1013        1012
        1008        1009        1014        1013
        1010        1011        1016        1015
        1011        1012        1017        1016
        1012        1013        1018        1017
        1013        1014        1019        1018
        1015        1016        1021        1020
        1016        1017        1022        1021
        1017        1018        1023        1022
        1018        1019        1024        1023
        1025        1026        1031        1030
        1026        1027        1032        1031
        1027        1028        1033        1032
        1028        1029        1034        1033
        1030        1031        1036        1035
        1031        1032        1037        1036
        1032        1033        1038        1037
        1033        1034        1039        1038
        1035        1036        1041        1040
        1036        1037        1042        1041
        1037        1038        1043        1042
        1038        1039        1044        1043
        1040        1041        1046        1045
        1041        1042        1047        1046
        1042        1043        1048        1047
        1043        1044        1049        1048
        1050        1051        1056        1055
        1051        1052        1057        1056
        1052        1053        1058        1057
        1053        1054        1059        1058
        1055        1056        1061        1060
        1056        1057        1062        1061
        1057        1058        1063        1062
        1058        1059        1064        1063
        1060        1061        1066        1065
        1061        1062        1067        1066
        1062        1063        1068        1067
        1063        1064        1069        1068
        1065        1066        1071        1070
        1066        1067        1072        1071
        1067        1068        1073        1072
        1068        1069        1074        1073
        1075        1076        1081        1080
        1076        1077        1082        1081
        1077        1078        1083        1082
        1078        1079        1084        1083
        1080        1081        1086        1085
        1081        1082        1087        1086
        1082        1083        1088        1087
        1083        1084        1089        1088
        1085        1086        1091        1090
        1086        1087        1092        1091
        1087        1088        1093        1092
        1088        1089        1094        1093
        1090        1091        1096        1095
        1091        1092        1097        1096
        1092        1093        1098        1097
        1093        1094        1099        1098
        1100        1101        1106        1105
        1101        1102        1107        1106
        1102        1103        1108        1107
        1103        1104        1109        1108
        1105        1106        1111        1110
        1106        1107        1112        1111
        1107        1108        1113        1112
        1108        1109        1114        1113
        1110        1111        1116        1115
        1111        1112        1117        1116
        1112        1113        1118        1117
        1113        1114        1119        1118
        1115        1116        1121        1120
        1116        1117        1122        1121
        1117        1118        1123        1122
        1118        1119        1124        1123
        1125        1126        1131        1130
        1126        1127        1132        1131
        1127        1128        1133        1132
        1128        1129        1134        1133
        1130        1131        1136        1135
        1131        1132        1137        1136
        1132        1133        1138        1137
        1133        1134        1139        1138
        1135        1136        1141        1140
        1136        1137        1142        1141
        1137        1138        1143        1142
        1138        1139        1144        1143
        1140        1141        1146        1145
        1141        1142        1147        1146
        1142        1143        1148        1147
        1143        1144        1149        1148
        1150        1151        1156        1155
        1151        1152        1157        1156
        1152        1153        1158        1157
        1153        1154        1159        1158
        1155        1156        1161        1160
        1156        1157        1162        1161
        1157        1158        1163        1162
        1158        1159        1164        1163
        1160        1161        1166        1165
        1161        1162        1167        1166
        1162        1163        1168        1167
        1163        1164        1169        1168
        1165        1166        1171        1170
        1166        1167        1172        1171
        1167        1168        1173        1172
        1168        1169        1174        1173
        1175        1176        1181        1180
        1176        1177        1182        1181
        1177        1178        1183        1182
        1178        1179        1184        1183
        1180        1181        1186        1185
        1181        1182        1187        1186
        1182        1183        1188        1187
        1183        1184        1189        1188
        1185        1186        1191        1190
        1186        1187        1192        1191
        1187        1188        1193        1192
        1188        1189        1194        1193
        1190        1191        1196        1195
        1191        1192        1197        1196
        1192        1193        1198        1197
        1193        1194        1199        1198
        1200        1201        1206        1205
        1201        1202        1207        1206
        1202        1203        1208        1207
        1203        1204        1209        1208
        1205        1206        1211        1210
        1206        1207        1212        1211
        1207        1208        1213        1212
        1208        1209        1214        1213
        1210        1211        1216        1215
        1211        1212        1217        1216
        1212        1213        1218        1217
        1213        1214        1219        1218
        1215        1216        1221        1220
        1216        1217        1222        1221
        1217        1218        1223        1222
        1218        1219        1224        1223
        1225        1226        1231        1230
        1226        1227        1232        1231
        1227        1228        1233        1232
        1228        1229        1234        1233
        1230        1231        1236        1235
        1231        1232        1237        1236
        1232        1233        1238        1237
        1233        1234        1239        1238
        1235        1236        1241        1240
        1236        1237        1242        1241
        1237        1238        1243        1242
        1238        1239        1244        1243
        1240        1241        1246        1245
        1241        1242        1247        1246
        1242        1243        1248        1247
        1243        1244        1249        1248
        1250        1251        1256        1255
        1251        1252        1257        1256
        1252        1253        1258        1257
        1253        1254        1259        1258
        1255        1256        1261        1260
        1256        1257        1262        1261
        1257        1258        1263        1262
        1258        1259        1264        1263
        1260        1261        1266        1265
        1261        1262        1267        1266
        1262        1263        1268        1267
        1263        1264        1269        1268
        1265        1266        1271        1270
        1266        1267        1272        1271
        1267        1268        1273        1272
        1268        1269        1274        1273
        1275        1276        1281        1280
        1276        1277        1282        1281
        1277        1278        1283        1282
        1278        1279        1284        1283
        1280        1281        1286        1285
        1281        1282        1287        1286
        1282        1283        1288        1287
        1283        1284        1289        1288
        1285        1286        1291        1290
        1286        1287        1292        1291
        1287        1288        1293        1292
        1288        1289        1294        1293
        1290        1291        1296        1295
        1291        1292        1297        1296
        1292        1293        1298        1297
        1293        1294        1299        1298
        1300        1301        1306        1305
        1301        1302        1307        1306
        1302        1303        1308        1307
        1303        1304        1309        1308
        1305        1306        1311        1310
        1306        1307        1312        1311
        1307        1308        1313        1312
        1308        1309        1314        1313
        1310        1311        1316        1315
        1311        1312        1317        1316
        1312        1313        1318        1317
        1313        1314        1319        1318
        1315        1316        1321        1320
        1316        1317        1322        1321
        1317        1318        1323        1322
        1318        1319        1324        1323
        1325        1326        1331        1330
        1326        1327        1332        1331
        1327        1328        1333        1332
        1328        1329        1334        1333
        1330        1331        1336        1335
        1331        1332        1337        1336
        1332        1333        1338        1337
        1333        1334        1339        1338
        1335        1336        1341        1340
        1336        1337        1342        1341
        1337        1338        1343        1342
        1338        1339        1344        1343
        1340        1341        1346        1345
        1341        1342        1347        1346
        1342        1343        1348        1347
        1343        1344        1349        1348
        1350        1351        1356        1355
        1351        1352        1357        1356
        1352        1353        1358        1357
        1353        1354        1359        1358
        1355        1356        1361        1360
        1356        1357        1362        1361
        1357        1358        1363        1362
        1358        1359        1364        1363
        1360        1361        1366        1365
        1361        1362        1367        1366
        1362        1363        1368        1367
        1363        1364        1369        1368
        1365        1366        1371        1370
        1366        1367        1372        1371
        1367        1368        1373        1372
        1368        1369        1374        1373
        1375        1376        1381        1380
        1376        1377        1382        1381
        1377        1378        1383        1382
        1378        1379        1384        1383
        1380        1381        1386        1385
        1381        1382        1387        1386
        1382        1383        1388        1387
        1383        1384        1389        1388
        1385        1386        1391        1390
        1386        1387        1392        1391
        1387        1388        1393        1392
        1388        1389        1394        1393
        1390        1391        1396        1395
        1391        1392        1397        1396
        1392        1393        1398        1397
        1393        1394        1399        1398
        1400        1401        1406        1405
        1401        1402        1407        1406
        1402        1403        1408        1407
        1403        1404        1409        1408
        1405        1406        1411        1410
        1406        1407        1412        1411
        1407        1408        1413        1412
        1408        1409        1414        1413
        1410        1411        1416        1415
        1411        1412        1417        1416
        1412        1413        1418        1417
        1413        1414        1419        1418
        1415        1416        1421        1420
        1416        1417        1422        1421
        1417        1418        1423        1422
        1418        1419        1424        1423
        1425        1426        1431        1430
        1426        1427        1432        1431
        1427        1428        1433        1432
        1428        1429        1434        1433
        1430        1431        1436        1435
        1431        1432        1437        1436
        1432        1433        1438        1437
        1433        1434        1439        1438
        1435        1436        1441        1440
        1436        1437        1442        1441
        1437        1438        1443        1442
        1438        1439        1444        1443
        1440        1441        1446        1445
        1441        1442        1447        1446
        1442        1443        1448        1447
        1443        1444        1449        1448
        1450        1451        1456        1455
        1451        1452        1457        1456
        1452        1453        1458        1457
        1453        1454        1459        1458
        1455        1456        1461        1460
        1456        1457        1462        1461
        1457        1458        1463        1462
        1458        1459        1464        1463
        1460        1461        1466        1465
        1461        1462        1467        1466
        1462        1463        1468        1467
        1463        1464        1469        1468
        1465        1466        1471        1470
        1466        1467        1472        1471
        1467        1468        1473        1472
        1468        1469        1474        1473
        1475        1476        1481        1480
        1476        1477        1482        1481
        1477        1478        1483        1482
        1478        1479        1484        1483
        1480        1481        1486        1485
        1481        1482        1487        1486
        1482        1483        1488        1487
        1483        1484        1489        1488
        1485        1486        1491        1490
        1486        1487        1492        1491
        1487        1488        1493        1492
        1488        1489        1494        1493
        1490        1491        1496        1495
        1491        1492        1497        1496
        1492        1493        1498        1497
        1493        1494        1499        1498
        1500        1501        1506        1505
        1501        1502        1507        1506
        1502        1503        1508        1507
        1503        1504        1509        1508
        1505        1506        1511        1510
        1506        1507        1512        1511
        1507        1508        1513        1512
        1508        1509        1514        1513
        1510        1511        1516        1515
        1511        1512        1517        1516
        1512        1513        1518        1517
        1513        1514        1519        1518
        1515        1516        1521        1520
        1516        1517        1522        1521
        1517        1518        1523        1522
        1518        1519        1524        1523
        1525        1526        1531        1530
        1526        1527        1532        1531
        1527        1528        1533        1532
        1528        1529        1534        1533
        1530        1531        1536        1535
        1531        1532        1537        1536
        1532        1533        1538        1537
        1533        1534        1539        1538
        1535        1536        1541        1540
        1536        1537        1542        1541
        1537        1538        1543        1542
        1538        1539        1544        1543
        1540        1541        1546        1545
        1541        1542        1547        1546
        1542        1543        1548        1547
        1543        1544        1549        1548
        1550        1551        1556        1555
        1551        1552        1557        1556
        1552        1553        1558        1557
        1553        1554        1559        1558
        1555        1556        1561        1560
        1556        1557        1562        1561
        1557        1558        1563        1562
        1558        1559        1564        1563
        1560        1561        1566        1565
        1561        1562        1567        1566
        1562        1563        1568        1567
        1563        1564        1569        1568
        1565        1566        1571        1570
        1566        1567        1572        1571
        1567        1568        1573        1572
        1568        1569        1574        1573
        1575        1576        1581        1580
        1576        1577        1582        1581
        1577        1578        1583        1582
        1578        1579        1584        1583
        1580        1581        1586        1585
        1581        1582        1587        1586
        1582        1583        1588        1587
        1583        1584        1589        1588
        1585        1586        1591        1590
        1586        1587        1592        1591
        1587        1588        1593        1592
        1588        1589        1594        1593
        1590        1591        1596        1595
        1591        1592        1597        1596
        1592        1593        1598        1597
        1593        1594        1599        1598
 </DataArray>
 <DataArray  type="Int32"  Name="offsets"  format="ascii"> 
           4
           8
          12
          16
          20
          24
          28
          32
          36
          40
          44
          48
          52
          56
          60
          64
          68
          72
          76
          80
          84
          88
          92
          96
         100
         104
         108
         112
         116
         120
         124
         128
         132
         136
         140
         144
         148
         152
         156
         160
         164
         168
         172
         176
         180
         184
         188
         192
         196
         200
         204
         208
         212
         216
         220
         224
         228
         232
         236
         240
         244
         248
         252
         256
         260
         264
         268
         272
         276
         280
         284
         288
         292
         296
         300
         304
         308
         312
         316
         320
         324
         328
         332
         336
         340
         344
         348
         352
         356
         360
         364
         368
         372
         376
         380
         384
         388
         392
         396
         400
         404
         408
         412
         416
         420
         424
         428
         432
         436
         440
         444
         448
         452
         456
         460
         464
         468
         472
         476
         480
         484
         488
         492
         496
         500
         504
         508
         512
         516
         520
         524
         528
         532
         536
         540
         544
         548
         552
         556
         560
         564
         568
         572
         576
         580
         584
         588
         592
         596
         600
         604
         608
         612
         616
         620
         624
         628
         632
         636
         640
         644
         648
         652
         656
         660
         664
         668
         672
         676
         680
         684
         688
         692
         696
         700
         704
         708
         712
         716
         720
         724
         728
         732
         736
         740
         744
         748
         752
         756
         760
         764
         768
         772
         776
         780
         784
         788
         792
         796
         800
         804
         808
         812
         816
         820
         824
         828
         832
         836
         840
         844
         848
         852
         856
         860
         864
         868
         872
         876
         880
         884
         888
         892
         896
         900
         904
         908
         912
         916
         920
         924
         928
         932
         936
         940
         944
         948
         952
         956
         960
         964
         968
         972
         976
         980
         984
         988
         992
         996
        1000
        1004
        1008
        1012
        1016
        1020
        1024
        1028
        1032
        1036
        1040
        1044
        1048
        1052
        1056
        1060
        1064
        1068
        1072
        1076
        1080
        1084
        1088
        1092
        1096
        1100
        1104
        1108
        1112
        1116
        1120
        1124
        1128
        1132
        1136
        1140
        1144
        1148
        1152
        1156
        1160
        1164
        1168
        1172
        1176
        1180
        1184
        1188
        1192
        1196
        1200
        1204
        1208
        1212
        1216
        1220
        1224
        1228
        1232
        1236
        1240
        1244
        1248
        1252
        1256
        1260
        1264
        1268
        1272
        1276
        1280
        1284
        1288
        1292
        1296
        1300
        1304
        1308
        1312
        1316
        1320
        1324
        1328
        1332
        1336
        1340
        1344
        1348
        1352
        1356
        1360
        1364
        1368
        1372
        1376
        1380
        1384
        1388
        1392
        1396
        1400
        1404
        1408
        1412
        1416
        1420
        1424
        1428
        1432
        1436
        1440
        1444
        1448
        1452
        1456
        1460
        1464
        1468
        1472
        1476
        1480
        1484
        1488
        1492
        1496
        1500
        1504
        1508
        1512
        1516
        1520
        1524
        1528
        1532
        1536
        1540
        1544
        1548
        1552
        1556
        1560
        1564
        1568
        1572
        1576
        1580
        1584
        1588
        1592
        1596
        1600
        1604
        1608
        1612
        1616
        1620
        1624
        1628
        1632
        1636
        1640
        1644
        1648
        1652
        1656
        1660
        1664
        1668
        1672
        1676
        1680
        1684
        1688
        1692
        1696
        1700
        1704
        1708
        1712
        1716
        1720
        1724
        1728
        1732
        1736
        1740
        1744
        1748
        1752
        1756
        1760
        1764
        1768
        1772
        1776
        1780
        1784
        1788
        1792
        1796
        1800
        1804
        1808
        1812
        1816
        1820
        1824
        1828
        1832
        1836
        1840
        1844
        1848
        1852
        1856
        1860
        1864
        1868
        1872
        1876
        1880
        1884
        1888
        1892
        1896
        1900
        1904
        1908
        1912
        1916
        1920
        1924
        1928
        1932
        1936
        1940
        1944
        1948
        1952
        1956
        1960
        1964
        1968
        1972
        1976
        1980
        1984
        1988
        1992
        1996
        2000
        2004
        2008
        2012
        2016
        2020
        2024
        2028
        2032
        2036
        2040
        2044
        2048
        2052
        2056
        2060
        2064
        2068
        2072
        2076
        2080
        2084
        2088
        2092
        2096
        2100
        2104
        2108
        2112
        2116
        2120
        2124
        2128
        2132
        2136
        2140
        2144
        2148
        2152
        2156
        2160
        2164
        2168
        2172
        2176
        2180
        2184
        2188
        2192
        2196
        2200
        2204
        2208
        2212
        2216
        2220
        2224
        2228
        2232
        2236
        2240
        2244
        2248
        2252
        2256
        2260
        2264
        2268
        2272
        2276
        2280
        2284
        2288
        2292
        2296
        2300
        2304
        2308
        2312
        2316
        2320
        2324
        2328
        2332
        2336
        2340
        2344
        2348
        2352
        2356
        2360
        2364
        2368
        2372
        2376
        2380
        2384
        2388
        2392
        2396
        2400
        2404
        2408
        2412
        2416
        2420
        2424
        2428
        2432
        2436
        2440
        2444
        2448
        2452
        2456
        2460
        2464
        2468
        2472
        2476
        2480
        2484
        2488
        2492
        2496
        2500
        2504
        2508
        2512
        2516
        2520
        2524
        2528
        2532
        2536
        2540
        2544
        2548
        2552
        2556
        2560
        2564
        2568
        2572
        2576
        2580
        2584
        2588
        2592
        2596
        2600
        2604
        2608
        2612
        2616
        2620
        2624
        2628
        2632
        2636
        2640
        2644
        2648
        2652
        2656
        2660
        2664
        2668
        2672
        2676
        2680
        2684
        2688
        2692
        2696
        2700
        2704
        2708
        2712
        2716
        2720
        2724
        2728
        2732
        2736
        2740
        2744
        2748
        2752
        2756
        2760
        2764
        2768
        2772
        2776
        2780
        2784
        2788
        2792
        2796
        2800
        2804
        2808
        2812
        2816
        2820
        2824
        2828
        2832
        2836
        2840
        2844
        2848
        2852
        2856
        2860
        2864
        2868
        2872
        2876
        2880
        2884
        2888
        2892
        2896
        2900
        2904
        2908
        2912
        2916
        2920
        2924
        2928
        2932
        2936
        2940
        2944
        2948
        2952
        2956
        2960
        2964
        2968
        2972
        2976
        2980
        2984
        2988
        2992
        2996
        3000
        3004
        3008
        3012
        3016
        3020
        3024
        3028
        3032
        3036
        3040
        3044
        3048
        3052
        3056
        3060
        3064
        3068
        3072
        3076
        3080
        3084
        3088
        3092
        3096
        3100
        3104
        3108
        3112
        3116
        3120
        3124
        3128
        3132
        3136
        3140
        3144
        3148
        3152
        3156
        3160
        3164
        3168
        3172
        3176
        3180
        3184
        3188
        3192
        3196
        3200
        3204
        3208
        3212
        3216
        3220
        3224
        3228
        3232
        3236
        3240
        3244
        3248
        3252
        3256
        3260
        3264
        3268
        3272
        3276
        3280
        3284
        3288
        3292
        3296
        3300
        3304
        3308
        3312
        3316
        3320
        3324
        3328
        3332
        3336
        3340
        3344
        3348
        3352
        3356
        3360
        3364
        3368
        3372
        3376
        3380
        3384
        3388
        3392
        3396
        3400
        3404
        3408
        3412
        3416
        3420
        3424
        3428
        3432
        3436
        3440
        3444
        3448
        3452
        3456
        3460
        3464
        3468
        3472
        3476
        3480
        3484
        3488
        3492
        3496
        3500
        3504
        3508
        3512
        3516
        3520
        3524
        3528
        3532
        3536
        3540
        3544
        3548
        3552
        3556
        3560
        3564
        3568
        3572
        3576
        3580
        3584
        3588
        3592
        3596
        3600
        3604
        3608
        3612
        3616
        3620
        3624
        3628
        3632
        3636
        3640
        3644
        3648
        3652
        3656
        3660
        3664
        3668
        3672
        3676
        3680
        3684
        3688
        3692
        3696
        3700
        3704
        3708
        3712
        3716
        3720
        3724
        3728
        3732
        3736
        3740
        3744
        3748
        3752
        3756
        3760
        3764
        3768
        3772
        3776
        3780
        3784
        3788
        3792
        3796
        3800
        3804
        3808
        3812
        3816
        3820
        3824
        3828
        3832
        3836
        3840
        3844
        3848
        3852
        3856
        3860
        3864
        3868
        3872
        3876
        3880
        3884
        3888
        3892
        3896
        3900
        3904
        3908
        3912
        3916
        3920
        3924
        3928
        3932
        3936
        3940
        3944
        3948
        3952
        3956
        3960
        3964
        3968
        3972
        3976
        3980
        3984
        3988
        3992
        3996
        4000
        4004
        4008
        4012
        4016
        4020
        4024
        4028
        4032
        4036
        4040
        4044
        4048
        4052
        4056
        4060
        4064
        4068
        4072
        4076
        4080
        4084
        4088
        4092
        4096
 </DataArray>
 <DataArray  type="UInt8"  Name="types"  format="ascii">
 9
 9
 9
 9
 9
 9
 9
 9
 9
 9
 9
 9
 9
 9
 9
 9
 9
 9
 9
 9
 9
 9
 9
 9
 9
 9
 9
 9
 9
 9
 9
 9
 9
 9
 9
 9
 9
 9
 9
 9
 9
 9
 9
 9
 9
 9
 9
 9
 9
 9
 9
 9
 9
 9
 9
 9
 9
 9
 9
 9
 9
 9
 9
 9
 9
 9
 9
 9
 9
 9
 9
 9
 9
 9
 9
 9
 9
 9
 9
 9
 9
 9
 9
 9
 9
 9
 9
 9
 9
 9
 9
 9
 9
 9
 9
 9
 9
 9
 9
 9
 9
 9
 9
 9
 9
 9
 9
 9
 9
 9
 9
 9
 9
 9
 9
 9
 9
 9
 9
 9
 9
 9
 9
 9
 9
 9
 9
 9
 9
 9
 9
 9
 9
 9
 9
 9
 9
 9
 9
 9
 9
 9
 9
 9
 9
 9
 9
 9
 9
 9
 9
 9
 9
 9
 9
 9
 9
 9
 9
 9
 9
 9
 9
 9
 9
 9
 9
 9
 9
 9
 9
 9
 9
 9
 9
 9
 9
 9
 9
 9
 9
 9
 9
 9
 9
 9
 9
 9
 9
 9
 9
 9
 9
 9
 9
 9
 9
 9
 9
 9
 9
 9
 9
 9
 9
 9
 9
 9
 9
 9
 9
 9
 9
 9
 9
 9
 9
 9
 9
 9
 9
 9
 9
 9
 9
 9
 9
 9
 9
 9
 9
 9
 9
 9
 9
 9
 9
 9
 9
 9
 9
 9
 9
 9
 9
 9
 9
 9
 9
 9
 9
 9
 9
 9
 9
 9
 9
 9
 9
 9
 9
 9
 9
 9
 9
 9
 9
 9
 9
 9
 9
 9
 9
 9
 9
 9
 9
 9
 9
 9
 9
 9
 9
 9
 9
 9
 9
 9
 9
 9
 9
 9
 9
 9
 9
 9
 9
 9
 9
 9
 9
 9
 9
 9
 9
 9
 9
 9
 9
 9
 9
 9
 9
 9
 9
 9
 9
 9
 9
 9
 9
 9
 9
 9
 9
 9
 9
 9
 9
 9
 9
 9
 9
 9
 9
 9
 9
 9
 9
 9
 9
 9
 9
 9
 9
 9
 9
 9
 9
 9
 9
 9
 9
 9
 9
 9
 9
 9
 9
 9
 9
 9
 9
 9
 9
 9
 9
 9
 9
 9
 9
 9
 9
 9
 9
 9
 9
 9
 9
 9
 9
 9
 9
 9
 9
 9
 9
 9
 9
 9
 9
 9
 9
 9
 9
 9
 9
 9
 9
 9
 9
 9
 9
 9
 9
 9
 9
 9
 9
 9
 9
 9
 9
 9
 9
 9
 9
 9
 9
 9
 9
 9
 9
 9
 9
 9
 9
 9
 9
 9
 9
 9
 9
 9
 9
 9
 9
 9
 9
 9
 9
 9
 9
 9
 9
 9
 9
 9
 9
 9
 9
 9
 9
 9
 9
 9
 9
 9
 9
 9
 9
 9
 9
 9
 9
 9
 9
 9
 9
 9
 9
 9
 9
 9
 9
 9
 9
 9
 9
 9
 9
 9
 9
 9
 9
 9
 9
 9
 9
 9
 9
 9
 9
 9
 9
 9
 9
 9
 9
 9
 9
 9
 9
 9
 9
 9
 9
 9
 9
 9
 9
 9
 9
 9
 9
 9
 9
 9
 9
 9
 9
 9
 9
 9
 9
 9
 9
 9
 9
 9
 9
 9
 9
 9
 9
 9
 9
 9
 9
 9
 9
 9
 9
 9
 9
 9
 9
 9
 9
 9
 9
 9
 9
 9
 9
 9
 9
 9
 9
 9
 9
 9
 9
 9
 9
 9
 9
 9
 9
 9
 9
 9
 9
 9
 9
 9
 9
 9
 9
 9
 9
 9
 9
 9
 9
 9
 9
 9
 9
 9
 9
 9
 9
 9
 9
 9
 9
 9
 9
 9
 9
 9
 9
 9
 9
 9
 9
 9
 9
 9
 9
 9
 9
 9
 9
 9
 9
 9
 9
 9
 9
 9
 9
 9
 9
 9
 9
 9
 9
 9
 9
 9
 9
 9
 9
 9
 9
 9
 9
 9
 9
 9
 9
 9
 9
 9
 9
 9
 9
 9
 9
 9
 9
 9
 9
 9
 9
 9
 9
 9
 9
 9
 9
 9
 9
 9
 9
 9
 9
 9
 9
 9
 9
 9
 9
 9
 9
 9
 9
 9
 9
 9
 9
 9
 9
 9
 9
 9
 9
 9
 9
 9
 9
 9
 9
 9
 9
 9
 9
 9
 9
 9
 9
 9
 9
 9
 9
 9
 9
 9
 9
 9
 9
 9
 9
 9
 9
 9
 9
 9
 9
 9
 9
 9
 9
 9
 9
 9
 9
 9
 9
 9
 9
 9
 9
 9
 9
 9
 9
 9
 9
 9
 9
 9
 9
 9
 9
 9
 9
 9
 9
 9
 9
 9
 9
 9
 9
 9
 9
 9
 9
 9
 9
 9
 9
 9
 9
 9
 9
 9
 9
 9
 9
 9
 9
 9
 9
 9
 9
 9
 9
 9
 9
 9
 9
 9
 9
 9
 9
 9
 9
 9
 9
 9
 9
 9
 9
 9
 9
 9
 9
 9
 9
 9
 9
 9
 9
 9
 9
 9
 9
 9
 9
 9
 9
 9
 9
 9
 9
 9
 9
 9
 9
 9
 9
 9
 9
 9
 9
 9
 9
 9
 9
 9
 9
 9
 9
 9
 9
 9
 9
 9
 9
 9
 9
 9
 9
 9
 9
 9
 9
 9
 9
 9
 9
 9
 9
 9
 9
 9
 9
 9
 9
 9
 9
 9
 9
 9
 9
 9
 9
 9
 9
 9
 9
 9
 9
 9
 9
 9
 9
 9
 9
 9
 9
 9
 9
 9
 9
 9
 9
 9
 9
 9
 9
 9
 9
 9
 9
 9
 9
 9
 9
 9
 9
 9
 9
 9
 9
 9
 9
 9
 9
 9
 9
 9
 9
 9
 9
 9
 9
 9
 9
 9
 9
 9
 9
 9
 9
 9
 9
 9
 9
 9
 9
 9
 9
 9
 9
 9
 9
 9
 9
 9
 9
 9
 9
 9
 9
 9
 9
 9
 9
 9
 9
 9
 9
 9
 9
 9
 9
 9
 9
 9
 9
 9
 9
 9
 9
 9
 9
 9
 9
 9
 9
 9
 9
 9
 9
 9
 9
 9
 9
 9
 9
 9
 9
 9
 9
 9
 9
 9
 9
 9
 9
 9
 9
 9
 9
 9
 9
 9
 9
 9
 9
 9
 9
 9
 9
 9
 9
 9
 9
 9
 9
 9
 9
 9
 9
 9
 9
 9
 9
 9
 </DataArray>
 </Cells> 
 <PointData>
 <DataArray  type="Float64" Name="disp" NumberOfComponents="3" format="ascii">
   0.0000000000000000        0.0000000000000000        0.0000000000000000     
   6.0960012491198612E-003   3.7904582561905818E-003   0.0000000000000000     
   1.1666026534746049E-002   7.3239134727733340E-003   0.0000000000000000     
   1.6710075856878566E-002   1.0600365649748256E-002   0.0000000000000000     
   2.1228149215517408E-002   1.3619814787115350E-002   0.0000000000000000     
   0.0000000000000000        0.0000000000000000        0.0000000000000000     
   4.8911694039522145E-003   3.0221871241992528E-003   0.0000000000000000     
   9.5736296760733329E-003   6.0606273570261906E-003   0.0000000000000000     
   1.4047380816363350E-002   9.1153206984808128E-003   0.0000000000000000     
   1.8312422824822268E-002   1.2186267148563117E-002   0.0000000000000000     
   0.0000000000000000        0.0000000000000000        0.0000000000000000     
   3.9535719840936619E-003   2.4251696890435792E-003   0.0000000000000000     
   7.9106028086334060E-003   5.0630018742912116E-003   0.0000000000000000     
   1.1871092473619232E-002   7.9134965557428952E-003   0.0000000000000000     
   1.5835040979051140E-002   1.0976653733398635E-002   0.0000000000000000     
   0.0000000000000000        0.0000000000000000        0.0000000000000000     
   3.2832089895442006E-003   1.9994059507235620E-003   0.0000000000000000     
   6.6769459324262708E-003   4.3310370245683979E-003   0.0000000000000000     
   1.0181210828646212E-002   6.9948932215345089E-003   0.0000000000000000     
   1.3796003678204018E-002   9.9909745416218946E-003   0.0000000000000000     
   0.0000000000000000        0.0000000000000000        0.0000000000000000     
   2.8800804203038318E-003   1.7448959092392002E-003   0.0000000000000000     
   5.8726590474519266E-003   3.8647328078577508E-003   0.0000000000000000     
   8.9777358814442862E-003   6.3595106958556505E-003   0.0000000000000000     
   1.2195310922280907E-002   9.2292295732329006E-003   0.0000000000000000     
   2.1228149215517408E-002   1.3619814787115350E-002   0.0000000000000000     
   2.5433169541564719E-002   1.6612854125330173E-002   0.0000000000000000     
   2.9538059765922650E-002   1.9810076904848276E-002   0.0000000000000000     
   3.3542819888591195E-002   2.3211483125669667E-002   0.0000000000000000     
   3.7447449909570343E-002   2.6817072787794341E-002   0.0000000000000000     
   1.8312422824822268E-002   1.2186267148563117E-002   0.0000000000000000     
   2.2407016172469863E-002   1.5341809717096491E-002   0.0000000000000000     
   2.6369421330325910E-002   1.8650291413904310E-002   0.0000000000000000     
   3.0199638298390407E-002   2.2111712238986579E-002   0.0000000000000000     
   3.3897667076663356E-002   2.5726072192343293E-002   0.0000000000000000     
   1.5835040979051140E-002   1.0976653733398635E-002   0.0000000000000000     
   1.9730717430825821E-002   1.4211290967544424E-002   0.0000000000000000     
   2.3486390934839969E-002   1.7576225818466264E-002   0.0000000000000000     
   2.7102061491093590E-002   2.1071458286164163E-002   0.0000000000000000     
   3.0577729099586677E-002   2.4696988370638110E-002   0.0000000000000000     
   1.3796003678204018E-002   9.9909745416218946E-003   0.0000000000000000     
   1.7404273316632596E-002   1.3221297876673966E-002   0.0000000000000000     
   2.0888968579464831E-002   1.6587880118534144E-002   0.0000000000000000     
   2.4250089466700736E-002   2.0090721267202422E-002   0.0000000000000000     
   2.7487635978340304E-002   2.3729821322678799E-002   0.0000000000000000     
   1.2195310922280907E-002   9.2292295732329006E-003   0.0000000000000000     
   1.5427683829890180E-002   1.2371830444485123E-002   0.0000000000000000     
   1.8577154264200493E-002   1.5685254314107944E-002   0.0000000000000000     
   2.1643722225211850E-002   1.9169501182101357E-002   0.0000000000000000     
   2.4627387712924245E-002   2.2824571048465362E-002   0.0000000000000000     
   3.7447449909570343E-002   2.6817072787794341E-002   0.0000000000000000     
   4.1256033212865029E-002   3.0622152440211981E-002   0.0000000000000000     
   4.4972653182480150E-002   3.4622028631912258E-002   0.0000000000000000     
   4.8597309818415715E-002   3.8816701362895174E-002   0.0000000000000000     
   5.2130003120671731E-002   4.3206170633160727E-002   0.0000000000000000     
   3.3897667076663356E-002   2.5726072192343293E-002   0.0000000000000000     
   3.7486405778479615E-002   2.9522213481309373E-002   0.0000000000000000     
   4.0988752517174057E-002   3.3528978313219750E-002   0.0000000000000000     
   4.4404707292746676E-002   3.7746366688074413E-002   0.0000000000000000     
   4.7734270105197478E-002   4.2174378605873378E-002   0.0000000000000000     
   3.0577729099586677E-002   2.4696988370638110E-002   0.0000000000000000     
   3.3942564857878624E-002   2.8497404870392155E-002   0.0000000000000000     
   3.7225739863528846E-002   3.2517296583930322E-002   0.0000000000000000     
   4.0427254116537338E-002   3.6756663511252625E-002   0.0000000000000000     
   4.3547107616904092E-002   4.1215505652359055E-002   0.0000000000000000     
   2.7487635978340304E-002   2.3729821322678799E-002   0.0000000000000000     
   3.0624510451062060E-002   2.7547726607460309E-002   0.0000000000000000     
   3.3683615221544519E-002   3.1586983444043974E-002   0.0000000000000000     
   3.6664950289787689E-002   3.5847591832429783E-002   0.0000000000000000     
   3.9568515655791579E-002   4.0329551772617753E-002   0.0000000000000000     
   2.4627387712924245E-002   2.2824571048465362E-002   0.0000000000000000     
   2.7532242558029909E-002   2.6673178692513851E-002   0.0000000000000000     
   3.0362378591221078E-002   3.0738038893560703E-002   0.0000000000000000     
   3.3117795812497755E-002   3.5019151651605906E-002   0.0000000000000000     
   3.5798494221859933E-002   3.9516516966649484E-002   0.0000000000000000     
   5.2130003120671731E-002   4.3206170633160727E-002   0.0000000000000000     
   5.5568873179522443E-002   4.7795440436161581E-002   0.0000000000000000     
   5.8912060085242142E-002   5.2589514765350384E-002   0.0000000000000000     
   6.2159563837830820E-002   5.7588393620727145E-002   0.0000000000000000     
   6.5311384437288469E-002   6.2792077002291863E-002   0.0000000000000000     
   4.7734270105197478E-002   4.2174378605873378E-002   0.0000000000000000     
   5.0974181466959305E-002   4.6806485182605696E-002   0.0000000000000000     
   5.4121181890465025E-002   5.1636157534260430E-002   0.0000000000000000     
   5.7175271375714640E-002   5.6663395660837584E-002   0.0000000000000000     
   6.0136449922708154E-002   6.1888199562337154E-002   0.0000000000000000     
   4.3547107616904092E-002   4.1215505652359055E-002   0.0000000000000000     
   4.6581926475635249E-002   4.5881014060608925E-002   0.0000000000000000     
   4.9528336803736944E-002   5.0740379789361544E-002   0.0000000000000000     
   5.2386338601209184E-002   5.5793602838616882E-002   0.0000000000000000     
   5.5155931868051948E-002   6.1040683208374989E-002   0.0000000000000000     
   3.9568515655791579E-002   4.0329551772617753E-002   0.0000000000000000     
   4.2392108205550262E-002   4.5019027070171268E-002   0.0000000000000000     
   4.5133524825057891E-002   4.9902181530653698E-002   0.0000000000000000     
   4.7792765514314418E-002   5.4979015154065072E-002   0.0000000000000000     
   5.0369830273319871E-002   6.0249527940405355E-002   0.0000000000000000     
   3.5798494221859933E-002   3.9516516966649484E-002   0.0000000000000000     
   3.8404726656704372E-002   4.4220524211292730E-002   0.0000000000000000     
   4.0936745954427860E-002   4.9121562758136936E-002   0.0000000000000000     
   4.3394552115030370E-002   5.4219632607182114E-002   0.0000000000000000     
   4.5778145138511903E-002   5.9514733758428265E-002   0.0000000000000000     
   6.5311384437288469E-002   6.2792077002291863E-002   0.0000000000000000     
   6.8368130169766061E-002   6.8186857329889522E-002   0.0000000000000000     
   7.1330409321414573E-002   7.3759027023365148E-002   0.0000000000000000     
   7.4198221892233948E-002   7.9508586082718727E-002   0.0000000000000000     
   7.6971567882224243E-002   8.5435534507950273E-002   0.0000000000000000     
   6.0136449922708154E-002   6.1888199562337154E-002   0.0000000000000000     
   6.3006500118599221E-002   6.7302085722911187E-002   0.0000000000000000     
   6.5787204550541503E-002   7.2896570626711718E-002   0.0000000000000000     
   6.8478563218535002E-002   7.8671654273738734E-002   0.0000000000000000     
   7.1080576122579717E-002   8.4627336663992248E-002   0.0000000000000000     
   5.5155931868051948E-002   6.1040683208374989E-002   0.0000000000000000     
   5.7839167250960097E-002   6.6475864395677445E-002   0.0000000000000000     
   6.0438095396628450E-002   7.2093389897565835E-002   0.0000000000000000     
   6.2952716305057027E-002   7.7893259714040194E-002   0.0000000000000000     
   6.5383029976245802E-002   8.3875473845100523E-002   0.0000000000000000     
   5.0369830273319871E-002   6.0249527940405355E-002   0.0000000000000000     
   5.2866131566848704E-002   6.5708193348188282E-002   0.0000000000000000     
   5.5283081859675433E-002   7.1349484835927512E-002   0.0000000000000000     
   5.7620681151800024E-002   7.7173402403623109E-002   0.0000000000000000     
   5.9878929443222491E-002   8.3179946051275044E-002   0.0000000000000000     
   4.5778145138511903E-002   5.9514733758428265E-002   0.0000000000000000     
   4.8087393066265076E-002   6.4999072580443712E-002   0.0000000000000000     
   5.0322163939682439E-002   7.0664855441796778E-002   0.0000000000000000     
   5.2482457758764006E-002   7.6512082342487492E-002   0.0000000000000000     
   5.4568274523509777E-002   8.2540753282515839E-002   0.0000000000000000     
   7.6971567882224243E-002   8.5435534507950273E-002   0.0000000000000000     
   7.9650227645222629E-002   9.1530757363899984E-002   0.0000000000000000     
   8.2233981535066308E-002   9.7785139715408143E-002   0.0000000000000000     
   8.4722829551755280E-002  0.10419868156247473        0.0000000000000000     
   8.7116771695289530E-002  0.11077138290509977        0.0000000000000000     
   7.1080576122579717E-002   8.4627336663992248E-002   0.0000000000000000     
   7.3593430133782861E-002   9.0751968619790083E-002   0.0000000000000000     
   7.6017312123251607E-002   9.7033900963450007E-002   0.0000000000000000     
   7.8352222090985968E-002  0.10347313369497205        0.0000000000000000     
   8.0598160036985916E-002  0.11006966681435616        0.0000000000000000     
   6.5383029976245802E-002   8.3875473845100523E-002   0.0000000000000000     
   6.7729631022953860E-002   9.0027013609918605E-002   0.0000000000000000     
   6.9993114057940245E-002   9.6334860327666264E-002   0.0000000000000000     
   7.2173479081205000E-002  0.10279901399834350        0.0000000000000000     
   7.4270726092748082E-002  0.10941947462195030        0.0000000000000000     
   5.9878929443222491E-002   8.3179946051275044E-002   0.0000000000000000     
   6.2058830312735631E-002   8.9355892334285550E-002   0.0000000000000000     
   6.4161387339132278E-002   9.5688017808056913E-002   0.0000000000000000     
   6.6186600522412389E-002  0.10217632247258912        0.0000000000000000     
   6.8134469862575972E-002  0.10882080632788216        0.0000000000000000     
   5.4568274523509777E-002   8.2540753282515839E-002   0.0000000000000000     
   5.6581028003128177E-002   8.8738604792890932E-002   0.0000000000000000     
   5.8522131966827616E-002   9.5093373404621956E-002   0.0000000000000000     
   6.0391586414608109E-002  0.10160505911770891        0.0000000000000000     
   6.2189391346469641E-002  0.10827366193215174        0.0000000000000000     
   8.7116771695289530E-002  0.11077138290509977        0.0000000000000000     
   8.9414211764436799E-002  0.11749009402161018        0.0000000000000000     
   9.1613553557964786E-002  0.12434166519033293        0.0000000000000000     
   9.3714797075873504E-002  0.13132609641126802        0.0000000000000000     
   9.5717942318162941E-002  0.13844338768441547        0.0000000000000000     
   8.0598160036985916E-002  0.11006966681435616        0.0000000000000000     
   8.2753169123052861E-002  0.11681184912156585        0.0000000000000000     
   8.4815292510988127E-002  0.12368802941656445        0.0000000000000000     
   8.6784530200791729E-002  0.13069820769935206        0.0000000000000000     
   8.8660882192463666E-002  0.13784238396992859        0.0000000000000000     
   7.4270726092748082E-002  0.10941947462195030        0.0000000000000000     
   7.6282696139694836E-002  0.11618537614037791        0.0000000000000000     
   7.8207230269170605E-002  0.12308585249551757        0.0000000000000000     
   8.0044328481175403E-002  0.13012090368736923        0.0000000000000000     
   8.1793990775709244E-002  0.13729052971593289        0.0000000000000000     
   6.8134469862575972E-002  0.10882080632788216        0.0000000000000000     
   7.0002792814362710E-002  0.11561067507804640        0.0000000000000000     
   7.1789366832512233E-002  0.12253513442719216        0.0000000000000000     
   7.3494191917024554E-002  0.12959418437531950        0.0000000000000000     
   7.5117268067899645E-002  0.13678782492242839        0.0000000000000000     
   6.2189391346469641E-002  0.10827366193215174        0.0000000000000000     
   6.3913459147056512E-002  0.11508774593457129        0.0000000000000000     
   6.5561702201013011E-002  0.12203587521158836        0.0000000000000000     
   6.7134120508339140E-002  0.12911804976320290        0.0000000000000000     
   6.8630714069034898E-002  0.13633426958941497        0.0000000000000000     
   9.5717942318162941E-002  0.13844338768441547        0.0000000000000000     
   9.7633128751600046E-002  0.14570531666543696        0.0000000000000000     
   9.9470495842951728E-002  0.15312366100999428        0.0000000000000000     
  0.10123004359221799       0.16069842071808735        0.0000000000000000     
  0.10291177199939884       0.16842959578971625        0.0000000000000000     
   8.8660882192463666E-002  0.13784238396992859        0.0000000000000000     
   9.0452000933335330E-002  0.14511462478975989        0.0000000000000000     
   9.2165538870738084E-002  0.15250899672031171        0.0000000000000000     
   9.3801496004671914E-002  0.16002549976158406        0.0000000000000000     
   9.5359872335136861E-002  0.16766413391357693        0.0000000000000000     
   8.1793990775709244E-002  0.13729052971593289        0.0000000000000000     
   8.3461804734201908E-002  0.14457767879507238        0.0000000000000000     
   8.5053357938083191E-002  0.15196529913865151        0.0000000000000000     
   8.6568650387353147E-002  0.15945339074667025        0.0000000000000000     
   8.8007682082011734E-002  0.16704195361912857        0.0000000000000000     
   7.5117268067899645E-002  0.13678782492242839        0.0000000000000000     
   7.6662540154199738E-002  0.14409447868137448        0.0000000000000000     
   7.8133953044987089E-002  0.15149256826501367        0.0000000000000000     
   7.9531506740261645E-002  0.15898209367334584        0.0000000000000000     
   8.0855201240023447E-002  0.16656305490637113        0.0000000000000000     
   6.8630714069034898E-002  0.13633426958941497        0.0000000000000000     
   7.0054207193328902E-002  0.14366502444866619        0.0000000000000000     
   7.1407324191449753E-002  0.15109080409939818        0.0000000000000000     
   7.2690065063397452E-002  0.15861160854161097        0.0000000000000000     
   7.3902429809172013E-002  0.16622743777530458        0.0000000000000000     
   0.0000000000000000        0.0000000000000000        0.0000000000000000     
   2.8800804203038318E-003   1.7448959092392002E-003   0.0000000000000000     
   5.8726590474519266E-003   3.8647328078577508E-003   0.0000000000000000     
   8.9777358814442862E-003   6.3595106958556505E-003   0.0000000000000000     
   1.2195310922280907E-002   9.2292295732329006E-003   0.0000000000000000     
   0.0000000000000000        0.0000000000000000        0.0000000000000000     
   2.6103395136494365E-003   1.5889803883552154E-003   0.0000000000000000     
   5.2897540302455862E-003   3.5567789910987708E-003   0.0000000000000000     
   8.0382435497884496E-003   5.9033958082306661E-003   0.0000000000000000     
   1.0855808072278027E-002   8.6288308397508996E-003   0.0000000000000000     
   0.0000000000000000        0.0000000000000000        0.0000000000000000     
   2.3401395068578948E-003   1.4590002118363278E-003   0.0000000000000000     
   4.7202427573424599E-003   3.2998653412309605E-003   0.0000000000000000     
   7.1403097514536971E-003   5.5225953881838982E-003   0.0000000000000000     
   9.6003404891916028E-003   8.1271903526951399E-003   0.0000000000000000     
   0.0000000000000000        0.0000000000000000        0.0000000000000000     
   2.0694803999292077E-003   1.3549553796825377E-003   0.0000000000000000     
   4.1641252287425486E-003   3.0939918582543204E-003   0.0000000000000000     
   6.2839344864400242E-003   5.2171094357153468E-003   0.0000000000000000     
   8.4289081730216358E-003   7.7243081120656190E-003   0.0000000000000000     
   0.0000000000000000        0.0000000000000000        0.0000000000000000     
   1.7983621928633737E-003   1.2768458918938448E-003   0.0000000000000000     
   3.6214014444458519E-003   2.9391585421688496E-003   0.0000000000000000     
   5.4691177547474337E-003   4.9869379508250137E-003   0.0000000000000000     
   7.3415111237681210E-003   7.4201841178623378E-003   0.0000000000000000     
   1.2195310922280907E-002   9.2292295732329006E-003   0.0000000000000000     
   1.5427683829890180E-002   1.2371830444485123E-002   0.0000000000000000     
   1.8577154264200493E-002   1.5685254314107944E-002   0.0000000000000000     
   2.1643722225211850E-002   1.9169501182101357E-002   0.0000000000000000     
   2.4627387712924245E-002   2.2824571048465362E-002   0.0000000000000000     
   1.0855808072278027E-002   8.6288308397508996E-003   0.0000000000000000     
   1.3689141428643345E-002   1.1650843642359993E-002   0.0000000000000000     
   1.6484937449813428E-002   1.4887193772758463E-002   0.0000000000000000     
   1.9243196135788277E-002   1.8337881230946304E-002   0.0000000000000000     
   2.1963917486567900E-002   2.2002906016923521E-002   0.0000000000000000     
   9.6003404891916028E-003   8.1271903526951399E-003   0.0000000000000000     
   1.2076838570936851E-002   1.1046292441680677E-002   0.0000000000000000     
   1.4546307597070113E-002   1.4212543862056498E-002   0.0000000000000000     
   1.7008747567591392E-002   1.7625944613822605E-002   0.0000000000000000     
   1.9464158482500681E-002   2.1286494696978995E-002   0.0000000000000000     
   8.4289081730216358E-003   7.7243081120656190E-003   0.0000000000000000     
   1.0590775256770702E-002   1.0558176842447177E-002   0.0000000000000000     
   1.2761264705970549E-002   1.3661304582002055E-002   0.0000000000000000     
   1.4940376520621180E-002   1.7033691330730259E-002   0.0000000000000000     
   1.7128110700722586E-002   2.0675337088631784E-002   0.0000000000000000     
   7.3415111237681210E-003   7.4201841178623378E-003   0.0000000000000000     
   9.2309514861448928E-003   1.0186496844659488E-002   0.0000000000000000     
   1.1129808776514736E-002   1.3233475932595131E-002   0.0000000000000000     
   1.3038082994877643E-002   1.6561121381669267E-002   0.0000000000000000     
   1.4955774141233624E-002   2.0169433191881896E-002   0.0000000000000000     
   2.4627387712924245E-002   2.2824571048465362E-002   0.0000000000000000     
   2.7532242558029909E-002   2.6673178692513851E-002   0.0000000000000000     
   3.0362378591221078E-002   3.0738038893560703E-002   0.0000000000000000     
   3.3117795812497755E-002   3.5019151651605906E-002   0.0000000000000000     
   3.5798494221859933E-002   3.9516516966649484E-002   0.0000000000000000     
   2.1963917486567900E-002   2.2002906016923521E-002   0.0000000000000000     
   2.4630539916565785E-002   2.5880227468777425E-002   0.0000000000000000     
   2.7226501840195424E-002   2.9967804924595335E-002   0.0000000000000000     
   2.9751803257456841E-002   3.4265638384377253E-002   0.0000000000000000     
   3.2206444168350015E-002   3.8773727848123163E-002   0.0000000000000000     
   1.9464158482500681E-002   2.1286494696978995E-002   0.0000000000000000     
   2.1884181264453281E-002   2.5175339279475684E-002   0.0000000000000000     
   2.4240456836104481E-002   2.9273623529262705E-002   0.0000000000000000     
   2.6532985197454277E-002   3.3581347446340053E-002   0.0000000000000000     
   2.8761766348502690E-002   3.8098511030707716E-002   0.0000000000000000     
   1.7128110700722586E-002   2.0675337088631784E-002   0.0000000000000000     
   1.9293166601692398E-002   2.4558514124608639E-002   0.0000000000000000     
   2.1404243578948230E-002   2.8655494707562807E-002   0.0000000000000000     
   2.3461341632490078E-002   3.2966278837494305E-002   0.0000000000000000     
   2.5464460762317950E-002   3.7490866514403122E-002   0.0000000000000000     
   1.4955774141233624E-002   2.0169433191881896E-002   0.0000000000000000     
   1.6857495928283145E-002   2.4029752004176268E-002   0.0000000000000000     
   1.8717862068726679E-002   2.8113418459495648E-002   0.0000000000000000     
   2.0536872562564232E-002   3.2420432557840023E-002   0.0000000000000000     
   2.2314527409795802E-002   3.6950794299209409E-002   0.0000000000000000     
   3.5798494221859933E-002   3.9516516966649484E-002   0.0000000000000000     
   3.8404726656704372E-002   4.4220524211292730E-002   0.0000000000000000     
   4.0936745954427860E-002   4.9121562758136936E-002   0.0000000000000000     
   4.3394552115030370E-002   5.4219632607182114E-002   0.0000000000000000     
   4.5778145138511903E-002   5.9514733758428265E-002   0.0000000000000000     
   3.2206444168350015E-002   3.8773727848123163E-002   0.0000000000000000     
   3.4592833710091656E-002   4.3487678856340327E-002   0.0000000000000000     
   3.6913381019898432E-002   4.8403096949535984E-002   0.0000000000000000     
   3.9168086097770366E-002   5.3519982127710142E-002   0.0000000000000000     
   4.1356948943707457E-002   5.8838334390862793E-002   0.0000000000000000     
   2.8761766348502690E-002   3.8098511030707716E-002   0.0000000000000000     
   3.0929481246706168E-002   4.2822664377681091E-002   0.0000000000000000     
   3.3038810849521191E-002   4.7751357582575607E-002   0.0000000000000000     
   3.5089755156947768E-002   5.2884590645391243E-002   0.0000000000000000     
   3.7082314168985879E-002   5.8222363566128019E-002   0.0000000000000000     
   2.5464460762317950E-002   3.7490866514403122E-002   0.0000000000000000     
   2.7414669266547939E-002   4.2225480775315030E-002   0.0000000000000000     
   2.9313035443296141E-002   4.7166344657255804E-002   0.0000000000000000     
   3.1159559292562550E-002   5.2313458160225444E-002   0.0000000000000000     
   3.2954240814347183E-002   5.7666821284223957E-002   0.0000000000000000     
   2.2314527409795802E-002   3.6950794299209409E-002   0.0000000000000000     
   2.4048397769616956E-002   4.1696128049242144E-002   0.0000000000000000     
   2.5736054801223270E-002   4.6648058173576583E-002   0.0000000000000000     
   2.7377498504614736E-002   5.1806584672212733E-002   0.0000000000000000     
   2.8972728879791361E-002   5.7171707545150580E-002   0.0000000000000000     
   4.5778145138511903E-002   5.9514733758428265E-002   0.0000000000000000     
   4.8087393066265076E-002   6.4999072580443712E-002   0.0000000000000000     
   5.0322163939682439E-002   7.0664855441796778E-002   0.0000000000000000     
   5.2482457758764006E-002   7.6512082342487492E-002   0.0000000000000000     
   5.4568274523509777E-002   8.2540753282515839E-002   0.0000000000000000     
   4.1356948943707457E-002   5.8838334390862793E-002   0.0000000000000000     
   4.3478217580470539E-002   6.4347407818709804E-002   0.0000000000000000     
   4.5530140030820475E-002   7.0036456490967056E-002   0.0000000000000000     
   4.7512716294757250E-002   7.5905480407634549E-002   0.0000000000000000     
   4.9425946372280892E-002   8.1954479568712255E-002   0.0000000000000000     
   3.7082314168985879E-002   5.8222363566128019E-002   0.0000000000000000     
   3.9013870940726489E-002   6.3752104789252625E-002   0.0000000000000000     
   4.0881808527260560E-002   6.9461242759231753E-002   0.0000000000000000     
   4.2686126928588065E-002   7.5349777476065444E-002   0.0000000000000000     
   4.4426826144709046E-002   8.1417708939753641E-002   0.0000000000000000     
   3.2954240814347183E-002   5.7666821284223957E-002   0.0000000000000000     
   3.4694353147032911E-002   6.3213163492072164E-002   0.0000000000000000     
   3.6377169429002681E-002   6.8939214246590899E-002   0.0000000000000000     
   3.8002689660256453E-002   7.4844973547780191E-002   0.0000000000000000     
   3.9570913840794253E-002   8.0930441395640026E-002   0.0000000000000000     
   2.8972728879791361E-002   5.7171707545150580E-002   0.0000000000000000     
   3.0519664199389836E-002   6.2730583927168404E-002   0.0000000000000000     
   3.2016222736046845E-002   6.8470370953044479E-002   0.0000000000000000     
   3.3462404489762398E-002   7.4391068622778805E-002   0.0000000000000000     
   3.4858209460536499E-002   8.0492676936371382E-002   0.0000000000000000     
   5.4568274523509777E-002   8.2540753282515839E-002   0.0000000000000000     
   5.6581028003128177E-002   8.8738604792890932E-002   0.0000000000000000     
   5.8522131966827616E-002   9.5093373404621956E-002   0.0000000000000000     
   6.0391586414608109E-002  0.10160505911770891        0.0000000000000000     
   6.2189391346469641E-002  0.10827366193215174        0.0000000000000000     
   4.9425946372280892E-002   8.1954479568712255E-002   0.0000000000000000     
   5.1271496826856805E-002   8.8172422692603822E-002   0.0000000000000000     
   5.3051034221950476E-002   9.4548278497712898E-002   0.0000000000000000     
   5.4764558557561890E-002  0.10108204698403943        0.0000000000000000     
   5.6412069833691028E-002  0.10777372815158345        0.0000000000000000     
   4.4426826144709046E-002   8.1417708939753641E-002   0.0000000000000000     
   4.6105509516646881E-002   8.7654617740293275E-002   0.0000000000000000     
   4.7723780385425005E-002   9.4050084467681150E-002   0.0000000000000000     
   4.9281638751043404E-002  0.10060410912191731        0.0000000000000000     
   5.0779084613502092E-002  0.10731669170300172        0.0000000000000000     
   3.9570913840794253E-002   8.0930441395640026E-002   0.0000000000000000     
   4.1083066072498377E-002   8.7185189935959251E-002   0.0000000000000000     
   4.2540370457251189E-002   9.3598791314526752E-002   0.0000000000000000     
   4.3942826995052670E-002  0.10017124553134250        0.0000000000000000     
   4.5290435685902825E-002  0.10690255258640653        0.0000000000000000     
   3.4858209460536499E-002   8.0492676936371382E-002   0.0000000000000000     
   3.6204166494411320E-002   8.6764139279601804E-002   0.0000000000000000     
   3.7500804437429043E-002   9.3194399038249692E-002   0.0000000000000000     
   3.8748123289589695E-002   9.9783456212315061E-002   0.0000000000000000     
   3.9946123050893248E-002  0.10653131080179788        0.0000000000000000     
   6.2189391346469641E-002  0.10827366193215174        0.0000000000000000     
   6.3913459147056512E-002  0.11508774593457129        0.0000000000000000     
   6.5561702201013011E-002  0.12203587521158836        0.0000000000000000     
   6.7134120508339140E-002  0.12911804976320290        0.0000000000000000     
   6.8630714069034898E-002  0.13633426958941497        0.0000000000000000     
   5.6412069833691028E-002  0.10777372815158345        0.0000000000000000     
   5.7991689371407668E-002  0.11461106875576808        0.0000000000000000     
   5.9501538491781567E-002  0.12158181555201639        0.0000000000000000     
   6.0941617194812718E-002  0.12868596854032835        0.0000000000000000     
   6.2311925480501129E-002  0.13592352772070401        0.0000000000000000     
   5.0779084613502092E-002  0.10731669170300172        0.0000000000000000     
   5.2214477721047592E-002  0.11417512358745222        0.0000000000000000     
   5.3586177821926512E-002  0.12116669615178655        0.0000000000000000     
   5.4894184916138809E-002  0.12829140939600472        0.0000000000000000     
   5.6138499003684506E-002  0.13554926332010672        0.0000000000000000     
   4.5290435685902825E-002  0.10690255258640653        0.0000000000000000     
   4.6581824195976326E-002  0.11377991042962370        0.0000000000000000     
   4.7815620191447854E-002  0.12079051701089885        0.0000000000000000     
   4.8991823672317414E-002  0.12793437233023197        0.0000000000000000     
   5.0110434638584986E-002  0.13521147638762313        0.0000000000000000     
   3.9946123050893248E-002  0.10653131080179788        0.0000000000000000     
   4.1093728796193843E-002  0.11342542928228251        0.0000000000000000     
   4.2189865600345593E-002  0.12045327812935328        0.0000000000000000     
   4.3234533463348525E-002  0.12761485734301017        0.0000000000000000     
   4.4227732385202612E-002  0.13491016692325322        0.0000000000000000     
   6.8630714069034898E-002  0.13633426958941497        0.0000000000000000     
   7.0054207193328902E-002  0.14366502444866619        0.0000000000000000     
   7.1407324191449753E-002  0.15109080409939818        0.0000000000000000     
   7.2690065063397452E-002  0.15861160854161097        0.0000000000000000     
   7.3902429809172013E-002  0.16622743777530458        0.0000000000000000     
   6.2311925480501129E-002  0.13592352772070401        0.0000000000000000     
   6.3614326420269610E-002  0.14327958457604623        0.0000000000000000     
   6.4850683085540969E-002  0.15073923058925798        0.0000000000000000     
   6.6020995476315181E-002  0.15830246576033918        0.0000000000000000     
   6.7125263592592271E-002  0.16596929008928990        0.0000000000000000     
   5.6138499003684506E-002  0.13554926332010672        0.0000000000000000     
   5.7320418403702202E-002  0.14292842754261351        0.0000000000000000     
   5.8441241435330540E-002  0.15041707168204599        0.0000000000000000     
   5.9500968098569508E-002  0.15801519573840411        0.0000000000000000     
   6.0499598393419118E-002  0.16572279971168796        0.0000000000000000     
   5.0110434638584986E-002  0.13521147638762313        0.0000000000000000     
   5.1172483143626657E-002  0.14261155334836795        0.0000000000000000     
   5.2178999240818466E-002  0.15012432737776218        0.0000000000000000     
   5.3129982930160413E-002  0.15774979847580578        0.0000000000000000     
   5.4025434211652533E-002  0.16548796664249879        0.0000000000000000     
   4.4227732385202612E-002  0.13491016692325322        0.0000000000000000     
   4.5170520640042983E-002  0.14232896199330963        0.0000000000000000     
   4.6063956502004760E-002  0.14986099767640659        0.0000000000000000     
   4.6908039971087931E-002  0.15750627397254416        0.0000000000000000     
   4.7702771047292508E-002  0.16526479088172230        0.0000000000000000     
   0.0000000000000000        0.0000000000000000        0.0000000000000000     
   1.7983621928633737E-003   1.2768458918938448E-003   0.0000000000000000     
   3.6214014444458519E-003   2.9391585421688496E-003   0.0000000000000000     
   5.4691177547474337E-003   4.9869379508250137E-003   0.0000000000000000     
   7.3415111237681210E-003   7.4201841178623378E-003   0.0000000000000000     
   0.0000000000000000        0.0000000000000000        0.0000000000000000     
   1.5350586918753775E-003   1.2175602323363974E-003   0.0000000000000000     
   3.0994265712399752E-003   2.8208575999317913E-003   0.0000000000000000     
   4.6931036380937945E-003   4.8098921027861794E-003   0.0000000000000000     
   6.3160898924368332E-003   7.1846637408995648E-003   0.0000000000000000     
   0.0000000000000000        0.0000000000000000        0.0000000000000000     
   1.2878437031802012E-003   1.1699868848763437E-003   0.0000000000000000     
   2.6055557759125255E-003   2.7245812385003863E-003   0.0000000000000000     
   3.9531362181969712E-003   4.6637830608721289E-003   0.0000000000000000     
   5.3305850300335396E-003   6.9875923519915686E-003   0.0000000000000000     
   0.0000000000000000        0.0000000000000000        0.0000000000000000     
   1.0567172267778454E-003   1.1341258495136829E-003   0.0000000000000000     
   2.1397890584635010E-003   2.6503294578746365E-003   0.0000000000000000     
   3.2492154950569665E-003   4.5486108250828577E-003   0.0000000000000000     
   4.3849965365582435E-003   6.8289699511383493E-003   0.0000000000000000     
   0.0000000000000000        0.0000000000000000        0.0000000000000000     
   8.4167926266830965E-004   1.1099771262484161E-003   0.0000000000000000     
   1.7021264188929030E-003   2.5981022580545392E-003   0.0000000000000000     
   2.5813414686737795E-003   4.4643753954183695E-003   0.0000000000000000     
   3.4793244120109403E-003   6.7087965383399069E-003   0.0000000000000000     
   7.3415111237681210E-003   7.4201841178623378E-003   0.0000000000000000     
   9.2309514861448928E-003   1.0186496844659488E-002   0.0000000000000000     
   1.1129808776514736E-002   1.3233475932595131E-002   0.0000000000000000     
   1.3038082994877643E-002   1.6561121381669267E-002   0.0000000000000000     
   1.4955774141233624E-002   2.0169433191881896E-002   0.0000000000000000     
   6.3160898924368332E-003   7.1846637408995648E-003   0.0000000000000000     
   7.9557286804839960E-003   9.8956218236043881E-003   0.0000000000000000     
   9.5993633484501885E-003   1.2893215660233092E-002   0.0000000000000000     
   1.1246993896335407E-002   1.6177445250785672E-002   0.0000000000000000     
   1.2898620324139654E-002   1.9748310595262136E-002   0.0000000000000000     
   5.3305850300335396E-003   6.9875923519915686E-003   0.0000000000000000     
   6.7234682612125765E-003   9.6499211545686466E-003   0.0000000000000000     
   8.1173519615244227E-003   1.2604681511313299E-002   0.0000000000000000     
   9.5122361309690883E-003   1.5851873422225524E-002   0.0000000000000000     
   1.0908120769546559E-002   1.9391496887305324E-002   0.0000000000000000     
   4.3849965365582435E-003   6.8289699511383493E-003   0.0000000000000000     
   5.5341702283306345E-003   9.4493948375522635E-003   0.0000000000000000     
   6.6837746157374471E-003   1.2367873485835755E-002   0.0000000000000000     
   7.8338096987786814E-003   1.5584405895988824E-002   0.0000000000000000     
   8.9842754774543346E-003   1.9098992068011463E-002   0.0000000000000000     
   3.4793244120109403E-003   6.7087965383399069E-003   0.0000000000000000     
   4.3878345818381698E-003   9.2940428725552405E-003   0.0000000000000000     
   5.2986313110892531E-003   1.2182791583800459E-002   0.0000000000000000     
   6.2117145997641898E-003   1.5375042672075564E-002   0.0000000000000000     
   7.1270844478629816E-003   1.8870796137380554E-002   0.0000000000000000     
   1.4955774141233624E-002   2.0169433191881896E-002   0.0000000000000000     
   1.6857495928283145E-002   2.4029752004176268E-002   0.0000000000000000     
   1.8717862068726679E-002   2.8113418459495648E-002   0.0000000000000000     
   2.0536872562564232E-002   3.2420432557840023E-002   0.0000000000000000     
   2.2314527409795802E-002   3.6950794299209409E-002   0.0000000000000000     
   1.2898620324139654E-002   1.9748310595262136E-002   0.0000000000000000     
   1.4537781713348828E-002   2.3579602867197638E-002   0.0000000000000000     
   1.6148017145448817E-002   2.7645113240127334E-002   0.0000000000000000     
   1.7729326620439630E-002   3.1944841714051229E-002   0.0000000000000000     
   1.9281710138321258E-002   3.6478788288969333E-002   0.0000000000000000     
   1.0908120769546559E-002   1.9391496887305324E-002   0.0000000000000000     
   1.2294636426012766E-002   2.3198616662691785E-002   0.0000000000000000     
   1.3661413649123638E-002   2.7248297504524000E-002   0.0000000000000000     
   1.5008452438879159E-002   3.1540539412801952E-002   0.0000000000000000     
   1.6335752795279348E-002   3.6075342387525668E-002   0.0000000000000000     
   8.9842754774543346E-003   1.9098992068011463E-002   0.0000000000000000     
   1.0128060066274968E-002   2.2886793390658727E-002   0.0000000000000000     
   1.1258051579751131E-002   2.6922971252685633E-002   0.0000000000000000     
   1.2374250017882832E-002   3.1207525654092197E-002   0.0000000000000000     
   1.3476655380670064E-002   3.5740456594878414E-002   0.0000000000000000     
   7.1270844478629816E-003   1.8870796137380554E-002   0.0000000000000000     
   8.0380526341354216E-003   2.2644133051098442E-002   0.0000000000000000     
   8.9379309373313082E-003   2.6669134484612240E-002   0.0000000000000000     
   9.8267193574506362E-003   3.0945800437921951E-002   0.0000000000000000     
   1.0704417894493409E-002   3.5474130911027572E-002   0.0000000000000000     
   2.2314527409795802E-002   3.6950794299209409E-002   0.0000000000000000     
   2.4048397769616956E-002   4.1696128049242144E-002   0.0000000000000000     
   2.5736054801223270E-002   4.6648058173576583E-002   0.0000000000000000     
   2.7377498504614736E-002   5.1806584672212733E-002   0.0000000000000000     
   2.8972728879791361E-002   5.7171707545150580E-002   0.0000000000000000     
   1.9281710138321258E-002   3.6478788288969333E-002   0.0000000000000000     
   2.0799209599356348E-002   4.1233167077756483E-002   0.0000000000000000     
   2.2275866903807524E-002   4.6194192193287541E-002   0.0000000000000000     
   2.3711682051674801E-002   5.1361863635562506E-002   0.0000000000000000     
   2.5106655042958167E-002   5.6736181404581379E-002   0.0000000000000000     
   1.6335752795279348E-002   3.6075342387525668E-002   0.0000000000000000     
   1.7635647599209232E-002   4.0835158739152111E-002   0.0000000000000000     
   1.8900469731553855E-002   4.5802440778138283E-002   0.0000000000000000     
   2.0130219192313219E-002   5.0977188504484169E-002   0.0000000000000000     
   2.1324895981487329E-002   5.6359401918189792E-002   0.0000000000000000     
   1.3476655380670064E-002   3.5740456594878414E-002   0.0000000000000000     
   1.4557711769175613E-002   4.0502103033429042E-002   0.0000000000000000     
   1.5609863284462261E-002   4.5472803928128816E-002   0.0000000000000000     
   1.6633109926530006E-002   5.0652559278977750E-002   0.0000000000000000     
   1.7627451695378858E-002   5.6041369085975838E-002   0.0000000000000000     
   1.0704417894493409E-002   3.5474130911027572E-002   0.0000000000000000     
   1.1565402109255489E-002   4.0233999960587255E-002   0.0000000000000000     
   1.2404047562532735E-002   4.5205281643259126E-002   0.0000000000000000     
   1.3220354254325151E-002   5.0387975959043221E-002   0.0000000000000000     
   1.4014322184632737E-002   5.5782082907939498E-002   0.0000000000000000     
   2.8972728879791361E-002   5.7171707545150580E-002   0.0000000000000000     
   3.0519664199389836E-002   6.2730583927168404E-002   0.0000000000000000     
   3.2016222736046845E-002   6.8470370953044479E-002   0.0000000000000000     
   3.3462404489762398E-002   7.4391068622778805E-002   0.0000000000000000     
   3.4858209460536499E-002   8.0492676936371382E-002   0.0000000000000000     
   2.5106655042958167E-002   5.6736181404581379E-002   0.0000000000000000     
   2.6459538654636613E-002   6.2305016112516577E-002   0.0000000000000000     
   2.7769085663689130E-002   6.8056238371540498E-002   0.0000000000000000     
   2.9035296070115724E-002   7.3989848181653148E-002   0.0000000000000000     
   3.0258169873916392E-002   8.0105845542854534E-002   0.0000000000000000     
   2.1324895981487329E-002   5.6359401918189792E-002   0.0000000000000000     
   2.2483711069612635E-002   6.1937110066091816E-002   0.0000000000000000     
   2.3605875427225604E-002   6.7698341995026917E-002   0.0000000000000000     
   2.4691389054326232E-002   7.3643097704995109E-002   0.0000000000000000     
   2.5740251950914519E-002   7.9771377195996362E-002   0.0000000000000000     
   1.7627451695378858E-002   5.6041369085975838E-002   0.0000000000000000     
   1.8592181444317901E-002   6.1626865787894142E-002   0.0000000000000000     
   1.9526592026656259E-002   6.7396681823503751E-002   0.0000000000000000     
   2.0430683442393925E-002   7.3350817192804632E-002   0.0000000000000000     
   2.1304455691530898E-002   7.9489271895796812E-002   0.0000000000000000     
   1.4014322184632737E-002   5.5782082907939498E-002   0.0000000000000000     
   1.4784949778752412E-002   6.1374283277923568E-002   0.0000000000000000     
   1.5531235461981098E-002   6.7151257856970986E-002   0.0000000000000000     
   1.6253179234318800E-002   7.3113006645081774E-002   0.0000000000000000     
   1.6950781095765512E-002   7.9259529642255910E-002   0.0000000000000000     
   3.4858209460536499E-002   8.0492676936371382E-002   0.0000000000000000     
   3.6204166494411320E-002   8.6764139279601804E-002   0.0000000000000000     
   3.7500804437429043E-002   9.3194399038249692E-002   0.0000000000000000     
   3.8748123289589695E-002   9.9783456212315061E-002   0.0000000000000000     
   3.9946123050893248E-002  0.10653131080179788        0.0000000000000000     
   3.0258169873916392E-002   8.0105845542854534E-002   0.0000000000000000     
   3.1437530610370391E-002   8.6392357428119793E-002   0.0000000000000000     
   3.2573201814757022E-002   9.2837510810423962E-002   0.0000000000000000     
   3.3665183487076263E-002   9.9441305689767154E-002   0.0000000000000000     
   3.4713475627328121E-002  0.10620374206614926        0.0000000000000000     
   2.5740251950914519E-002   7.9771377195996362E-002   0.0000000000000000     
   2.6751878248360342E-002   8.6070736038412060E-002   0.0000000000000000     
   2.7725682078033560E-002   9.2528729802623597E-002   0.0000000000000000     
   2.8661663439934190E-002   9.9145358488630958E-002   0.0000000000000000     
   2.9559822334062211E-002  0.10592062209643414        0.0000000000000000     
   2.1304455691530898E-002   7.9489271895796812E-002   0.0000000000000000     
   2.2147209408381156E-002   8.5799275110478662E-002   0.0000000000000000     
   2.2958245227258686E-002   9.2268056014848554E-002   0.0000000000000000     
   2.3737563148163474E-002   9.8895614608906529E-002   0.0000000000000000     
   2.4485163171095534E-002  0.10568195089265255        0.0000000000000000     
   1.6950781095765512E-002   7.9259529642255910E-002   0.0000000000000000     
   1.7623524090432840E-002   8.5577974644319557E-002   0.0000000000000000     
   1.8270891262432375E-002   9.2055489447098848E-002   0.0000000000000000     
   1.8892882611764122E-002   9.8692074050593812E-002   0.0000000000000000     
   1.9489498138428082E-002  0.10548772845480445        0.0000000000000000     
   3.9946123050893248E-002  0.10653131080179788        0.0000000000000000     
   4.1093728796193843E-002  0.11342542928228251        0.0000000000000000     
   4.2189865600345593E-002  0.12045327812935328        0.0000000000000000     
   4.3234533463348525E-002  0.12761485734301017        0.0000000000000000     
   4.4227732385202612E-002  0.13491016692325322        0.0000000000000000     
   3.4713475627328121E-002  0.10620374206614926        0.0000000000000000     
   3.5717241407884362E-002  0.11311267141434114        0.0000000000000000     
   3.6675644001116794E-002  0.12015594520911356        0.0000000000000000     
   3.7588683407025383E-002  0.12733356345046651        0.0000000000000000     
   3.8456359625610149E-002  0.13464552613840003        0.0000000000000000     
   2.9559822334062211E-002  0.10592062209643414        0.0000000000000000     
   3.0419411917232148E-002  0.11284262809471200        0.0000000000000000     
   3.1239685346258487E-002  0.11989948395214338        0.0000000000000000     
   3.2020642621141238E-002  0.12709118966872823        0.0000000000000000     
   3.2762283741880394E-002  0.13441774524446665        0.0000000000000000     
   2.4485163171095534E-002  0.10568195089265255        0.0000000000000000     
   2.5200240324237167E-002  0.11261529932339512        0.0000000000000000     
   2.5881989635770680E-002  0.11968389435844272        0.0000000000000000     
   2.6530411105696074E-002  0.12688773599779535        0.0000000000000000     
   2.7145504734013344E-002  0.13422682424145302        0.0000000000000000     
   1.9489498138428082E-002  0.10548772845480445        0.0000000000000000     
   2.0059726628899439E-002  0.11243068510039045        0.0000000000000000     
   2.0602556869653375E-002  0.11950917642801158        0.0000000000000000     
   2.1117988860689899E-002  0.12672320243766785        0.0000000000000000     
   2.1606022602009008E-002  0.13407276312935920        0.0000000000000000     
   4.4227732385202612E-002  0.13491016692325322        0.0000000000000000     
   4.5170520640042983E-002  0.14232896199330963        0.0000000000000000     
   4.6063956502004760E-002  0.14986099767640659        0.0000000000000000     
   4.6908039971087931E-002  0.15750627397254416        0.0000000000000000     
   4.7702771047292508E-002  0.16526479088172230        0.0000000000000000     
   3.8456359625610149E-002  0.13464552613840003        0.0000000000000000     
   3.9279777551709888E-002  0.14208093502911728        0.0000000000000000     
   4.0060042080163366E-002  0.14962889187882145        0.0000000000000000     
   4.0797153210970633E-002  0.15728939668751252        0.0000000000000000     
   4.1491110944131653E-002  0.16506244945519050        0.0000000000000000     
   3.2762283741880394E-002  0.13441774524446665        0.0000000000000000     
   3.3465500537386048E-002  0.14186775400746982        0.0000000000000000     
   3.4131184836568296E-002  0.14942981928584892        0.0000000000000000     
   3.4759336639427124E-002  0.15710394107960404        0.0000000000000000     
   3.5349955945962533E-002  0.16489011938873516        0.0000000000000000     
   2.7145504734013344E-002  0.13422682424145302        0.0000000000000000     
   2.7727689597071496E-002  0.14168941892836714        0.0000000000000000     
   2.8277384771219514E-002  0.14926377989748901        0.0000000000000000     
   2.8794590256457406E-002  0.15694990714881879        0.0000000000000000     
   2.9279306052785163E-002  0.16474780068235628        0.0000000000000000     
   2.1606022602009008E-002  0.13407276312935920        0.0000000000000000     
   2.2066344730766213E-002  0.14154592979180933        0.0000000000000000     
   2.2498641884117036E-002  0.14913077371374181        0.0000000000000000     
   2.2902914062061474E-002  0.15682729489515670        0.0000000000000000     
   2.3279161264599533E-002  0.16463549333605393        0.0000000000000000     
   0.0000000000000000        0.0000000000000000        0.0000000000000000     
   8.4167926266830965E-004   1.1099771262484161E-003   0.0000000000000000     
   1.7021264188929030E-003   2.5981022580545392E-003   0.0000000000000000     
   2.5813414686737795E-003   4.4643753954183695E-003   0.0000000000000000     
   3.4793244120109403E-003   6.7087965383399069E-003   0.0000000000000000     
   0.0000000000000000        0.0000000000000000        0.0000000000000000     
   6.3382902777969416E-004   1.0939711299337838E-003   0.0000000000000000     
   1.2780355672395351E-003   2.5620392123142923E-003   0.0000000000000000     
   1.9326196183795232E-003   4.4042042471415270E-003   0.0000000000000000     
   2.5975811811996576E-003   6.6204662344154855E-003   0.0000000000000000     
   0.0000000000000000        0.0000000000000000        0.0000000000000000     
   4.2426573904009903E-004   1.0825382754230271E-003   0.0000000000000000     
   8.5298421354220225E-004   2.5362798939280915E-003   0.0000000000000000     
   1.2861554235063096E-003   4.3612248555151912E-003   0.0000000000000000     
   1.7237793689324206E-003   6.5573731601843294E-003   0.0000000000000000     
   0.0000000000000000        0.0000000000000000        0.0000000000000000     
   2.1298939644952416E-004   1.0756785627161461E-003   0.0000000000000000     
   4.2697235780090372E-004   2.5208243028959345E-003   0.0000000000000000     
   6.4194888405413896E-004   4.3354372205393656E-003   0.0000000000000000     
   8.5791897520922961E-004   6.5195173156464377E-003   0.0000000000000000     
   0.0000000000000000        0.0000000000000000        0.0000000000000000     
   7.9695364890719489E-015   1.0733919918131409E-003   0.0000000000000000     
   1.5640050018972396E-014   2.5156724392178227E-003   0.0000000000000000     
   2.3011432169484092E-014   4.3268413422140467E-003   0.0000000000000000     
   3.0083791360824286E-014   6.5068987008018121E-003   0.0000000000000000     
   3.4793244120109403E-003   6.7087965383399069E-003   0.0000000000000000     
   4.3878345818381698E-003   9.2940428725552405E-003   0.0000000000000000     
   5.2986313110892531E-003   1.2182791583800459E-002   0.0000000000000000     
   6.2117145997641898E-003   1.5375042672075564E-002   0.0000000000000000     
   7.1270844478629816E-003   1.8870796137380554E-002   0.0000000000000000     
   2.5975811811996576E-003   6.6204662344154855E-003   0.0000000000000000     
   3.2699540805022310E-003   9.1778736821918894E-003   0.0000000000000000     
   3.9467721410895345E-003   1.2043475098526464E-002   0.0000000000000000     
   4.6280353629615670E-003   1.5217270483419205E-002   0.0000000000000000     
   5.3137437461183304E-003   1.8699259836870114E-002   0.0000000000000000     
   1.7237793689324206E-003   6.5573731601843294E-003   0.0000000000000000     
   2.1660214830898678E-003   9.0948956890765324E-003   0.0000000000000000     
   2.6130471992479817E-003   1.1943963323332822E-002   0.0000000000000000     
   3.0648565174067623E-003   1.5104576062953207E-002   0.0000000000000000     
   3.5214494375662097E-003   1.8576733907937678E-002   0.0000000000000000     
   8.5791897520922961E-004   6.5195173156464377E-003   0.0000000000000000     
   1.0760367896010803E-003   9.0451088932091573E-003   0.0000000000000000     
   1.2974564855645953E-003   1.1884256258219532E-002   0.0000000000000000     
   1.5221780630997755E-003   1.5036959410677560E-002   0.0000000000000000     
   1.7502015222066200E-003   1.8503218350583241E-002   0.0000000000000000     
   3.0083791360824286E-014   6.5068987008018121E-003   0.0000000000000000     
   3.5868335211686198E-014   9.0285132945897746E-003   0.0000000000000000     
   3.9376027395274238E-014   1.1864353903186596E-002   0.0000000000000000     
   4.0607105080813638E-014   1.5014420526592270E-002   0.0000000000000000     
   3.9561127811171826E-014   1.8478713164806804E-002   0.0000000000000000     
   7.1270844478629816E-003   1.8870796137380554E-002   0.0000000000000000     
   8.0380526341354216E-003   2.2644133051098442E-002   0.0000000000000000     
   8.9379309373313082E-003   2.6669134484612240E-002   0.0000000000000000     
   9.8267193574506362E-003   3.0945800437921951E-002   0.0000000000000000     
   1.0704417894493409E-002   3.5474130911027572E-002   0.0000000000000000     
   5.3137437461183304E-003   1.8699259836870114E-002   0.0000000000000000     
   5.9968821182486325E-003   2.2462064036942349E-002   0.0000000000000000     
   6.6704353070412810E-003   2.6478303961699052E-002   0.0000000000000000     
   7.3344033124962777E-003   3.0747979611140230E-002   0.0000000000000000     
   7.9887861346136218E-003   3.5271090985265881E-002   0.0000000000000000     
   3.5214494375662097E-003   1.8576733907937678E-002   0.0000000000000000     
   3.9768165072690907E-003   2.2332014741121842E-002   0.0000000000000000     
   4.4249482740581735E-003   2.6341996445341301E-002   0.0000000000000000     
   4.8658447379334559E-003   3.0606679020596050E-002   0.0000000000000000     
   5.2995058988949406E-003   3.5126062466886085E-002   0.0000000000000000     
   1.7502015222066200E-003   1.8503218350583241E-002   0.0000000000000000     
   1.9778558011967992E-003   2.2253985163636934E-002   0.0000000000000000     
   2.2014698383819825E-003   2.6260211935538989E-002   0.0000000000000000     
   2.4210436337621711E-003   3.0521898666289411E-002   0.0000000000000000     
   2.6365771873373641E-003   3.5039045355888199E-002   0.0000000000000000     
   3.9561127811171826E-014   1.8478713164806804E-002   0.0000000000000000     
   3.1756281632100425E-014   2.2227975304487613E-002   0.0000000000000000     
   1.2709966542776008E-014   2.6232950432292117E-002   0.0000000000000000     
  -1.7577661602739131E-014   3.0493638548220309E-002   0.0000000000000000     
  -5.9106148794785263E-014   3.5010039652272194E-002   0.0000000000000000     
   1.0704417894493409E-002   3.5474130911027572E-002   0.0000000000000000     
   1.1565402109255489E-002   4.0233999960587255E-002   0.0000000000000000     
   1.2404047562532735E-002   4.5205281643259126E-002   0.0000000000000000     
   1.3220354254325151E-002   5.0387975959043221E-002   0.0000000000000000     
   1.4014322184632737E-002   5.5782082907939498E-002   0.0000000000000000     
   7.9887861346136218E-003   3.5271090985265881E-002   0.0000000000000000     
   8.6304420462717558E-003   4.0027826548748466E-002   0.0000000000000000     
   9.2562293203491252E-003   4.4998374766260410E-002   0.0000000000000000     
   9.8661479568457298E-003   5.0182735637801734E-002   0.0000000000000000     
   1.0460197955761568E-002   5.5580909163372424E-002   0.0000000000000000     
   5.2995058988949406E-003   3.5126062466886085E-002   0.0000000000000000     
   5.7245550070473160E-003   3.9880559826034369E-002   0.0000000000000000     
   6.1396153124952746E-003   4.4850584139863828E-002   0.0000000000000000     
   6.5446868152388149E-003   5.0036135408374455E-002   0.0000000000000000     
   6.9397695152779385E-003   5.5437213631566257E-002   0.0000000000000000     
   2.6365771873373641E-003   3.5039045355888199E-002   0.0000000000000000     
   2.8477409915821654E-003   3.9792199792444978E-002   0.0000000000000000     
   3.0542055389711801E-003   4.4761909764069366E-002   0.0000000000000000     
   3.2559708295044070E-003   4.9948175270761369E-002   0.0000000000000000     
   3.4530368631818472E-003   5.5350996312520988E-002   0.0000000000000000     
  -5.9106148794785263E-014   3.5010039652272194E-002   0.0000000000000000     
  -1.2369326483213650E-013   3.9762746447980279E-002   0.0000000000000000     
  -2.2315629162258932E-013   4.4732351638877045E-002   0.0000000000000000     
  -3.5749380615079235E-013   4.9918855224962491E-002   0.0000000000000000     
  -5.2670671643606504E-013   5.5322257206236639E-002   0.0000000000000000     
   1.4014322184632737E-002   5.5782082907939498E-002   0.0000000000000000     
   1.4784949778752412E-002   6.1374283277923568E-002   0.0000000000000000     
   1.5531235461981098E-002   6.7151257856970986E-002   0.0000000000000000     
   1.6253179234318800E-002   7.3113006645081774E-002   0.0000000000000000     
   1.6950781095765512E-002   7.9259529642255910E-002   0.0000000000000000     
   1.0460197955761568E-002   5.5580909163372424E-002   0.0000000000000000     
   1.1037078403261498E-002   6.1178500605306940E-002   0.0000000000000000     
   1.1595488385510378E-002   6.6961115225939713E-002   0.0000000000000000     
   1.2135427902508204E-002   7.2928753025270743E-002   0.0000000000000000     
   1.2656896954254985E-002   7.9081414003300030E-002   0.0000000000000000     
   6.9397695152779385E-003   5.5437213631566257E-002   0.0000000000000000     
   7.3236296481904994E-003   6.1038655839171146E-002   0.0000000000000000     
   7.6950334495543516E-003   6.6825299060920981E-002   0.0000000000000000     
   8.0539809193694942E-003   7.2797143296815789E-002   0.0000000000000000     
   8.4004720576359299E-003   7.8954188546855569E-002   0.0000000000000000     
   3.4530368631818472E-003   5.5350996312520988E-002   0.0000000000000000     
   3.6446035135394134E-003   6.0954748979516152E-002   0.0000000000000000     
   3.8298706541130185E-003   6.6743809361914819E-002   0.0000000000000000     
   4.0088382849026638E-003   7.2718177459716912E-002   0.0000000000000000     
   4.1815064059083475E-003   7.8877853272922488E-002   0.0000000000000000     
  -5.2670671643606504E-013   5.5322257206236639E-002   0.0000000000000000     
  -6.9176110152613379E-013   6.0926780026342005E-002   0.0000000000000000     
  -8.1362195626655254E-013   6.6716646128921170E-002   0.0000000000000000     
  -8.9228955170786439E-013   7.2691855513974099E-002   0.0000000000000000     
  -9.2776350837930899E-013   7.8852408181500827E-002   0.0000000000000000     
   1.6950781095765512E-002   7.9259529642255910E-002   0.0000000000000000     
   1.7623524090432840E-002   8.5577974644319557E-002   0.0000000000000000     
   1.8270891262432375E-002   9.2055489447098848E-002   0.0000000000000000     
   1.8892882611764122E-002   9.8692074050593812E-002   0.0000000000000000     
   1.9489498138428082E-002  0.10548772845480445        0.0000000000000000     
   1.2656896954254985E-002   7.9081414003300030E-002   0.0000000000000000     
   1.3159658667023956E-002   8.5406281938423950E-002   0.0000000000000000     
   1.3643476167088364E-002   9.1890540609038854E-002   0.0000000000000000     
   1.4108349454448207E-002   9.8534190015144726E-002   0.0000000000000000     
   1.4554278529103484E-002  0.10533723015674160        0.0000000000000000     
   8.4004720576359299E-003   7.8954188546855569E-002   0.0000000000000000     
   8.7344495106630813E-003   8.5283644291281019E-002   0.0000000000000000     
   9.0558559247603723E-003   9.1772720010332862E-002   0.0000000000000000     
   9.3646912999278062E-003   9.8421415704011112E-002   0.0000000000000000     
   9.6609556361653762E-003  0.10522973137231575        0.0000000000000000     
   4.1815064059083475E-003   7.8877853272922488E-002   0.0000000000000000     
   4.3478966213502139E-003   8.5210061702890763E-002   0.0000000000000000     
   4.5080305354484032E-003   9.1702027650980913E-002   0.0000000000000000     
   4.6619081482029180E-003   9.8353751117192967E-002   0.0000000000000000     
   4.8095294596137575E-003  0.10516523210152690        0.0000000000000000     
  -9.2776350837930899E-013   7.8852408181500827E-002   0.0000000000000000     
  -9.1464856522005533E-013   8.5185534173253183E-002   0.0000000000000000     
  -8.4754425699884450E-013   9.1678463530983009E-002   0.0000000000000000     
  -7.2645361948175946E-013   9.8331196254690292E-002   0.0000000000000000     
  -5.5137318322184825E-013  0.10514373234437505        0.0000000000000000     
   1.9489498138428082E-002  0.10548772845480445        0.0000000000000000     
   2.0059726628899439E-002  0.11243068510039045        0.0000000000000000     
   2.0602556869653375E-002  0.11950917642801158        0.0000000000000000     
   2.1117988860689899E-002  0.12672320243766785        0.0000000000000000     
   2.1606022602009008E-002  0.13407276312935920        0.0000000000000000     
   1.4554278529103484E-002  0.10533723015674160        0.0000000000000000     
   1.4980105154687472E-002  0.11228783527011577        0.0000000000000000     
   1.5384671094833437E-002  0.11937417959155353        0.0000000000000000     
   1.5767976349541381E-002  0.12659626312105490        0.0000000000000000     
   1.6130020918811307E-002  0.13395408585861987        0.0000000000000000     
   9.6609556361653762E-003  0.10522973137231575        0.0000000000000000     
   9.9436102250697843E-003  0.11218579967698876        0.0000000000000000     
   1.0211616358237720E-002  0.11927775327977208        0.0000000000000000     
   1.0464974035669188E-002  0.12650559218066576        0.0000000000000000     
   1.0703683257364184E-002  0.13386931637966970        0.0000000000000000     
   4.8095294596137575E-003  0.10516523210152690        0.0000000000000000     
   4.9502418400463747E-003  0.11212457832100943        0.0000000000000000     
   5.0833926598662276E-003  0.11921989749266726        0.0000000000000000     
   5.2089819190733137E-003  0.12645118961650037        0.0000000000000000     
   5.3270096176676355E-003  0.13381845469250875        0.0000000000000000     
  -5.5137318322184825E-013  0.10514373234437505        0.0000000000000000     
  -3.8275394138864716E-013  0.11210417120217779        0.0000000000000000     
  -2.8104244192278527E-013  0.11920061223023902        0.0000000000000000     
  -2.4623573037334257E-013  0.12643305542855876        0.0000000000000000     
  -2.7833768276308568E-013  0.13380150079713699        0.0000000000000000     
   2.1606022602009008E-002  0.13407276312935920        0.0000000000000000     
   2.2066344730766213E-002  0.14154592979180933        0.0000000000000000     
   2.2498641884117036E-002  0.14913077371374181        0.0000000000000000     
   2.2902914062061474E-002  0.15682729489515670        0.0000000000000000     
   2.3279161264599533E-002  0.16463549333605393        0.0000000000000000     
   1.6130020918811307E-002  0.13395408585861987        0.0000000000000000     
   1.6469864313089101E-002  0.14143562189730974        0.0000000000000000     
   1.6786566042820642E-002  0.14902884533018576        0.0000000000000000     
   1.7080126108005945E-002  0.15673375615724797        0.0000000000000000     
   1.7350544508645004E-002  0.16455035437849633        0.0000000000000000     
   1.0703683257364184E-002  0.13386931637966970        0.0000000000000000     
   1.0926646718659051E-002  0.14135683054438170        0.0000000000000000     
   1.1132767114890132E-002  0.14895603934239934        0.0000000000000000     
   1.1322044446057418E-002  0.15666694277372267        0.0000000000000000     
   1.1494478712160919E-002  0.16448954083835171        0.0000000000000000     
   5.3270096176676355E-003  0.13381845469250875        0.0000000000000000     
   5.4366919474760677E-003  0.14130955573302525        0.0000000000000000     
   5.5372451003254863E-003  0.14891235575038261        0.0000000000000000     
   5.6286690762158923E-003  0.15662685474458091        0.0000000000000000     
   5.7109638751472857E-003  0.16445305271562008        0.0000000000000000     
  -2.7833768276308568E-013  0.13380150079713699        0.0000000000000000     
  -4.5985155787409138E-013  0.14129379746324039        0.0000000000000000     
  -8.7328332499386763E-013  0.14889779455413560        0.0000000000000000     
  -1.5186320354455135E-012  0.15661349206982264        0.0000000000000000     
  -2.3958994510575593E-012  0.16444089001030149        0.0000000000000000     
   0.0000000000000000        0.0000000000000000        0.0000000000000000     
   7.9695364890719489E-015   1.0733919918131409E-003   0.0000000000000000     
   1.5640050018972396E-014   2.5156724392178227E-003   0.0000000000000000     
   2.3011432169484092E-014   4.3268413422140467E-003   0.0000000000000000     
   3.0083791360824286E-014   6.5068987008018121E-003   0.0000000000000000     
   0.0000000000000000        0.0000000000000000        0.0000000000000000     
  -2.1298939643368928E-004   1.0756785627138723E-003   0.0000000000000000     
  -4.2697235776964997E-004   2.5208243028932574E-003   0.0000000000000000     
  -6.4194888400788213E-004   4.3354372205381556E-003   0.0000000000000000     
  -8.5791897514838570E-004   6.5195173156485662E-003   0.0000000000000000     
   0.0000000000000000        0.0000000000000000        0.0000000000000000     
  -4.2426573902457684E-004   1.0825382754182003E-003   0.0000000000000000     
  -8.5298421351102721E-004   2.5362798939217363E-003   0.0000000000000000     
  -1.2861554234593511E-003   4.3612248555106089E-003   0.0000000000000000     
  -1.7237793688695486E-003   6.5573731601848168E-003   0.0000000000000000     
   0.0000000000000000        0.0000000000000000        0.0000000000000000     
  -6.3382902776469303E-004   1.0939711299261254E-003   0.0000000000000000     
  -1.2780355672084912E-003   2.5620392123032612E-003   0.0000000000000000     
  -1.9326196183313948E-003   4.4042042471314075E-003   0.0000000000000000     
  -2.5975811811334037E-003   6.6204662344105632E-003   0.0000000000000000     
   0.0000000000000000        0.0000000000000000        0.0000000000000000     
  -8.4167926265403797E-004   1.1099771262376476E-003   0.0000000000000000     
  -1.7021264188620427E-003   2.5981022580378308E-003   0.0000000000000000     
  -2.5813414686240142E-003   4.4643753954005504E-003   0.0000000000000000     
  -3.4793244119399524E-003   6.7087965383258053E-003   0.0000000000000000     
   3.0083791360824286E-014   6.5068987008018121E-003   0.0000000000000000     
   3.5868335211686198E-014   9.0285132945897746E-003   0.0000000000000000     
   3.9376027395274238E-014   1.1864353903186596E-002   0.0000000000000000     
   4.0607105080813638E-014   1.5014420526592270E-002   0.0000000000000000     
   3.9561127811171826E-014   1.8478713164806804E-002   0.0000000000000000     
  -8.5791897514838570E-004   6.5195173156485662E-003   0.0000000000000000     
  -1.0760367895279715E-003   9.0451088932156937E-003   0.0000000000000000     
  -1.2974564854834499E-003   1.1884256258230740E-002   0.0000000000000000     
  -1.5221780630148216E-003   1.5036959410693709E-002   0.0000000000000000     
  -1.7502015221220861E-003   1.8503218350604592E-002   0.0000000000000000     
  -1.7237793688695486E-003   6.5573731601848168E-003   0.0000000000000000     
  -2.1660214830126422E-003   9.0948956890842241E-003   0.0000000000000000     
  -2.6130471991596556E-003   1.1943963323348695E-002   0.0000000000000000     
  -3.0648565173105888E-003   1.5104576062978235E-002   0.0000000000000000     
  -3.5214494374654413E-003   1.8576733907972834E-002   0.0000000000000000     
  -2.5975811811334037E-003   6.6204662344105632E-003   0.0000000000000000     
  -3.2699540804181438E-003   9.1778736821953692E-003   0.0000000000000000     
  -3.9467721409892405E-003   1.2043475098540464E-002   0.0000000000000000     
  -4.6280353628466945E-003   1.5217270483445854E-002   0.0000000000000000     
  -5.3137437459905056E-003   1.8699259836911529E-002   0.0000000000000000     
  -3.4793244119399524E-003   6.7087965383258053E-003   0.0000000000000000     
  -4.3878345817444757E-003   9.2940428725491273E-003   0.0000000000000000     
  -5.2986313109722061E-003   1.2182791583806047E-002   0.0000000000000000     
  -6.2117145996231386E-003   1.5375042672096563E-002   0.0000000000000000     
  -7.1270844476972774E-003   1.8870796137420671E-002   0.0000000000000000     
   3.9561127811171826E-014   1.8478713164806804E-002   0.0000000000000000     
   3.1756281632100425E-014   2.2227975304487613E-002   0.0000000000000000     
   1.2709966542776008E-014   2.6232950432292117E-002   0.0000000000000000     
  -1.7577661602739131E-014   3.0493638548220309E-002   0.0000000000000000     
  -5.9106148794785263E-014   3.5010039652272194E-002   0.0000000000000000     
  -1.7502015221220861E-003   1.8503218350604592E-002   0.0000000000000000     
  -1.9778558011253099E-003   2.2253985163669030E-002   0.0000000000000000     
  -2.2014698383445593E-003   2.6260211935592651E-002   0.0000000000000000     
  -2.4210436337798349E-003   3.0521898666375450E-002   0.0000000000000000     
  -2.6365771874311359E-003   3.5039045356017443E-002   0.0000000000000000     
  -3.5214494374654413E-003   1.8576733907972834E-002   0.0000000000000000     
  -3.9768165071736731E-003   2.2332014741176333E-002   0.0000000000000000     
  -4.4249482739847417E-003   2.6341996445432576E-002   0.0000000000000000     
  -4.8658447378986478E-003   3.0606679020741556E-002   0.0000000000000000     
  -5.2995058989153904E-003   3.5126062467103265E-002   0.0000000000000000     
  -5.3137437459905056E-003   1.8699259836911529E-002   0.0000000000000000     
  -5.9968821181133319E-003   2.2462064037009531E-002   0.0000000000000000     
  -6.6704353069078366E-003   2.6478303961811885E-002   0.0000000000000000     
  -7.3344033123740136E-003   3.0747979611318605E-002   0.0000000000000000     
  -7.9887861345118698E-003   3.5271090985529677E-002   0.0000000000000000     
  -7.1270844476972774E-003   1.8870796137420671E-002   0.0000000000000000     
  -8.0380526339442898E-003   2.2644133051168608E-002   0.0000000000000000     
  -8.9379309371138416E-003   2.6669134484730583E-002   0.0000000000000000     
  -9.8267193572059361E-003   3.0945800438106606E-002   0.0000000000000000     
  -1.0704417894220573E-002   3.5474130911296677E-002   0.0000000000000000     
  -5.9106148794785263E-014   3.5010039652272194E-002   0.0000000000000000     
  -1.2369326483213650E-013   3.9762746447980279E-002   0.0000000000000000     
  -2.2315629162258932E-013   4.4732351638877045E-002   0.0000000000000000     
  -3.5749380615079235E-013   4.9918855224962491E-002   0.0000000000000000     
  -5.2670671643606504E-013   5.5322257206236639E-002   0.0000000000000000     
  -2.6365771874311359E-003   3.5039045356017443E-002   0.0000000000000000     
  -2.8477409917946968E-003   3.9792199792612844E-002   0.0000000000000000     
  -3.0542055393667496E-003   4.4761909764255911E-002   0.0000000000000000     
  -3.2559708301472955E-003   4.9948175270946638E-002   0.0000000000000000     
  -3.4530368641363333E-003   5.5350996312685037E-002   0.0000000000000000     
  -5.2995058989153904E-003   3.5126062467103265E-002   0.0000000000000000     
  -5.7245550071552773E-003   3.9880559826315248E-002   0.0000000000000000     
  -6.1396153127386164E-003   4.4850584140175051E-002   0.0000000000000000     
  -6.5446868156654042E-003   5.0036135408682646E-002   0.0000000000000000     
  -6.9397695159356442E-003   5.5437213631838060E-002   0.0000000000000000     
  -7.9887861345118698E-003   3.5271090985529677E-002   0.0000000000000000     
  -8.6304420462054374E-003   4.0027826549087500E-002   0.0000000000000000     
  -9.2562293203387516E-003   4.4998374766634430E-002   0.0000000000000000     
  -9.8661479569118211E-003   5.0182735638170516E-002   0.0000000000000000     
  -1.0460197955924637E-002   5.5580909163695714E-002   0.0000000000000000     
  -1.0704417894220573E-002   3.5474130911296677E-002   0.0000000000000000     
  -1.1565402108945173E-002   4.0233999960929571E-002   0.0000000000000000     
  -1.2404047562167165E-002   4.5205281643634083E-002   0.0000000000000000     
  -1.3220354253886544E-002   5.0387975959410226E-002   0.0000000000000000     
  -1.4014322184103319E-002   5.5782082908257966E-002   0.0000000000000000     
  -5.2670671643606504E-013   5.5322257206236639E-002   0.0000000000000000     
  -6.9176110152613379E-013   6.0926780026342005E-002   0.0000000000000000     
  -8.1362195626655254E-013   6.6716646128921170E-002   0.0000000000000000     
  -8.9228955170786439E-013   7.2691855513974099E-002   0.0000000000000000     
  -9.2776350837930899E-013   7.8852408181500827E-002   0.0000000000000000     
  -3.4530368641363333E-003   5.5350996312685037E-002   0.0000000000000000     
  -3.6446035147985087E-003   6.0954748979627313E-002   0.0000000000000000     
  -3.8298706555984692E-003   6.6743809361929696E-002   0.0000000000000000     
  -4.0088382865362112E-003   7.2718177459592179E-002   0.0000000000000000     
  -4.1815064076117358E-003   7.8877853272614790E-002   0.0000000000000000     
  -6.9397695159356442E-003   5.5437213631838060E-002   0.0000000000000000     
  -7.3236296490763221E-003   6.1038655839350711E-002   0.0000000000000000     
  -7.6950334506144221E-003   6.6825299060930002E-002   0.0000000000000000     
  -8.0539809205499493E-003   7.2797143296575967E-002   0.0000000000000000     
  -8.4004720588829011E-003   7.8954188546288578E-002   0.0000000000000000     
  -1.0460197955924637E-002   5.5580909163695714E-002   0.0000000000000000     
  -1.1037078403525196E-002   6.1178500605512186E-002   0.0000000000000000     
  -1.1595488385861486E-002   6.6961115225922088E-002   0.0000000000000000     
  -1.2135427902933508E-002   7.2928753024925450E-002   0.0000000000000000     
  -1.2656896954741259E-002   7.9081414002522207E-002   0.0000000000000000     
  -1.4014322184103319E-002   5.5782082908257966E-002   0.0000000000000000     
  -1.4784949778145135E-002   6.1374283278111751E-002   0.0000000000000000     
  -1.5531235461339655E-002   6.7151257856905955E-002   0.0000000000000000     
  -1.6253179233686882E-002   7.3113006644640599E-002   0.0000000000000000     
  -1.6950781095186811E-002   7.9259529641315690E-002   0.0000000000000000     
  -9.2776350837930899E-013   7.8852408181500827E-002   0.0000000000000000     
  -9.1464856522005533E-013   8.5185534173253183E-002   0.0000000000000000     
  -8.4754425699884450E-013   9.1678463530983009E-002   0.0000000000000000     
  -7.2645361948175946E-013   9.8331196254690292E-002   0.0000000000000000     
  -5.5137318322184825E-013  0.10514373234437505        0.0000000000000000     
  -4.1815064076117358E-003   7.8877853272614790E-002   0.0000000000000000     
  -4.3478966230360173E-003   8.5210061702411716E-002   0.0000000000000000     
  -4.5080305370200288E-003   9.1702027650397200E-002   0.0000000000000000     
  -4.6619081495637696E-003   9.8353751116571242E-002   0.0000000000000000     
  -4.8095294606672438E-003  0.10516523210093383        0.0000000000000000     
  -8.4004720588829011E-003   7.8954188546288578E-002   0.0000000000000000     
  -8.7344495119184087E-003   8.5283644290409813E-002   0.0000000000000000     
  -9.0558559259616075E-003   9.1772720009281605E-002   0.0000000000000000     
  -9.3646913010124958E-003   9.8421415702903942E-002   0.0000000000000000     
  -9.6609556370710770E-003  0.10522973137127684        0.0000000000000000     
  -1.2656896954741259E-002   7.9081414002522207E-002   0.0000000000000000     
  -1.3159658667561825E-002   8.5406281937247447E-002   0.0000000000000000     
  -1.3643476167672279E-002   9.1890540607636212E-002   0.0000000000000000     
  -1.4108349455072628E-002   9.8534190013688405E-002   0.0000000000000000     
  -1.4554278529762873E-002  0.10533723015540412        0.0000000000000000     
  -1.6950781095186811E-002   7.9259529641315690E-002   0.0000000000000000     
  -1.7623524089966258E-002   8.5577974642924659E-002   0.0000000000000000     
  -1.8270891262152048E-002   9.2055489445460978E-002   0.0000000000000000     
  -1.8892882611744172E-002   9.8692074048924647E-002   0.0000000000000000     
  -1.9489498138742636E-002  0.10548772845331567        0.0000000000000000     
  -5.5137318322184825E-013  0.10514373234437505        0.0000000000000000     
  -3.8275394138864716E-013  0.11210417120217779        0.0000000000000000     
  -2.8104244192278527E-013  0.11920061223023902        0.0000000000000000     
  -2.4623573037334257E-013  0.12643305542855876        0.0000000000000000     
  -2.7833768276308568E-013  0.13380150079713699        0.0000000000000000     
  -4.8095294606672438E-003  0.10516523210093383        0.0000000000000000     
  -4.9502418408120261E-003  0.11212457832056433        0.0000000000000000     
  -5.0833926604797030E-003  0.11921989749254205        0.0000000000000000     
  -5.2089819196702728E-003  0.12645118961686705        0.0000000000000000     
  -5.3270096183837346E-003  0.13381845469353934        0.0000000000000000     
  -9.6609556370710770E-003  0.10522973137127684        0.0000000000000000     
  -9.9436102258358625E-003  0.11218579967623947        0.0000000000000000     
  -1.0211616359005370E-002  0.11927775327963099        0.0000000000000000     
  -1.0464974036579599E-002  0.12650559218145138        0.0000000000000000     
  -1.0703683258558552E-002  0.13386931638170066        0.0000000000000000     
  -1.4554278529762873E-002  0.10533723015540412        0.0000000000000000     
  -1.4980105155454263E-002  0.11228783526920329        0.0000000000000000     
  -1.5384671095858039E-002  0.11937417959150579        0.0000000000000000     
  -1.5767976350974218E-002  0.12659626312231170        0.0000000000000000     
  -1.6130020920802794E-002  0.13395408586162097        0.0000000000000000     
  -1.9489498138742636E-002  0.10548772845331567        0.0000000000000000     
  -2.0059726629667221E-002  0.11243068509945574        0.0000000000000000     
  -2.0602556871037719E-002  0.11950917642816651        0.0000000000000000     
  -2.1117988862854129E-002  0.12672320243944804        0.0000000000000000     
  -2.1606022605116453E-002  0.13407276313330027        0.0000000000000000     
  -2.7833768276308568E-013  0.13380150079713699        0.0000000000000000     
  -4.5985155787409138E-013  0.14129379746324039        0.0000000000000000     
  -8.7328332499386763E-013  0.14889779455413560        0.0000000000000000     
  -1.5186320354455135E-012  0.15661349206982264        0.0000000000000000     
  -2.3958994510575593E-012  0.16444089001030149        0.0000000000000000     
  -5.3270096183837346E-003  0.13381845469353934        0.0000000000000000     
  -5.4366919486039528E-003  0.14130955573494922        0.0000000000000000     
  -5.5372451023147917E-003  0.14891235575348716        0.0000000000000000     
  -5.6286690795162488E-003  0.15662685474915311        0.0000000000000000     
  -5.7109638802083232E-003  0.16445305272194707        0.0000000000000000     
  -1.0703683258558552E-002  0.13386931638170066        0.0000000000000000     
  -1.0926646720411484E-002  0.14135683054807391        0.0000000000000000     
  -1.1132767117607648E-002  0.14895603934826623        0.0000000000000000     
  -1.1322044450147044E-002  0.15666694278227764        0.0000000000000000     
  -1.1494478718029678E-002  0.16448954085010811        0.0000000000000000     
  -1.6130020920802794E-002  0.13395408586162097        0.0000000000000000     
  -1.6469864315882442E-002  0.14143562190261441        0.0000000000000000     
  -1.6786566046751852E-002  0.14902884533847280        0.0000000000000000     
  -1.7080126113411025E-002  0.15673375616919621        0.0000000000000000     
  -1.7350544515859965E-002  0.16455035439478463        0.0000000000000000     
  -2.1606022605116453E-002  0.13407276313330027        0.0000000000000000     
  -2.2066344735016827E-002  0.14154592979857075        0.0000000000000000     
  -2.2498641889747407E-002  0.14913077372410691        0.0000000000000000     
  -2.2902914069308191E-002  0.15682729490990890        0.0000000000000000     
  -2.3279161273699178E-002  0.16463549335597658        0.0000000000000000     
   0.0000000000000000        0.0000000000000000        0.0000000000000000     
  -8.4167926265403797E-004   1.1099771262376476E-003   0.0000000000000000     
  -1.7021264188620427E-003   2.5981022580378308E-003   0.0000000000000000     
  -2.5813414686240142E-003   4.4643753954005504E-003   0.0000000000000000     
  -3.4793244119399524E-003   6.7087965383258053E-003   0.0000000000000000     
   0.0000000000000000        0.0000000000000000        0.0000000000000000     
  -1.0567172267647652E-003   1.1341258494995498E-003   0.0000000000000000     
  -2.1397890584338606E-003   2.6503294578514203E-003   0.0000000000000000     
  -3.2492154950072858E-003   4.5486108250556122E-003   0.0000000000000000     
  -4.3849965364850417E-003   6.8289699511121238E-003   0.0000000000000000     
   0.0000000000000000        0.0000000000000000        0.0000000000000000     
  -1.2878437031690283E-003   1.1699868848586154E-003   0.0000000000000000     
  -2.6055557758861247E-003   2.7245812384700035E-003   0.0000000000000000     
  -3.9531362181512882E-003   4.6637830608341653E-003   0.0000000000000000     
  -5.3305850299645192E-003   6.9875923519510975E-003   0.0000000000000000     
   0.0000000000000000        0.0000000000000000        0.0000000000000000     
  -1.5350586918668272E-003   1.2175602323148446E-003   0.0000000000000000     
  -3.0994265712188337E-003   2.8208575998935805E-003   0.0000000000000000     
  -4.6931036380560200E-003   4.8098921027362072E-003   0.0000000000000000     
  -6.3160898923783852E-003   7.1846637408427266E-003   0.0000000000000000     
   0.0000000000000000        0.0000000000000000        0.0000000000000000     
  -1.7983621928581621E-003   1.2768458918682368E-003   0.0000000000000000     
  -3.6214014444319893E-003   2.9391585421221509E-003   0.0000000000000000     
  -5.4691177547214823E-003   4.9869379507617431E-003   0.0000000000000000     
  -7.3415111237266403E-003   7.4201841177870117E-003   0.0000000000000000     
  -3.4793244119399524E-003   6.7087965383258053E-003   0.0000000000000000     
  -4.3878345817444757E-003   9.2940428725491273E-003   0.0000000000000000     
  -5.2986313109722061E-003   1.2182791583806047E-002   0.0000000000000000     
  -6.2117145996231386E-003   1.5375042672096563E-002   0.0000000000000000     
  -7.1270844476972774E-003   1.8870796137420671E-002   0.0000000000000000     
  -4.3849965364850417E-003   6.8289699511121238E-003   0.0000000000000000     
  -5.5341702282306962E-003   9.4493948375322899E-003   0.0000000000000000     
  -6.6837746156078199E-003   1.2367873485827444E-002   0.0000000000000000     
  -7.8338096986164101E-003   1.5584405895997588E-002   0.0000000000000000     
  -8.9842754772564686E-003   1.9098992068042723E-002   0.0000000000000000     
  -5.3305850299645192E-003   6.9875923519510975E-003   0.0000000000000000     
  -6.7234682611158614E-003   9.6499211545316519E-003   0.0000000000000000     
  -8.1173519613953540E-003   1.2604681511286674E-002   0.0000000000000000     
  -9.5122361308029989E-003   1.5851873422216160E-002   0.0000000000000000     
  -1.0908120769338794E-002   1.9391496887320118E-002   0.0000000000000000     
  -6.3160898923783852E-003   7.1846637408427266E-003   0.0000000000000000     
  -7.9557286803999695E-003   9.8956218235472099E-003   0.0000000000000000     
  -9.5993633483348051E-003   1.2893215660183727E-002   0.0000000000000000     
  -1.1246993896182901E-002   1.6177445250752282E-002   0.0000000000000000     
  -1.2898620323944246E-002   1.9748310595252869E-002   0.0000000000000000     
  -7.3415111237266403E-003   7.4201841177870117E-003   0.0000000000000000     
  -9.2309514860830187E-003   1.0186496844578964E-002   0.0000000000000000     
  -1.1129808776426180E-002   1.3233475932518609E-002   0.0000000000000000     
  -1.3038082994756117E-002   1.6561121381605946E-002   0.0000000000000000     
  -1.4955774141072834E-002   2.0169433191840971E-002   0.0000000000000000     
  -7.1270844476972774E-003   1.8870796137420671E-002   0.0000000000000000     
  -8.0380526339442898E-003   2.2644133051168608E-002   0.0000000000000000     
  -8.9379309371138416E-003   2.6669134484730583E-002   0.0000000000000000     
  -9.8267193572059361E-003   3.0945800438106606E-002   0.0000000000000000     
  -1.0704417894220573E-002   3.5474130911296677E-002   0.0000000000000000     
  -8.9842754772564686E-003   1.9098992068042723E-002   0.0000000000000000     
  -1.0128060066034733E-002   2.2886793390722356E-002   0.0000000000000000     
  -1.1258051579457938E-002   2.6922971252796024E-002   0.0000000000000000     
  -1.2374250017526088E-002   3.1207525654263733E-002   0.0000000000000000     
  -1.3476655380239176E-002   3.5740456595125453E-002   0.0000000000000000     
  -1.0908120769338794E-002   1.9391496887320118E-002   0.0000000000000000     
  -1.2294636425752856E-002   2.3198616662739580E-002   0.0000000000000000     
  -1.3661413648795306E-002   2.7248297504615583E-002   0.0000000000000000     
  -1.5008452438466142E-002   3.1540539412948133E-002   0.0000000000000000     
  -1.6335752794765363E-002   3.6075342387737235E-002   0.0000000000000000     
  -1.2898620323944246E-002   1.9748310595252869E-002   0.0000000000000000     
  -1.4537781713098660E-002   2.3579602867220269E-002   0.0000000000000000     
  -1.6148017145125943E-002   2.7645113240189256E-002   0.0000000000000000     
  -1.7729326620026103E-002   3.1944841714159830E-002   0.0000000000000000     
  -1.9281710137799130E-002   3.6478788289132001E-002   0.0000000000000000     
  -1.4955774141072834E-002   2.0169433191840971E-002   0.0000000000000000     
  -1.6857495928072140E-002   2.4029752004164420E-002   0.0000000000000000     
  -1.8717862068449848E-002   2.8113418459517033E-002   0.0000000000000000     
  -2.0536872562205960E-002   3.2420432557898810E-002   0.0000000000000000     
  -2.2314527409340479E-002   3.6950794299309753E-002   0.0000000000000000     
  -1.0704417894220573E-002   3.5474130911296677E-002   0.0000000000000000     
  -1.1565402108945173E-002   4.0233999960929571E-002   0.0000000000000000     
  -1.2404047562167165E-002   4.5205281643634083E-002   0.0000000000000000     
  -1.3220354253886544E-002   5.0387975959410226E-002   0.0000000000000000     
  -1.4014322184103319E-002   5.5782082908257966E-002   0.0000000000000000     
  -1.3476655380239176E-002   3.5740456595125453E-002   0.0000000000000000     
  -1.4557711768639583E-002   4.0502103033740633E-002   0.0000000000000000     
  -1.5609863283769678E-002   4.5472803928468690E-002   0.0000000000000000     
  -1.6633109925629459E-002   5.0652559279309610E-002   0.0000000000000000     
  -1.7627451694218924E-002   5.6041369086263414E-002   0.0000000000000000     
  -1.6335752794765363E-002   3.6075342387737235E-002   0.0000000000000000     
  -1.7635647598553756E-002   4.0835158739419841E-002   0.0000000000000000     
  -1.8900469730692118E-002   4.5802440778432950E-002   0.0000000000000000     
  -2.0130219191180430E-002   5.0977188504776526E-002   0.0000000000000000     
  -2.1324895980018712E-002   5.6359401918450597E-002   0.0000000000000000     
  -1.9281710137799130E-002   3.6478788289132001E-002   0.0000000000000000     
  -2.0799209598687703E-002   4.1233167077967189E-002   0.0000000000000000     
  -2.2275866902934482E-002   4.6194192193526835E-002   0.0000000000000000     
  -2.3711682050539477E-002   5.1361863635810946E-002   0.0000000000000000     
  -2.5106655041502675E-002   5.6736181404819515E-002   0.0000000000000000     
  -2.2314527409340479E-002   3.6950794299309753E-002   0.0000000000000000     
  -2.4048397769041410E-002   4.1696128049382671E-002   0.0000000000000000     
  -2.5736054800496774E-002   4.6648058173750374E-002   0.0000000000000000     
  -2.7377498503706580E-002   5.1806584672412878E-002   0.0000000000000000     
  -2.8972728878670820E-002   5.7171707545370161E-002   0.0000000000000000     
  -1.4014322184103319E-002   5.5782082908257966E-002   0.0000000000000000     
  -1.4784949778145135E-002   6.1374283278111751E-002   0.0000000000000000     
  -1.5531235461339655E-002   6.7151257856905955E-002   0.0000000000000000     
  -1.6253179233686882E-002   7.3113006644640599E-002   0.0000000000000000     
  -1.6950781095186811E-002   7.9259529641315690E-002   0.0000000000000000     
  -1.7627451694218924E-002   5.6041369086263414E-002   0.0000000000000000     
  -1.8592181442921202E-002   6.1626865788052050E-002   0.0000000000000000     
  -1.9526592025119405E-002   6.7396681823397503E-002   0.0000000000000000     
  -2.0430683440813540E-002   7.3350817192299758E-002   0.0000000000000000     
  -2.1304455690003596E-002   7.9489271894758837E-002   0.0000000000000000     
  -2.1324895980018712E-002   5.6359401918450597E-002   0.0000000000000000     
  -2.2483711067838471E-002   6.1937110066235763E-002   0.0000000000000000     
  -2.3605875425271212E-002   6.7698341994912647E-002   0.0000000000000000     
  -2.4691389052316944E-002   7.3643097704481214E-002   0.0000000000000000     
  -2.5740251948975661E-002   7.9771377194941526E-002   0.0000000000000000     
  -2.5106655041502675E-002   5.6736181404819515E-002   0.0000000000000000     
  -2.6459538652896929E-002   6.2305016112662870E-002   0.0000000000000000     
  -2.7769085661795069E-002   6.8056238371451361E-002   0.0000000000000000     
  -2.9035296068197089E-002   7.3989848181184995E-002   0.0000000000000000     
  -3.0258169872102999E-002   8.0105845541863757E-002   0.0000000000000000     
  -2.8972728878670820E-002   5.7171707545370161E-002   0.0000000000000000     
  -3.0519664198096590E-002   6.2730583927333383E-002   0.0000000000000000     
  -3.2016222734690972E-002   6.8470370953013684E-002   0.0000000000000000     
  -3.3462404488453987E-002   7.4391068622411072E-002   0.0000000000000000     
  -3.4858209459385614E-002   8.0492676935525517E-002   0.0000000000000000     
  -1.6950781095186811E-002   7.9259529641315690E-002   0.0000000000000000     
  -1.7623524089966258E-002   8.5577974642924659E-002   0.0000000000000000     
  -1.8270891262152048E-002   9.2055489445460978E-002   0.0000000000000000     
  -1.8892882611744172E-002   9.8692074048924647E-002   0.0000000000000000     
  -1.9489498138742636E-002  0.10548772845331567        0.0000000000000000     
  -2.1304455690003596E-002   7.9489271894758837E-002   0.0000000000000000     
  -2.2147209407027579E-002   8.5799275108959031E-002   0.0000000000000000     
  -2.2958245226223466E-002   9.2268056013084646E-002   0.0000000000000000     
  -2.3737563147591276E-002   9.8895614607135696E-002   0.0000000000000000     
  -2.4485163171130996E-002  0.10568195089111218        0.0000000000000000     
  -2.5740251948975661E-002   7.9771377194941526E-002   0.0000000000000000     
  -2.6751878246641624E-002   8.6070736036868184E-002   0.0000000000000000     
  -2.7725682076709106E-002   9.2528729800835888E-002   0.0000000000000000     
  -2.8661663439178097E-002   9.9145358486844609E-002   0.0000000000000000     
  -2.9559822334048601E-002  0.10592062209489436        0.0000000000000000     
  -3.0258169872102999E-002   8.0105845541863757E-002   0.0000000000000000     
  -3.1437530608808426E-002   8.6392357426652161E-002   0.0000000000000000     
  -3.2573201813608968E-002   9.2837510808714691E-002   0.0000000000000000     
  -3.3665183486504636E-002   9.9441305688051373E-002   0.0000000000000000     
  -3.4713475627495445E-002  0.10620374206466222        0.0000000000000000     
  -3.4858209459385614E-002   8.0492676935525517E-002   0.0000000000000000     
  -3.6204166493527937E-002   8.6764139278310920E-002   0.0000000000000000     
  -3.7500804436923038E-002   9.3194399036721082E-002   0.0000000000000000     
  -3.8748123289570890E-002   9.9783456210756044E-002   0.0000000000000000     
  -3.9946123051471528E-002  0.10653131080041575        0.0000000000000000     
  -1.9489498138742636E-002  0.10548772845331567        0.0000000000000000     
  -2.0059726629667221E-002  0.11243068509945574        0.0000000000000000     
  -2.0602556871037719E-002  0.11950917642816651        0.0000000000000000     
  -2.1117988862854129E-002  0.12672320243944804        0.0000000000000000     
  -2.1606022605116453E-002  0.13407276313330027        0.0000000000000000     
  -2.4485163171130996E-002  0.10568195089111218        0.0000000000000000     
  -2.5200240325035907E-002  0.11261529932250372        0.0000000000000000     
  -2.5881989637499270E-002  0.11968389435879995        0.0000000000000000     
  -2.6530411108521095E-002  0.12688773600000092        0.0000000000000000     
  -2.7145504738101376E-002  0.13422682424610655        0.0000000000000000     
  -2.9559822334048601E-002  0.10592062209489436        0.0000000000000000     
  -3.0419411918121472E-002  0.11284262809385415        0.0000000000000000     
  -3.1239685348197564E-002  0.11989948395259298        0.0000000000000000     
  -3.2020642624276875E-002  0.12709118967111083        0.0000000000000000     
  -3.2762283746359415E-002  0.13441774524940775        0.0000000000000000     
  -3.4713475627495445E-002  0.10620374206466222        0.0000000000000000     
  -3.5717241408923919E-002  0.11311267141350700        0.0000000000000000     
  -3.6675644003132592E-002  0.12015594520954555        0.0000000000000000     
  -3.7588683410121476E-002  0.12733356345277783        0.0000000000000000     
  -3.8456359629890559E-002  0.13464552614320388        0.0000000000000000     
  -3.9946123051471528E-002  0.10653131080041575        0.0000000000000000     
  -4.1093728797443239E-002  0.11342542928146229        0.0000000000000000     
  -4.2189865602304366E-002  0.12045327812965768        0.0000000000000000     
  -4.3234533466054888E-002  0.12761485734500189        0.0000000000000000     
  -4.4227732388694818E-002  0.13491016692749494        0.0000000000000000     
  -2.1606022605116453E-002  0.13407276313330027        0.0000000000000000     
  -2.2066344735016827E-002  0.14154592979857075        0.0000000000000000     
  -2.2498641889747407E-002  0.14913077372410691        0.0000000000000000     
  -2.2902914069308191E-002  0.15682729490990890        0.0000000000000000     
  -2.3279161273699178E-002  0.16463549335597658        0.0000000000000000     
  -2.7145504738101376E-002  0.13422682424610655        0.0000000000000000     
  -2.7727689602569234E-002  0.14168941893616863        0.0000000000000000     
  -2.8277384778253794E-002  0.14926377990923884        0.0000000000000000     
  -2.8794590265155049E-002  0.15694990716531720        0.0000000000000000     
  -2.9279306063273013E-002  0.16474780070440379        0.0000000000000000     
  -3.2762283746359415E-002  0.13441774524940775        0.0000000000000000     
  -3.3465500543294259E-002  0.14186775401563373        0.0000000000000000     
  -3.4131184843930490E-002  0.14942981929793872        0.0000000000000000     
  -3.4759336648268122E-002  0.15710394109632289        0.0000000000000000     
  -3.5349955956307147E-002  0.16489011941078607        0.0000000000000000     
  -3.8456359629890559E-002  0.13464552614320388        0.0000000000000000     
  -3.9279777557191892E-002  0.14208093503696603        0.0000000000000000     
  -4.0060042086777506E-002  0.14962889189020667        0.0000000000000000     
  -4.0797153218647408E-002  0.15728939670292583        0.0000000000000000     
  -4.1491110952801585E-002  0.16506244947512341        0.0000000000000000     
  -4.4227732388694818E-002  0.13491016692749494        0.0000000000000000     
  -4.5170520644262135E-002  0.14232896200016562        0.0000000000000000     
  -4.6063956506794831E-002  0.14986099768604266        0.0000000000000000     
  -4.6908039976292892E-002  0.15750627398512604        0.0000000000000000     
  -4.7702771052756332E-002  0.16526479089741589        0.0000000000000000     
   0.0000000000000000        0.0000000000000000        0.0000000000000000     
  -1.7983621928581621E-003   1.2768458918682368E-003   0.0000000000000000     
  -3.6214014444319893E-003   2.9391585421221509E-003   0.0000000000000000     
  -5.4691177547214823E-003   4.9869379507617431E-003   0.0000000000000000     
  -7.3415111237266403E-003   7.4201841177870117E-003   0.0000000000000000     
   0.0000000000000000        0.0000000000000000        0.0000000000000000     
  -2.0694803999281057E-003   1.3549553796533545E-003   0.0000000000000000     
  -4.1641252287378276E-003   3.0939918582000721E-003   0.0000000000000000     
  -6.2839344864291675E-003   5.2171094356401526E-003   0.0000000000000000     
  -8.4289081730021219E-003   7.7243081119735962E-003   0.0000000000000000     
   0.0000000000000000        0.0000000000000000        0.0000000000000000     
  -2.3401395068617299E-003   1.4590002118047602E-003   0.0000000000000000     
  -4.7202427573485861E-003   3.2998653411717006E-003   0.0000000000000000     
  -7.1403097514605674E-003   5.5225953881008222E-003   0.0000000000000000     
  -9.6003404891976743E-003   8.1271903525921233E-003   0.0000000000000000     
   0.0000000000000000        0.0000000000000000        0.0000000000000000     
  -2.6103395136590360E-003   1.5889803883224532E-003   0.0000000000000000     
  -5.2897540302642631E-003   3.5567789910370372E-003   0.0000000000000000     
  -8.0382435498156813E-003   5.9033958081437521E-003   0.0000000000000000     
  -1.0855808072313291E-002   8.6288308396425973E-003   0.0000000000000000     
   0.0000000000000000        0.0000000000000000        0.0000000000000000     
  -2.8800804203200229E-003   1.7448959092064343E-003   0.0000000000000000     
  -5.8726590474848595E-003   3.8647328077960810E-003   0.0000000000000000     
  -8.9777358814945116E-003   6.3595106957689404E-003   0.0000000000000000     
  -1.2195310922348979E-002   9.2292295731250130E-003   0.0000000000000000     
  -7.3415111237266403E-003   7.4201841177870117E-003   0.0000000000000000     
  -9.2309514860830187E-003   1.0186496844578964E-002   0.0000000000000000     
  -1.1129808776426180E-002   1.3233475932518609E-002   0.0000000000000000     
  -1.3038082994756117E-002   1.6561121381605946E-002   0.0000000000000000     
  -1.4955774141072834E-002   2.0169433191840971E-002   0.0000000000000000     
  -8.4289081730021219E-003   7.7243081119735962E-003   0.0000000000000000     
  -1.0590775256738251E-002   1.0558176842345231E-002   0.0000000000000000     
  -1.2761264705919102E-002   1.3661304581899883E-002   0.0000000000000000     
  -1.4940376520544682E-002   1.7033691330637556E-002   0.0000000000000000     
  -1.7128110700614985E-002   2.0675337088558243E-002   0.0000000000000000     
  -9.6003404891976743E-003   8.1271903525921233E-003   0.0000000000000000     
  -1.2076838570938891E-002   1.1046292441564317E-002   0.0000000000000000     
  -1.4546307597063209E-002   1.4212543861936110E-002   0.0000000000000000     
  -1.7008747567570631E-002   1.7625944613707499E-002   0.0000000000000000     
  -1.9464158482461139E-002   2.1286494696878499E-002   0.0000000000000000     
  -1.0855808072313291E-002   8.6288308396425973E-003   0.0000000000000000     
  -1.3689141428684949E-002   1.1650843642236225E-002   0.0000000000000000     
  -1.6484937449858503E-002   1.4887193772627295E-002   0.0000000000000000     
  -1.9243196135833952E-002   1.8337881230815804E-002   0.0000000000000000     
  -2.1963917486611303E-002   2.2002906016801750E-002   0.0000000000000000     
  -1.2195310922348979E-002   9.2292295731250130E-003   0.0000000000000000     
  -1.5427683829976415E-002   1.2371830444360956E-002   0.0000000000000000     
  -1.8577154264304976E-002   1.5685254313973433E-002   0.0000000000000000     
  -2.1643722225334654E-002   1.9169501181962447E-002   0.0000000000000000     
  -2.4627387713065461E-002   2.2824571048327989E-002   0.0000000000000000     
  -1.4955774141072834E-002   2.0169433191840971E-002   0.0000000000000000     
  -1.6857495928072140E-002   2.4029752004164420E-002   0.0000000000000000     
  -1.8717862068449848E-002   2.8113418459517033E-002   0.0000000000000000     
  -2.0536872562205960E-002   3.2420432557898810E-002   0.0000000000000000     
  -2.2314527409340479E-002   3.6950794299309753E-002   0.0000000000000000     
  -1.7128110700614985E-002   2.0675337088558243E-002   0.0000000000000000     
  -1.9293166601544804E-002   2.4558514124560473E-002   0.0000000000000000     
  -2.1404243578748924E-002   2.8655494707542781E-002   0.0000000000000000     
  -2.3461341632227350E-002   3.2966278837505157E-002   0.0000000000000000     
  -2.5464460761980074E-002   3.7490866514447607E-002   0.0000000000000000     
  -1.9464158482461139E-002   2.1286494696878499E-002   0.0000000000000000     
  -2.1884181264388156E-002   2.5175339279396854E-002   0.0000000000000000     
  -2.4240456836005064E-002   2.9273623529210330E-002   0.0000000000000000     
  -2.6532985197311874E-002   3.3581347446318938E-002   0.0000000000000000     
  -2.8761766348308581E-002   3.8098511030722655E-002   0.0000000000000000     
  -2.1963917486611303E-002   2.2002906016801750E-002   0.0000000000000000     
  -2.4630539916602197E-002   2.5880227468673571E-002   0.0000000000000000     
  -2.7226501840218277E-002   2.9967804924519708E-002   0.0000000000000000     
  -2.9751803257459547E-002   3.4265638384340137E-002   0.0000000000000000     
  -3.2206444168326007E-002   3.8773727848134890E-002   0.0000000000000000     
  -2.4627387713065461E-002   2.2824571048327989E-002   0.0000000000000000     
  -2.7532242558186926E-002   2.6673178692390619E-002   0.0000000000000000     
  -3.0362378591388552E-002   3.0738038893470883E-002   0.0000000000000000     
  -3.3117795812670367E-002   3.5019151651568776E-002   0.0000000000000000     
  -3.5798494222032351E-002   3.9516516966684317E-002   0.0000000000000000     
  -2.2314527409340479E-002   3.6950794299309753E-002   0.0000000000000000     
  -2.4048397769041410E-002   4.1696128049382671E-002   0.0000000000000000     
  -2.5736054800496774E-002   4.6648058173750374E-002   0.0000000000000000     
  -2.7377498503706580E-002   5.1806584672412878E-002   0.0000000000000000     
  -2.8972728878670820E-002   5.7171707545370161E-002   0.0000000000000000     
  -2.5464460761980074E-002   3.7490866514447607E-002   0.0000000000000000     
  -2.7414669266130409E-002   4.2225480775398345E-002   0.0000000000000000     
  -2.9313035442801678E-002   4.7166344657385617E-002   0.0000000000000000     
  -3.1159559291993877E-002   5.2313458160409394E-002   0.0000000000000000     
  -3.2954240813707000E-002   5.7666821284469712E-002   0.0000000000000000     
  -2.8761766348308581E-002   3.8098511030722655E-002   0.0000000000000000     
  -3.0929481246470231E-002   4.2822664377746275E-002   0.0000000000000000     
  -3.3038810849271856E-002   4.7751357582714593E-002   0.0000000000000000     
  -3.5089755156713490E-002   5.2884590645627602E-002   0.0000000000000000     
  -3.7082314168795087E-002   5.8222363566485316E-002   0.0000000000000000     
  -3.2206444168326007E-002   3.8773727848134890E-002   0.0000000000000000     
  -3.4592833710060868E-002   4.3487678856426445E-002   0.0000000000000000     
  -3.6913381019907328E-002   4.8403096949737316E-002   0.0000000000000000     
  -3.9168086097865394E-002   5.3519982128067502E-002   0.0000000000000000     
  -4.1356948943935060E-002   5.8838334391416988E-002   0.0000000000000000     
  -3.5798494222032351E-002   3.9516516966684317E-002   0.0000000000000000     
  -3.8404726656902317E-002   4.4220524211438857E-002   0.0000000000000000     
  -4.0936745954708080E-002   4.9121562758453773E-002   0.0000000000000000     
  -4.3394552115449618E-002   5.4219632607729065E-002   0.0000000000000000     
  -4.5778145139126945E-002   5.9514733759264714E-002   0.0000000000000000     
  -2.8972728878670820E-002   5.7171707545370161E-002   0.0000000000000000     
  -3.0519664198096590E-002   6.2730583927333383E-002   0.0000000000000000     
  -3.2016222734690972E-002   6.8470370953013684E-002   0.0000000000000000     
  -3.3462404488453987E-002   7.4391068622411072E-002   0.0000000000000000     
  -3.4858209459385614E-002   8.0492676935525517E-002   0.0000000000000000     
  -3.2954240813707000E-002   5.7666821284469712E-002   0.0000000000000000     
  -3.4694353146362093E-002   6.3213163492310487E-002   0.0000000000000000     
  -3.6377169428380186E-002   6.8939214246675692E-002   0.0000000000000000     
  -3.8002689659761286E-002   7.4844973547565308E-002   0.0000000000000000     
  -3.9570913840505387E-002   8.0930441394979347E-002   0.0000000000000000     
  -3.7082314168795087E-002   5.8222363566485316E-002   0.0000000000000000     
  -3.9013870940618096E-002   6.3752104789657399E-002   0.0000000000000000     
  -4.0881808527283958E-002   6.9461242759513486E-002   0.0000000000000000     
  -4.2686126928792666E-002   7.5349777476053620E-002   0.0000000000000000     
  -4.4426826145144205E-002   8.1417708939277758E-002   0.0000000000000000     
  -4.1356948943935060E-002   5.8838334391416988E-002   0.0000000000000000     
  -4.3478217580864599E-002   6.4347407819374092E-002   0.0000000000000000     
  -4.5530140031402294E-002   7.0036456491527094E-002   0.0000000000000000     
  -4.7512716295548110E-002   7.5905480407875980E-002   0.0000000000000000     
  -4.9425946373302054E-002   8.1954479568420752E-002   0.0000000000000000     
  -4.5778145139126945E-002   5.9514733759264714E-002   0.0000000000000000     
  -4.8087393067101615E-002   6.4999072581460579E-002   0.0000000000000000     
  -5.0322163940735173E-002   7.0664855442716473E-002   0.0000000000000000     
  -5.2482457760027620E-002   7.6512082343032389E-002   0.0000000000000000     
  -5.4568274524978956E-002   8.2540753282408313E-002   0.0000000000000000     
  -3.4858209459385614E-002   8.0492676935525517E-002   0.0000000000000000     
  -3.6204166493527937E-002   8.6764139278310920E-002   0.0000000000000000     
  -3.7500804436923038E-002   9.3194399036721082E-002   0.0000000000000000     
  -3.8748123289570890E-002   9.9783456210756044E-002   0.0000000000000000     
  -3.9946123051471528E-002  0.10653131080041575        0.0000000000000000     
  -3.9570913840505387E-002   8.0930441394979347E-002   0.0000000000000000     
  -4.1083066072474826E-002   8.7185189934865348E-002   0.0000000000000000     
  -4.2540370457531923E-002   9.3598791313170823E-002   0.0000000000000000     
  -4.3942826995676670E-002  0.10017124552989580        0.0000000000000000     
  -4.5290435686909068E-002  0.10690255258504025        0.0000000000000000     
  -4.4426826145144205E-002   8.1417708939277758E-002   0.0000000000000000     
  -4.6105509517323687E-002   8.7654617739336346E-002   0.0000000000000000     
  -4.7723780386316202E-002   9.4050084466379733E-002   0.0000000000000000     
  -4.9281638752121742E-002  0.10060410912040794        0.0000000000000000     
  -5.0779084614740316E-002  0.10731669170142100        0.0000000000000000     
  -4.9425946373302054E-002   8.1954479568420752E-002   0.0000000000000000     
  -5.1271496828074518E-002   8.8172422691723887E-002   0.0000000000000000     
  -5.3051034223275888E-002   9.4548278496347796E-002   0.0000000000000000     
  -5.4764558558906128E-002  0.10108204698229248        0.0000000000000000     
  -5.6412069834965252E-002  0.10777372814955798        0.0000000000000000     
  -5.4568274524978956E-002   8.2540753282408313E-002   0.0000000000000000     
  -5.6581028004727356E-002   8.8738604792027970E-002   0.0000000000000000     
  -5.8522131968410954E-002   9.5093373403075013E-002   0.0000000000000000     
  -6.0391586416029819E-002  0.10160505911554940        0.0000000000000000     
  -6.2189391347583882E-002  0.10827366192945119        0.0000000000000000     
  -3.9946123051471528E-002  0.10653131080041575        0.0000000000000000     
  -4.1093728797443239E-002  0.11342542928146229        0.0000000000000000     
  -4.2189865602304366E-002  0.12045327812965768        0.0000000000000000     
  -4.3234533466054888E-002  0.12761485734500189        0.0000000000000000     
  -4.4227732388694818E-002  0.13491016692749494        0.0000000000000000     
  -4.5290435686909068E-002  0.10690255258504025        0.0000000000000000     
  -4.6581824197367755E-002  0.11377991042867611        0.0000000000000000     
  -4.7815620193191313E-002  0.12079051701087527        0.0000000000000000     
  -4.8991823674379743E-002  0.12793437233163776        0.0000000000000000     
  -5.0110434640933073E-002  0.13521147639096351        0.0000000000000000     
  -5.0779084614740316E-002  0.10731669170142100        0.0000000000000000     
  -5.2214477722385751E-002  0.11417512358610453        0.0000000000000000     
  -5.3586177823271873E-002  0.12116669615114427        0.0000000000000000     
  -5.4894184917398690E-002  0.12829140939654013        0.0000000000000000     
  -5.6138499004766196E-002  0.13554926332229222        0.0000000000000000     
  -5.6412069834965252E-002  0.10777372814955798        0.0000000000000000     
  -5.7991689372497247E-002  0.11461106875374757        0.0000000000000000     
  -5.9501538492546066E-002  0.12158181555046463        0.0000000000000000     
  -6.0941617195111708E-002  0.12868596853970909        0.0000000000000000     
  -6.2311925480194187E-002  0.13592352772148097        0.0000000000000000     
  -6.2189391347583882E-002  0.10827366192945119        0.0000000000000000     
  -6.3913459147702231E-002  0.11508774593160523        0.0000000000000000     
  -6.5561702201013872E-002  0.12203587520883635        0.0000000000000000     
  -6.7134120507518810E-002  0.12911804976114458        0.0000000000000000     
  -6.8630714067217061E-002  0.13633426958852990        0.0000000000000000     
  -4.4227732388694818E-002  0.13491016692749494        0.0000000000000000     
  -4.5170520644262135E-002  0.14232896200016562        0.0000000000000000     
  -4.6063956506794831E-002  0.14986099768604266        0.0000000000000000     
  -4.6908039976292892E-002  0.15750627398512604        0.0000000000000000     
  -4.7702771052756332E-002  0.16526479089741589        0.0000000000000000     
  -5.0110434640933073E-002  0.13521147639096351        0.0000000000000000     
  -5.1172483146135719E-002  0.14261155335382028        0.0000000000000000     
  -5.2178999243272163E-002  0.15012432738517575        0.0000000000000000     
  -5.3129982932342390E-002  0.15774979848502990        0.0000000000000000     
  -5.4025434213346414E-002  0.16548796665338275        0.0000000000000000     
  -5.6138499004766196E-002  0.13554926332229222        0.0000000000000000     
  -5.7320418404443366E-002  0.14292842754651802        0.0000000000000000     
  -5.8441241435499204E-002  0.15041707168733515        0.0000000000000000     
  -5.9500968097933711E-002  0.15801519574474363        0.0000000000000000     
  -6.0499598391746873E-002  0.16572279971874337        0.0000000000000000     
  -6.2311925480194187E-002  0.13592352772148097        0.0000000000000000     
  -6.3614326419185088E-002  0.14327958457825873        0.0000000000000000     
  -6.4850683083475955E-002  0.15073923059252081        0.0000000000000000     
  -6.6020995473066835E-002  0.15830246576426715        0.0000000000000000     
  -6.7125263587957701E-002  0.16596929009349776        0.0000000000000000     
  -6.8630714067217061E-002  0.13633426958852990        0.0000000000000000     
  -7.0054207190360859E-002  0.14366502444904256        0.0000000000000000     
  -7.1407324187202414E-002  0.15109080410073278        0.0000000000000000     
  -7.2690065057741768E-002  0.15861160854360057        0.0000000000000000     
  -7.3902429801978892E-002  0.16622743777764593        0.0000000000000000     
   0.0000000000000000        0.0000000000000000        0.0000000000000000     
  -2.8800804203200229E-003   1.7448959092064343E-003   0.0000000000000000     
  -5.8726590474848595E-003   3.8647328077960810E-003   0.0000000000000000     
  -8.9777358814945116E-003   6.3595106957689404E-003   0.0000000000000000     
  -1.2195310922348979E-002   9.2292295731250130E-003   0.0000000000000000     
   0.0000000000000000        0.0000000000000000        0.0000000000000000     
  -3.2832089895656756E-003   1.9994059506921449E-003   0.0000000000000000     
  -6.6769459324711638E-003   4.3310370245093766E-003   0.0000000000000000     
  -1.0181210828716465E-002   6.9948932214516958E-003   0.0000000000000000     
  -1.3796003678301572E-002   9.9909745415191018E-003   0.0000000000000000     
   0.0000000000000000        0.0000000000000000        0.0000000000000000     
  -3.9535719841169792E-003   2.4251696890150278E-003   0.0000000000000000     
  -7.9106028086839593E-003   5.0630018742374699E-003   0.0000000000000000     
  -1.1871092473700936E-002   7.9134965556673237E-003   0.0000000000000000     
  -1.5835040979167915E-002   1.0976653733304595E-002   0.0000000000000000     
   0.0000000000000000        0.0000000000000000        0.0000000000000000     
  -4.8911694039739323E-003   3.0221871241750816E-003   0.0000000000000000     
  -9.5736296761232444E-003   6.0606273569803566E-003   0.0000000000000000     
  -1.4047380816447935E-002   9.1153206984158266E-003   0.0000000000000000     
  -1.8312422824948011E-002   1.2186267148481490E-002   0.0000000000000000     
   0.0000000000000000        0.0000000000000000        0.0000000000000000     
  -6.0960012491365371E-003   3.7904582561723082E-003   0.0000000000000000     
  -1.1666026534789025E-002   7.3239134727380419E-003   0.0000000000000000     
  -1.6710075856957461E-002   1.0600365649697199E-002   0.0000000000000000     
  -2.1228149215641843E-002   1.3619814787049784E-002   0.0000000000000000     
  -1.2195310922348979E-002   9.2292295731250130E-003   0.0000000000000000     
  -1.5427683829976415E-002   1.2371830444360956E-002   0.0000000000000000     
  -1.8577154264304976E-002   1.5685254313973433E-002   0.0000000000000000     
  -2.1643722225334654E-002   1.9169501181962447E-002   0.0000000000000000     
  -2.4627387713065461E-002   2.2824571048327989E-002   0.0000000000000000     
  -1.3796003678301572E-002   9.9909745415191018E-003   0.0000000000000000     
  -1.7404273316760002E-002   1.3221297876555009E-002   0.0000000000000000     
  -2.0888968579625251E-002   1.6587880118402832E-002   0.0000000000000000     
  -2.4250089466897325E-002   2.0090721267062576E-002   0.0000000000000000     
  -2.7487635978576227E-002   2.3729821322534230E-002   0.0000000000000000     
  -1.5835040979167915E-002   1.0976653733304595E-002   0.0000000000000000     
  -1.9730717430982415E-002   1.4211290967434882E-002   0.0000000000000000     
  -2.3486390935041960E-002   1.7576225818343789E-002   0.0000000000000000     
  -2.7102061491346547E-002   2.1071458286031325E-002   0.0000000000000000     
  -3.0577729099896183E-002   2.4696988370497473E-002   0.0000000000000000     
  -1.8312422824948011E-002   1.2186267148481490E-002   0.0000000000000000     
  -2.2407016172643658E-002   1.5341809717000571E-002   0.0000000000000000     
  -2.6369421330555101E-002   1.8650291413796306E-002   0.0000000000000000     
  -3.0199638298682330E-002   2.2111712238868694E-002   0.0000000000000000     
  -3.3897667077025351E-002   2.5726072192217727E-002   0.0000000000000000     
  -2.1228149215641843E-002   1.3619814787049784E-002   0.0000000000000000     
  -2.5433169541743732E-002   1.6612854125252083E-002   0.0000000000000000     
  -2.9538059766164672E-002   1.9810076904760381E-002   0.0000000000000000     
  -3.3542819888904660E-002   2.3211483125574688E-002   0.0000000000000000     
  -3.7447449909963709E-002   2.6817072787694993E-002   0.0000000000000000     
  -2.4627387713065461E-002   2.2824571048327989E-002   0.0000000000000000     
  -2.7532242558186926E-002   2.6673178692390619E-002   0.0000000000000000     
  -3.0362378591388552E-002   3.0738038893470883E-002   0.0000000000000000     
  -3.3117795812670367E-002   3.5019151651568776E-002   0.0000000000000000     
  -3.5798494222032351E-002   3.9516516966684317E-002   0.0000000000000000     
  -2.7487635978576227E-002   2.3729821322534230E-002   0.0000000000000000     
  -3.0624510451338013E-002   2.7547726607327253E-002   0.0000000000000000     
  -3.3683615221858754E-002   3.1586983443951097E-002   0.0000000000000000     
  -3.6664950290138443E-002   3.5847591832405760E-002   0.0000000000000000     
  -3.9568515656177097E-002   4.0329551772691249E-002   0.0000000000000000     
  -3.0577729099896183E-002   2.4696988370497473E-002   0.0000000000000000     
  -3.3942564858251152E-002   2.8497404870262730E-002   0.0000000000000000     
  -3.7225739863971735E-002   3.2517296583847562E-002   0.0000000000000000     
  -4.0427254117057915E-002   3.6756663511251987E-002   0.0000000000000000     
  -4.3547107617509725E-002   4.1215505652475982E-002   0.0000000000000000     
  -3.3897667077025351E-002   2.5726072192217727E-002   0.0000000000000000     
  -3.7486405778926334E-002   2.9522213481197056E-002   0.0000000000000000     
  -4.0988752517727496E-002   3.3528978313160290E-002   0.0000000000000000     
  -4.4404707293428790E-002   3.7746366688107442E-002   0.0000000000000000     
  -4.7734270106030249E-002   4.2174378606038510E-002   0.0000000000000000     
  -3.7447449909963709E-002   2.6817072787694993E-002   0.0000000000000000     
  -4.1256033213363574E-002   3.0622152440130213E-002   0.0000000000000000     
  -4.4972653183126023E-002   3.4622028631889262E-002   0.0000000000000000     
  -4.8597309819251054E-002   3.8816701362972141E-002   0.0000000000000000     
  -5.2130003121738669E-002   4.3206170633378838E-002   0.0000000000000000     
  -3.5798494222032351E-002   3.9516516966684317E-002   0.0000000000000000     
  -3.8404726656902317E-002   4.4220524211438857E-002   0.0000000000000000     
  -4.0936745954708080E-002   4.9121562758453773E-002   0.0000000000000000     
  -4.3394552115449618E-002   5.4219632607729065E-002   0.0000000000000000     
  -4.5778145139126945E-002   5.9514733759264714E-002   0.0000000000000000     
  -3.9568515656177097E-002   4.0329551772691249E-002   0.0000000000000000     
  -4.2392108205996461E-002   4.5019027070394187E-002   0.0000000000000000     
  -4.5133524825618318E-002   4.9902181531101236E-002   0.0000000000000000     
  -4.7792765515042662E-002   5.4979015154812363E-002   0.0000000000000000     
  -5.0369830274269493E-002   6.0249527941527603E-002   0.0000000000000000     
  -4.3547107617509725E-002   4.1215505652475982E-002   0.0000000000000000     
  -4.6581926476345174E-002   4.5881014060903114E-002   0.0000000000000000     
  -4.9528336804582275E-002   5.0740379789916960E-002   0.0000000000000000     
  -5.2386338602221028E-002   5.5793602839517495E-002   0.0000000000000000     
  -5.5155931869261453E-002   6.1040683209704745E-002   0.0000000000000000     
  -4.7734270106030249E-002   4.2174378606038510E-002   0.0000000000000000     
  -5.0974181467948458E-002   4.6806485182965624E-002   0.0000000000000000     
  -5.4121181891599930E-002   5.1636157534900945E-002   0.0000000000000000     
  -5.7175271376984742E-002   5.6663395661844439E-002   0.0000000000000000     
  -6.0136449924102837E-002   6.1888199563796154E-002   0.0000000000000000     
  -5.2130003121738669E-002   4.3206170633378838E-002   0.0000000000000000     
  -5.5568873180806291E-002   4.7795440436581738E-002   0.0000000000000000     
  -5.8912060086671318E-002   5.2589514766053197E-002   0.0000000000000000     
  -6.2159563839333763E-002   5.7588393621793209E-002   0.0000000000000000     
  -6.5311384438793627E-002   6.2792077003801794E-002   0.0000000000000000     
  -4.5778145139126945E-002   5.9514733759264714E-002   0.0000000000000000     
  -4.8087393067101615E-002   6.4999072581460579E-002   0.0000000000000000     
  -5.0322163940735173E-002   7.0664855442716473E-002   0.0000000000000000     
  -5.2482457760027620E-002   7.6512082343032389E-002   0.0000000000000000     
  -5.4568274524978956E-002   8.2540753282408313E-002   0.0000000000000000     
  -5.0369830274269493E-002   6.0249527941527603E-002   0.0000000000000000     
  -5.2866131568030585E-002   6.5708193349552246E-002   0.0000000000000000     
  -5.5283081861057702E-002   7.1349484837191557E-002   0.0000000000000000     
  -5.7620681153350888E-002   7.7173402404445590E-002   0.0000000000000000     
  -5.9878929444910099E-002   8.3179946051314319E-002   0.0000000000000000     
  -5.5155931869261453E-002   6.1040683209704745E-002   0.0000000000000000     
  -5.7839167252352962E-002   6.6475864397284423E-002   0.0000000000000000     
  -6.0438095398145007E-002   7.2093389899062291E-002   0.0000000000000000     
  -6.2952716306637582E-002   7.7893259715038327E-002   0.0000000000000000     
  -6.5383029977830687E-002   8.3875473845212545E-002   0.0000000000000000     
  -6.0136449924102837E-002   6.1888199563796154E-002   0.0000000000000000     
  -6.3006500120068754E-002   6.7302085724657165E-002   0.0000000000000000     
  -6.5787204551997047E-002   7.2896570628328661E-002   0.0000000000000000     
  -6.8478563219887725E-002   7.8671654274810598E-002   0.0000000000000000     
  -7.1080576123740746E-002   8.4627336664103034E-002   0.0000000000000000     
  -6.5311384438793627E-002   6.2792077003801794E-002   0.0000000000000000     
  -6.8368130171177960E-002   6.8186857331670445E-002   0.0000000000000000     
  -7.1330409322613864E-002   7.3759027024990639E-002   0.0000000000000000     
  -7.4198221893101268E-002   7.9508586083762420E-002   0.0000000000000000     
  -7.6971567882640257E-002   8.5435534507985772E-002   0.0000000000000000     
  -5.4568274524978956E-002   8.2540753282408313E-002   0.0000000000000000     
  -5.6581028004727356E-002   8.8738604792027970E-002   0.0000000000000000     
  -5.8522131968410954E-002   9.5093373403075013E-002   0.0000000000000000     
  -6.0391586416029819E-002  0.10160505911554940        0.0000000000000000     
  -6.2189391347583882E-002  0.10827366192945119        0.0000000000000000     
  -5.9878929444910099E-002   8.3179946051314319E-002   0.0000000000000000     
  -6.2058830314456734E-002   8.9355892333392917E-002   0.0000000000000000     
  -6.4161387340712223E-002   9.5688017806276601E-002   0.0000000000000000     
  -6.6186600523676531E-002  0.10217632246996530        0.0000000000000000     
  -6.8134469863349686E-002  0.10882080632445912        0.0000000000000000     
  -6.5383029977830687E-002   8.3875473845212545E-002   0.0000000000000000     
  -6.7729631024437298E-002   9.0027013608963022E-002   0.0000000000000000     
  -6.9993114059170428E-002   9.6334860325667751E-002   0.0000000000000000     
  -7.2173479082030048E-002  0.10279901399532683        0.0000000000000000     
  -7.4270726093016159E-002  0.10941947461794015        0.0000000000000000     
  -7.1080576123740746E-002   8.4627336664103034E-002   0.0000000000000000     
  -7.3593430134669055E-002   9.0751968618738230E-002   0.0000000000000000     
  -7.6017312123785596E-002   9.7033900961248531E-002   0.0000000000000000     
  -7.8352222091090315E-002  0.10347313369163388        0.0000000000000000     
  -8.0598160036583280E-002  0.11006966680989433        0.0000000000000000     
  -7.6971567882640257E-002   8.5435534507985772E-002   0.0000000000000000     
  -7.9650227645151978E-002   9.1530757362718596E-002   0.0000000000000000     
  -8.2233981534557701E-002   9.7785139713018859E-002   0.0000000000000000     
  -8.4722829550857387E-002  0.10419868155888655        0.0000000000000000     
  -8.7116771694051062E-002  0.11077138290032168        0.0000000000000000     
  -6.2189391347583882E-002  0.10827366192945119        0.0000000000000000     
  -6.3913459147702231E-002  0.11508774593160523        0.0000000000000000     
  -6.5561702201013872E-002  0.12203587520883635        0.0000000000000000     
  -6.7134120507518810E-002  0.12911804976114458        0.0000000000000000     
  -6.8630714067217061E-002  0.13633426958852990        0.0000000000000000     
  -6.8134469863349686E-002  0.10882080632445912        0.0000000000000000     
  -7.0002792814460715E-002  0.11561067507409890        0.0000000000000000     
  -7.1789366831738685E-002  0.12253513442322553        0.0000000000000000     
  -7.3494191915183540E-002  0.12959418437183912        0.0000000000000000     
  -7.5117268064795323E-002  0.13678782491993952        0.0000000000000000     
  -7.4270726093016159E-002  0.10941947461794015        0.0000000000000000     
  -7.6282696139232747E-002  0.11618537613564991        0.0000000000000000     
  -7.8207230267783853E-002  0.12308585249059822        0.0000000000000000     
  -8.0044328478669408E-002  0.13012090368278506        0.0000000000000000     
  -8.1793990771889466E-002  0.13729052971221042        0.0000000000000000     
  -8.0598160036583280E-002  0.11006966680989433        0.0000000000000000     
  -8.2753169122018355E-002  0.11681184911625837        0.0000000000000000     
  -8.4815292509149404E-002  0.12368802941095444        0.0000000000000000     
  -8.6784530197976467E-002  0.13069820769398249        0.0000000000000000     
  -8.8660882188499518E-002  0.13784238396534262        0.0000000000000000     
  -8.7116771694051062E-002  0.11077138290032168        0.0000000000000000     
  -8.9414211762817469E-002  0.11749009401592421        0.0000000000000000     
  -9.1613553555835323E-002  0.12434166518429413        0.0000000000000000     
  -9.3714797073104664E-002  0.13132609640543144        0.0000000000000000     
  -9.5717942314625465E-002  0.13844338767933614        0.0000000000000000     
  -6.8630714067217061E-002  0.13633426958852990        0.0000000000000000     
  -7.0054207190360859E-002  0.14366502444904256        0.0000000000000000     
  -7.1407324187202414E-002  0.15109080410073278        0.0000000000000000     
  -7.2690065057741768E-002  0.15861160854360057        0.0000000000000000     
  -7.3902429801978892E-002  0.16622743777764593        0.0000000000000000     
  -7.5117268064795323E-002  0.13678782491993952        0.0000000000000000     
  -7.6662540149702460E-002  0.14409447868004918        0.0000000000000000     
  -7.8133953039033380E-002  0.15149256826469043        0.0000000000000000     
  -7.9531506732788110E-002  0.15898209367386326        0.0000000000000000     
  -8.0855201230966622E-002  0.16656305490756768        0.0000000000000000     
  -8.1793990771889466E-002  0.13729052971221042        0.0000000000000000     
  -8.3461804728941671E-002  0.14457767879245845        0.0000000000000000     
  -8.5053357931323653E-002  0.15196529913711318        0.0000000000000000     
  -8.6568650379035467E-002  0.15945339074617471        0.0000000000000000     
  -8.8007682072077084E-002  0.16704195361964294        0.0000000000000000     
  -8.8660882188499518E-002  0.13784238396534262        0.0000000000000000     
  -9.0452000928078494E-002  0.14511462478627030        0.0000000000000000     
  -9.2165538864073263E-002  0.15250899671800103        0.0000000000000000     
  -9.3801495996483852E-002  0.16002549976053482        0.0000000000000000     
  -9.5359872325310249E-002  0.16766413391387172        0.0000000000000000     
  -9.5717942314625465E-002  0.13844338767933614        0.0000000000000000     
  -9.7633128747112899E-002  0.14570531666148479        0.0000000000000000     
  -9.9470495837282166E-002  0.15312366100735400        0.0000000000000000     
 -0.10123004358513324       0.16069842071694374        0.0000000000000000     
 -0.10291177199066612       0.16842959579025396        0.0000000000000000     
 </DataArray>
 <DataArray  type="Float64" Name="stress" NumberOfComponents="3" format="ascii">
   13416768487.103361        4025030546.1310081        2894001065.3497820     
   11766527732.572014        1890474197.3860228        1715821054.9399202     
   10313569844.473074        413527403.41572666        810736129.83856595     
   9057894822.8065395       -405809835.77987909        178746290.04571930     
   7999502667.5724125       -567537520.20079756       -180148464.43861926     
   10540006617.742975        3162001985.3228927        2225767805.4538417     
   9667561957.9033661        1589591562.9098871        1446719295.5076888     
   8943758698.4086132        512652474.97974539        863154405.47775376     
   8368596839.2587204       -68815278.467530727        475073135.36403555     
   7942076380.4536867       -154811697.43194103        282475485.16653353     
   8337953541.3533974        2501386062.4060192        1712373002.5414548     
   8021557932.2275496        1424597453.1316020        1275707615.9568729     
   7805162257.3590145        681141958.04822421        956914383.89621758     
   7688766516.7477903        271019577.15588617        755993306.35948873     
   7672370710.3938789        194230310.45458794        672944383.34668732     
   6810609257.9346275        2043182777.3803883        1353816656.6126213     
   6828515655.5445700        1395491868.0511672        1202786016.2874713     
   6897780521.3242779        918995852.62116098        1092016065.0939579     
   7018403855.2737494        613694731.09036946        1021506803.0320801     
   7190385657.3929853        479588503.45879269        991258230.10183835     
   5957973767.4866648        1787392130.2459993        1150098767.6673419     
   6088435127.8544235        1502274807.6685829        1227954496.4994853     
   6221613490.3044014        1226214158.6985562        1268459449.0709736     
   6357508854.8365955        959210183.33591866        1271613625.3818083     
   6496121221.4510050        701262881.58067083        1237417025.4319880     
   7999502667.5724125       -567537520.20079756       -180148464.43861926     
   7917495779.7210217       -200061162.22670507       -78239722.304343671     
   7794000615.8856926        29120942.467607498       -8956028.6639187299     
   7629017176.0664339        120008793.88214922        27702616.482659087     
   7422545460.2632437        72602392.016920090        31736213.135388982     
   7942076380.4536867       -154811697.43194103        282475485.16653353     
   7739635577.8474712        16390041.879924297        281195872.46853912     
   7513811129.6765966        109646295.97625065        265193978.14427564     
   7264603035.9410572        124957064.85703182        234469802.19374058     
   6992011296.6408567        62322348.522275448        189023344.61693767     
   7672370710.3938789        194230310.45458794        672944383.34668732     
   7400646755.5116405        184502659.84786892        589598484.63890386     
   7123643785.4840107        157178292.08984327        509433071.17242807     
   6841361800.3109865        112257207.18050718        432448142.94726282     
   6553800799.9925718        49739405.119861126        358643699.96340775     
   7190385657.3929853        479588503.45879269        991258230.10183835     
   6900529312.7135201        304276691.67712784        846968114.20674694     
   6623498583.3079329        171716930.80838919        723761250.42054486     
   6359293469.1762228        81909220.852571726        621637638.74323189     
   6107913970.3183908        34853561.809681177        540597279.17480600     
   6496121221.4510050        701262881.58067083        1237417025.4319880     
   6239283249.4531136        375712137.36770058        1053304761.1720709     
   6013375523.1483669        153262212.13188601        908178515.88862300     
   5818398042.5367680        33913105.873230696        802038289.58163941     
   5654350807.6183157        17664818.591730595        734884082.25112605     
   7422545460.2632437        72602392.016920090        31736213.135388982     
   7218673364.2260695       -18405925.891151905        14737647.346217366     
   7027026817.5974665       -68662412.437323570        2163537.3821977195     
   6847605820.3774242       -78167067.621625423       -5986116.7566712368     
   6680410372.5659485       -46919891.444032669       -9711315.0703850202     
   6992011296.6408567        62322348.522275448        189023344.61693767     
   6808257937.1232595        2719714.1099438667        180715482.79017642     
   6632314971.2940454       -30848274.674445152        176211650.88507292     
   6464182399.1532164       -38381617.830882788        175511848.90163079     
   6303860220.7007694       -19880315.359374523        178616076.83984435     
   6553800799.9925718        49739405.119861126        358643699.96340775     
   6388393531.5559931        21010660.571695328        353875527.09217978     
   6226381501.0876226        3599375.9175417423        352290958.23911566     
   6067764708.5874491       -2494448.8426127434        353889993.40421569     
   5912543154.0554819        2729186.2912478447        358672632.58748108     
   6107913970.3183908        34853561.809681177        540597279.17480600     
   5959080147.5242853        36466913.494116783        534217780.25222820     
   5809226406.9781981        34680539.338623047        530401459.44432312     
   5658352748.6801329        29494439.343198776        529148316.75108969     
   5506459172.6300917        20908613.507840872        530458352.17252934     
   5654350807.6183157        17664818.591730595        734884082.25112605     
   5520317785.0281248        49088472.877201796        721742242.27032316     
   5380849688.9657717        62395215.588806152        710543154.50070190     
   5235946519.4312611        57585046.726539135        701286818.94225383     
   5085608276.4245863        34657966.290397882        693973235.59498608     
   6680410372.5659485       -46919891.444032669       -9711315.0703850202     
   6508629703.3520746       -7149942.1184225082       -3129605.2341010901     
   6331149862.4672508        13622768.304044247        4860438.2630106183     
   6147970849.9114923        15398239.823381186        14258815.420956191     
   5959092665.6847887       -1823527.5604305267        25065526.239736587     
   6303860220.7007694       -19880315.359374523        178616076.83984435     
   6131956612.8546057        1737663.3258376122        175322667.50763717     
   5956588394.8575125        11806941.507964373        174715272.63754883     
   5777755566.7094946        10327519.187002897        176793892.22957337     
   5595458128.4105577       -2700603.6370279789        181558526.28370491     
   5912543154.0554819        2729186.2912478447        358672632.58748108     
   5744167124.1521158        7290349.3085875511        348111092.52681005     
   5574561045.6178408        7751350.2228972912        341513247.72953367     
   5403724918.4526567        4112189.0341820717        338879098.19565344     
   5231658742.6565695       -3627134.2575545311        340208643.92516452     
   5506459172.6300917        20908613.507840872        530458352.17252934     
   5345261237.2446098        9508115.8298313618        515235669.82341254     
   5185067814.7482376        1455994.4488563538        505254363.53896987     
   5025878905.1409721       -3247750.6350924969        500514433.31920320     
   4867694508.4228191       -4603119.4220087528        501015879.16411108     
   5085608276.4245863        34657966.290397882        693973235.59498608     
   4935238952.1320810        8390962.8895716667        676696399.39744186     
   4788108702.2486973       -7079125.8141727448        665938620.06585336     
   4644217526.7744436       -11752299.820826054        661699897.60021973     
   4503565425.7093172       -5628559.1303884983        663980232.00054431     
   5959092665.6847887       -1823527.5604305267        25065526.239736587     
   5771179079.7528267       -23616030.027386427        18237317.616682533     
   5585760194.3457260       -37092864.078144789        15221019.368511159     
   5402836009.4634743       -42254029.712736845        16016631.495225342     
   5222406525.1060686       -39099526.931176424        20624153.996817719     
   5595458128.4105577       -2700603.6370279789        181558526.28370491     
   5419734590.8427763       -16632839.590770960        177012238.36378545     
   5245579212.8660994       -25337876.907513142        176217092.69222012     
   5072991994.4805317       -28815715.587229013        179173089.26902544     
   4901972935.6860628       -27066355.629933596        185880228.09419164     
   5231658742.6565695       -3627134.2575545311        340208643.92516452     
   5067951630.2343349       -9751190.6636891365        336863312.28566778     
   4904886136.4694567       -13736518.211983442        337208354.76801252     
   4742462261.3619328       -15583116.902411222        341243771.37219864     
   4580680004.9117680       -15290986.734994650        348969562.09822506     
   4867694508.4228191       -4603119.4220087528        501015879.16411108     
   4715830197.9275064       -2971083.2461187840        497790539.38233578     
   4563680965.1557922       -2288787.9915480614        498194805.59587407     
   4411246810.1076870       -2556233.6582841873        502228677.80473822     
   4258527732.7831883       -3773420.2463424206        509892156.00891417     
   4503565425.7093172       -5628559.1303884983        663980232.00054431     
   4363370293.9222813        3707482.6619319916        659793919.65377665     
   4221963698.9251060        9005313.7537705898        659176445.17580748     
   4079345640.7177896        10264934.145143270        662127808.56663871     
   3935516119.3003297        7486343.8360359669        668648009.82627046     
   5222406525.1060686       -39099526.931176424        20624153.996817719     
   5041572169.9564838       -34483122.572984695        15881274.080338834     
   4859287089.7639742       -34702468.357879162        15549795.117050577     
   4675551284.5285473       -39757564.285829306        19629717.106950384     
   4490364754.2501917       -49648410.356877089        28121040.050035693     
   4901972935.6860628       -27066355.629933596        185880228.09419164     
   4732075120.3278751       -23971467.723771572        179434219.26978192     
   4561274522.2475958       -23885855.557933331        177340651.58987755     
   4389571141.4452085       -26809519.132443428        179599525.05448359     
   4216964977.9207268       -32742458.447271347        186210839.66360265     
   4580680004.9117680       -15290986.734994650        348969562.09822506     
   4421550272.7487602       -13768152.259719849        341459690.40683848     
   4262065700.1844811       -13428119.122028589        338243300.05127764     
   4102226287.2189236       -14270887.321921587        339320391.03155786     
   3942032033.8520832       -16296456.859432697        344690963.34766346     
   4258527732.7831883       -3773420.2463424206        509892156.00891417     
   4109997627.2191424       -3873176.1808078289        501957687.49151373     
   3961660623.5746346       -3329259.0501332283        498257740.50126249     
   3813516721.8496666       -2141668.8543210030        498792315.03816164     
   3665565922.0442572       -310405.59333515167        503561411.10221827     
   3935516119.3003297        7486343.8360359669        668648009.82627046     
   3797417183.7390084        5713460.5129444599        660928210.52380860     
   3660059292.4180584        6410724.6577405930        657383972.93981981     
   3523442445.3374748        9578136.2704381943        658015297.07431114     
   3387566642.4972544        15215695.351002455        662822182.92727304     
   4490364754.2501917       -49648410.356877089        28121040.050035693     
   4298166168.2550049       -62481399.710803509        21277788.716075245     
   4106865432.6426287       -72321554.455371857        18196242.662905820     
   3916462547.4130640       -79168874.590572357        18876401.890531901     
   3726957512.5663071       -83023360.116399527        23318266.398942597     
   4216964977.9207268       -32742458.447271347        186210839.66360265     
   4035921346.4255209       -41752762.055317879        179758883.98757026     
   3855420415.9587831       -48954062.235127211        177243799.01244703     
   3675462186.5205078       -54346358.986724138        178665584.73823225     
   3496046658.1107154       -57929652.310054541        184024241.16492537     
   3942032033.8520832       -16296456.859432697        344690963.34766346     
   3772643829.4857559       -21333932.932941198        338215962.41616434     
   3603443176.7935624       -25746236.759329319        335852997.60569084     
   3434430075.7755013       -29533368.338611364        337602068.91625082     
   3265604526.4315782       -32695327.670763493        343463176.34783167     
   3665565922.0442572       -310405.59333515167        503561411.10221827     
   3508333617.4357195       -1224912.3436341286        496649024.00185871     
   3350933715.1469831       -2698078.0279216766        494023838.44264698     
   3193366215.1780391       -4729902.6462354660        495685854.42458189     
   3035631117.5288997       -7320386.1985398531        501635071.94766074     
   3387566642.4972544        15215695.351002455        662822182.92727304     
   3242990710.2754183        18574299.712598920        655058068.74466109     
   3097892031.0190477        20190413.959080458        651756321.52331257     
   2952270604.7281346        20064038.090416789        652916941.26323271     
   2806126431.4026794        18195172.106621385        658539927.96441376     
   3726957512.5663071       -83023360.116399527        23318266.398942597     
   3567839615.0354152       -115372562.53938055        46924087.354361676     
   3383025499.1490521       -233375826.14725518        70306733.045300424     
   3172515164.9072285       -437033150.94001913        93466203.471717209     
   2936308612.3098960       -726344536.91778064        116402498.63364470     
   3496046658.1107154       -57929652.310054541        184024241.16492537     
   3340341433.4927855       -80429925.502151012        182875839.87137145     
   3166930823.6663933       -161948149.38912845        182302917.02978116     
   2975814828.6315355       -302484323.97097611        182305472.64014617     
   2766993448.3882203       -502038449.24770415        182883506.70245811     
   3265604526.4315782       -32695327.670763493        343463176.34783167     
   3115593842.4879217       -44662111.303601742        326883191.47681689     
   2955868606.4828157       -89010735.141276479        311677338.77421576     
   2786428818.4162536       -165741199.18378937        297845618.24004638     
   2607274478.2882500       -274853503.43112946        285388029.87428772     
   3035631117.5288997       -7320386.1985398531        501635071.94766074     
   2893596842.0208230       -8069119.9437379837        478946142.17070490     
   2749838847.5983162       -14563583.403694868        458429998.27862436     
   2604357134.2613654       -26803776.578474641        440086640.27141964     
   2457151702.0099802       -44789699.468024611        423916068.14908749     
   2806126431.4026794        18195172.106621385        658539927.96441376     
   2674350432.0914984        29349048.577481508        639064691.95302761     
   2548841547.0128922        61393305.823590994        622560895.54297161     
   2429599776.1668634        114327943.84495449        609028538.73426032     
   2316625119.5534101        188152962.64157689        598467621.52688289     
   5957973767.4866648        1787392130.2459993        1150098767.6673419     
   6088435127.8544235        1502274807.6685829        1227954496.4994853     
   6221613490.3044014        1226214158.6985562        1268459449.0709736     
   6357508854.8365955        959210183.33591866        1271613625.3818083     
   6496121221.4510050        701262881.58067083        1237417025.4319880     
   5434659190.5253553        1630397757.1576066        1033529561.4727720     
   5489918580.4216871        1372515704.6197486        1113909444.0564308     
   5547369279.4559755        1121938015.8750741        1167507370.9905171     
   5607011287.6282167        878664690.92358220        1194323342.2750304     
   5668844604.9384155        642695729.76527381        1194357357.9099710     
   4895277647.5665436        1468583294.2699630        936419263.79606807     
   4905531697.3088245        1246995500.8668766        1018709991.6962701     
   4917451363.2447996        1030959761.4427673        1084787584.5579813     
   4931036645.3744678        820476075.99763441        1134652042.3812015     
   4946287543.6978273        615544444.53147781        1168303365.1659307     
   4339829138.6102295        1301948741.5830688        858767874.63722980     
   4335274478.5158367        1125714196.4099674        942356139.41900265     
   4331859741.6708755        953279395.40163624        1020300089.7733667     
   4329584928.0753441        784644338.55807447        1092599725.7003217     
   4328450037.7292442        619809025.87928319        1159255047.1998675     
   3768313663.6564150        1130494099.0969245        800575393.99625731     
   3779146924.0427241        1008671791.2490205        884847887.22462904     
   3790594414.7342019        888896917.75168002        974044886.63667321     
   3802656135.7308483        771169478.60490274        1068166392.2323899     
   3815332087.0326653        655489473.80868936        1167212404.0117800     
   6496121221.4510050        701262881.58067083        1237417025.4319880     
   6239283249.4531136        375712137.36770058        1053304761.1720709     
   6013375523.1483669        153262212.13188601        908178515.88862300     
   5818398042.5367680        33913105.873230696        802038289.58163941     
   5654350807.6183157        17664818.591730595        734884082.25112605     
   5668844604.9384155        642695729.76527381        1194357357.9099710     
   5518911272.1168184        383156898.94277644        1073544987.3431002     
   5393133965.5695839        204138155.70148921        980747417.15295970     
   5291512685.2967148        105639500.04141259        915964647.33954585     
   5214047431.2982063        87660931.962546349        879196677.90286207     
   4946287543.6978273        615544444.53147781        1168303365.1659307     
   4871912511.1961308        412613625.44253349        1102887632.3035257     
   4814919285.5500154        267622162.53885508        1054515481.2181100     
   4775307866.7594757        180570055.82044053        1023186911.9096843     
   4753078254.8245201        151457305.28729033        1008901924.3782482     
   4328450037.7292442        619809025.87928319        1159255047.1998675     
   4298286966.6910515        464082316.86697435        1141332696.0533459     
   4278731483.0896521        343714232.64398277        1129482708.0840757     
   4269783586.9250498        258704773.21030974        1123705083.2920566     
   4271443278.1972427        209053938.56595588        1123999821.6772876     
   3815332087.0326653        655489473.80868936        1167212404.0117800     
   3798034638.6015787        537562973.21609592        1188880178.5925615     
   3784570558.1885037        432414366.01687527        1205649097.7508552     
   3774939845.7934403        340043652.21102715        1217519161.4866607     
   3769142501.4163885        260450831.79854953        1224490369.7999780     
   5654350807.6183157        17664818.591730595        734884082.25112605     
   5520317785.0281248        49088472.877201796        721742242.27032316     
   5380849688.9657717        62395215.588806152        710543154.50070190     
   5235946519.4312611        57585046.726539135        701286818.94225383     
   5085608276.4245863        34657966.290397882        693973235.59498608     
   5214047431.2982063        87660931.962546349        879196677.90286207     
   5077695855.5246582        85382920.140760660        855447734.43514538     
   4939188112.4588947        75917684.011591434        835749843.87072778     
   4798524202.1009159        59265223.575039864        820103006.20960808     
   4655704124.4507217        35425538.831108809        808507221.45178485     
   4753078254.8245201        151457305.28729033        1008901924.3782482     
   4620431842.1308088        117284742.23720336        978371267.96689105     
   4488908168.3248310        86854642.146222830        953999965.15095043     
   4358507233.4065838        60167005.014348984        935788015.93042803     
   4229229037.3760710        37221830.841584444        923735420.30532110     
   4271443278.1972427        209053938.56595588        1123999821.6772876     
   4148525744.8465748        144793939.16653109        1090512842.8655581     
   4030009856.5635824        95206089.992698431        1065293518.3413669     
   3915895613.3482714        60290391.044463873        1048341848.1047130     
   3806183015.2006373        40046842.321823359        1039657832.1555949     
   3769142501.4163885        260450831.79854953        1224490369.7999780     
   3661977563.6719570        167910510.92874241        1191872459.1311505     
   3562493177.1751499        100972027.55101728        1169630503.4419777     
   3470689341.9259691        59635381.665377140        1157764502.7324619     
   3386566057.9244156        43900573.271828294        1156274457.0026042     
   5085608276.4245863        34657966.290397882        693973235.59498608     
   4935238952.1320810        8390962.8895716667        676696399.39744186     
   4788108702.2486973       -7079125.8141727448        665938620.06585336     
   4644217526.7744436       -11752299.820826054        661699897.60021973     
   4503565425.7093172       -5628559.1303884983        663980232.00054431     
   4655704124.4507217        35425538.831108809        808507221.45178485     
   4523160159.7871761        15002607.668986797        795368747.59924173     
   4392992529.2416573        2500790.2336237431        788074399.92485499     
   4265201232.8141651       -2079913.4749822617        786624178.42862916     
   4139786270.5047035        1260496.5431778431        791018083.11055756     
   4229229037.3760710        37221830.841584444        923735420.30532110     
   4112582058.9477782        22064459.900053740        913728778.45816278     
   3997448674.3464127        11952401.714954376        908891332.10136390     
   3883828883.5719819        6885656.2862896919        909223081.23492742     
   3771722686.6244760        6864223.6140556335        914724025.85885251     
   3806183015.2006373        40046842.321823359        1039657832.1555949     
   3703504649.6138921        29576519.582773209        1031776491.9742041     
   3601477137.5629787        21275708.629829645        1028389416.5953811     
   3500100479.0478945        15144409.462986946        1029496606.0191200     
   3399374674.0686455        11182622.082254648        1035098060.2454231     
   3386566057.9244156        43900573.271828294        1156274457.0026042     
   3295927931.7855105        37538786.717144608        1149511888.1473725     
   3205077918.8913426        30470710.978244662        1146568653.4069045     
   3114016019.2419038        22696346.055115581        1147444752.7812054     
   3022742232.8372011        14215691.947769761        1152140186.2702734     
   4503565425.7093172       -5628559.1303884983        663980232.00054431     
   4363370293.9222813        3707482.6619319916        659793919.65377665     
   4221963698.9251060        9005313.7537705898        659176445.17580748     
   4079345640.7177896        10264934.145143270        662127808.56663871     
   3935516119.3003297        7486343.8360359669        668648009.82627046     
   4139786270.5047035        1260496.5431778431        791018083.11055756     
   4007842549.1928177        5263685.2143940926        784467682.91655755     
   3875250893.5566139        7107092.8045511246        781926342.09335613     
   3742011303.5960922        6790719.3136451244        783394060.64096010     
   3608123779.3112535        4314564.7416765690        788870838.55935895     
   3771722686.6244760        6864223.6140556335        914724025.85885251     
   3649288151.5077443        5911891.8801784515        906466988.18441391     
   3526769210.9525161        4678208.6846463680        902659231.38277709     
   3404165864.9587936        3163174.0274665356        903300755.45393908     
   3281478113.5265746        1366787.9086318016        908391560.39790392     
   3399374674.0686455        11182622.082254648        1035098060.2454231     
   3287707100.8670645        5652102.6592798233        1025791835.4573393     
   3176518651.1128116        1718661.3940613270        1021375113.0440619     
   3065809324.8058887       -617701.71339380741        1021847893.0055822     
   2955579121.9462895       -1356986.6630924940        1027210175.3419023     
   3022742232.8372011        14215691.947769761        1152140186.2702734     
   2923099397.2707767        4484317.5516964197        1142442224.7353413     
   2824499214.0375023       -1771549.0672076941        1138073987.0772126     
   2726941683.1373796       -4551907.9089361429        1139035473.2958837     
   2630426804.5704103       -3856758.9734953642        1145326683.3913558     
   3935516119.3003297        7486343.8360359669        668648009.82627046     
   3797417183.7390084        5713460.5129444599        660928210.52380860     
   3660059292.4180584        6410724.6577405930        657383972.93981981     
   3523442445.3374748        9578136.2704381943        658015297.07431114     
   3387566642.4972544        15215695.351002455        662822182.92727304     
   3608123779.3112535        4314564.7416765690        788870838.55935895     
   3481204466.5216193        3733769.4627091885        782134317.23791337     
   3354804447.9537468        4883954.9229421616        779546846.78141510     
   3228923723.6076312        7765121.1223618984        781108427.18986046     
   3103562293.4832711        12377268.060975671        786819058.46325934     
   3281478113.5265746        1366787.9086318016        908391560.39790392     
   3165662678.2128396        1955357.0850646496        902379608.70242774     
   3050144787.1022568        3535740.2719891071        900490197.01837265     
   2934924440.1948204        6107937.4694051743        902723325.34573853     
   2820001637.4905295        9671948.6773080826        909078993.68452585     
   2955579121.9462895       -1356986.6630924940        1027210175.3419023     
   2850791818.8126659        378223.37999439240        1021664084.9173501     
   2746080309.8635821        2366080.7048832178        1020214023.6506968     
   2641444595.0990295        4606585.3115485907        1022859991.5419296     
   2536884674.5190225        7099737.2000174522        1029601988.5910648     
   2630426804.5704103       -3856758.9734953642        1145326683.3913558     
   2536591888.3211045       -997631.65248680115        1139987745.8826849     
   2442611016.2377253        1374976.2216173410        1138718326.6783841     
   2348484188.3202729        3261064.6488052607        1141518425.7784483     
   2254211404.5687518        4660633.6290979385        1148388043.1828823     
   3387566642.4972544        15215695.351002455        662822182.92727304     
   3242990710.2754183        18574299.712598920        655058068.74466109     
   3097892031.0190477        20190413.959080458        651756321.52331257     
   2952270604.7281346        20064038.090416789        652916941.26323271     
   2806126431.4026794        18195172.106621385        658539927.96441376     
   3103562293.4832711        12377268.060975671        786819058.46325934     
   2970389753.6226583        14999472.852470517        778746821.32578647     
   2836930924.4460793        16667379.924089074        775153995.86723447     
   2703185805.9535227        17380989.275782466        776040582.08761966     
   2569154398.1450000        17140300.907582760        781406579.98692667     
   2820001637.4905295        9671948.6773080826        909078993.68452585     
   2698281189.1844635        11572363.656722546        900974500.93051457     
   2576510909.2809982        13306673.311466336        897366464.57309043     
   2454690797.7801266        14874877.641526103        898254884.61225986     
   2332820854.6818566        16276976.646918297        903639761.04802132     
   2536884674.5190225        7099737.2000174522        1029601988.5910648     
   2426665016.9608288        8292972.1253407001        1021741107.5588472     
   2316631985.5238037        10108294.121219873        1018393727.6408813     
   2206785580.2079401        12545703.187636137        1019559848.8371726     
   2097125801.0132449        15605199.324609995        1025239471.1477183     
   2254211404.5687518        4660633.6290979385        1148388043.1828823     
   2155541236.9517555        5161298.2583202124        1141046641.2107861     
   2057294153.1744907        7072242.3533178568        1138235785.0706036     
   1959470153.2369623        10393465.914101243        1139955474.7623422     
   1862069237.1391647        15124968.940654516        1146205710.2859960     
   2806126431.4026794        18195172.106621385        658539927.96441376     
   2674350432.0914984        29349048.577481508        639064691.95302761     
   2548841547.0128922        61393305.823590994        622560895.54297161     
   2429599776.1668634        114327943.84495449        609028538.73426032     
   2316625119.5534101        188152962.64157689        598467621.52688289     
   2569154398.1450000        17140300.907582760        781406579.98692667     
   2445129002.0824943        26405670.814192295        768706736.83468747     
   2325678414.9519968        50920403.827485800        759433265.78722441     
   2210802636.7535043        90684499.947460175        753586166.84454656     
   2100501667.4870155        145697959.17413557        751165440.00664628     
   2332820854.6818566        16276976.646918297        903639761.04802132     
   2217845869.0207167        24043782.135066032        895740954.57093513     
   2105753386.9910250        41418933.061350226        891723452.70207429     
   1996543408.5927649        68402429.425754666        891587255.44143915     
   1890215933.8259430        104994271.22829080        895332362.78902268     
   2097125801.0132449        15605199.324609995        1025239471.1477183     
   1992501032.9061763        22263382.540120006        1020167345.1617856     
   1889066463.1299803        32888893.525196552        1019431456.2875233     
   1786822091.6846514        47481732.279838920        1023031804.5249237     
   1685767918.5701931        66041898.804042876        1030968389.8739959     
   1862069237.1391647        15124968.940654516        1146205710.2859960     
   1769094493.7388594        21064472.029327750        1141985908.6072221     
   1675617643.3688612        25330285.219025612        1142557276.5435615     
   1581638686.0291514        27922408.509695172        1147919814.0950122     
   1487157621.7197518        28840841.901387513        1158073521.2615685     
   3768313663.6564150        1130494099.0969245        800575393.99625731     
   3779146924.0427241        1008671791.2490205        884847887.22462904     
   3790594414.7342019        888896917.75168002        974044886.63667321     
   3802656135.7308483        771169478.60490274        1068166392.2323899     
   3815332087.0326653        655489473.80868936        1167212404.0117800     
   3207885569.6824975        962365670.90474927        756695383.16817200     
   3235905620.1860833        868187039.31902373        853048286.86102819     
   3263653719.6847939        773101904.38371325        951317982.24607611     
   3291129868.1786294        677110266.09881830        1051504469.3233148     
   3318334065.6675878        580212124.46433783        1153607748.0927453     
   2685699203.6658778        805709761.09976327        721981403.44799566     
   2722312574.3110800        736596764.78351820        829380839.41028452     
   2757767812.6413608        663623327.41753936        935689352.57328367     
   2792064918.6567225        586789449.00182748        1040906942.9369925     
   2825203892.3571644        506095129.53638238        1145033610.5014117     
   2201754565.6065555        660526369.68196666        696433454.83572805     
   2238367786.4177117        613900967.64250326        813845544.87239814     
   2272936693.6039042        560461186.85315824        927158997.61829638     
   2305461287.1651316        500207027.31393152        1036373813.0734236     
   2335941567.1013947        433138489.02482289        1141489991.2377789     
   1756051655.5045300        526815496.65135902        680051537.33136940     
   1784071256.5059805        500099647.89597929        806442403.24736786     
   1809160362.5724220        463615482.69056946        925726917.38111389     
   1831318973.7038543        417363001.03512943        1037905079.7326070     
   1850547089.9002781        361342202.92965949        1142976890.3018479     
   3815332087.0326653        655489473.80868936        1167212404.0117800     
   3798034638.6015787        537562973.21609592        1188880178.5925615     
   3784570558.1885037        432414366.01687527        1205649097.7508552     
   3774939845.7934403        340043652.21102715        1217519161.4866607     
   3769142501.4163885        260450831.79854953        1224490369.7999780     
   3318334065.6675878        580212124.46433783        1153607748.0927453     
   3293855735.1941295        473044058.07103062        1181933056.3942924     
   3273100894.3826232        378287623.88422775        1207150749.1166680     
   3256069543.2330675        295942821.90392852        1229260826.2598717     
   3242761681.7454634        226009652.13013303        1248263287.8239045     
   2825203892.3571644        506095129.53638238        1145033610.5014117     
   2798662507.9650965        411220845.77949047        1179888261.1083202     
   2775734734.8789191        328391933.04223311        1213426535.9793739     
   2756420573.0986333        257608391.32461262        1245648435.1145718     
   2740720022.6242366        198870220.62662756        1276553958.5139155     
   2335941567.1013947        433138489.02482289        1141489991.2377789     
   2312454956.9144783        352093336.34147429        1182745792.7346451     
   2292472079.6773915        282727293.49089175        1224476458.3389730     
   2275992935.3901358        225040360.47307765        1266681988.0507627     
   2263017524.0527105        179032537.28803098        1309362381.8700132     
   1850547089.9002781        361342202.92965949        1142976890.3018479     
   1835233082.0422745        295661529.75698268        1190505651.2732675     
   1823312928.7780414        241293705.23020369        1240300516.1954656     
   1814786630.1075778        198238729.34932446        1292361485.0684407     
   1809654186.0308838        166496602.11434519        1346688557.8921957     
   3769142501.4163885        260450831.79854953        1224490369.7999780     
   3661977563.6719570        167910510.92874241        1191872459.1311505     
   3562493177.1751499        100972027.55101728        1169630503.4419777     
   3470689341.9259691        59635381.665377140        1157764502.7324619     
   3386566057.9244156        43900573.271828294        1156274457.0026042     
   3242761681.7454634        226009652.13013303        1248263287.8239045     
   3164894472.6475453        151578413.96916318        1230994391.1119356     
   3093107995.3575125        97416281.834472656        1221707234.6771276     
   3027402249.8753638        63523255.726065636        1220401818.5194798     
   2967777236.2010999        49899335.643941283        1227078142.6389928     
   2740720022.6242366        198870220.62662756        1276553958.5139155     
   2685309928.7371273        140495881.14378202        1272767619.7457774     
   2634380747.2181621        97057916.221412778        1274568806.5523024     
   2587932478.0673418        68556325.859527469        1281957518.9334912     
   2545965121.2846637        54991110.058118582        1294933756.8893430     
   2263017524.0527105        179032537.28803098        1309362381.8700132     
   2223223931.9407053        134662912.45259893        1317192145.0326731     
   2186311432.7571030        99896930.711843371        1328215219.0675013     
   2152280026.5019026        74734592.065762043        1342431603.9744940     
   2121129713.1751065        59175896.514357805        1359841299.7536547     
   1809654186.0308838        166496602.11434519        1346688557.8921957     
   1778636482.2582774        134079507.89561599        1364267966.9726241     
   1748900051.9743321        105933325.30575639        1382646472.2227223     
   1720444895.1790500        82058054.344773710        1401824073.6424904     
   1693271011.8724303        62453695.012666285        1421800771.2319300     
   3386566057.9244156        43900573.271828294        1156274457.0026042     
   3295927931.7855105        37538786.717144608        1149511888.1473725     
   3205077918.8913426        30470710.978244662        1146568653.4069045     
   3114016019.2419038        22696346.055115581        1147444752.7812054     
   3022742232.8372011        14215691.947769761        1152140186.2702734     
   2967777236.2010999        49899335.643941283        1227078142.6389928     
   2886188278.6383386        39325945.905075192        1219441378.6746390     
   2804874444.3291020        29669633.677959204        1215918087.9273641     
   2723835733.2733951        20930398.962608099        1216508270.3971643     
   2643072145.4712148        13108241.759009480        1221211926.0840449     
   2545965121.2846637        54991110.058118582        1294933756.8893430     
   2474265729.7332153        40458236.365616918        1286990976.1594627     
   2403328471.4440861        28465806.880847931        1283455807.7489715     
   2333153346.4172778        19013821.603815675        1284328251.6578660     
   2263740354.6527891        12102280.534517765        1289608307.8861473     
   2121129713.1751065        59175896.514357805        1359841299.7536547     
   2060160285.0701406        40935658.098774314        1352160680.6018426     
   2000440000.2362888        26859230.586900473        1349181812.8717251     
   1941968858.6735504        16946613.978742242        1350904696.5633039     
   1884746860.3819253        11197808.274291754        1357329331.6765811     
   1693271011.8724303        62453695.012666285        1421800771.2319300     
   1643871944.6491187        40758211.104551136        1414950492.0017743     
   1596209030.7057111        24849904.796114326        1413096103.2956252     
   1550282270.0422153        14728776.087382853        1416237605.1134839     
   1506091662.6586254        10394824.978340089        1424374997.4553480     
   3022742232.8372011        14215691.947769761        1152140186.2702734     
   2923099397.2707767        4484317.5516964197        1142442224.7353413     
   2824499214.0375023       -1771549.0672076941        1138073987.0772126     
   2726941683.1373796       -4551907.9089361429        1139035473.2958837     
   2630426804.5704103       -3856758.9734953642        1145326683.3913558     
   2643072145.4712148        13108241.759009480        1221211926.0840449     
   2557596619.6831536        5544079.2714141607        1212592186.0364001     
   2472948108.7372375        736632.92430329323        1209040526.8856618     
   2389126612.6334682       -1314097.2823224068        1210556948.6318305     
   2306132131.3718424       -608111.34846806526        1217141451.2749069     
   2263740354.6527891        12102280.534517765        1289608307.8861473     
   2191684587.2719622        6481064.5440645218        1281815212.2529500     
   2120240197.2422729        2897773.0574040413        1278828554.5367649     
   2049407184.5637226        1352406.0745415688        1280648334.7375889     
   1979185549.2363107        1844963.5954700708        1287274552.8554230     
   1884746860.3819253        11197808.274291754        1357329331.6765811     
   1825363300.0372026        7295273.3696442842        1350111303.3849916     
   1766375479.5526090        4711871.3320932388        1347438070.0305164     
   1707783398.9281485        3447602.1616548300        1349309631.6131546     
   1649587058.1638200        3502465.8583203554        1355725988.1329095     
   1506091662.6586254        10394824.978340089        1424374997.4553480     
   1458632757.9788728        7986705.7481489182        1417480459.4325233     
   1411353955.6682441        6178927.7483724356        1414869073.3669178     
   1364255255.7267437        4971490.9790215492        1416540839.2585304     
   1317336658.1543653        4364395.4400814772        1422495757.1073637     
   2630426804.5704103       -3856758.9734953642        1145326683.3913558     
   2536591888.3211045       -997631.65248680115        1139987745.8826849     
   2442611016.2377253        1374976.2216173410        1138718326.6783841     
   2348484188.3202729        3261064.6488052607        1141518425.7784483     
   2254211404.5687518        4660633.6290979385        1148388043.1828823     
   2306132131.3718424       -608111.34846806526        1217141451.2749069     
   2222780801.9168816        1167129.0329186916        1210846900.2529688     
   2139378045.9091363        2770947.5716861486        1208797256.2160778     
   2055923863.3486099        4203344.2678518295        1210992519.1642270     
   1972418254.2352977        5464319.1213977337        1217432689.0974178     
   1979185549.2363107        1844963.5954700708        1287274552.8554230     
   1906818917.0919087        2686650.1920965910        1280134672.4817271     
   1834495387.6760128        3672012.5504012108        1277415087.7737446     
   1762214960.9886217        4801050.6703940630        1279115798.7314794     
   1689977637.0297356        6073764.5520684719        1285236805.3549335     
   1649587058.1638200        3502465.8583203554        1355725988.1329095     
   1588706233.8461909        3560931.8250524402        1347851062.5689528     
   1527963041.5383549        4078171.1577593088        1344571821.3513873     
   1467357481.2403131        5054183.8564469218        1345888264.4802141     
   1406889552.9520614        6488969.9211038947        1351800391.9554324     
   1317336658.1543653        4364395.4400814772        1422495757.1073637     
   1268442752.1797218        3789973.9317809939        1413996070.5146503     
   1219781007.4961555        3989423.3937417269        1410267456.9490068     
   1171351424.1036789        4962743.8260004520        1411309916.4104257     
   1123154002.0022783        6709935.2285099626        1417123448.8989103     
   2254211404.5687518        4660633.6290979385        1148388043.1828823     
   2155541236.9517555        5161298.2583202124        1141046641.2107861     
   2057294153.1744907        7072242.3533178568        1138235785.0706036     
   1959470153.2369623        10393465.914101243        1139955474.7623422     
   1862069237.1391647        15124968.940654516        1146205710.2859960     
   1972418254.2352977        5464319.1213977337        1217432689.0974178     
   1885532853.6448543        6170716.0257580280        1210296466.7086549     
   1799001753.9988108        8058116.0781208277        1207647427.2141356     
   1712824955.2971694        11126519.278488278        1209485570.6138554     
   1627002457.5399313        15375925.626866996        1215810896.9078259     
   1689977637.0297356        6073764.5520684719        1285236805.3549335     
   1614753109.3582017        6948725.4992704391        1278225515.8382857     
   1539814099.7357385        8775413.2767059207        1275658046.2782063     
   1465160608.1623459        11553827.884376109        1277534396.6746993     
   1390792634.6380215        15283969.322276652        1283854567.0277593     
   1406889552.9520614        6488969.9211038947        1351800391.9554324     
   1343202004.0918000        7495326.6788663864        1344833788.5996833     
   1279731190.3852689        9224133.9490668774        1342267642.2628207     
   1216477111.8324816        11675391.731743455        1344101952.9448583     
   1153439768.4334321        14849100.026882470        1350336720.6457927     
   1123154002.0022783        6709935.2285099626        1417123448.8989103     
   1070879537.8456390        7810519.5645145774        1410121284.9928358     
   1018753025.9474103        9404278.0952212214        1407476215.1679795     
   966774466.30758214        11491210.820596933        1409188239.4243405     
   914943858.92616665        14071317.740682006        1415257357.7619288     
   1862069237.1391647        15124968.940654516        1146205710.2859960     
   1769094493.7388594        21064472.029327750        1141985908.6072221     
   1675617643.3688612        25330285.219025612        1142557276.5435615     
   1581638686.0291514        27922408.509695172        1147919814.0950122     
   1487157621.7197518        28840841.901387513        1158073521.2615685     
   1627002457.5399313        15375925.626866996        1215810896.9078259     
   1545832149.9442053        20989978.577029884        1210466081.6361086     
   1464287094.9557269        25354873.551351190        1209485535.8616910     
   1382367292.5744951        28470610.549832165        1212869259.5845735     
   1300072742.8005123        30337189.572468638        1220617252.8047523     
   1390792634.6380215        15283969.322276652        1283854567.0277593     
   1320207048.2245471        20206657.747217476        1277533324.3362074     
   1249374073.9952753        24304720.119489074        1275149451.0241425     
   1178293711.9501905        27578156.439063311        1276702947.0915670     
   1106965962.0893071        30026966.705973327        1282193812.5384657     
   1153439768.4334321        14849100.026882470        1350336720.6457927     
   1092219188.5798929        18714509.539909482        1343187636.7075102     
   1030878580.4875019        22179824.923433423        1339549022.0309038     
   969417944.15624678        25245046.177415073        1339420876.6159756     
   907837279.58614242        27910173.301886916        1342803200.4627109     
   914943858.92616665        14071317.740682006        1415257357.7619288     
   861868571.01023769        16513533.955098063        1407429018.7500286     
   808800614.43240285        18980187.963167459        1402684248.8819859     
   755739989.19265234        21471279.764848500        1401023048.1578074     
   702686695.29100335        23986809.360201478        1402445416.5774853     
   1756051655.5045300        526815496.65135902        680051537.33136940     
   1784071256.5059805        500099647.89597929        806442403.24736786     
   1809160362.5724220        463615482.69056946        925726917.38111389     
   1831318973.7038543        417363001.03512943        1037905079.7326070     
   1850547089.9002781        361342202.92965949        1142976890.3018479     
   1326361892.4440351        397908567.73321050        669727498.12461877     
   1339573357.7057600        375530710.51935452        791861792.74563015     
   1350586951.7663939        345826615.96852767        908710490.53183091     
   1359402674.6259365        308796284.08073008        1020273591.4832206     
   1366020526.2843878        264439714.85596141        1126551095.5997994     
   890456695.50930357        267137008.65279105        662353184.40517569     
   894062182.02399409        250657790.07826608        781085635.42077100     
   896202421.07151067        229294413.27982935        896353244.54899681     
   896877412.65185428        203046878.25748128        1008156011.7898537     
   896087156.76502407        171915185.01122144        1116493937.1433418     
   448336064.70033526        134500819.41010058        657928596.17304003     
   447537729.46068174        125480886.57271388        774113931.27278948     
   446006770.48777264        114018874.62447478        888655179.43261170     
   443743187.78160763        100114783.56538334        1001552340.6525068     
   440746981.34218717        83768613.395439535        1112805414.9324739     
   1.7130299010794266E-002   5.1390897032382804E-003   656453733.42821193     
   1.5823800603165239E-002   2.6978419498391300E-003   770946680.30168653     
   1.5179226923020143E-002   2.4633568994149508E-003   885616295.18267560     
   1.5196755255285644E-002   4.4357918208523008E-003   1000462578.0711790     
   1.5876448507516367E-002   8.6152696698261269E-003   1115485528.9671969     
   1850547089.9002781        361342202.92965949        1142976890.3018479     
   1835233082.0422745        295661529.75698268        1190505651.2732675     
   1823312928.7780414        241293705.23020369        1240300516.1954656     
   1814786630.1075778        198238729.34932446        1292361485.0684407     
   1809654186.0308838        166496602.11434519        1346688557.8921957     
   1366020526.2843878        264439714.85596141        1126551095.5997994     
   1360295530.3872666        216907362.97661760        1181979974.9031427     
   1357115925.4354765        177859647.58171207        1238330839.1579244     
   1356481711.4290168        147296568.67124051        1295603688.3641431     
   1358392888.3678887        125218126.24520683        1353798522.5218027     
   896087156.76502407        171915185.01122144        1116493937.1433418     
   896110832.83067167        141379052.42577854        1178833060.5220952     
   897831436.19321132        116499344.16330850        1240750049.8529489     
   901248966.85264301        97276060.223812968        1302244905.1359007     
   906363424.80896664        83709200.607290387        1363317626.3709514     
   440746981.34218717        83768613.395439535        1112805414.9324739     
   442678989.37249017        69076598.104462460        1181064908.1301279     
   445459461.05124605        57212794.974995822        1247558148.2805402     
   449088396.37845546        48177204.007040516        1312285135.3837123     
   453565795.35411865        41969825.200597391        1375245869.4396439     
   1.5876448507516367E-002   8.6152696698261269E-003   1115485528.9671969     
   1.2721749020528170E-002   1.2670848230534991E-002   1188675517.7272375     
   9.5812895163592572E-003   1.6773893400641463E-002   1258755134.4406981     
   6.4552644365420981E-003   2.0924879846239520E-002   1325724379.1075780     
   3.3435022150186304E-003   2.5123756097511739E-002   1389583251.7278779     
   1809654186.0308838        166496602.11434519        1346688557.8921957     
   1778636482.2582774        134079507.89561599        1364267966.9726241     
   1748900051.9743321        105933325.30575639        1382646472.2227223     
   1720444895.1790500        82058054.344773710        1401824073.6424904     
   1693271011.8724303        62453695.012666285        1421800771.2319300     
   1358392888.3678887        125218126.24520683        1353798522.5218027     
   1332454752.9810688        100102848.31678647        1372729106.9400392     
   1307477572.7117684        78190754.113428712        1393082920.9568305     
   1283461347.5599854        59481843.635129809        1414859964.5721786     
   1260406077.5257220        43976116.881895304        1438060237.7860835     
   906363424.80896664        83709200.607290387        1363317626.3709514     
   887288096.17618227        66430710.479656845        1383225681.3606601     
   868853404.28977227        51287676.173272192        1405181099.3778117     
   851059349.14973640        38280097.688133836        1429183880.4224062     
   833905930.75607431        27407975.024241626        1455234024.4944434     
   453565795.35411865        41969825.200597391        1375245869.4396439     
   443136511.84361506        33063094.384222239        1395757690.2344906     
   433027546.70834184        25224091.485282034        1418941007.4856675     
   423238899.94829935        18452816.503777280        1444795821.1931722     
   413770571.56348753        12749269.439708397        1473322131.3570058     
   3.3435022150186304E-003   2.5123756097511739E-002   1389583251.7278779     
  -1.6631670857375311E-002   3.0484206047732332E-002   1410325133.5615284     
  -3.2519831607788825E-002   4.9468550821597131E-002   1434362645.2803948     
  -4.4323244708188346E-002   8.2068460886987160E-002   1461695786.8844762     
  -5.2040057245146799E-002  0.12829037283051409        1492324558.3737731     
   1693271011.8724303        62453695.012666285        1421800771.2319300     
   1643871944.6491187        40758211.104551136        1414950492.0017743     
   1596209030.7057111        24849904.796114326        1413096103.2956252     
   1550282270.0422153        14728776.087382853        1416237605.1134839     
   1506091662.6586254        10394824.978340089        1424374997.4553480     
   1260406077.5257220        43976116.881895304        1438060237.7860835     
   1225224944.5657732        28264954.198963284        1434992004.4749610     
   1191345926.5639164        16894174.709674001        1436483755.9442997     
   1158769023.5201542        9863778.4140309095        1442535492.1941004     
   1127494235.4344854        7173765.3120338917        1453147213.2243574     
   833905930.75607431        27407975.024241626        1455234024.4944434     
   811697287.07793009        17307500.072031826        1455441459.0602355     
   790356720.03606462        10100613.907418042        1459772972.6629434     
   769884229.63047707        5787316.5303974748        1468228565.3025663     
   750279815.86116898        4367607.9409747720        1480808236.9791043     
   413770571.56348753        12749269.439708397        1473322131.3570058     
   403288972.18558836        7885848.7237495780        1476298855.7575979     
   393241411.12215394        4469222.3893403262        1482963753.4515584     
   383627888.37318367        2499390.4364775121        1493316824.4388885     
   374448403.93867809        1976352.8651650250        1507358068.7195876     
  -5.2040057245146799E-002  0.12829037283051409        1492324558.3737731     
 -0.11125249073633012       0.15411760695477278        1497564194.5670462     
 -0.17781396776240666       0.15544733540666361        1506056098.3101430     
 -0.25172725053691125       0.13227191205886560        1517800269.6030633     
 -0.33298949678214868        8.4598902974539286E-002   1532796708.4458067     
   1506091662.6586254        10394824.978340089        1424374997.4553480     
   1458632757.9788728        7986705.7481489182        1417480459.4325233     
   1411353955.6682441        6178927.7483724356        1414869073.3669178     
   1364255255.7267437        4971490.9790215492        1416540839.2585304     
   1317336658.1543653        4364395.4400814772        1422495757.1073637     
   1127494235.4344854        7173765.3120338917        1453147213.2243574     
   1091448472.7452297        5232200.6212385297        1446973267.2019827     
   1055537786.8290529        3740891.8407087326        1445187842.7829132     
   1019762177.6859566        2699838.9704474211        1447790939.9671459     
   984121645.31594026        2109042.0104513764        1454782558.7546785     
   750279815.86116898        4367607.9409747720        1480808236.9791043     
   725948251.29407847        2982914.6290745437        1475302353.0951266     
   701706737.90402436        1898391.9072938561        1474290360.4605389     
   677555275.69100273        1114039.7756231129        1477772259.0753376     
   653493864.65501654        629858.23406830430        1485748048.9395216     
   374448403.93867809        1976352.8651650250        1507358068.7195876     
   362132093.62542289        1238847.7716614753        1502467717.1119547     
   349860808.89315796        651427.94812594354        1502176626.3997948     
   337634549.74188137        214093.39455029368        1506484796.5831068     
   325453316.17159343       -73155.889061197639        1515392227.6618869     
 -0.33298949678214868        8.4598902974539286E-002   1532796708.4458067     
 -0.26073982716513250        4.8994622461670745E-002   1528469359.2524676     
 -0.20354498764130324       -3.6792078083791951E-002   1528846640.6006830     
 -0.16140813502612911      -0.17277276221416227        1533928552.4904518     
 -0.13432867455727551      -0.35894371266484881        1543715094.9217782     
   1317336658.1543653        4364395.4400814772        1422495757.1073637     
   1268442752.1797218        3789973.9317809939        1413996070.5146503     
   1219781007.4961555        3989423.3937417269        1410267456.9490068     
   1171351424.1036789        4962743.8260004520        1411309916.4104257     
   1123154002.0022783        6709935.2285099626        1417123448.8989103     
   984121645.31594026        2109042.0104513764        1454782558.7546785     
   947636156.75268412        1733708.1088068485        1447403824.9731896     
   911324789.16337597        1938777.4536539912        1444753011.3410895     
   875187542.54801750        2724250.0450019240        1446830117.8583794     
   839224416.90660691        4090125.8828407526        1453635144.5250556     
   653493864.65501654        629858.23406830430        1485748048.9395216     
   629293499.56693077        416623.75821876526        1479422554.2659309     
   605209215.13566089        590324.80508887768        1477781826.8640509     
   581241011.36120379        1150961.3746677935        1480825866.7338850     
   557388888.24355960        2098533.4669570923        1488554673.8754306     
   325453316.17159343       -73155.889061197639        1515392227.6618869     
   313414780.62245971       -161279.11998170614        1510052258.3928716     
   301434285.41300756       -55934.551964357495        1509353903.5178912     
   289511830.54323345        242877.81498156488        1513297163.0369468     
   277647416.01313967        735157.98085916042        1521882036.9500387     
 -0.13432867455727551      -0.35894371266484881        1543715094.9217782     
  -8.0730477248269150E-002 -0.52580458302383104        1539292937.3540149     
  -4.5795555992067249E-003 -0.61748935863793109        1539469241.3026090     
   9.4106819406733350E-002 -0.63405526250638200        1544244006.7675631     
  0.21534578149988298      -0.57544761080761020        1553617233.7488773     
   1123154002.0022783        6709935.2285099626        1417123448.8989103     
   1070879537.8456390        7810519.5645145774        1410121284.9928358     
   1018753025.9474103        9404278.0952212214        1407476215.1679795     
   966774466.30758214        11491210.820596933        1409188239.4243405     
   914943858.92616665        14071317.740682006        1415257357.7619288     
   839224416.90660691        4090125.8828407526        1453635144.5250556     
   798516330.94622636        4464892.8182398677        1447692196.0549922     
   757919209.19426215        5209540.4483567476        1446456863.8240507     
   717433051.65071690        6324068.7732064128        1449929147.8322303     
   677057858.31558490        7808477.7927645147        1458109048.0795243     
   557388888.24355960        2098533.4669570923        1488554673.8754306     
   529248672.35915029        2047930.5656677783        1483627788.1163919     
   501182432.63316303        2243914.8591203690        1483759040.7543757     
   473190169.06560177        2686486.3473242521        1488948431.7893736     
   445271881.65646374        3375645.0302736461        1499195961.2213891     
   277647416.01313967        735157.98085916042        1521882036.9500387     
   263076562.08440778        559632.80678835511        1517928061.1770389     
   248542696.26410863        507401.32749070227        1519382745.9589527     
   234045818.55224130        578463.54296681285        1526246091.2957826     
   219585928.94880745        772819.45322133601        1538518097.1875315     
  0.21534578149988298      -0.57544761080761020        1553617233.7488773     
  0.12200519898393630      -0.45837749804613737        1550593015.2369220     
   8.7100198848260701E-002 -0.14652349846254145        1553327979.4377792     
  0.11064164694320032       0.36015303605719062        1561822126.3514507     
  0.19262037020351730        1.0616197939054568        1576075455.9779360     
   914943858.92616665        14071317.740682006        1415257357.7619288     
   861868571.01023769        16513533.955098063        1407429018.7500286     
   808800614.43240285        18980187.963167459        1402684248.8819859     
   755739989.19265234        21471279.764848500        1401023048.1578074     
   702686695.29100335        23986809.360201478        1402445416.5774853     
   677057858.31558490        7808477.7927645147        1458109048.0795243     
   632772237.13165331        8296393.6089625359        1452945769.6462944     
   588492114.47641897        8802637.8541519940        1451911196.5703344     
   544217490.34987843        9327210.5283180177        1455005328.8516436     
   499948364.75203133        9870111.6314672232        1462228166.4902050     
   445271881.65646374        3375645.0302736461        1499195961.2213891     
   412762030.67140532        2805091.4883263409        1496695605.0892079     
   380255845.40564305        2246757.0106985420        1499369090.5276966     
   347753325.85917747        1700641.5973975956        1507216417.5368490     
   315254472.03201091        1166745.2484185249        1520237586.1166885     
   219585928.94880745        772819.45322133601        1538518097.1875315     
   201837951.62948960        39627.593177288771        1538678525.0787578     
   184091807.22007629       -687454.56718533486        1545057930.7540648     
   166347495.72055700       -1408427.0278993994        1557656314.2134507     
   148605017.13093907       -2123289.7889456004        1576473675.4568956     
  0.19262037020351730        1.0616197939054568        1576075455.9779360     
   5.9168329576524403E-003   1.9235477908299246        1578894529.6149526     
  -8.0284634252047793E-002   3.1204833817643318        1588977717.2494433     
  -6.5981194866756576E-002   4.6524342871812916        1606325018.8814199     
   4.8819007444636853E-002   6.5193757901307050        1630936434.5108726     
   1.7130299010794266E-002   5.1390897032382804E-003   656453733.42821193     
   1.5823800603165239E-002   2.6978419498391300E-003   770946680.30168653     
   1.5179226923020143E-002   2.4633568994149508E-003   885616295.18267560     
   1.5196755255285644E-002   4.4357918208523008E-003   1000462578.0711790     
   1.5876448507516367E-002   8.6152696698261269E-003   1115485528.9671969     
  -448336064.66648668       -134500819.39994600        657928596.17067003     
  -447537729.42923832       -125480886.56791455        774113931.27164710     
  -446006770.45769024       -114018874.62155038        888655179.43296587     
  -443743187.75184226       -100114783.56085333        1001552340.6546263     
  -440746981.31169444       -83768613.385823563        1112805414.9366286     
  -890456695.47669113       -267137008.64300734        662353184.40039313     
  -894062181.99281001       -250657790.07407987        781085635.41811669     
  -896202421.04099143       -229294413.27869374        896353244.54900944     
  -896877412.62123513       -203046878.25684875        1008156011.7930709     
  -896087156.73354065       -171915185.00854504        1116493937.1503019     
  -1326361892.4134831       -397908567.72404498        669727498.11738110     
  -1339573357.6748910       -375530710.51579791        791861792.74109542     
  -1350586951.7347236       -345826615.96896619        908710490.53080583     
  -1359402674.5929806       -308796284.08354986        1020273591.4865130     
  -1366020526.2496626       -264439714.85954919        1126551095.6082158     
  -1756051655.4768624       -526815496.64305872        680051537.32163417     
  -1784071256.4754815       -500099647.89306885        806442403.24058306     
  -1809160362.5388877       -463615482.69236863        925726917.37835574     
  -1831318973.6670806       -417363001.04095757        1037905079.7349519     
  -1850547089.8600605       -361342202.93883622        1142976890.3103714     
   1.5876448507516367E-002   8.6152696698261269E-003   1115485528.9671969     
   1.2721749020528170E-002   1.2670848230534991E-002   1188675517.7272375     
   9.5812895163592572E-003   1.6773893400641463E-002   1258755134.4406981     
   6.4552644365420981E-003   2.0924879846239520E-002   1325724379.1075780     
   3.3435022150186304E-003   2.5123756097511739E-002   1389583251.7278779     
  -440746981.31169444       -83768613.385823563        1112805414.9366286     
  -442678989.34863800       -69076598.089920387        1181064908.1355071     
  -445459461.03372627       -57212794.954500154        1247558148.2876241     
  -449088396.36695975       -48177203.979564309        1312285135.3929815     
  -453565795.34833872       -41969825.165112510        1375245869.4515779     
  -896087156.73354065       -171915185.00854504        1116493937.1503019     
  -896110832.80478716       -141379052.42094654        1178833060.5318308     
  -897831436.17233849       -116499344.15436518        1240750049.8664193     
  -901248966.83619440       -97276060.208799183        1302244905.1540668     
  -906363424.79635572       -83709200.584250003        1363317626.3947740     
  -1366020526.2496626       -264439714.85954919        1126551095.6082158     
  -1360295530.3557272       -216907362.98041135        1181979974.9162097     
  -1357115925.4062552       -177859647.58282140        1238330839.1770828     
  -1356481711.4012477       -147296568.66678017        1295603688.3908353     
  -1358392888.3407056       -125218126.23228705        1353798522.5574667     
  -1850547089.8600605       -361342202.93883622        1142976890.3103714     
  -1835233082.0014565       -295661529.76831228        1190505651.2886441     
  -1823312928.7354770       -241293705.23987031        1240300516.2196152     
  -1814786630.0621212       -198238729.35350645        1292361485.1032863     
  -1809654185.9813900       -166496602.10922480        1346688557.9396563     
   3.3435022150186304E-003   2.5123756097511739E-002   1389583251.7278779     
  -1.6631670857375311E-002   3.0484206047732332E-002   1410325133.5615284     
  -3.2519831607788825E-002   4.9468550821597131E-002   1434362645.2803948     
  -4.4323244708188346E-002   8.2068460886987160E-002   1461695786.8844762     
  -5.2040057245146799E-002  0.12829037283051409        1492324558.3737731     
  -453565795.34833872       -41969825.165112510        1375245869.4515779     
  -443136511.87606794       -33063094.341644064        1395757690.2582016     
  -433027546.77350688       -25224091.417209551        1418941007.5233121     
  -423238900.04065335       -18452816.391800106        1444795821.2469118     
  -413770571.67751044       -12749269.265425801        1473322131.4289980     
  -906363424.79635572       -83709200.584250003        1363317626.3947740     
  -887288096.19391704       -66430710.451298058        1383225681.4049428     
  -868853404.33498466       -51287676.130030811        1405181099.4468708     
  -851059349.21955609       -38280097.620443821        1429183880.5205581     
  -833905930.84763288       -27407974.922541291        1455234024.6260061     
  -1358392888.3407056       -125218126.23228705        1353798522.5574667     
  -1332454752.9701798       -100102848.29847568        1372729107.0017517     
  -1307477572.7169542       -78190754.089000046        1393082921.0510678     
  -1283461347.5810289       -59481843.603856862        1414859964.7054160     
  -1260406077.5624046       -43976116.843051374        1438060237.9647982     
  -1809654185.9813900       -166496602.10922480        1346688557.9396563     
  -1778636482.2048542       -134079507.88317639        1364267967.0486283     
  -1748900051.9194164       -105933325.29411793        1382646472.3359051     
  -1720444895.1250730       -82058054.342039824        1401824073.8014865     
  -1693271011.8218262       -62453695.026954770        1421800771.4453728     
  -5.2040057245146799E-002  0.12829037283051409        1492324558.3737731     
 -0.11125249073633012       0.15411760695477278        1497564194.5670462     
 -0.17781396776240666       0.15544733540666361        1506056098.3101430     
 -0.25172725053691125       0.13227191205886560        1517800269.6030633     
 -0.33298949678214868        8.4598902974539286E-002   1532796708.4458067     
  -413770571.67751044       -12749269.265425801        1473322131.4289980     
  -403288972.41507185       -7885848.5229435563        1476298855.8302367     
  -393241411.47765964       -4469222.1972165704        1482963753.5329242     
  -383627888.86527026       -2499390.2882325649        1493316824.5370610     
  -374448404.57790738       -1976352.7960025221        1507358068.8426478     
  -833905930.84763288       -27407974.922541291        1455234024.6260061     
  -811697287.25889814       -17307499.962007642        1455441459.1979232     
  -790356720.31286526       -10100613.810478568        1459772972.8229136     
  -769884230.00953281       -5787316.4679521024        1468228565.5009794     
  -750279816.34890199       -4367607.9344303012        1480808237.2321186     
  -1260406077.5624046       -43976116.843051374        1438060237.9647982     
  -1225224944.6427319       -28264954.163072646        1434992004.6701045     
  -1191345926.6834345       -16894174.684351265        1436483756.1801100     
  -1158769023.6845164       -9863778.4068917632        1442535492.4948146     
  -1127494235.6459737       -7173765.3306803703        1453147213.6142187     
  -1693271011.8218262       -62453695.026954770        1421800771.4453728     
  -1643871944.5665712       -40758211.126142323        1414950492.2467797     
  -1596209030.5893679       -24849904.818835199        1413096103.6045117     
  -1550282269.8902180       -14728776.105040550        1416237605.5185678     
  -1506091662.4691200       -10394824.984751225        1424374997.9889500     
 -0.33298949678214868        8.4598902974539286E-002   1532796708.4458067     
 -0.26073982716513250        4.8994622461670745E-002   1528469359.2524676     
 -0.20354498764130324       -3.6792078083791951E-002   1528846640.6006830     
 -0.16140813502612911      -0.17277276221416227        1533928552.4904518     
 -0.13432867455727551      -0.35894371266484881        1543715094.9217782     
  -374448404.57790738       -1976352.7960025221        1507358068.8426478     
  -362132094.12873203       -1238847.7502748221        1502467717.2406518     
  -349860809.28532672       -651428.05711184442        1502176626.5221202     
  -337634550.04769528       -214093.71653030813        1506484796.6870532     
  -325453316.41583174        73155.271493405104        1515392227.7354505     
  -750279816.34890199       -4367607.9344303012        1480808237.2321186     
  -725948251.68877637       -2982914.6571607888        1475302353.3656340     
  -701706738.22513580       -1898392.0348418653        1474290360.7245219     
  -677555275.95798182       -1114040.0674794614        1477772259.3087809     
  -653493864.88731337       -629858.75506636500        1485748049.1184156     
  -1127494235.6459737       -7173765.3306803703        1453147213.6142187     
  -1091448472.9408727       -5232200.6716635227        1446973267.6274123     
  -1055537787.0229720       -3740891.9699807167        1445187843.2078848     
  -1019762177.8922706       -2699839.2256300449        1447790940.3556414     
  -984121645.54877281       -2109042.4386211634        1454782559.0706775     
  -1506091662.4691200       -10394824.984751225        1424374997.9889500     
  -1458632757.8850191       -7986705.7937787175        1417480460.0259850     
  -1411353955.6788330       -6178927.8625202775        1414869073.9722118     
  -1364255255.8505642       -4971491.1909862757        1416540839.8276277     
  -1317336658.4002073       -4364395.7791618109        1422495757.5922360     
 -0.13432867455727551      -0.35894371266484881        1543715094.9217782     
  -8.0730477248269150E-002 -0.52580458302383104        1539292937.3540149     
  -4.5795555992067249E-003 -0.61748935863793109        1539469241.3026090     
   9.4106819406733350E-002 -0.63405526250638200        1544244006.7675631     
  0.21534578149988298      -0.57544761080761020        1553617233.7488773     
  -325453316.41583174        73155.271493405104        1515392227.7354505     
  -313414780.75917798        161278.24261148274        1510052258.5028868     
  -301434285.40291214        55933.545770674944        1509353903.6475523     
  -289511830.34702682       -242878.81900590658        1513297163.1694417     
  -277647415.59152693       -735158.85173337162        1521882037.0685604     
  -653493864.88731337       -629858.75506636500        1485748049.1184156     
  -629293499.73941362       -416624.47951555252        1479422554.5109694     
  -605209215.21483052       -590325.61502170563        1477781827.1416173     
  -581241011.31356418       -1150962.1615810096        1480825867.0103588     
  -557388888.03561091       -2098534.1191875339        1488554674.1171961     
  -984121645.54877281       -2109042.4386211634        1454782559.0706775     
  -947636157.02143800       -1733708.6921908259        1447403825.3782630     
  -911324789.44034362       -1938778.0998958349        1444753011.7848086     
  -875187542.80550158       -2724250.6617744565        1446830118.2903130     
  -839224417.11690331       -4090126.3778017163        1453635144.8947811     
  -1317336658.4002073       -4364395.7791618109        1422495757.5922360     
  -1268442752.6052392       -3789974.3953725696        1413996071.1047635     
  -1219781008.0794559       -3989423.9088646770        1410267457.5771205     
  -1171351424.8228412       -4962744.3195881248        1411309917.0093062     
  -1123154002.8354082       -6709935.6275830269        1417123449.4013188     
  0.21534578149988298      -0.57544761080761020        1553617233.7488773     
  0.12200519898393630      -0.45837749804613737        1550593015.2369220     
   8.7100198848260701E-002 -0.14652349846254145        1553327979.4377792     
  0.11064164694320032       0.36015303605719062        1561822126.3514507     
  0.19262037020351730        1.0616197939054568        1576075455.9779360     
  -277647415.59152693       -735158.85173337162        1521882037.0685604     
  -263076561.85736093       -559633.45799805224        1517928061.3495846     
  -248542696.13080639       -507401.42296832800        1519382746.1828015     
  -234045818.41186750       -578462.74665714800        1526246091.5682106     
  -219585928.70054102       -772817.42905515432        1538518097.5058079     
  -557388888.03561091       -2098534.1191875339        1488554674.1171961     
  -529248672.36142600       -2047931.0150141120        1483627788.4474707     
  -501182432.76091236       -2243914.8230804503        1483759041.1693134     
  -473190169.23406553       -2686485.5433675051        1488948432.2827239     
  -445271881.78088915       -3375643.1758911312        1499195961.7877066     
  -839224417.11690331       -4090126.3778017163        1453635144.8947811     
  -798516331.39019763       -4464893.1294509172        1447692196.5305758     
  -757919209.80321383       -5209540.3468458354        1446456864.3973169     
  -717433052.35595644       -6324068.0299923122        1449929148.4950025     
  -677057859.04842353       -7808476.1788871586        1458109048.8236306     
  -1123154002.8354082       -6709935.6275830269        1417123449.4013188     
  -1070879538.9436697       -7810519.8012911677        1410121285.5989022     
  -1018753027.2577151       -9404277.9942778349        1407476215.8668075     
  -966774467.77753520       -11491210.206514299        1409188240.2050352     
  -914943860.50313783       -14071316.438027143        1415257358.6135859     
  0.19262037020351730        1.0616197939054568        1576075455.9779360     
   5.9168329576524403E-003   1.9235477908299246        1578894529.6149526     
  -8.0284634252047793E-002   3.1204833817643318        1588977717.2494433     
  -6.5981194866756576E-002   4.6524342871812916        1606325018.8814199     
   4.8819007444636853E-002   6.5193757901307050        1630936434.5108726     
  -219585928.70054102       -772817.42905515432        1538518097.5058079     
  -201837951.80413109       -39624.101057544351        1538678525.5370560     
  -184091807.65514290        687460.06886859983        1545057931.3733609     
  -166347496.25356740        1408435.0807547271        1557656315.0147133     
  -148605017.59941351        2123300.9345619455        1576473676.4611158     
  -445271881.78088915       -3375643.1758911312        1499195961.7877066     
  -412762031.20830840       -2805088.4039233625        1496695605.8906229     
  -380255846.23106134       -2246752.2830679864        1499369091.6061563     
  -347753326.84914953       -1700634.8133287132        1507216418.9343214     
  -315254473.06257844       -1166735.9947249591        1520237587.8751101     
  -677057859.04842353       -7808476.1788871586        1458109048.8236306     
  -632772238.20660043       -8296390.9850027561        1452945770.6756403     
  -588492115.80803871       -8802633.9353170395        1451911197.9478393     
  -544217491.85273206       -9327205.0298163295        1455005330.6402354     
  -499948366.34067678       -9870104.2684952021        1462228168.7528365     
  -914943860.50313783       -14071316.438027143        1415257358.6135859     
  -861868572.79902315       -16513531.844344646        1407429019.8921137     
  -808800616.38607812       -18980184.887895525        1402684250.3984101     
  -755739991.26430488       -21471275.568687171        1401023050.1324759     
  -702686697.43371272       -23986803.886746824        1402445419.0943029     
  -1756051655.4768624       -526815496.64305872        680051537.32163417     
  -1784071256.4754815       -500099647.89306885        806442403.24058306     
  -1809160362.5388877       -463615482.69236863        925726917.37835574     
  -1831318973.6670806       -417363001.04095757        1037905079.7349519     
  -1850547089.8600605       -361342202.93883622        1142976890.3103714     
  -2201754565.5826292       -660526369.67478871        696433454.82342601     
  -2238367786.3886452       -613900967.64046443        813845544.86268210     
  -2272936693.5696201       -560461186.85600042        927158997.61180830     
  -2305461287.1255536       -500207027.32139671        1036373813.0708050     
  -2335941567.0564432       -433138489.03665251        1141489991.2396719     
  -2685699203.6465812       -805709761.09397435        721981403.43303072     
  -2722312574.2855768       -736596764.78299022        829380839.39739370     
  -2757767812.6097002       -663623327.42243648        935689352.56267393     
  -2792064918.6189532       -586789449.01231384        1040906942.9288718     
  -2825203892.3133359       -506095129.55262196        1145033610.4959860     
  -3207885569.6687212       -962365670.90061629        756695383.15044808     
  -3235905620.1662741       -868187039.32064581        853048286.84471869     
  -3263653719.6591277       -773101904.39167690        951317982.23095322     
  -3291129868.1472821       -677110266.11370945        1051504469.3091513     
  -3318334065.6307368       -580212124.48674393        1153607748.0793142     
  -3768313663.6490464       -1130494099.0947139        800575393.97567868     
  -3779146924.0307393       -1008671791.2534318        884847887.20465660     
  -3790594414.7179041       -888896917.76372170        974044886.61664557     
  -3802656135.7105408       -771169478.62558436        1068166392.2116452     
  -3815332087.0086489       -655489473.83901906        1167212403.9896557     
  -1850547089.8600605       -361342202.93883622        1142976890.3103714     
  -1835233082.0014565       -295661529.76831228        1190505651.2886441     
  -1823312928.7354770       -241293705.23987031        1240300516.2196152     
  -1814786630.0621212       -198238729.35350645        1292361485.1032863     
  -1809654185.9813900       -166496602.10922480        1346688557.9396563     
  -2335941567.0564432       -433138489.03665251        1141489991.2396719     
  -2312454956.8647251       -352093336.35619390        1182745792.7423770     
  -2292472079.6218290       -282727293.50514716        1224476458.3540246     
  -2275992935.3277559       -225040360.48351055        1266681988.0746150     
  -2263017523.9825077       -179032537.29128611        1309362381.9041479     
  -2825203892.3133359       -506095129.55262196        1145033610.4959860     
  -2798662507.9135208       -411220845.79973429        1179888261.1075578     
  -2775734734.8187275       -328391933.06358826        1213426535.9843163     
  -2756420573.0289569       -257608391.34418333        1245648435.1262605     
  -2740720022.5442085       -198870220.64152038        1276553958.5333915     
  -3318334065.6307368       -580212124.48674393        1153607748.0793142     
  -3293855735.1478434       -473044058.09893250        1181933056.3841867     
  -3273100894.3261714       -378287623.91519332        1207150749.1104901     
  -3256069543.1657205       -295942821.93552673        1229260826.2582235     
  -3242761681.6664920       -226009652.15993178        1248263287.8273857     
  -3815332087.0086489       -655489473.83901906        1167212403.9896557     
  -3798034638.5676942       -537562973.25378895        1188880178.5722642     
  -3784570558.1441617       -432414366.05996215        1205649097.7325463     
  -3774939845.7380486       -340043652.25753653        1217519161.4705019     
  -3769142501.3493571       -260450831.84651530        1224490369.7861309     
  -1809654185.9813900       -166496602.10922480        1346688557.9396563     
  -1778636482.2048542       -134079507.88317639        1364267967.0486283     
  -1748900051.9194164       -105933325.29411793        1382646472.3359051     
  -1720444895.1250730       -82058054.342039824        1401824073.8014865     
  -1693271011.8218262       -62453695.026954770        1421800771.4453728     
  -2263017523.9825077       -179032537.29128611        1309362381.9041479     
  -2223223931.8472190       -134662912.44602883        1317192145.0872893     
  -2186311432.6426578       -99896930.703193307        1328215219.1482728     
  -2152280026.3688226       -74734592.062778592        1342431604.0870974     
  -2121129713.0257101       -59175896.524777532        1359841299.9037650     
  -2740720022.5442085       -198870220.64152038        1276553958.5333915     
  -2685309928.6229181       -140495881.14888406        1272767619.7778008     
  -2634380747.0719838       -97057916.224098444        1274568806.5995891     
  -2587932477.8914032       -68556325.867162347        1281957518.9987576     
  -2545965121.0811777       -54991110.078074217        1294933756.9753044     
  -3242761681.6664920       -226009652.15993178        1248263287.8273857     
  -3164894472.5319500       -151578413.99173784        1230994391.1201615     
  -3093107995.2073917       -97416281.856828094        1221707234.6898544     
  -3027402249.6928182       -63523255.755196214        1220401818.5364630     
  -2967777235.9882283       -49899335.686848164        1227078142.6599903     
  -3769142501.3493571       -260450831.84651530        1224490369.7861309     
  -3661977563.5743127       -167910510.97459197        1191872459.1143727     
  -3562493177.0488825       -100972027.60137939        1169630503.4190686     
  -3470689341.7730675       -59635381.726884365        1157764502.7002187     
  -3386566057.7468629       -43900573.351093650        1156274456.9578230     
  -1693271011.8218262       -62453695.026954770        1421800771.4453728     
  -1643871944.5665712       -40758211.126142323        1414950492.2467797     
  -1596209030.5893679       -24849904.818835199        1413096103.6045117     
  -1550282269.8902180       -14728776.105040550        1416237605.5185678     
  -1506091662.4691200       -10394824.984751225        1424374997.9889500     
  -2121129713.0257101       -59175896.524777532        1359841299.9037650     
  -2060160284.8176708       -40935658.094641089        1352160680.7635620     
  -2000439999.8771541       -26859230.556247830        1349181813.0624099     
  -1941968858.2041593       -16946613.909596205        1350904696.8003087     
  -1884746859.7986882       -11197808.154688835        1357329331.9772570     
  -2545965121.0811777       -54991110.078074217        1294933756.9753044     
  -2474265729.3982797       -40458236.361997008        1286990976.2391102     
  -2403328470.9723754       -28465806.835893989        1283455807.8246918     
  -2333153345.8034635       -19013821.499764800        1284328251.7320499     
  -2263740353.8915429       -12102280.353612304        1289608307.9611843     
  -2967777235.9882283       -49899335.686848164        1227078142.6599903     
  -2886188278.3084002       -39325945.928205729        1219441378.6734216     
  -2804874443.8750339       -29669633.657769918        1215918087.8913569     
  -2723835732.6881318       -20930398.875545502        1216508270.3137920     
  -2643072144.7476878       -13108241.581521511        1221211925.9407332     
  -3386566057.7468629       -43900573.351093650        1156274456.9578230     
  -3295927931.5480285       -37538786.793263078        1149511888.0665002     
  -3205077918.5851274       -30470711.021877050        1146568653.2624061     
  -3114016018.8581562       -22696346.036924362        1147444752.5455389     
  -3022742232.3671203       -14215691.838420153        1152140185.9159005     
  -1506091662.4691200       -10394824.984751225        1424374997.9889500     
  -1458632757.8850191       -7986705.7937787175        1417480460.0259850     
  -1411353955.6788330       -6178927.8625202775        1414869073.9722118     
  -1364255255.8505642       -4971491.1909862757        1416540839.8276277     
  -1317336658.4002073       -4364395.7791618109        1422495757.5922360     
  -1884746859.7986882       -11197808.154688835        1357329331.9772570     
  -1825363299.6535668       -7295273.2970176935        1350111303.6704328     
  -1766375479.3744142       -4711871.3259084225        1347438070.2705817     
  -1707783398.9612317       -3447602.2413640022        1349309631.7776992     
  -1649587058.4140201       -3502466.0433956385        1355725988.1917932     
  -2263740353.8915429       -12102280.353612304        1289608307.9611843     
  -2191684586.7631669       -6481064.4025651217        1281815212.2411022     
  -2120240196.9888155       -2897772.9649360180        1278828554.4257741     
  -2049407184.5684900       -1352406.0407221317        1280648334.5152004     
  -1979185549.5021892       -1844963.6299297810        1287274552.5093789     
  -2643072144.7476878       -13108241.581521511        1221211925.9407332     
  -2557596619.2138228       -5544079.1104286909        1212592185.7379968     
  -2472948108.5220394       -736632.77961206436        1209040526.4377954     
  -2389126612.6723337        1314097.4109438658        1210556948.0401282     
  -2306132131.6647115        608111.46122503281        1217141450.5449989     
  -3022742232.3671203       -14215691.838420153        1152140185.9159005     
  -2923099397.0055337       -4484317.4206190109        1142442224.1611116     
  -2824499213.9740834        1771549.2300641537        1138073986.3066380     
  -2726941683.2727671        4551908.1136353016        1139035472.3524828     
  -2630426804.9015861        3856759.2300810814        1145326682.2986441     
  -1317336658.4002073       -4364395.7791618109        1422495757.5922360     
  -1268442752.6052392       -3789974.3953725696        1413996071.1047635     
  -1219781008.0794559       -3989423.9088646770        1410267457.5771205     
  -1171351424.8228412       -4962744.3195881248        1411309917.0093062     
  -1123154002.8354082       -6709935.6275830269        1417123449.4013188     
  -1649587058.4140201       -3502466.0433956385        1355725988.1917932     
  -1588706234.4124601       -3560932.1379415989        1347851062.7632415     
  -1527963042.4100862       -4078171.5631111264        1344571821.6441638     
  -1467357482.4068990       -5054184.3189054132        1345888264.8345635     
  -1406889554.4029009       -6488970.4053249359        1351800392.3344321     
  -1979185549.5021892       -1844963.6299297810        1287274552.5093789     
  -1906818917.7236145       -2686650.3316807747        1280134672.2880688     
  -1834495388.6742377       -3672012.7974172831        1277415087.7258785     
  -1762214962.3540602       -4801051.0271537304        1279115798.8228123     
  -1689977638.7630787       -6073765.0208805799        1285236805.5788639     
  -2306132131.6647115        608111.46122503281        1217141450.5449989     
  -2222780802.5387063       -1167128.9766011238        1210846899.6792483     
  -2139378046.8719072       -2770947.6117821932        1208797255.8222659     
  -2055923864.6643176       -4203344.4443275928        1210992518.9740503     
  -1972418255.9159396       -5464319.4742387533        1217432689.1346021     
  -2630426804.9015861        3856759.2300810814        1145326682.2986441     
  -2536591888.8577371        997631.92729020119        1139987744.9367781     
  -2442611017.0030932       -1374976.0061895847        1138718325.9333248     
  -2348484189.3376818       -3261064.5704412460        1141518425.2882867     
  -2254211405.8614821       -4660633.7654016018        1148388043.0016592     
  -1123154002.8354082       -6709935.6275830269        1417123449.4013188     
  -1070879538.9436697       -7810519.8012911677        1410121285.5989022     
  -1018753027.2577151       -9404277.9942778349        1407476215.8668075     
  -966774467.77753520       -11491210.206514299        1409188240.2050352     
  -914943860.50313783       -14071316.438027143        1415257358.6135859     
  -1406889554.4029009       -6488970.4053249359        1351800392.3344321     
  -1343202005.8536232       -7495327.1336057186        1344833789.2554617     
  -1279731192.4296274       -9224134.2794857621        1342267643.2014785     
  -1216477114.1309130       -11675391.842972219        1344101954.1724911     
  -1153439770.9574800       -14849099.824068010        1350336722.1684978     
  -1689977638.7630787       -6073765.0208805799        1285236805.5788639     
  -1614753111.4000630       -6948726.0568677187        1278225516.4839129     
  -1539814102.0818281       -8775413.9087935686        1275658047.3686302     
  -1465160610.8083773       -11553828.576665878        1277534398.2330067     
  -1390792637.5797060       -15283970.060472429        1283854569.0770497     
  -1972418255.9159396       -5464319.4742387533        1217432689.1346021     
  -1885532855.5829861       -6170716.5710790157        1210296467.2842643     
  -1799001756.2143085       -8058116.8821750879        1207647428.3682568     
  -1712824957.8099203       -11126520.407568336        1209485572.3865812     
  -1627002460.3698168       -15375927.147243142        1215810899.3392389     
  -2254211405.8614821       -4660633.7654016018        1148388043.0016592     
  -2155541238.4023876       -5161298.6762238741        1141046641.6565101     
  -2057294154.8270745       -7072243.1996475458        1138235786.2003622     
  -1959470155.1355510       -10393467.335706592        1139955476.6332142     
  -1862069239.3278105       -15124971.084375381        1146205712.9550698     
  -914943860.50313783       -14071316.438027143        1415257358.6135859     
  -861868572.79902315       -16513531.844344646        1407429019.8921137     
  -808800616.38607812       -18980184.887895525        1402684250.3984101     
  -755739991.26430488       -21471275.568687171        1401023050.1324759     
  -702686697.43371272       -23986803.886746824        1402445419.0943029     
  -1153439770.9574800       -14849099.824068010        1350336722.1684978     
  -1092219191.2441628       -18714508.992800891        1343187638.7156422     
  -1030878583.3173896       -22179824.116684496        1339549024.6026573     
  -969417947.17716563       -25245045.195732713        1339420879.8295481     
  -907837282.82348847       -27910172.229928374        1342803204.3962975     
  -1390792637.5797060       -15283970.060472429        1283854569.0770497     
  -1320207051.2511861       -20206658.609827161        1277533326.9815452     
  -1249374077.2045813       -24304721.432233810        1275149454.3380146     
  -1178293715.4399040       -27578158.527726471        1276702951.1464500     
  -1106965965.9571393       -30026969.896272480        1282193817.4068549     
  -1627002460.3698168       -15375927.147243142        1215810899.3392389     
  -1545832152.8200936       -20989980.695412874        1210466084.6898193     
  -1464287098.0476582       -25354876.834550738        1209485539.6044710     
  -1382367296.0525198       -28470615.564680934        1212869264.0831976     
  -1300072746.8346772       -30337196.885782897        1220617258.1259778     
  -1862069239.3278105       -15124971.084375381        1146205712.9550698     
  -1769094495.9508839       -21064475.249573350        1141985911.8404677     
  -1675617645.8466165       -25330290.323634386        1142557280.4020360     
  -1581638689.0150244       -27922416.306612730        1147919818.6397693     
  -1487157625.4560912       -28840853.198455870        1158073526.5536790     
  -3768313663.6490464       -1130494099.0947139        800575393.97567868     
  -3779146924.0307393       -1008671791.2534318        884847887.20465660     
  -3790594414.7179041       -888896917.76372170        974044886.61664557     
  -3802656135.7105408       -771169478.62558436        1068166392.2116452     
  -3815332087.0086489       -655489473.83901906        1167212403.9896557     
  -4339829138.6105604       -1301948741.5831683        858767874.61415851     
  -4335274478.5127430       -1125714196.4147604        942356139.39563227     
  -4331859741.6645584       -953279395.41179967        1020300089.7489977     
  -4329584928.0660095       -784644338.57428670        1092599725.6742544     
  -4328450037.7170944       -619809025.90222061        1159255047.1714032     
  -4895277647.5762644       -1468583294.2728794        936419263.77132535     
  -4905531697.3164206       -1246995500.8725913        1018709991.6704384     
  -4917451363.2503710       -1030959761.4516250        1084787584.5303237     
  -4931036645.3781176       -820476076.00998044        1134652042.3509812     
  -4946287543.6996641       -615544444.54765868        1168303365.1324117     
  -5434659190.5461588       -1630397757.1638477        1033529561.4471791     
  -5489918580.4417696       -1372515704.6269236        1113909444.0290747     
  -5547369279.4753380       -1121938015.8831964        1167507370.9606240     
  -5607011287.6468678       -878664690.93266678        1194323342.2418270     
  -5668844604.9563551       -642695729.77533388        1194357357.8726826     
  -5957973767.5202436       -1787392130.2560730        1150098767.6417193     
  -6088435127.8887920       -1502274807.6777582        1227954496.4715419     
  -6221613490.3394651       -1226214158.7065160        1268459449.0398986     
  -6357508854.8722572       -959210183.34234512        1271613625.3467898     
  -6496121221.4871712       -701262881.58524561        1237417025.3922153     
  -3815332087.0086489       -655489473.83901906        1167212403.9896557     
  -3798034638.5676942       -537562973.25378895        1188880178.5722642     
  -3784570558.1441617       -432414366.05996215        1205649097.7325463     
  -3774939845.7380486       -340043652.25753653        1217519161.4705019     
  -3769142501.3493571       -260450831.84651530        1224490369.7861309     
  -4328450037.7170944       -619809025.90222061        1159255047.1714032     
  -4298286966.6687021       -464082316.89467251        1141332696.0259988     
  -4278731483.0570707       -343714232.67631888        1129482708.0573380     
  -4269783586.8821969       -258704773.24715972        1123705083.2654212     
  -4271443278.1440792       -209053938.60719323        1123999821.6502469     
  -4946287543.6996641       -615544444.54765868        1168303365.1324117     
  -4871912511.1893492       -412613625.46144867        1102887632.2697685     
  -4814919285.5351315       -267622162.56222248        1054515481.1829381     
  -4775307866.7370081       -180570055.84998107        1023186911.8719217     
  -4753078254.7949800       -151457305.32472348        1008901924.3367181     
  -5668844604.9563551       -642695729.77533388        1194357357.8726826     
  -5518911272.1296358       -383156898.95411682        1073544987.3035735     
  -5393133965.5783463       -204138155.71767259        980747417.10934711     
  -5291512685.3024912       -105639500.06600451        915964647.29000366     
  -5214047431.3020649       -87660931.999109983        879196677.84554398     
  -6496121221.4871712       -701262881.58524561        1237417025.3922153     
  -6239283249.4895563       -375712137.37267423        1053304761.1274129     
  -6013375523.1867132       -153262212.14266658        908178515.83656418     
  -5818398042.5786381       -33913105.895225763        802038289.51966774     
  -5654350807.6653337       -17664818.630350351        734884082.17672420     
  -3769142501.3493571       -260450831.84651530        1224490369.7861309     
  -3661977563.5743127       -167910510.97459197        1191872459.1143727     
  -3562493177.0488825       -100972027.60137939        1169630503.4190686     
  -3470689341.7730675       -59635381.726884365        1157764502.7002187     
  -3386566057.7468629       -43900573.351093650        1156274456.9578230     
  -4271443278.1440792       -209053938.60719323        1123999821.6502469     
  -4148525744.7710319       -144793939.20817184        1090512842.8314540     
  -4030009856.4654622       -95206090.034071445        1065293518.2976490     
  -3915895613.2273707       -60290391.084899187        1048341848.0488285     
  -3806183015.0567555       -40046842.360649347        1039657832.0849961     
  -4753078254.7949800       -151457305.32472348        1008901924.3367181     
  -4620431842.0852699       -117284742.27700591        978371267.91671777     
  -4488908168.2608976       -86854642.180423498        953999965.09023535     
  -4358507233.3218660       -60167005.034975290        935788015.85727227     
  -4229229037.2681761       -37221830.840663195        923735420.21782780     
  -5214047431.3020649       -87660931.999109983        879196677.84554398     
  -5077695855.5170231       -85382920.181095600        855447734.37016189     
  -4939188112.4351892       -75917684.040430546        835749843.79682994     
  -4798524202.0565548       -59265223.577107906        820103006.12554824     
  -4655704124.3811274       -35425538.791136503        808507221.35631895     
  -5654350807.6653337       -17664818.630350351        734884082.17672420     
  -5520317785.0662985       -49088472.920441628        721742242.19178498     
  -5380849688.9883327       -62395215.614093542        710543154.41743004     
  -5235946519.4314346       -57585046.711298704        701286818.85365796     
  -5085608276.3956032       -34657966.212065220        693973235.50046945     
  -3386566057.7468629       -43900573.351093650        1156274456.9578230     
  -3295927931.5480285       -37538786.793263078        1149511888.0665002     
  -3205077918.5851274       -30470711.021877050        1146568653.2624061     
  -3114016018.8581562       -22696346.036924362        1147444752.5455389     
  -3022742232.3671203       -14215691.838420153        1152140185.9159005     
  -3806183015.0567555       -40046842.360649347        1039657832.0849961     
  -3703504649.4725552       -29576519.612709045        1031776491.8803170     
  -3601477137.4145398       -21275708.618715048        1028389416.4563576     
  -3500100478.8827071       -15144409.378667116        1029496605.8131186     
  -3399374673.8770614       -11182621.892567635        1035098059.9505986     
  -4229229037.2681761       -37221830.840663195        923735420.21782780     
  -4112582058.8886342       -22064459.879620552        913728778.36116624     
  -3997448674.3255305       -11952401.640031815        908891331.97871578     
  -3883828883.5788598       -6885656.1218900681        909223081.07047796     
  -3771722686.6486244       -6864223.3252003193        914724025.63645101     
  -4655704124.3811274       -35425538.791136503        808507221.35631895     
  -4523160159.7962666       -15002607.594003201        795368747.50904655     
  -4392992529.3180933       -2500790.0858180523        788074399.82948005     
  -4265201232.9466043        2079913.7334091663        786624178.31761539     
  -4139786270.6818051       -1260496.1363191605        791018082.97345400     
  -5085608276.3956032       -34657966.212065220        693973235.50046945     
  -4935238952.1954460       -8390962.7558393478        676696399.32396150     
  -4788108702.3922281        7079126.0439238548        665938620.00864875     
  -4644217526.9859505        11752300.187226295        661699897.55453396     
  -4503565425.9766092        5628559.6740736961        663980231.96161199     
  -3022742232.3671203       -14215691.838420153        1152140185.9159005     
  -2923099397.0055337       -4484317.4206190109        1142442224.1611116     
  -2824499213.9740834        1771549.2300641537        1138073986.3066380     
  -2726941683.2727671        4551908.1136353016        1139035472.3524828     
  -2630426804.9015861        3856759.2300810814        1145326682.2986441     
  -3399374673.8770614       -11182621.892567635        1035098059.9505986     
  -3287707100.8098269       -5652102.4118955135        1025791834.9604176     
  -3176518651.1992111       -1718661.1199475527        1021375112.3674471     
  -3065809325.0452085        617701.98328852654        1021847892.1716878     
  -2955579122.3478231        1356986.8978009224        1027210174.3731375     
  -3771722686.6486244       -6864223.3252003193        914724025.63645101     
  -3649288151.5989060       -5911891.4986135960        906466987.76331949     
  -3526769211.1322856       -4678208.2823495865        902659230.78429210     
  -3404165865.2487545       -3163173.6763911247        903300754.69936991     
  -3281478113.9483223       -1366787.6807529926        908391559.50855184     
  -4139786270.6818051       -1260496.1363191605        791018082.97345400     
  -4007842549.3727636       -5263684.6807675362        784467682.56981337     
  -3875250893.7732954       -7107092.2571306229        781926341.55716980     
  -3742011303.8834014       -6790718.8654003143        783394059.93552470     
  -3608123779.7030783       -4314564.5055828094        788870837.70487928     
  -4503565425.9766092        5628559.6740736961        663980231.96161199     
  -4363370294.1314030       -3707481.9583532810        659793919.37990022     
  -4221963699.1222491       -9005313.0442922115        659176444.68608356     
  -4079345640.9491487       -10264933.583736658        662127807.88015914     
  -3935516119.6121030       -7486343.5766968727        668648008.96212447     
  -2630426804.9015861        3856759.2300810814        1145326682.2986441     
  -2536591888.8577371        997631.92729020119        1139987744.9367781     
  -2442611017.0030932       -1374976.0061895847        1138718325.9333248     
  -2348484189.3376818       -3261064.5704412460        1141518425.2882867     
  -2254211405.8614821       -4660633.7654016018        1148388043.0016592     
  -2955579122.3478231        1356986.8978009224        1027210174.3731375     
  -2850791819.3078494       -378223.20794558525        1021664084.0845785     
  -2746080310.4748101       -2366080.6701415777        1020214023.0045378     
  -2641444595.8487034       -4606585.4887740612        1022859991.1330149     
  -2536884675.4295206       -7099737.6638276577        1029601988.4700089     
  -3281478113.9483223       -1366787.6807529926        908391559.50855184     
  -3165662678.6262197       -1955357.0036803484        902379607.93930030     
  -3050144787.5287561       -3535740.4087420702        900490196.42867315     
  -2934924440.6559415       -6107937.8959650993        902723324.97666705     
  -2820001638.0077677       -9671949.4653215408        909078993.58328497     
  -3608123779.7030783       -4314564.5055828094        788870837.70487928     
  -3481204466.8128333       -3733769.4598805904        782134316.50093901     
  -3354804448.1649399       -4883955.2220239639        779546846.20572948     
  -3228923723.7594032       -7765121.7920198441        781108426.81924641     
  -3103562293.5962219       -12377269.169870138        786819058.34148705     
  -3935516119.6121030       -7486343.5766968727        668648008.96212447     
  -3797417183.8676963       -5713460.5765507221        660928209.76949847     
  -3660059292.3833604       -6410725.1099753380        657383972.33570814     
  -3523442445.1590929       -9578137.1769609451        658015296.66074741     
  -3387566642.1948872       -15215696.777491808        662822182.74461913     
  -2254211405.8614821       -4660633.7654016018        1148388043.0016592     
  -2155541238.4023876       -5161298.6762238741        1141046641.6565101     
  -2057294154.8270745       -7072243.1996475458        1138235786.2003622     
  -1959470155.1355510       -10393467.335706592        1139955476.6332142     
  -1862069239.3278105       -15124971.084375381        1146205712.9550698     
  -2536884675.4295206       -7099737.6638276577        1029601988.4700089     
  -2426665017.9054718       -8292972.9150921106        1021741108.0218459     
  -2316631986.5311918       -10108295.332245350        1018393728.7362900     
  -2206785581.3066716       -12545704.915275574        1019559850.6133339     
  -2097125802.2319250       -15605201.664201617        1025239473.6529806     
  -2820001638.0077677       -9671949.4653215408        909078993.58328497     
  -2698281189.6370463       -11572364.822507739        900974501.38846874     
  -2576510909.6820765       -13306674.898854375        897366465.62985277     
  -2454690798.1428509       -14874879.694358826        898254886.30744314     
  -2332820855.0193753       -16276979.209030390        903639763.42123604     
  -3103562293.5962219       -12377269.169870138        786819058.34148705     
  -2970389753.5971165       -14999474.398473501        778746821.75636733     
  -2836930924.2797432       -16667381.899507642        775153996.88105524     
  -2703185805.6440926       -17380991.672965765        776040583.71554649     
  -2569154397.6901789       -17140303.718864322        781406582.25983870     
  -3387566642.1948872       -15215696.777491808        662822182.74461913     
  -3242990709.7856803       -18574301.642984271        655058069.12555385     
  -3097892030.3241806       -20190416.334182978        651756322.48989320     
  -2952270603.8103957       -20064040.851088762        652916942.83763778     
  -2806126430.2443233       -18195175.193703771        658539930.16878760     
  -1862069239.3278105       -15124971.084375381        1146205712.9550698     
  -1769094495.9508839       -21064475.249573350        1141985911.8404677     
  -1675617645.8466165       -25330290.323634386        1142557280.4020360     
  -1581638689.0150244       -27922416.306612730        1147919818.6397693     
  -1487157625.4560912       -28840853.198455870        1158073526.5536790     
  -2097125802.2319250       -15605201.664201617        1025239473.6529806     
  -1992501033.9516912       -22263385.687193871        1020167347.9499115     
  -1889066464.1606181       -32888898.007379532        1019431459.3865495     
  -1786822092.8587191       -47481738.624787092        1023031807.9629000     
  -1685767920.0459635       -66041907.539400578        1030968393.6789557     
  -2332820855.0193753       -16276979.209030390        903639763.42123604     
  -2217845869.0828724       -24043785.263921499        895740957.04378521     
  -2105753386.8520265       -41418937.004340291        891723455.26958442     
  -1996543408.3268399       -68402434.430292845        891587258.09862983     
  -1890215933.5073152       -104994277.54178250        895332365.53092682     
  -2569154397.6901789       -17140303.718864322        781406582.25983870     
  -2445129001.3444247       -26405673.979752779        768706739.12209630     
  -2325678413.9208345       -50920407.314517617        759433268.05114460     
  -2210802635.4194064       -90684503.723137259        753586169.04697073     
  -2100501665.8401260       -145697963.20560199        751165442.10959649     
  -2806126430.2443233       -18195175.193703771        658539930.16878760     
  -2674350430.7363596       -29349051.834722519        639064694.18483722     
  -2548841545.3670535       -61393308.937929153        622560897.73121417     
  -2429599774.1364012       -114327946.50330114        609028540.80791855     
  -2316625117.0444012       -188152964.53086746        598467623.41495204     
  -5957973767.5202436       -1787392130.2560730        1150098767.6417193     
  -6088435127.8887920       -1502274807.6777582        1227954496.4715419     
  -6221613490.3394651       -1226214158.7065160        1268459449.0398986     
  -6357508854.8722572       -959210183.34234512        1271613625.3467898     
  -6496121221.4871712       -701262881.58524561        1237417025.3922153     
  -6810609257.9778872       -2043182777.3933661        1353816656.5880134     
  -6828515655.5905962       -1395491868.0609295        1202786016.2630477     
  -6897780521.3732252       -918995852.62823510        1092016065.0684750     
  -7018403855.3257790       -613694731.09528565        1021506803.0042955     
  -7190385657.4482555       -479588503.46207857        991258230.07050979     
  -8337953541.3984604       -2501386062.4195380        1712373002.5191293     
  -8021557932.2785873       -1424597453.1399570        1275707615.9369397     
  -7805162257.4164362       -681141958.05278993        956914383.87700224     
  -7688766516.8120117       -271019577.15803957        755993306.33931684     
  -7672370710.4653091       -194230310.45570278        672944383.32388365     
  -10540006617.781963       -3162001985.3345890        2225767805.4350662     
  -9667561957.9527664       -1589591562.9148400        1446719295.4932182     
  -8943758698.4690990       -512652474.98017931        863154405.46548069     
  -8368596839.3309517        68815278.469396114        475073135.35185516     
  -7942076380.5383339        154811697.43388319        282475485.15233982     
  -13416768487.128395       -4025030546.1385188        2894001065.3358245     
  -11766527732.613138       -1890474197.3855822        1715821054.9318826     
  -10313569844.531206       -413527403.41040277        810736129.83391070     
  -9057894822.8826046        405809835.78701496        178746290.04190910     
  -7999502667.6673279        567537520.20667744       -180148464.44412270     
  -6496121221.4871712       -701262881.58524561        1237417025.3922153     
  -6239283249.4895563       -375712137.37267423        1053304761.1274129     
  -6013375523.1867132       -153262212.14266658        908178515.83656418     
  -5818398042.5786381       -33913105.895225763        802038289.51966774     
  -5654350807.6653337       -17664818.630350351        734884082.17672420     
  -7190385657.4482555       -479588503.46207857        991258230.07050979     
  -6900529312.7752132       -304276691.68159699        846968114.17023826     
  -6623498583.3771105       -171716930.81759286        723761250.37682748     
  -6359293469.2539549       -81909220.870066404        621637638.69027638     
  -6107913970.4057398       -34853561.839017391        540597279.11058617     
  -7672370710.4653091       -194230310.45570278        672944383.32388365     
  -7400646755.5942440       -184502659.85053396        589598484.61127520     
  -7123643785.5782967       -157178292.09575510        509433071.13843465     
  -6841361800.4174671       -112257207.19136477        432448142.90535951     
  -6553800800.1117535       -49739405.137364388        358643699.91205257     
  -7942076380.5383339        154811697.43388319        282475485.15233982     
  -7739635577.9466562       -16390041.879483700        281195872.45052433     
  -7513811129.7902699       -109646295.97715235        265193978.12138325     
  -7264603036.0691738       -124957064.85911798        234469802.16491547     
  -6992011296.7833672       -62322348.525392056        189023344.58112231     
  -7999502667.6673279        567537520.20667744       -180148464.44412270     
  -7917495779.8324461        200061162.23155355       -78239722.312015489     
  -7794000616.0130329       -29120942.461790085       -8956028.6743251085     
  -7629017176.2090788       -120008793.87333727        27702616.468942605     
  -7422545460.4205923       -72602392.003105164        31736213.117796004     
  -5654350807.6653337       -17664818.630350351        734884082.17672420     
  -5520317785.0662985       -49088472.920441628        721742242.19178498     
  -5380849688.9883327       -62395215.614093542        710543154.41743004     
  -5235946519.4314346       -57585046.711298704        701286818.85365796     
  -5085608276.3956032       -34657966.212065220        693973235.50046945     
  -6107913970.4057398       -34853561.839017391        540597279.11058617     
  -5959080147.6088543       -36466913.525430918        534217780.19174224     
  -5809226407.0548697       -34680539.354845524        530401459.38289118     
  -5658352748.7437878       -29494439.327266455        529148316.68403250     
  -5506459172.6756039       -20908613.442690372        530458352.09516615     
  -6553800800.1117535       -49739405.137364388        358643699.91205257     
  -6388393531.6901321       -21010660.592034817        353875527.05049658     
  -6226381501.2332449       -3599375.9291505814        352290958.19834477     
  -6067764708.7410927        2494448.8512842655        353889993.35559231     
  -5912543154.2136736       -2729186.2507317066        358672632.52224237     
  -6992011296.7833672       -62322348.525392056        189023344.58112231     
  -6808257937.3101311       -2719714.1202559471        180715482.76805031     
  -6632314971.5234575        30848274.662995815        176211650.86378980     
  -6464182399.4233513        38381617.824345589        175511848.86833984     
  -6303860221.0098209        19880315.363800049        178616076.78170091     
  -7422545460.4205923       -72602392.003105164        31736213.117796004     
  -7218673364.4688482        18405925.889909267        14737647.344403433     
  -7027026817.9255066        68662412.421586990        2163537.3792268587     
  -6847605820.7905674        78167067.591926575       -5986116.7777256696     
  -6680410373.0640287        46919891.400917053       -9711315.1264593974     
  -5085608276.3956032       -34657966.212065220        693973235.50046945     
  -4935238952.1954460       -8390962.7558393478        676696399.32396150     
  -4788108702.3922281        7079126.0439238548        665938620.00864875     
  -4644217526.9859505        11752300.187226295        661699897.55453396     
  -4503565425.9766092        5628559.6740736961        663980231.96161199     
  -5506459172.6756039       -20908613.442690372        530458352.09516615     
  -5345261237.3822718       -9508115.7289962769        515235669.77247888     
  -5185067814.9702778       -1455994.2864243984        505254363.52393097     
  -5025878905.4396210        3247750.8850178719        500514433.34952456     
  -4867694508.7903004        4603119.7853364944        501015879.24925637     
  -5912543154.2136736       -2729186.2507317066        358672632.52224237     
  -5744167124.3616104       -7290349.2398979664        348111092.48824239     
  -5574561045.8752842       -7751350.1148581505        341513247.74132735     
  -5403724918.7546968       -4112188.8756172657        338879098.28149682     
  -5231658742.9998426        3627134.4778449535        340208644.10874796     
  -6303860221.0098209        19880315.363800049        178616076.78170091     
  -6131956613.1334639       -1737663.2885591984        175322667.47125563     
  -5956588395.1072502       -11806941.441386461        174715272.66083428     
  -5777755566.9311724       -10327519.094663382        176793892.35044929     
  -5595458128.6052322        2700603.7515950203        181558526.54008743     
  -6680410373.0640287        46919891.400917053       -9711315.1264593974     
  -6508629703.6978359        7149942.1250224113       -3129605.2784828958     
  -6331149862.6661758       -13622768.265995026        4860438.2824626872     
  -6147970849.9690609       -15398239.772147179        14258815.556383997     
  -5959092665.6064749        1823527.6065931320        25065526.543279674     
  -4503565425.9766092        5628559.6740736961        663980231.96161199     
  -4363370294.1314030       -3707481.9583532810        659793919.37990022     
  -4221963699.1222491       -9005313.0442922115        659176444.68608356     
  -4079345640.9491487       -10264933.583736658        662127807.88015914     
  -3935516119.6121030       -7486343.5766968727        668648008.96212447     
  -4867694508.7903004        4603119.7853364944        501015879.24925637     
  -4715830198.1971712        2971083.7317507267        497790539.22927350     
  -4563680965.3625193        2288788.4832351208        498194805.22468239     
  -4411246810.2863417        2556234.0398097038        502228677.23549008     
  -4258527732.9686384        3773420.4014620781        509892155.26168621     
  -5231658742.9998426        3627134.4778449535        340208644.10874796     
  -5067951630.4373560        9751190.9695298672        336863312.24099886     
  -4904886136.5557747        13736518.524868965        337208354.51614547     
  -4742462261.3550835        15583117.143894434        341243770.93418550     
  -4580680004.8352985        15290986.826585531        348969561.49512255     
  -5595458128.6052322        2700603.7515950203        181558526.54008743     
  -5419734590.8519611        16632839.754976034        177012238.41507986     
  -5245579212.7020140        25337877.080614567        176217092.56046653     
  -5072991994.1553888        28815715.728510141        179173088.97625029     
  -4901972935.2120867        27066355.698662996        185880227.66242859     
  -5959092665.6064749        1823527.6065931320        25065526.543279674     
  -5771179079.4409838        23616030.088102341        18237317.751516987     
  -5585760193.8012447        37092864.150448799        15221019.357647734     
  -5402836008.6872473        42254029.793649673        16016631.361674240     
  -5222406524.0989933        39099527.017711401        20624153.763606831     
  -3935516119.6121030       -7486343.5766968727        668648008.96212447     
  -3797417183.8676963       -5713460.5765507221        660928209.76949847     
  -3660059292.3833604       -6410725.1099753380        657383972.33570814     
  -3523442445.1590929       -9578137.1769609451        658015296.66074741     
  -3387566642.1948872       -15215696.777491808        662822182.74461913     
  -4258527732.9686384        3773420.4014620781        509892155.26168621     
  -4109997627.1348934        3873176.1171612740        501957686.86238962     
  -3961660623.2354889        3329258.7183914185        498257739.99246752     
  -3813516721.2704210        2141668.2051715851        498792314.65192342     
  -3665565921.2396879        310404.57749176025        503561410.84075737     
  -4580680004.8352985        15290986.826585531        348969561.49512255     
  -4421550272.4249458        13768152.204015732        341459689.93583333     
  -4262065699.6231942        13428118.886092186        338243299.67647010     
  -4102226286.4300499        14270886.872813940        339320390.71702832     
  -3942032032.8455162        16296456.164176941        344690963.05750805     
  -4901972935.2120867        27066355.698662996        185880227.66242859     
  -4732075119.7378492        23971467.684012175        179434218.98983434     
  -4561274521.5464811        23885855.393123388        177340651.38770986     
  -4389571140.6380005        26809518.825946569        179599524.85605425     
  -4216964977.0123901        32742457.982530117        186210839.39486977     
  -5222406524.0989933        39099527.017711401        20624153.763606831     
  -5041572169.0735998        34483122.557154417        15881274.024395123     
  -4859287089.0053492        34702468.239470243        15549795.126193264     
  -4675551283.8942528        39757564.064595222        19629717.069010861     
  -4490364753.7402945        49648410.032594442        28121039.852837026     
  -3387566642.1948872       -15215696.777491808        662822182.74461913     
  -3242990709.7856803       -18574301.642984271        655058069.12555385     
  -3097892030.3241806       -20190416.334182978        651756322.48989320     
  -2952270603.8103957       -20064040.851088762        652916942.83763778     
  -2806126430.2443233       -18195175.193703771        658539930.16878760     
  -3665565921.2396879        310404.57749176025        503561410.84075737     
  -3508333616.3610377        1224910.9746007919        496649024.21017605     
  -3350933713.7873440        2698076.3551931381        494023839.12746674     
  -3193366213.5185990        4729900.7192850113        495685855.59262878     
  -3035631115.5548081        7320384.0668579340        501635073.60566413     
  -3942032032.8455162        16296456.164176941        344690963.05750805     
  -3772643828.1703839        21333932.021995783        338215962.49862659     
  -3603443175.1574416        25746235.672496319        335852998.05209064     
  -3434430073.8066945        29533367.115684748        337602069.71788245     
  -3265604524.1181469        32695326.351544857        343463177.49601996     
  -4216964977.0123901        32742457.982530117        186210839.39486977     
  -4035921345.2137151        41752761.499183416        179758883.99090558     
  -3855420414.4344792        48954061.617713928        177243799.26374981     
  -3675462184.6746821        54346358.338116646        178665585.21340054     
  -3496046655.9343204        57929651.660387516        184024241.83985975     
  -4490364753.7402945        49648410.032594442        28121039.852837026     
  -4298166167.4910345        62481399.406194687        21277788.687008750     
  -4106865431.6184597        72321554.190846920        18196242.762462720     
  -3916462546.1225591        79168874.386581659        18876402.079174433     
  -3726957511.0033383        83023359.993383408        23318266.637169987     
  -2806126430.2443233       -18195175.193703771        658539930.16878760     
  -2674350430.7363596       -29349051.834722519        639064694.18483722     
  -2548841545.3670535       -61393308.937929153        622560897.73121417     
  -2429599774.1364012       -114327946.50330114        609028540.80791855     
  -2316625117.0444012       -188152964.53086746        598467623.41495204     
  -3035631115.5548081        7320384.0668579340        501635073.60566413     
  -2893596839.9612980        8069117.6908334494        478946143.81665319     
  -2749838845.3677716        14563581.314857364        458429999.88658631     
  -2604357131.7742419        26803774.938891649        440086641.81546783     
  -2457151699.1807055        44789698.562943220        423916069.60328579     
  -3265604524.1181469        32695326.351544857        343463177.49601996     
  -3115593840.0715914        44662109.950797558        326883192.56371385     
  -2955868603.8863716        89010734.012269735        311677339.81897575     
  -2786428815.5624728        165741198.53597605        297845619.26179469     
  -2607274475.0999293        274853503.52188480        285388030.89217865     
  -3496046655.9343204        57929651.660387516        184024241.83985975     
  -3340341431.0672503        80429924.945138216        182875840.42602962     
  -3166930820.9228525        161948149.15432596        182302917.52838549     
  -2975814825.5011258        302484324.28791261        182305473.14692429     
  -2766993444.8020744        502038450.34595013        182883507.28164002     
  -3726957511.0033383        83023359.993383408        23318266.637169987     
  -3567839612.9482703        115372562.67387724        46924087.403594092     
  -3383025496.4772072        233375826.74101973        70306733.014813915     
  -3172515161.5901523        437033152.19478250        93466203.470839217     
  -2936308608.2871332        726344539.03513455        116402498.77165225     
 </DataArray>
 <DataArray  type="Float64" Name="VM" NumberOfComponents="1" format="ascii">
   12935740065.477335     
   11340761710.698254     
   10210174499.446384     
   9272635750.5841389     
   8303705201.8870659     
   10130380110.243464     
   9322020745.7699680     
   8826307198.7206936     
   8443406858.2718163     
   8035511646.3965416     
   7982394666.5856457     
   7734964015.9075012     
   7669103216.2943439     
   7669508038.1876793     
   7666247662.0208559     
   6491697266.9660568     
   6586878482.7543116     
   6757395583.0169773     
   6961169792.3528728     
   7171541213.3101349     
   5657841297.1094036     
   5890924030.1982470     
   6116372548.8055124     
   6331731154.8820124     
   6536778606.5082312     
   8303705201.8870659     
   8020543102.5951414     
   7779496488.6898270     
   7569878356.9090281     
   7386716403.3421602     
   8035511646.3965416     
   7746779196.2969322     
   7473720758.8838243     
   7214377057.6232948     
   6968754333.2369137     
   7666247662.0208559     
   7381128215.9054098     
   7101400551.7449131     
   6827142519.6285191     
   6558557211.1486216     
   7171541213.3101349     
   6911026250.1362114     
   6658404041.6829643     
   6409815741.1927013     
   6162116644.2418385     
   6536778606.5082312     
   6328822433.2414589     
   6143038002.7454643     
   5965516087.0775995     
   5787251149.1378555     
   7386716403.3421602     
   7227938978.6589308     
   7061609383.0199718     
   6887029862.6996307     
   6704014564.4608650     
   6968754333.2369137     
   6814091375.7617912     
   6654795309.1125479     
   6490581348.6819172     
   6321398796.7030096     
   6558557211.1486216     
   6407298390.1031542     
   6254418855.7159977     
   6099887285.1884604     
   5943734157.6996365     
   6162116644.2418385     
   6012555420.9808683     
   5864369037.4113970     
   5717598239.8102570     
   5572302536.0700264     
   5787251149.1378555     
   5636317037.6439552     
   5489654996.9010677     
   5347181442.0532017     
   5208949263.6060171     
   6704014564.4608650     
   6512209874.2258902     
   6324355085.2826967     
   6140335877.5419312     
   5960162760.7808723     
   6321398796.7030096     
   6138603567.4662495     
   5958383329.2540274     
   5780714869.7899942     
   5605636499.9906244     
   5943734157.6996365     
   5772103265.9492235     
   5602006288.3641043     
   5433466287.3374968     
   5266542323.8184805     
   5572302536.0700264     
   5414562597.4816399     
   5257682650.0967321     
   5101699345.5429935     
   4946708838.0754700     
   5208949263.6060171     
   5068431371.4278364     
   4928524466.7722607     
   4789260386.8249035     
   4650816170.7469044     
   5960162760.7808723     
   5783109529.0642185     
   5604460697.6279669     
   5424157403.5892839     
   5242187365.8077955     
   5605636499.9906244     
   5436721922.2796631     
   5267144626.6581688     
   5096917598.2913656     
   4926094210.4430323     
   5266542323.8184805     
   5106278297.1776218     
   4946372527.9218740     
   4786902486.1907902     
   4627985037.2142782     
   4946708838.0754700     
   4795462508.4978943     
   4645667732.5691528     
   4497452842.0001516     
   4350989765.1716709     
   4650816170.7469044     
   4508749382.7928696     
   4369276738.8407850     
   4232556168.0373211     
   4098798729.7389107     
   5242187365.8077955     
   5058976658.0128155     
   4876805299.2626114     
   4695679395.6063404     
   4515656368.8477125     
   4926094210.4430323     
   4754275368.4277878     
   4583567918.7635279     
   4414012212.9219227     
   4245699344.5818753     
   4627985037.2142782     
   4467768695.2615051     
   4308809750.1617441     
   4151195196.8316622     
   3995066816.2173405     
   4350989765.1716709     
   4202844132.5189676     
   4056197443.7569537     
   3911197129.4201617     
   3768054368.1882443     
   4098798729.7389107     
   3963482284.0849781     
   3830022526.3940868     
   3698640667.5924916     
   3569635111.7828703     
   4515656368.8477125     
   4329901847.2133827     
   4143619467.4273186     
   3956776147.8118749     
   3769371424.9390869     
   4245699344.5818753     
   4068888673.8814926     
   3892254830.7955937     
   3715842834.7035294     
   3539748241.2845302     
   3995066816.2173405     
   3828439896.7449832     
   3662872152.5966544     
   3498505098.5395780     
   3335552844.4408646     
   3768054368.1882443     
   3612849904.4271727     
   3459766434.6618090     
   3309052412.1507974     
   3161051264.7099338     
   3569635111.7828703     
   3427010459.6290779     
   3287727767.6378779     
   3152137594.6911712     
   3020702429.9163504     
   3769371424.9390869     
   3627812943.8879886     
   3507658946.5052414     
   3415926307.6192889     
   3364952450.9799480     
   3539748241.2845302     
   3396077737.0811858     
   3266230195.7742858     
   3153856980.4790721     
   3065578506.4038267     
   3335552844.4408646     
   3188828398.8190656     
   3049526923.6262269     
   2918838432.6520104     
   2798996634.6947098     
   3161051264.7099338     
   3014047908.7329116     
   2869206768.9679198     
   2726578420.8070002     
   2586265684.0808711     
   3020702429.9163504     
   2880925719.4587264     
   2739822397.0113807     
   2598269055.9864917     
   2457796591.3335700     
   5657841297.1094036     
   5890924030.1982470     
   6116372548.8055124     
   6331731154.8820124     
   6536778606.5082312     
   5151466904.8604059     
   5311345277.7096796     
   5467857600.1346273     
   5618110813.8168812     
   5760640869.8062515     
   4643490096.6588879     
   4755562342.9963903     
   4868757928.4729710     
   4980442908.3920317     
   5088692746.5440006     
   4134174546.3717251     
   4224412682.3468208     
   4320568783.3057461     
   4420985248.4631739     
   4524206819.9412270     
   3625039489.4262185     
   3719720246.1036444     
   3825648491.3342142     
   3942758174.9737344     
   4070954402.9278259     
   6536778606.5082312     
   6328822433.2414589     
   6143038002.7454643     
   5965516087.0775995     
   5787251149.1378555     
   5760640869.8062515     
   5652263124.5979156     
   5559875756.2348175     
   5474417517.2903185     
   5390349449.9894657     
   5088692746.5440006     
   5054171289.6409616     
   5030158937.5466547     
   5011449643.5106688     
   4994842646.8265896     
   4524206819.9412270     
   4539141465.0828934     
   4558751499.4006433     
   4580557388.2435980     
   4602835646.0783882     
   4070954402.9278259     
   4112501247.4936481     
   4151412176.1157560     
   4186790527.1805787     
   4217905111.4629693     
   5787251149.1378555     
   5636317037.6439552     
   5489654996.9010677     
   5347181442.0532017     
   5208949263.6060171     
   5390349449.9894657     
   5249010328.0126429     
   5110949460.4422884     
   4976210214.3687611     
   4844889763.1835871     
   4994842646.8265896     
   4867429606.5642796     
   4743237877.2788391     
   4622235895.9554930     
   4504465056.7671795     
   4602835646.0783882     
   4494241263.8295517     
   4389864804.6558619     
   4289387415.4169469     
   4192716602.3488202     
   4217905111.4629693     
   4133408880.0041804     
   4055360325.8251939     
   3982903580.8966327     
   3915737043.4445057     
   5208949263.6060171     
   5068431371.4278364     
   4928524466.7722607     
   4789260386.8249035     
   4650816170.7469044     
   4844889763.1835871     
   4721141604.1032181     
   4598976782.1290483     
   4478520952.9735069     
   4360016352.1999569     
   4504465056.7671795     
   4396336767.3316879     
   4290712063.5457377     
   4187778806.5649366     
   4087812290.8082099     
   4192716602.3488202     
   4098898982.7269392     
   4008393771.3811140     
   3921417543.0789881     
   3838247423.8135509     
   3915737043.4445057     
   3834704382.2623601     
   3757612401.2980709     
   3684674000.3806205     
   3616142052.8115811     
   4650816170.7469044     
   4508749382.7928696     
   4369276738.8407850     
   4232556168.0373211     
   4098798729.7389107     
   4360016352.1999569     
   4229409204.6710296     
   4101744097.8706274     
   3977235537.9611487     
   3856158702.4455376     
   4087812290.8082099     
   3969988912.8577485     
   3855645867.3754454     
   3745055945.8013873     
   3638563050.7195449     
   3838247423.8135509     
   3734596917.7919664     
   3635166529.7931910     
   3540282517.3444643     
   3450353996.6104383     
   3616142052.8115811     
   3528022789.0520854     
   3445060215.3834686     
   3367617834.4330506     
   3296153001.0058179     
   4098798729.7389107     
   3963482284.0849781     
   3830022526.3940868     
   3698640667.5924916     
   3569635111.7828703     
   3856158702.4455376     
   3733765222.1902728     
   3614060304.1879897     
   3497331389.9678693     
   3383946095.3343277     
   3638563050.7195449     
   3529603503.1303573     
   3424216551.0910306     
   3322742940.3979893     
   3225600986.0502214     
   3450353996.6104383     
   3355194243.0170569     
   3264502286.8859773     
   3178649149.6584716     
   3098074209.6202254     
   3296153001.0058179     
   3214894425.9198661     
   3138953681.9900947     
   3068700540.5779314     
   3004558206.7403269     
   3569635111.7828703     
   3427010459.6290779     
   3287727767.6378779     
   3152137594.6911712     
   3020702429.9163504     
   3383946095.3343277     
   3255491641.4140368     
   3131095945.1959791     
   3011187226.3168473     
   2896308126.1670604     
   3225600986.0502214     
   3112056387.3938656     
   3003348208.1614523     
   2899965596.7986717     
   2802506246.6790380     
   3098074209.6202254     
   3000085379.6536717     
   2907721804.0893412     
   2821503352.9798894     
   2742043398.8151188     
   3004558206.7403269     
   2922536840.5244184     
   2846875774.1953573     
   2778085864.8779626     
   2716749797.1077652     
   3020702429.9163504     
   2880925719.4587264     
   2739822397.0113807     
   2598269055.9864917     
   2457796591.3335700     
   2896308126.1670604     
   2772637366.5724764     
   2650125496.8001251     
   2529636886.6279645     
   2412476921.9641562     
   2802506246.6790380     
   2696877559.7706833     
   2595035056.5179939     
   2497814956.5853820     
   2406312188.5192299     
   2742043398.8151188     
   2654886145.9637909     
   2573955313.8850965     
   2499985702.6095371     
   2433830552.0621085     
   2716749797.1077652     
   2646746955.1603932     
   2584995866.1169362     
   2532065783.3695278     
   2488570181.8698568     
   3625039489.4262185     
   3719720246.1036444     
   3825648491.3342142     
   3942758174.9737344     
   4070954402.9278259     
   3138037965.5103073     
   3255539392.6718001     
   3382455167.5773988     
   3518315114.9216881     
   3662660499.1728172     
   2694814614.9050255     
   2830535575.0312443     
   2973567532.5474658     
   3122828193.1321220     
   3277406488.5508213     
   2298860581.4853234     
   2449502461.3274508     
   2604867862.0525560     
   2763035092.2534747     
   2922574884.4213257     
   1955389229.6809950     
   2119397213.4035430     
   2284766236.4510612     
   2448537755.2668905     
   2608754582.7001543     
   4070954402.9278259     
   4112501247.4936481     
   4151412176.1157560     
   4186790527.1805787     
   4217905111.4629693     
   3662660499.1728172     
   3702163509.4716520     
   3740288254.1860003     
   3776136537.8118858     
   3808959432.0506048     
   3277406488.5508213     
   3320716034.2341790     
   3364257356.3206944     
   3407206988.3032336     
   3448886492.5484319     
   2922574884.4213257     
   2975547091.7176771     
   3030717130.1811571     
   3087401255.3812928     
   3145065458.0609221     
   2608754582.7001543     
   2676714310.9125681     
   2749140750.7579722     
   2825523444.4795356     
   2905508274.7140584     
   4217905111.4629693     
   4133408880.0041804     
   4055360325.8251939     
   3982903580.8966327     
   3915737043.4445057     
   3808959432.0506048     
   3755774877.0233603     
   3708529846.7827001     
   3666746641.8067274     
   3630325585.8686528     
   3448886492.5484319     
   3422450257.2032347     
   3401069182.2520523     
   3384511867.2613082     
   3372761076.1791897     
   3145065458.0609221     
   3141091909.2955518     
   3140700285.0550714     
   3143789534.3020272     
   3150345754.9909239     
   2905508274.7140584     
   2920056095.9190669     
   2935939417.7201486     
   2953103452.5149283     
   2971509456.7485533     
   3915737043.4445057     
   3834704382.2623601     
   3757612401.2980709     
   3684674000.3806205     
   3616142052.8115811     
   3630325585.8686528     
   3560791913.8479271     
   3495761966.7225590     
   3435459988.2236772     
   3380152639.8564000     
   3372761076.1791897     
   3315503078.0629392     
   3263458562.7841926     
   3216846448.9040589     
   3175931233.6628561     
   3150345754.9909239     
   3105900453.9300475     
   3067511373.4300938     
   3035366689.0125308     
   3009704275.9265113     
   2971509456.7485533     
   2939937007.2973080     
   2915365660.8519878     
   2897920833.2246270     
   2887784096.7789207     
   3616142052.8115811     
   3528022789.0520854     
   3445060215.3834686     
   3367617834.4330506     
   3296153001.0058179     
   3380152639.8564000     
   3307308742.2155561     
   3240214224.8768106     
   3179215566.8460650     
   3124731684.4010725     
   3175931233.6628561     
   3117446005.9641738     
   3065206409.3414044     
   3019516596.7777791     
   2980730554.7796288     
   3009704275.9265113     
   2964302526.4718375     
   2925499899.1992860     
   2893537231.7925243     
   2868684536.8694639     
   2887784096.7789207     
   2853730225.1797180     
   2826446708.7704926     
   2806100244.7641554     
   2792870938.2508750     
   3296153001.0058179     
   3214894425.9198661     
   3138953681.9900947     
   3068700540.5779314     
   3004558206.7403269     
   3124731684.4010725     
   3055587051.7969818     
   2992422165.5665102     
   2935593208.9815040     
   2885500435.4688597     
   2980730554.7796288     
   2923538435.5825753     
   2872980758.7955661     
   2829377283.9961176     
   2793080327.4391747     
   2868684536.8694639     
   2822844374.6889791     
   2784255114.2626228     
   2753178688.2492275     
   2729898158.5431805     
   2792870938.2508750     
   2757228441.1683354     
   2729391562.0975051     
   2709550278.3678255     
   2697906642.7689552     
   3004558206.7403269     
   2922536840.5244184     
   2846875774.1953573     
   2778085864.8779626     
   2716749797.1077652     
   2885500435.4688597     
   2817461578.1046000     
   2756304156.7537179     
   2702480598.1918879     
   2656491136.4932938     
   2793080327.4391747     
   2738217818.3778911     
   2690632326.7276173     
   2650694869.1278529     
   2618802888.3736677     
   2729898158.5431805     
   2686989732.5408611     
   2651610805.2975025     
   2624038911.9259624     
   2604562157.0721297     
   2697906642.7689552     
   2665296602.3278375     
   2640328278.8978872     
   2623186991.0126004     
   2614059289.1733837     
   2716749797.1077652     
   2646746955.1603932     
   2584995866.1169362     
   2532065783.3695278     
   2488570181.8698568     
   2656491136.4932938     
   2598706415.8279209     
   2548768042.8605375     
   2507099636.8227572     
   2474143965.4800863     
   2618802888.3736677     
   2571566093.1791563     
   2531635632.6178050     
   2499310445.5732360     
   2474893805.5200152     
   2604562157.0721297     
   2566186221.7221894     
   2534464959.9433966     
   2509597640.2976055     
   2491780671.2661619     
   2614059289.1733837     
   2582910560.4038463     
   2557681919.2267752     
   2538498372.4222460     
   2525479793.3066044     
   1955389229.6809950     
   2119397213.4035430     
   2284766236.4510612     
   2448537755.2668905     
   2608754582.7001543     
   1653904804.4907796     
   1820319877.6141472     
   1988435695.2894063     
   2155557210.2782450     
   2319927256.5226412     
   1393749113.9624574     
   1571100624.3699820     
   1749459321.1094577     
   1926822410.4988654     
   2101940096.4463165     
   1207229987.3041418     
   1399155165.4088514     
   1590658114.3799801     
   1780962382.1370015     
   1969609604.2556987     
   1137011219.1159389     
   1335318820.2090812     
   1533932419.2673104     
   1732852016.2906265     
   1932077611.2790296     
   2608754582.7001543     
   2676714310.9125681     
   2749140750.7579722     
   2825523444.4795356     
   2905508274.7140584     
   2319927256.5226412     
   2406994931.6431818     
   2496479787.7635031     
   2587991607.9719510     
   2681254692.2791991     
   2101940096.4463165     
   2205731967.9659367     
   2309428212.8162851     
   2412792523.6593904     
   2515658120.9434009     
   1969609604.2556987     
   2086839825.4414842     
   2201232712.4948945     
   2312713219.8146257     
   2421229217.5725551     
   1932077611.2790296     
   2058846390.4168150     
   2180227847.1394820     
   2296221981.4470291     
   2406828793.3394570     
   2905508274.7140584     
   2920056095.9190669     
   2935939417.7201486     
   2953103452.5149283     
   2971509456.7485533     
   2681254692.2791991     
   2702818776.0331845     
   2726796437.9031305     
   2753171740.2412424     
   2781938417.1185322     
   2515658120.9434009     
   2544148164.5157084     
   2576155460.7550044     
   2611683066.3018961     
   2650738165.8061285     
   2421229217.5725551     
   2455041804.4443088     
   2493472905.9524603     
   2536526486.7373495     
   2584207357.2953057     
   2406828793.3394570     
   2442754786.5199299     
   2484388978.1045389     
   2531731368.0932827     
   2584781956.4861617     
   2971509456.7485533     
   2939937007.2973080     
   2915365660.8519878     
   2897920833.2246270     
   2887784096.7789207     
   2781938417.1185322     
   2764950325.8108802     
   2754981028.4159956     
   2752115375.8213758     
   2756468175.8939676     
   2650738165.8061285     
   2645757567.6558137     
   2647563799.8697739     
   2656197473.1275158     
   2671711259.4967251     
   2584207357.2953057     
   2588029914.8973470     
   2598162000.3772879     
   2614613390.5936446     
   2637396540.7213655     
   2584781956.4861617     
   2593857272.5860877     
   2608565681.3221159     
   2628907182.6942453     
   2654881776.7024765     
   2887784096.7789207     
   2853730225.1797180     
   2826446708.7704926     
   2806100244.7641554     
   2792870938.2508750     
   2756468175.8939676     
   2732539363.8876696     
   2715866171.9208517     
   2706559589.5997233     
   2704736805.4423738     
   2671711259.4967251     
   2656011185.7486463     
   2647953933.9572749     
   2647595157.5442781     
   2654992432.0333505     
   2637396540.7213655     
   2627340915.1328125     
   2625219791.0945449     
   2631048113.7175441     
   2644841107.9230700     
   2654881776.7024765     
   2647386588.0375209     
   2648040058.5013781     
   2656842188.0940456     
   2673792976.8155322     
   2792870938.2508750     
   2757228441.1683354     
   2729391562.0975051     
   2709550278.3678255     
   2697906642.7689552     
   2704736805.4423738     
   2679796235.6270118     
   2662833747.2671742     
   2653964693.8672056     
   2653308730.1985817     
   2654992432.0333505     
   2638526404.2192059     
   2630102404.0872421     
   2629773601.4363132     
   2637594003.7642608     
   2644841107.9230700     
   2634208204.9860492     
   2631601624.5505157     
   2637034651.6457319     
   2650520574.6297989     
   2673792976.8155322     
   2666133575.2290907     
   2666438942.6256309     
   2674709079.0051565     
   2690943984.3676682     
   2697906642.7689552     
   2665296602.3278375     
   2640328278.8978872     
   2623186991.0126004     
   2614059289.1733837     
   2653308730.1985817     
   2630878381.7919044     
   2616721733.9471884     
   2610957043.4398937     
   2613699966.1122894     
   2637594003.7642608     
   2623447870.2070627     
   2618145704.1744852     
   2621745073.7942562     
   2634300847.3191514     
   2650520574.6297989     
   2642229959.9312401     
   2643334902.0851707     
   2653850746.8234539     
   2673791817.4916496     
   2690943984.3676682     
   2685705884.2517715     
   2690442981.2045379     
   2705155275.2259712     
   2729842766.3160706     
   2614059289.1733837     
   2582910560.4038463     
   2557681919.2267752     
   2538498372.4222460     
   2525479793.3066044     
   2613699966.1122894     
   2593910953.6155305     
   2581735567.4912291     
   2577266994.9994144     
   2580590024.1967335     
   2634300847.3191514     
   2624788701.9955244     
   2624512949.5365911     
   2633523846.8512511     
   2651864603.7267923     
   2673791817.4916496     
   2672700015.4435072     
   2682466933.4385257     
   2703106979.1880760     
   2734631828.8239818     
   2729842766.3160706     
   2734725545.0856614     
   2752190138.3708496     
   2782236546.1716552     
   2824864768.4880624     
   1137011219.1159389     
   1335318820.2090812     
   1533932419.2673104     
   1732852016.2906265     
   1932077611.2790296     
   1207229987.2903361     
   1399155165.3986447     
   1590658114.3734176     
   1780962382.1343071     
   1969609604.2572327     
   1393749113.9391787     
   1571100624.3512883     
   1749459321.0959852     
   1926822410.4913568     
   2101940096.4456248     
   1653904804.4626312     
   1820319877.5892715     
   1988435695.2691710     
   2155557210.2640119     
   2319927256.5157871     
   1955389229.6512086     
   2119397213.3742611     
   2284766236.4242101     
   2448537755.2443161     
   2608754582.6836305     
   1932077611.2790296     
   2058846390.4168150     
   2180227847.1394820     
   2296221981.4470291     
   2406828793.3394570     
   1969609604.2572327     
   2086839825.4470134     
   2201232712.5051622     
   2312713219.8303871     
   2421229217.5945663     
   2101940096.4456248     
   2205731967.9725313     
   2309428212.8316951     
   2412792523.6851907     
   2515658120.9811816     
   2319927256.5157871     
   2406994931.6452990     
   2496479787.7769461     
   2587991607.9991894     
   2681254692.3227534     
   2608754582.6836305     
   2676714310.9047208     
   2749140750.7619390     
   2825523444.4986987     
   2905508274.7519445     
   2406828793.3394570     
   2442754786.5199299     
   2484388978.1045389     
   2531731368.0932827     
   2584781956.4861617     
   2421229217.5945663     
   2455041804.4936581     
   2493472906.0329361     
   2536526486.8527803     
   2584207357.4495077     
   2515658120.9811816     
   2544148164.5980945     
   2576155460.8892403     
   2611683066.4953070     
   2650738166.0660849     
   2681254692.3227534     
   2702818776.1258826     
   2726796438.0551324     
   2753171740.4628515     
   2781938417.4201951     
   2905508274.7519445     
   2920056095.9974990     
   2935939417.8513794     
   2953103452.7113762     
   2971509457.0228610     
   2584781956.4861617     
   2593857272.5860877     
   2608565681.3221159     
   2628907182.6942453     
   2654881776.7024765     
   2584207357.4495077     
   2588029915.0720978     
   2598162000.5843225     
   2614613390.8445559     
   2637396541.0277381     
   2650738166.0660849     
   2645757567.9541264     
   2647563800.2305822     
   2656197473.5749059     
   2671711260.0549045     
   2781938417.4201951     
   2764950326.1560092     
   2754981028.8414965     
   2752115376.3646255     
   2756468176.5930119     
   2971509457.0228610     
   2939937007.5997396     
   2915365661.2319155     
   2897920833.7329698     
   2887784097.4683623     
   2654881776.7024765     
   2647386588.0375209     
   2648040058.5013781     
   2656842188.0940456     
   2673792976.8155322     
   2637396541.0277381     
   2627340915.4243193     
   2625219791.3495126     
   2631048113.9146953     
   2644841108.0415611     
   2671711260.0549045     
   2656011186.3032641     
   2647953934.4663758     
   2647595157.9662166     
   2654992432.3268347     
   2756468176.5930119     
   2732539364.6314917     
   2715866172.6495605     
   2706559590.2529769     
   2704736805.9593325     
   2887784097.4683623     
   2853730226.0046816     
   2826446709.6565170     
   2806100245.6349478     
   2792870939.0280843     
   2673792976.8155322     
   2666133575.2290907     
   2666438942.6256309     
   2674709079.0051565     
   2690943984.3676682     
   2644841108.0415611     
   2634208205.1392698     
   2631601624.7148118     
   2637034651.7972803     
   2650520574.7444806     
   2654992432.3268347     
   2638526404.5866079     
   2630102404.4803171     
   2629773601.8062229     
   2637594004.0613303     
   2704736805.9593325     
   2679796236.2755518     
   2662833747.9739838     
   2653964694.5573368     
   2653308730.7950916     
   2792870939.0280843     
   2757228442.1656876     
   2729391563.2170391     
   2709550279.5080857     
   2697906643.8243775     
   2690943984.3676682     
   2685705884.2517715     
   2690442981.2045379     
   2705155275.2259712     
   2729842766.3160706     
   2650520574.7444806     
   2642229960.1737528     
   2643334902.4541826     
   2653850747.3160553     
   2673791818.1032443     
   2637594004.0613303     
   2623447870.7242475     
   2618145704.9077654     
   2621745074.7368574     
   2634300848.4613323     
   2653308730.7950916     
   2630878382.6646771     
   2616721735.0881214     
   2610957044.8372946     
   2613699967.7505875     
   2697906643.8243775     
   2665296603.6824789     
   2640328280.5378108     
   2623186992.9197798     
   2614059291.3253188     
   2729842766.3160706     
   2734725545.0856614     
   2752190138.3708496     
   2782236546.1716552     
   2824864768.4880624     
   2673791818.1032443     
   2672700016.3800321     
   2682466934.7287469     
   2703106980.8581705     
   2734631830.8978653     
   2634300848.4613323     
   2624788703.6898298     
   2624512951.8426204     
   2633523849.8245897     
   2651864607.4192066     
   2613699967.7505875     
   2593910955.9174232     
   2581735570.5498061     
   2577266998.9039412     
   2580590029.0327320     
   2614059291.3253188     
   2582910563.2006445     
   2557681922.7956543     
   2538498376.8888888     
   2525479798.7949963     
   1955389229.6512086     
   2119397213.3742611     
   2284766236.4242101     
   2448537755.2443161     
   2608754582.6836305     
   2298860581.4560394     
   2449502461.2952681     
   2604867862.0187726     
   2763035092.2193241     
   2922574884.3879719     
   2694814614.8778048     
   2830535574.9988198     
   2973567532.5104427     
   3122828193.0910635     
   3277406488.5062456     
   3138037965.4863605     
   3255539392.6415577     
   3382455167.5407853     
   3518315114.8785834     
   3662660499.1230583     
   3625039489.4065328     
   3719720246.0777955     
   3825648491.3014936     
   3942758174.9333458     
   4070954402.8788919     
   2608754582.6836305     
   2676714310.9047208     
   2749140750.7619390     
   2825523444.4986987     
   2905508274.7519445     
   2922574884.3879719     
   2975547091.6871967     
   3030717130.1559024     
   3087401255.3638535     
   3145065458.0540538     
   3277406488.5062456     
   3320716034.1870685     
   3364257356.2725930     
   3407206988.2558827     
   3448886492.5037107     
   3662660499.1230583     
   3702163509.4149022     
   3740288254.1230559     
   3776136537.7436967     
   3808959431.9782209     
   4070954402.8788919     
   4112501247.4344878     
   4151412176.0465384     
   4186790527.1015983     
   4217905111.3746099     
   2905508274.7519445     
   2920056095.9974990     
   2935939417.8513794     
   2953103452.7113762     
   2971509457.0228610     
   3145065458.0540538     
   3141091909.3021398     
   3140700285.0824351     
   3143789534.3576999     
   3150345755.0828109     
   3448886492.5037107     
   3422450257.1499038     
   3401069182.1931114     
   3384511867.1999598     
   3372761076.1190500     
   3808959431.9782209     
   3755774876.9277720     
   3708529846.6633053     
   3666746641.6630287     
   3630325585.7004380     
   4217905111.3746099     
   4133408879.8866949     
   4055360325.6751552     
   3982903580.7105436     
   3915737043.2188840     
   2971509457.0228610     
   2939937007.5997396     
   2915365661.2319155     
   2897920833.7329698     
   2887784097.4683623     
   3150345755.0828109     
   3105900453.9767771     
   3067511373.4587941     
   3035366689.0517073     
   3009704276.0061641     
   3372761076.1190500     
   3315503077.9090877     
   3263458562.5443645     
   3216846448.5866504     
   3175931233.2768970     
   3630325585.7004380     
   3560791913.5719490     
   3495761966.3305130     
   3435459987.7068448     
   3380152639.2054224     
   3915737043.2188840     
   3834704381.9547110     
   3757612400.8875966     
   3684673999.8448949     
   3616142052.1261153     
   2887784097.4683623     
   2853730226.0046816     
   2826446709.6565170     
   2806100245.6349478     
   2792870939.0280843     
   3009704276.0061641     
   2964302526.6482744     
   2925499899.4254055     
   2893537232.0187936     
   2868684537.0436826     
   3175931233.2768970     
   3117446005.6418314     
   3065206409.0591793     
   3019516596.5095148     
   2980730554.4963350     
   3380152639.2054224     
   3307308741.5867648     
   3240214224.2664313     
   3179215566.2477503     
   3124731683.8059378     
   3616142052.1261153     
   3528022788.3287845     
   3445060214.6346245     
   3367617833.6686625     
   3296153000.2339153     
   2792870939.0280843     
   2757228442.1656876     
   2729391563.2170391     
   2709550279.5080857     
   2697906643.8243775     
   2868684537.0436826     
   2822844375.1979742     
   2784255115.0539098     
   2753178689.2671914     
   2729898159.7285652     
   2980730554.4963350     
   2923538435.6945176     
   2872980759.2899323     
   2829377284.8587680     
   2793080328.6543794     
   3124731683.8059378     
   3055587051.5876212     
   2992422165.7628398     
   2935593209.6051097     
   2885500436.5432305     
   3296153000.2339153     
   3214894425.4456129     
   3138953681.8583755     
   3068700540.8389168     
   3004558207.4504938     
   2697906643.8243775     
   2665296603.6824789     
   2640328280.5378108     
   2623186992.9197798     
   2614059291.3253188     
   2729898159.7285652     
   2686989734.2913795     
   2651610807.6274881     
   2624038914.8475680     
   2604562160.5948129     
   2793080328.6543794     
   2738217820.3205643     
   2690632329.4385672     
   2650694872.6494918     
   2618802892.7496018     
   2885500436.5432305     
   2817461579.9600501     
   2756304159.4534574     
   2702480601.8062658     
   2656491141.0999117     
   3004558207.4504938     
   2922536841.9617591     
   2846875776.4389443     
   2778085868.0205841     
   2716749801.2573290     
   2614059291.3253188     
   2582910563.2006445     
   2557681922.7956543     
   2538498376.8888888     
   2525479798.7949963     
   2604562160.5948129     
   2566186226.1121569     
   2534464965.3168359     
   2509597646.7745113     
   2491780678.9701176     
   2618802892.7496018     
   2571566098.4490004     
   2531635638.8823404     
   2499310452.9438701     
   2474893814.1184301     
   2656491141.0999117     
   2598706421.1812882     
   2548768049.0393124     
   2507099643.9240780     
   2474143973.6190624     
   2716749801.2573290     
   2646746959.7646561     
   2584995871.2227817     
   2532065789.0501432     
   2488570188.2245746     
   3625039489.4065328     
   3719720246.0777955     
   3825648491.3014936     
   3942758174.9333458     
   4070954402.8788919     
   4134174546.3576217     
   4224412682.3272362     
   4320568783.2799931     
   4420985248.4304724     
   4524206819.9007244     
   4643490096.6520147     
   4755562342.9851809     
   4868757928.4569235     
   4980442908.3706121     
   5088692746.5166807     
   5151466904.8623400     
   5311345277.7087774     
   5467857600.1306820     
   5618110813.8097486     
   5760640869.7958841     
   5657841297.1217127     
   5890924030.2095089     
   6116372548.8158779     
   6331731154.8917675     
   6536778606.5178633     
   4070954402.8788919     
   4112501247.4344878     
   4151412176.0465384     
   4186790527.1015983     
   4217905111.3746099     
   4524206819.9007244     
   4539141465.0319614     
   4558751499.3386812     
   4580557388.1701670     
   4602835645.9931889     
   5088692746.5166807     
   5054171289.6050301     
   5030158937.5007429     
   5011449643.4535255     
   4994842646.7570868     
   5760640869.7958841     
   5652263124.5827074     
   5559875756.2128220     
   5474417517.2595663     
   5390349449.9480305     
   6536778606.5178633     
   6328822433.2518511     
   6143038002.7544260     
   5965516087.0827217     
   5787251149.1366310     
   4217905111.3746099     
   4133408879.8866949     
   4055360325.6751552     
   3982903580.7105436     
   3915737043.2188840     
   4602835645.9931889     
   4494241263.7183342     
   4389864804.5169287     
   4289387415.2485595     
   4192716602.1491194     
   4994842646.7570868     
   4867429606.4734125     
   4743237877.1667280     
   4622235895.8222723     
   4504465056.6129198     
   5390349449.9480305     
   5249010327.9546947     
   5110949460.3697968     
   4976210214.2837152     
   4844889763.0880842     
   5787251149.1366310     
   5636317037.6302080     
   5489654996.8786135     
   5347181442.0258112     
   5208949263.5777588     
   3915737043.2188840     
   3834704381.9547110     
   3757612400.8875966     
   3684673999.8448949     
   3616142052.1261153     
   4192716602.1491194     
   4098898982.5155377     
   4008393771.1460690     
   3921417542.8069258     
   3838247423.4890733     
   4504465056.6129198     
   4396336767.2254848     
   4290712063.4830637     
   4187778806.5401607     
   4087812290.8139458     
   4844889763.0880842     
   4721141604.1020079     
   4598976782.2235222     
   4478520953.1643505     
   4360016352.4865007     
   5208949263.5777588     
   5068431371.5249395     
   4928524467.0005493     
   4789260387.1898794     
   4650816171.2531137     
   3616142052.1261153     
   3528022788.3287845     
   3445060214.6346245     
   3367617833.6686625     
   3296153000.2339153     
   3838247423.4890733     
   3734596917.4406652     
   3635166529.4179773     
   3540282516.9465675     
   3450353996.1898522     
   4087812290.8139458     
   3969988912.8278356     
   3855645867.3029337     
   3745055945.6780934     
   3638563050.5363975     
   4360016352.4865007     
   4229409204.9006672     
   4101744098.0261602     
   3977235538.0244751     
   3856158702.3977160     
   4650816171.2531137     
   4508749383.2147961     
   4369276739.1507454     
   4232556168.2070336     
   4098798729.7390985     
   3296153000.2339153     
   3214894425.4456129     
   3138953681.8583755     
   3068700540.8389168     
   3004558207.4504938     
   3450353996.1898522     
   3355194242.7500992     
   3264502286.8086963     
   3178649149.8127689     
   3098074210.0552230     
   3638563050.5363975     
   3529603502.9521456     
   3424216550.9447193     
   3322742940.3164558     
   3225600986.0739460     
   3856158702.3977160     
   3733765221.9998236     
   3614060303.8729572     
   3497331389.5518560     
   3383946094.8483205     
   4098798729.7390985     
   3963482283.8004489     
   3830022525.8345628     
   3698640666.7726188     
   3569635110.7240372     
   3004558207.4504938     
   2922536841.9617591     
   2846875776.4389443     
   2778085868.0205841     
   2716749801.2573290     
   3098074210.0552230     
   3000085380.5722880     
   2907721805.5629411     
   2821503355.0943260     
   2742043401.6724768     
   3225600986.0739460     
   3112056387.6821237     
   3003348208.7780256     
   2899965597.8217182     
   2802506248.2031898     
   3383946094.8483205     
   3255491641.0016060     
   3131095944.9142776     
   3011187226.2364483     
   2896308126.3743849     
   3569635110.7240372     
   3427010458.4824796     
   3287727766.4557142     
   3152137593.5376444     
   3020702428.8701849     
   2716749801.2573290     
   2646746959.7646561     
   2584995871.2227817     
   2532065789.0501432     
   2488570188.2245746     
   2742043401.6724768     
   2654886148.8036137     
   2573955316.7295794     
   2499985705.5111842     
   2433830555.1114016     
   2802506248.2031898     
   2696877561.0268669     
   2595035057.5162621     
   2497814957.3588376     
   2406312189.1322622     
   2896308126.3743849     
   2772637366.4619665     
   2650125496.3883314     
   2529636885.9397111     
   2412476921.0327468     
   3020702428.8701849     
   2880925718.2142224     
   2739822395.6115470     
   2598269054.4647760     
   2457796589.6981769     
   5657841297.1217127     
   5890924030.2095089     
   6116372548.8158779     
   6331731154.8917675     
   6536778606.5178633     
   6491697266.9865150     
   6586878482.7807798     
   6757395583.0486097     
   6961169792.3887606     
   7171541213.3492851     
   7982394666.6084642     
   7734964015.9430742     
   7669103216.3411245     
   7669508038.2439594     
   7666247662.0849028     
   10130380110.263134     
   9322020745.8085270     
   8826307198.7764339     
   8443406858.3425865     
   8035511646.4805202     
   12935740065.488480     
   11340761710.734003     
   10210174499.505295     
   9272635750.6636848     
   8303705201.9853401     
   6536778606.5178633     
   6328822433.2518511     
   6143038002.7544260     
   5965516087.0827217     
   5787251149.1366310     
   7171541213.3492851     
   6911026250.1809969     
   6658404041.7322903     
   6409815741.2454624     
   6162116644.2968969     
   7666247662.0849028     
   7381128215.9793091     
   7101400551.8283014     
   6827142519.7211218     
   6558557211.2502270     
   8035511646.4805202     
   7746779196.3941784     
   7473720758.9943962     
   7214377057.7473698     
   6968754333.3748131     
   8303705201.9853401     
   8020543102.7092619     
   7779496488.8200941     
   7569878357.0558071     
   7386716403.5060778     
   5787251149.1366310     
   5636317037.6302080     
   5489654996.8786135     
   5347181442.0258112     
   5208949263.5777588     
   6162116644.2968969     
   6012555421.0329781     
   5864369037.4625130     
   5717598239.8622713     
   5572302536.1247683     
   6558557211.2502270     
   6407298390.2196989     
   6254418855.8482647     
   6099887285.3371801     
   5943734157.8652840     
   6968754333.3748131     
   6814091375.9415579     
   6654795309.3342667     
   6490581348.9457579     
   6321398797.0089827     
   7386716403.5060778     
   7227938978.9010735     
   7061609383.3400154     
   6887029863.0977068     
   6704014564.9373951     
   5208949263.5777588     
   5068431371.5249395     
   4928524467.0005493     
   4789260387.1898794     
   4650816171.2531137     
   5572302536.1247683     
   5414562597.6524744     
   5257682650.3913879     
   5101699345.9694872     
   4946708838.6422243     
   5943734157.8652840     
   5772103266.1846848     
   5602006288.6758709     
   5433466287.7325602     
   5266542324.3047428     
   6321398797.0089827     
   6138603567.7602568     
   5958383329.5386381     
   5780714870.0684319     
   5605636500.2671385     
   6704014564.9373951     
   6512209874.5750208     
   6324355085.5006285     
   6140335877.6259623     
   5960162760.7294807     
   4650816171.2531137     
   4508749383.2147961     
   4369276739.1507454     
   4232556168.2070336     
   4098798729.7390985     
   4946708838.6422243     
   4795462508.9545832     
   4645667732.8946114     
   4497452842.1720524     
   4350989765.1666040     
   5266542324.3047428     
   5106278297.5228291     
   4946372528.1120758     
   4786902486.2107267     
   4627985037.0476646     
   5605636500.2671385     
   5436721922.3761930     
   5267144626.5681658     
   5096917598.0070620     
   4926094209.9557724     
   5960162760.7294807     
   5783109528.7842007     
   5604460697.1199207     
   5424157402.8528290     
   5242187364.8417616     
   4098798729.7390985     
   3963482283.8004489     
   3830022525.8345628     
   3698640666.7726188     
   3569635110.7240372     
   4350989765.1666040     
   4202844132.1799479     
   4056197443.0757971     
   3911197128.3906302     
   3768054366.8065114     
   4627985037.0476646     
   4467768694.8048134     
   4308809749.3999805     
   4151195195.7501607     
   3995066814.8011303     
   4926094209.9557724     
   4754275367.7873449     
   4583567917.9576674     
   4414012211.9382505     
   4245699343.4064426     
   5242187364.8417616     
   5058976657.1214380     
   4876805298.4442663     
   4695679394.8595877     
   4515656368.1693859     
   3569635110.7240372     
   3427010458.4824796     
   3287727766.4557142     
   3152137593.5376444     
   3020702428.8701849     
   3768054366.8065114     
   3612849902.8041306     
   3459766432.8264089     
   3309052410.1405497     
   3161051262.5727315     
   3995066814.8011303     
   3828439895.0130606     
   3662872150.5618825     
   3498505096.2200017     
   3335552841.8605895     
   4245699343.4064426     
   4068888672.3922086     
   3892254828.9969101     
   3715842832.6025405     
   3539748238.8910065     
   4515656368.1693859     
   4329901846.2934875     
   4143619466.2689018     
   3956776146.4192700     
   3769371423.3173881     
   3020702428.8701849     
   2880925718.2142224     
   2739822395.6115470     
   2598269054.4647760     
   2457796589.6981769     
   3161051262.5727315     
   3014047906.4501143     
   2869206766.5836821     
   2726578418.3676348     
   2586265681.6377950     
   3335552841.8605895     
   3188828396.0957427     
   3049526920.8118529     
   2918838429.8134518     
   2798996631.9307728     
   3539748238.8910065     
   3396077734.4692125     
   3266230193.0041513     
   3153856977.6430645     
   3065578503.6524754     
   3769371423.3173881     
   3627812941.8744836     
   3507658944.1634536     
   3415926305.0695252     
   3364952448.4306388     
 </DataArray>
 <DataArray  type="Float64" Name="strain" NumberOfComponents="3" format="ascii">
  0.20348765538773431        0.0000000000000000       0.12540671283182389     
  0.18665642455593678       -2.7324735373093025E-002   7.4352245714063209E-002
  0.16982519372413926       -4.4675725832103254E-002   3.5131898959671191E-002
  0.15299396289234174       -5.2052971377030688E-002   7.7456725686478357E-003
  0.13616273206054419       -4.9456472007875354E-002  -7.8064334590068341E-003
  0.15985676703576845        0.0000000000000000        9.6449938236333133E-002
  0.15317807481717333       -2.1844617074352042E-002   6.2691169471999847E-002
  0.14649938259857814       -3.6174585575713965E-002   3.7403357570702664E-002
  0.13982069037998299       -4.2989905504085782E-002   2.0586502532441542E-002
  0.13314199816138783       -4.2290576859467452E-002   1.2240604357216453E-002
  0.12645896204385987        0.0000000000000000        7.4202830110129708E-002
  0.12656964493813450       -1.6364498775611053E-002   5.5280663358131157E-002
  0.12668032783240912       -2.7673445319324669E-002   4.1466289968836098E-002
  0.12679101072668375       -3.3926839631140848E-002   3.2759709942244510E-002
  0.12690169362095838       -3.5124681711059598E-002   2.9160923278356451E-002
  0.10329424041200852        0.0000000000000000        5.8665388453213591E-002
  0.10683113491882033       -1.0884380476870063E-002   5.2120727372457092E-002
  0.11036802942563215       -1.9172305062935373E-002   4.7320696154071508E-002
  0.11390492393244397       -2.4863773758195921E-002   4.4265294798056805E-002
  0.11744181843925579       -2.7958786562651713E-002   4.2954523304412996E-002
   9.0362602140214410E-002   0.0000000000000000        4.9837613265584814E-002
   9.3962544759230826E-002  -5.4042621781290765E-003   5.3211361514977691E-002
   9.7562487378247256E-002  -1.0671164806546073E-002   5.4966576126408859E-002
  0.10116242999726367       -1.5800707885251002E-002   5.5103257099878358E-002
  0.10476237261628008       -2.0792891414243848E-002   5.3621404435386148E-002
  0.13616273206054419       -4.9456472007875354E-002  -7.8064334590068341E-003
  0.13295856880648388       -4.2921831602383526E-002  -3.3903879665215589E-003
  0.12975440555242351       -3.8484654038301674E-002  -3.8809457543647827E-004
  0.12655024229836315       -3.6144939315629683E-002   1.2004467142485604E-003
  0.12334607904430281       -3.5902687434367558E-002   1.3752359025335226E-003
  0.13314199816138783       -4.2290576859467452E-002   1.2240604357216453E-002
  0.12891197608805824       -3.8425010524571951E-002   1.2185154473636696E-002
  0.12468195401472870       -3.5741617382112137E-002   1.1491739052918611E-002
  0.12045193194139912       -3.4240397432088086E-002   1.0160358095062091E-002
  0.11622190986806957       -3.3921350674499695E-002   8.1910116000672994E-003
  0.12690169362095838       -3.5124681711059598E-002   2.9160923278356451E-002
  0.12242159929262134       -3.3928189446760390E-002   2.5549267667685834E-002
  0.11794150496428429       -3.2998580725922669E-002   2.2075433084138549E-002
  0.11346141063594724       -3.2335855548546483E-002   1.8739419527714723E-002
  0.10898131630761024       -3.1940013914631846E-002   1.5541226998414336E-002
  0.11744181843925579       -2.7958786562651713E-002   4.2954523304412996E-002
  0.11348743842017303       -2.9431368368948801E-002   3.6701951615625700E-002
  0.10953305840109027       -3.0255544069733180E-002   3.1362987518223612E-002
  0.10557867838200753       -3.0431313665004921E-002   2.6937631012206715E-002
  0.10162429836292478       -2.9958677154763934E-002   2.3425882097574929E-002
  0.10476237261628008       -2.0792891414243848E-002   5.3621404435386148E-002
  0.10210949347071338       -2.4934547291137220E-002   4.5643206317456407E-002
   9.9456614325146686E-002  -2.7512507413543733E-002   3.9354402355173665E-002
   9.6803735179579978E-002  -2.8526771781463327E-002   3.4754992548537707E-002
   9.4150856034013269E-002  -2.7977340394896064E-002   3.1844976897548796E-002
  0.12334607904430281       -3.5902687434367558E-002   1.3752359025335226E-003
  0.12040325236655691       -3.6400132252649542E-002   6.3863138500275252E-004
  0.11746042568881106       -3.6279507628609396E-002   9.3753286561901183E-005
  0.11451759901106520       -3.5540813562247552E-002  -2.5939839278908694E-004
  0.11157477233331931       -3.4184050053563619E-002  -4.2082365305001757E-004
  0.11622190986806957       -3.3921350674499695E-002   8.1910116000672994E-003
  0.11345736704817128       -3.3995961117117238E-002   7.8310042542409780E-003
  0.11069282422827298       -3.3675712767710975E-002   7.6358382050198265E-003
  0.10792828140837468       -3.2960605626280795E-002   7.6055134524040009E-003
  0.10516373858847636       -3.1850639692826754E-002   7.7400299963932551E-003
  0.10898131630761024       -3.1940013914631846E-002   1.5541226998414336E-002
  0.10636817222307475       -3.1591789981585044E-002   1.5334606173994458E-002
  0.10375502813853933       -3.1071917906812418E-002   1.5265941523695013E-002
  0.10114188405400389       -3.0380397690314125E-002   1.5335233047516014E-002
   9.8528739969468454E-002  -2.9517229332089945E-002   1.5542480745457513E-002
  0.10162429836292478       -2.9958677154763934E-002   2.3425882097574929E-002
   9.9135667891267501E-002  -2.9187618846052810E-002   2.3149437144263221E-002
   9.6647037419610199E-002  -2.8468123045913944E-002   2.2984063242587335E-002
   9.4158406947952897E-002  -2.7800189754347355E-002   2.2929760392547221E-002
   9.1669776476295650E-002  -2.7183818971353108E-002   2.2986528594142939E-002
   9.4150856034013269E-002  -2.7977340394896064E-002   3.1844976897548796E-002
   9.1759854052749404E-002  -2.6783447710520596E-002   3.1275497165047336E-002
   8.9368852071485511E-002  -2.5864328185015429E-002   3.0790203361697084E-002
   8.6977850090221659E-002  -2.5219981818380654E-002   3.0389095487497669E-002
   8.4586848108957780E-002  -2.4850408610616298E-002   3.0072173542449399E-002
  0.11157477233331931       -3.4184050053563619E-002  -4.2082365305001757E-004
  0.10851291143312669       -3.2662314218734084E-002  -1.3561622681104724E-004
  0.10545105053293397       -3.1428703173935521E-002   2.1061899139712681E-004
  0.10238918963274130       -3.0483216919167774E-002   6.1788200157476825E-004
   9.9327328732548625E-002  -2.9825855454431116E-002   1.0861728037219187E-003
  0.10516373858847636       -3.1850639692826754E-002   7.7400299963932551E-003
  0.10219058856428090       -3.0630822008842401E-002   7.5973155919976110E-003
   9.9217438540085398E-002  -2.9586159615821492E-002   7.5709951476271159E-003
   9.6244288515889898E-002  -2.8716652513764093E-002   7.6610686632815131E-003
   9.3271138491694439E-002  -2.8022300702669922E-002   7.8675361389605458E-003
   9.8528739969468454E-002  -2.9517229332089945E-002   1.5542480745457513E-002
   9.5699666989325666E-002  -2.8599329798950787E-002   1.5084814009495101E-002
   9.2870594009182864E-002  -2.7743616057707580E-002   1.4798907401613125E-002
   9.0041521029040034E-002  -2.6950088108360248E-002   1.4684760921811649E-002
   8.7212448048897259E-002  -2.6218745950908756E-002   1.4742374570090463E-002
   9.1669776476295650E-002  -2.7183818971353108E-002   2.2986528594142939E-002
   8.9040146708261006E-002  -2.6567837589059194E-002   2.2326879025681211E-002
   8.6410516940226348E-002  -2.5901072499593582E-002   2.1894355753355361E-002
   8.3780887172191662E-002  -2.5183523702956401E-002   2.1688958777165472E-002
   8.1151257404157032E-002  -2.4415191199147576E-002   2.1710688097111481E-002
   8.4586848108957780E-002  -2.4850408610616298E-002   3.0072173542449399E-002
   8.2212027721086822E-002  -2.4536345379167546E-002   2.9323510640555814E-002
   7.9837207333215823E-002  -2.4058528941479702E-002   2.8857340202853646E-002
   7.7462386945344852E-002  -2.3416959297552650E-002   2.8673662229342853E-002
   7.5087566557473895E-002  -2.2611636447386396E-002   2.8772476720023588E-002
   9.9327328732548625E-002  -2.9825855454431116E-002   1.0861728037219187E-003
   9.6304398146017378E-002  -2.9249495899220573E-002   7.9028376338957651E-004
   9.3281467559486159E-002  -2.8547015373031046E-002   6.5957750596881692E-004
   9.0258536972954925E-002  -2.7718413875862987E-002   6.9405403145976485E-004
   8.7235606386423692E-002  -2.6763691407716617E-002   8.9371333986210111E-004
   9.3271138491694439E-002  -2.8022300702669922E-002   7.8675361389605458E-003
   9.0412074045333468E-002  -2.7375886947393402E-002   7.6705303290973692E-003
   8.7553009598972553E-002  -2.6650194012789050E-002   7.6360740166628721E-003
   8.4693945152611666E-002  -2.5845221898856473E-002   7.7641672016577692E-003
   8.1834880706250723E-002  -2.4960970605595878E-002   8.0548098840816373E-003
   8.7212448048897259E-002  -2.6218745950908756E-002   1.4742374570090463E-002
   8.4514616457224037E-002  -2.5502277995566494E-002   1.4597410199045605E-002
   8.1816784865550857E-002  -2.4753372652547005E-002   1.4612362039947209E-002
   7.9118953273877607E-002  -2.3972029921849852E-002   1.4787230092795273E-002
   7.6421121682204440E-002  -2.3158249803475417E-002   1.5122014357589753E-002
   8.1151257404157032E-002  -2.4415191199147576E-002   2.1710688097111481E-002
   7.8612025381689030E-002  -2.3628669043739510E-002   2.1570923373234550E-002
   7.6072793359220944E-002  -2.2856551292304763E-002   2.1588441575821210E-002
   7.3533561336752873E-002  -2.2098837944843172E-002   2.1763242704871989E-002
   7.0994329314284857E-002  -2.1355529001354984E-002   2.2095326760386280E-002
   7.5087566557473895E-002  -2.2611636447386396E-002   2.8772476720023588E-002
   7.2704300818728362E-002  -2.1755060091912540E-002   2.8591069851663653E-002
   7.0321035079982913E-002  -2.0959729932062687E-002   2.8564312624284993E-002
   6.7937769341237450E-002  -2.0225645967836561E-002   2.8692205037887678E-002
   6.5554503602491987E-002  -1.9552808199234384E-002   2.8974747092471720E-002
   8.7235606386423692E-002  -2.6763691407716617E-002   8.9371333986210111E-004
   8.4198618445472995E-002  -2.5782579559332164E-002   6.8818854348134950E-004
   8.1161630504522297E-002  -2.4874809921451191E-002   6.7382445507219169E-004
   7.8124642563571600E-002  -2.4040382494073226E-002   8.5062107463451664E-004
   7.5087654622620903E-002  -2.3279297277198907E-002   1.2185784021682133E-003
   8.1834880706250723E-002  -2.4960970605595878E-002   8.0548098840816373E-003
   7.8987776010750105E-002  -2.4059900063702233E-002   7.7754828350238836E-003
   7.6140671315249597E-002  -2.3204470203870203E-002   7.6847615688946935E-003
   7.3293566619749020E-002  -2.2394681026100101E-002   7.7826460856942892E-003
   7.0446461924248471E-002  -2.1630532530391489E-002   8.0691363854227816E-003
   7.6421121682204440E-002  -2.3158249803475417E-002   1.5122014357589753E-002
   7.3761345307111273E-002  -2.2337220568072469E-002   1.4796586584296334E-002
   7.1101568932018161E-002  -2.1534130486289549E-002   1.4657209668888699E-002
   6.8441792556924994E-002  -2.0748979558126643E-002   1.4703883611367506E-002
   6.5782016181831882E-002  -1.9981767783584292E-002   1.4936608411732083E-002
   7.0994329314284857E-002  -2.1355529001354984E-002   2.2095326760386280E-002
   6.8519326334556416E-002  -2.0614541072442510E-002   2.1751499791298930E-002
   6.6044323354827905E-002  -1.9863790768708728E-002   2.1591168755054707E-002
   6.3569320375099381E-002  -1.9103278090153684E-002   2.1614333651653671E-002
   6.1094317395370967E-002  -1.8333003036776874E-002   2.1820994481096125E-002
   6.5554503602491987E-002  -1.9552808199234384E-002   2.8974747092471720E-002
   6.3261719093085422E-002  -1.8891861576812635E-002   2.8640222456031705E-002
   6.0968934583678941E-002  -1.8193451051127948E-002   2.8486638827392191E-002
   5.8676150074272390E-002  -1.7457576622180070E-002   2.8513996206553482E-002
   5.6383365564865895E-002  -1.6684238289969566E-002   2.8722294593515163E-002
   7.5087654622620903E-002  -2.3279297277198907E-002   1.2185784021682133E-003
   7.1948509802804095E-002  -2.2532187503121748E-002   9.2203751102992726E-004
   6.8809364982987342E-002  -2.1739686404136011E-002   7.8850384872591883E-004
   6.5670220163170590E-002  -2.0901793980241522E-002   8.1797741525638235E-004
   6.2531075343353781E-002  -2.0018510231438191E-002   1.0104582106208460E-003
   7.0446461924248471E-002  -2.1630532530391489E-002   8.0691363854227816E-003
   6.7474119584035264E-002  -2.0875486099716234E-002   7.7895516394613784E-003
   6.4501777243822028E-002  -2.0093003117046038E-002   7.6805646238727043E-003
   6.1529434903608751E-002  -1.9283083582381275E-002   7.7421753386567316E-003
   5.8557092563395530E-002  -1.8445727495721154E-002   7.9743837838134324E-003
   6.5782016181831882E-002  -1.9981767783584292E-002   1.4936608411732083E-002
   6.2984066822760643E-002  -1.9218784696311136E-002   1.4656025038033788E-002
   6.0186117463689348E-002  -1.8446319829956634E-002   1.4553629896246603E-002
   5.7388168104618081E-002  -1.7664373184521031E-002   1.4629422986370870E-002
   5.4590218745546787E-002  -1.6872944760003949E-002   1.4883404308406040E-002
   6.1094317395370967E-002  -1.8333003036776874E-002   2.1820994481096125E-002
   5.8478351518980162E-002  -1.7562083292905831E-002   2.1521457706747210E-002
   5.5862385642589329E-002  -1.6799636542866946E-002   2.1407699665848035E-002
   5.3246419766198497E-002  -1.6045662786660787E-002   2.1479720358398548E-002
   5.0630453889807692E-002  -1.5300162024286829E-002   2.1737519784398633E-002
   5.6383365564865895E-002  -1.6684238289969566E-002   2.8722294593515163E-002
   5.3956973672693975E-002  -1.5905381889500442E-002   2.8385849645601979E-002
   5.1530581780522056E-002  -1.5152953255777230E-002   2.8242773932676879E-002
   4.9104189888350164E-002  -1.4426952388800394E-002   2.8293067454740084E-002
   4.6677797996178216E-002  -1.3727379288569708E-002   2.8536730211791261E-002
   6.2531075343353781E-002  -2.0018510231438191E-002   1.0104582106208460E-003
   6.0040856396620490E-002  -1.9762074117500084E-002   2.0333771186890059E-003
   5.7550637449887143E-002  -2.0804724598199514E-002   3.0466250986296850E-003
   5.5060418503153907E-002  -2.3146461673536463E-002   4.0502021504410790E-003
   5.2570199556420505E-002  -2.6787285343512490E-002   5.0441082741246035E-003
   5.8557092563395530E-002  -1.8445727495721154E-002   7.9743837838134324E-003
   5.6074506852390515E-002  -1.8042205925833110E-002   7.9246197277594299E-003
   5.3591921141385529E-002  -1.8533789941484108E-002   7.8997930712905173E-003
   5.1109335430380473E-002  -1.9920479542673945E-002   7.8999038144063338E-003
   4.8626749719375528E-002  -2.2202274729402838E-002   7.9249519571065186E-003
   5.4590218745546787E-002  -1.6872944760003949E-002   1.4883404308406040E-002
   5.2149874597983370E-002  -1.6322337734166303E-002   1.4164938297328733E-002
   4.9709530450419981E-002  -1.6262855284768687E-002   1.3506018013549351E-002
   4.7269186302856508E-002  -1.6694497411811091E-002   1.2906643457068677E-002
   4.4828842155293147E-002  -1.7617264115293407E-002   1.2366814627885803E-002
   5.0630453889807692E-002  -1.5300162024286829E-002   2.1737519784398633E-002
   4.8266959633399067E-002  -1.4602469542499746E-002   2.0754332827397214E-002
   4.5903465376990416E-002  -1.3991920628053163E-002   1.9865299925407056E-002
   4.3539971120581798E-002  -1.3468515280948072E-002   1.9070421078428185E-002
   4.1176476864173125E-002  -1.3032253501183644E-002   1.8369696286460457E-002
   4.6677797996178216E-002  -1.3727379288569708E-002   2.8536730211791261E-002
   4.4425761958637566E-002  -1.2882601350832801E-002   2.7692803317964532E-002
   4.2173725921096916E-002  -1.1720985971337944E-002   2.6977638806862103E-002
   3.9921689883556280E-002  -1.0242533150085074E-002   2.6391236678484614E-002
   3.7669653846015616E-002  -8.4472428870741023E-003   2.5933596932831593E-002
   9.0362602140214410E-002   0.0000000000000000        4.9837613265584814E-002
   9.3962544759230826E-002  -5.4042621781290765E-003   5.3211361514977691E-002
   9.7562487378247256E-002  -1.0671164806546073E-002   5.4966576126408859E-002
  0.10116242999726367       -1.5800707885251002E-002   5.5103257099878358E-002
  0.10476237261628008       -2.0792891414243848E-002   5.3621404435386148E-002
   8.2425664389634556E-002   0.0000000000000000        4.4786280997153455E-002
   8.4636064483929380E-002  -4.5743311584459604E-003   4.8269409242445334E-002
   8.6846464578224217E-002  -9.0378794660286414E-003   5.0591986076255743E-002
   8.9056864672519040E-002  -1.3390644922748050E-002   5.1754011498584648E-002
   9.1267264766813891E-002  -1.7632627528604179E-002   5.1755485509432077E-002
   7.4245044321425910E-002   0.0000000000000000        4.0578168097829617E-002
   7.5523884117479359E-002  -3.7444001387628438E-003   4.4144099640171706E-002
   7.6802723913532822E-002  -7.4045941255112095E-003   4.7007461997512524E-002
   7.8081563709586285E-002  -1.0980581960245098E-002   4.9168255169852071E-002
   7.9360403505639734E-002  -1.4472363642964507E-002   5.0626479157190332E-002
   6.5820741935588484E-002   0.0000000000000000        3.7213274567613294E-002
   6.6626003659880778E-002  -2.9144691190797272E-003   4.0835432708156781E-002
   6.7431265384173086E-002  -5.7713087849937750E-003   4.4213003890179223E-002
   6.8236527108465367E-002  -8.5705189977421485E-003   4.7345988113680605E-002
   6.9041788832757661E-002  -1.1312099757324837E-002   5.0234385378660922E-002
   5.7152757232122292E-002   0.0000000000000000        3.4691600406504486E-002
   5.7942423111133630E-002  -2.0845380993966111E-003   3.8343408446400593E-002
   5.8732088990144968E-002  -4.1380234444763440E-003   4.2208611754255838E-002
   5.9521754869156299E-002  -6.1604560352391986E-003   4.6287210330070230E-002
   6.0311420748167636E-002  -8.1518358716851681E-003   5.0579204173843803E-002
  0.10476237261628008       -2.0792891414243848E-002   5.3621404435386148E-002
  0.10210949347071338       -2.4934547291137220E-002   4.5643206317456407E-002
   9.9456614325146686E-002  -2.7512507413543733E-002   3.9354402355173665E-002
   9.6803735179579978E-002  -2.8526771781463327E-002   3.4754992548537707E-002
   9.4150856034013269E-002  -2.7977340394896064E-002   3.1844976897548796E-002
   9.1267264766813891E-002  -1.7632627528604179E-002   5.1755485509432077E-002
   9.0066070040566423E-002  -2.1208608044871152E-002   4.6520282784867674E-002
   8.8864875314318970E-002  -2.3563367232823106E-002   4.2499054743294920E-002
   8.7663680588071516E-002  -2.4696905092460031E-002   3.9691801384713656E-002
   8.6462485861824048E-002  -2.4609221623781929E-002   3.8098522709124026E-002
   7.9360403505639734E-002  -1.4472363642964507E-002   5.0626479157190332E-002
   7.9135473726056185E-002  -1.7482668798605095E-002   4.7791797399819445E-002
   7.8910543946472650E-002  -1.9614227052102494E-002   4.5695670852784767E-002
   7.8685614166889073E-002  -2.0867038403456706E-002   4.4338099516086318E-002
   7.8460684387305538E-002  -2.1241102852667761E-002   4.3719083389724092E-002
   6.9041788832757661E-002  -1.1312099757324837E-002   5.0234385378660922E-002
   6.9317704527182653E-002  -1.3756729552339019E-002   4.9457750162311652E-002
   6.9593620221607630E-002  -1.5665086871381885E-002   4.8944250683643276E-002
   6.9869535916032607E-002  -1.7037171714453417E-002   4.8693886942655785E-002
   7.0145451610457599E-002  -1.7872984081553616E-002   4.8706658939349126E-002
   6.0311420748167636E-002  -8.1518358716851681E-003   5.0579204173843803E-002
   6.0612762443945832E-002  -1.0030790306072963E-002   5.1518141072344335E-002
   6.0914104139724021E-002  -1.1715946690661262E-002   5.2244794235870390E-002
   6.1215445835502202E-002  -1.3207305025450084E-002   5.2759163664421967E-002
   6.1516787531280391E-002  -1.4504865310439451E-002   5.3061249357999045E-002
   9.4150856034013269E-002  -2.7977340394896064E-002   3.1844976897548796E-002
   9.1759854052749404E-002  -2.6783447710520596E-002   3.1275497165047336E-002
   8.9368852071485511E-002  -2.5864328185015429E-002   3.0790203361697084E-002
   8.6977850090221659E-002  -2.5219981818380654E-002   3.0389095487497669E-002
   8.4586848108957780E-002  -2.4850408610616298E-002   3.0072173542449399E-002
   8.6462485861824048E-002  -2.4609221623781929E-002   3.8098522709124026E-002
   8.4201349658040492E-002  -2.3965430608610609E-002   3.7069401825522964E-002
   8.1940213454256949E-002  -2.3430645828767950E-002   3.6215826567731535E-002
   7.9679077250473407E-002  -2.3004867284253917E-002   3.5537796935749683E-002
   7.7417941046689823E-002  -2.2688094975068462E-002   3.5035312929577345E-002
   7.8460684387305538E-002  -2.1241102852667761E-002   4.3719083389724092E-002
   7.6420773657660798E-002  -2.1147413506700654E-002   4.2396088278565280E-002
   7.4380862928016073E-002  -2.0996963472520440E-002   4.1339998489874519E-002
   7.2340952198371319E-002  -2.0789752750127101E-002   4.0550814023651884E-002
   7.0301041468726594E-002  -2.0525781339520613E-002   4.0028534879897250E-002
   7.0145451610457599E-002  -1.7872984081553616E-002   4.8706658939349126E-002
   6.8418126051610254E-002  -1.8329396404790685E-002   4.7255556524174187E-002
   6.6690800492762881E-002  -1.8563281116272940E-002   4.6162719128125897E-002
   6.4963474933915535E-002  -1.8574638216000292E-002   4.5428146751204226E-002
   6.3236149375068176E-002  -1.8363467703972798E-002   4.5051839393409114E-002
   6.1516787531280391E-002  -1.4504865310439451E-002   5.3061249357999045E-002
   6.0193406839888913E-002  -1.5511379302880747E-002   5.1647806562349852E-002
   5.8870026148497415E-002  -1.6129598760025461E-002   5.0683988482485703E-002
   5.7546645457105937E-002  -1.6359523681873562E-002   5.0169795118406683E-002
   5.6223264765714459E-002  -1.6201154068424942E-002   5.0105226470112854E-002
   8.4586848108957780E-002  -2.4850408610616298E-002   3.0072173542449399E-002
   8.2212027721086822E-002  -2.4536345379167546E-002   2.9323510640555814E-002
   7.9837207333215823E-002  -2.4058528941479702E-002   2.8857340202853646E-002
   7.7462386945344852E-002  -2.3416959297552650E-002   2.8673662229342853E-002
   7.5087566557473895E-002  -2.2611636447386396E-002   2.8772476720023588E-002
   7.7417941046689823E-002  -2.2688094975068462E-002   3.5035312929577345E-002
   7.5310989624774671E-002  -2.2365757337786105E-002   3.4465979062633809E-002
   7.3204038202859506E-002  -2.1923282808981225E-002   3.4149890663410384E-002
   7.1097086780944327E-002  -2.1360671388653864E-002   3.4087047731907266E-002
   6.8990135359029162E-002  -2.0677923076803884E-002   3.4277450268124163E-002
   7.0301041468726594E-002  -2.0525781339520613E-002   4.0028534879897250E-002
   6.8432712016296041E-002  -2.0195169296404664E-002   3.9594913733187055E-002
   6.6564382563865446E-002  -1.9788036676482827E-002   3.9385291057725771E-002
   6.4696053111434920E-002  -1.9304383479755084E-002   3.9399666853513524E-002
   6.2827723659004325E-002  -1.8744209706221454E-002   3.9638041120550277E-002
   6.3236149375068176E-002  -1.8363467703972798E-002   4.5051839393409114E-002
   6.1577194895651000E-002  -1.8024581255023236E-002   4.4710314652215512E-002
   5.9918240416233837E-002  -1.7652790543984401E-002   4.4563541385799849E-002
   5.8259285936816639E-002  -1.7248095570856357E-002   4.4611519594161868E-002
   5.6600331457399483E-002  -1.6810496335638983E-002   4.4854249277301667E-002
   5.6223264765714459E-002  -1.6201154068424942E-002   5.0105226470112854E-002
   5.4744438262839451E-002  -1.5853993213641809E-002   4.9812181819719470E-002
   5.3265611759964485E-002  -1.5517544411485968E-002   4.9684641647632526E-002
   5.1786785257089483E-002  -1.5191807661957591E-002   4.9722605953852236E-002
   5.0307958754214510E-002  -1.4876782965056512E-002   4.9926074738378512E-002
   7.5087566557473895E-002  -2.2611636447386396E-002   2.8772476720023588E-002
   7.2704300818728362E-002  -2.1755060091912540E-002   2.8591069851663653E-002
   7.0321035079982913E-002  -2.0959729932062687E-002   2.8564312624284993E-002
   6.7937769341237450E-002  -2.0225645967836561E-002   2.8692205037887678E-002
   6.5554503602491987E-002  -1.9552808199234384E-002   2.8974747092471720E-002
   6.8990135359029162E-002  -2.0677923076803884E-002   3.4277450268124163E-002
   6.6771057393808328E-002  -1.9951484659057522E-002   3.3993599593050830E-002
   6.4551979428587480E-002  -1.9257802921040554E-002   3.3883474824045433E-002
   6.2332901463366647E-002  -1.8596877862753044E-002   3.3947075961108270E-002
   6.0113823498145841E-002  -1.7968709484194989E-002   3.4184403004238889E-002
   6.2827723659004325E-002  -1.8744209706221454E-002   3.9638041120550277E-002
   6.0791909732394844E-002  -1.8147909226202415E-002   3.9280236154657935E-002
   5.8756095805785370E-002  -1.7555875910018476E-002   3.9115233359920343E-002
   5.6720281879175896E-002  -1.6968109757669526E-002   3.9143032736337360E-002
   5.4684467952566415E-002  -1.6384610769155677E-002   3.9363634283909169E-002
   5.6600331457399483E-002  -1.6810496335638983E-002   4.4854249277301667E-002
   5.4766857834488009E-002  -1.6344333793347324E-002   4.4450979536484705E-002
   5.2933384211576555E-002  -1.5853948898996370E-002   4.4259588231909348E-002
   5.1099910588665115E-002  -1.5339341652586009E-002   4.4280075363575228E-002
   4.9266436965753627E-002  -1.4800512054116324E-002   4.4512440931482433E-002
   5.0307958754214510E-002  -1.4876782965056512E-002   4.9926074738378512E-002
   4.8695901700087793E-002  -1.4540758360492276E-002   4.9505829738531459E-002
   4.7083844645961076E-002  -1.4152021887974306E-002   4.9316539440012547E-002
   4.5471787591834345E-002  -1.3710573547502502E-002   4.9358203842821621E-002
   4.3859730537707642E-002  -1.3216413339076971E-002   4.9630822946958753E-002
   6.5554503602491987E-002  -1.9552808199234384E-002   2.8974747092471720E-002
   6.3261719093085422E-002  -1.8891861576812635E-002   2.8640222456031705E-002
   6.0968934583678941E-002  -1.8193451051127948E-002   2.8486638827392191E-002
   5.8676150074272390E-002  -1.7457576622180070E-002   2.8513996206553482E-002
   5.6383365564865895E-002  -1.6684238289969566E-002   2.8722294593515163E-002
   6.0113823498145841E-002  -1.7968709484194989E-002   3.4184403004238889E-002
   5.8001405594713437E-002  -1.7343792841562941E-002   3.3892487080309577E-002
   5.5888987691281075E-002  -1.6692622991053035E-002   3.3780363360527990E-002
   5.3776569787848713E-002  -1.6015199932665460E-002   3.3848031844893954E-002
   5.1664151884416309E-002  -1.5311523666400095E-002   3.4095492533407906E-002
   5.4684467952566415E-002  -1.6384610769155677E-002   3.9363634283909169E-002
   5.2751267851455341E-002  -1.5795724106313122E-002   3.9103116377105201E-002
   5.0818067750344330E-002  -1.5191794930978129E-002   3.9021241870796149E-002
   4.8884867649233318E-002  -1.4572823243150684E-002   3.9118010764982003E-002
   4.6951667548122286E-002  -1.3938809042830846E-002   3.9393423059662785E-002
   4.9266436965753627E-002  -1.4800512054116324E-002   4.4512440931482433E-002
   4.7511305863311121E-002  -1.4247655371063421E-002   4.4272110346418501E-002
   4.5756174760868622E-002  -1.3690966870903192E-002   4.4209274358196861E-002
   4.4001043658426088E-002  -1.3130446553636006E-002   4.4323932966816949E-002
   4.2245912555983617E-002  -1.2566094419261487E-002   4.4616086172279475E-002
   4.3859730537707642E-002  -1.3216413339076971E-002   4.9630822946958753E-002
   4.2281519630280845E-002  -1.2699586635813637E-002   4.9399468988249678E-002
   4.0703308722854006E-002  -1.2190138810828338E-002   4.9344460822729974E-002
   3.9125097815427189E-002  -1.1688069864121277E-002   4.9465798450399431E-002
   3.7546886908000371E-002  -1.1193379795692127E-002   4.9763481871258231E-002
   5.6383365564865895E-002  -1.6684238289969566E-002   2.8722294593515163E-002
   5.3956973672693975E-002  -1.5905381889500442E-002   2.8385849645601979E-002
   5.1530581780522056E-002  -1.5152953255777230E-002   2.8242773932676879E-002
   4.9104189888350164E-002  -1.4426952388800394E-002   2.8293067454740084E-002
   4.6677797996178216E-002  -1.3727379288569708E-002   2.8536730211791261E-002
   5.1664151884416309E-002  -1.5311523666400095E-002   3.4095492533407906E-002
   4.9431498529448614E-002  -1.4601957553905448E-002   3.3745695590784081E-002
   4.7198845174480877E-002  -1.3906864956828913E-002   3.3590006487580162E-002
   4.4966191819513134E-002  -1.3226245875171239E-002   3.3628425223796853E-002
   4.2733538464545417E-002  -1.2560100308931954E-002   3.3860951799433492E-002
   4.6951667548122286E-002  -1.3938809042830846E-002   3.9393423059662785E-002
   4.4913491334790778E-002  -1.3298533218310274E-002   3.9042228373655632E-002
   4.2875315121459312E-002  -1.2660776657880554E-002   3.8885880131500586E-002
   4.0837138908127811E-002  -1.2025539361541864E-002   3.8924378333197930E-002
   3.8798962694796352E-002  -1.1392821329293978E-002   3.9157722978747589E-002
   4.2245912555983617E-002  -1.2566094419261487E-002   4.4616086172279475E-002
   4.0402952088720447E-002  -1.1995108882715134E-002   4.4275447994216711E-002
   3.8559991621457297E-002  -1.1414688358932022E-002   4.4130394864438191E-002
   3.6717031154194155E-002  -1.0824832847912432E-002   4.4180926782944149E-002
   3.4874070686931033E-002  -1.0225542349656058E-002   4.4427043749734461E-002
   3.7546886908000371E-002  -1.1193379795692127E-002   4.9763481871258231E-002
   3.5899880791237654E-002  -1.0691684547120106E-002   4.9445354452467394E-002
   3.4252874674474923E-002  -1.0168600059983823E-002   4.9323550686392825E-002
   3.2605868557712199E-002  -9.6241263342831257E-003   4.9398070573034830E-002
   3.0958862440949475E-002  -9.0582633700182491E-003   4.9668914112393159E-002
   4.6677797996178216E-002  -1.3727379288569708E-002   2.8536730211791261E-002
   4.4425761958637566E-002  -1.2882601350832801E-002   2.7692803317964532E-002
   4.2173725921096916E-002  -1.1720985971337944E-002   2.6977638806862103E-002
   3.9921689883556280E-002  -1.0242533150085074E-002   2.6391236678484614E-002
   3.7669653846015616E-002  -8.4472428870741023E-003   2.5933596932831593E-002
   4.2733538464545417E-002  -1.2560100308931954E-002   3.3860951799433492E-002
   4.0620121680637278E-002  -1.1785550496842601E-002   3.3310625262836457E-002
   3.8506704896729180E-002  -1.0779718677635219E-002   3.2908774850779726E-002
   3.6393288112821102E-002  -9.5426048513098521E-003   3.2655400563263687E-002
   3.4279871328912914E-002  -8.0742090178661519E-003   3.2550502400288006E-002
   3.8798962694796352E-002  -1.1392821329293978E-002   3.9157722978747589E-002
   3.6843878906336613E-002  -1.0688499642852484E-002   3.8815441364740522E-002
   3.4888795117876993E-002  -9.8384513839326199E-003   3.8641349617089885E-002
   3.2933711329417303E-002  -8.8426765525345778E-003   3.8635447735795699E-002
   3.0978627540957593E-002  -7.7011751486582014E-003   3.8797735720857651E-002
   3.4874070686931033E-002  -1.0225542349656058E-002   4.4427043749734461E-002
   3.3097033635735670E-002  -9.5914487888622141E-003   4.4207251623677377E-002
   3.1319996584540356E-002  -8.8971840902299579E-003   4.4175363105792675E-002
   2.9542959533344994E-002  -8.1427482537592740E-003   4.4331378196080025E-002
   2.7765922482149673E-002  -7.3281412794502510E-003   4.4675296894539820E-002
   3.0958862440949475E-002  -9.0582633700182491E-003   4.9668914112393159E-002
   2.9379585868834351E-002  -8.4943979348721665E-003   4.9486056039646287E-002
   2.7800309296719228E-002  -7.9559167965272126E-003   4.9510815316887669E-002
   2.6221032724604049E-002  -7.4428199549841714E-003   4.9743191944117193E-002
   2.4641756152488925E-002  -6.9551074102423005E-003   5.0183185921334639E-002
   5.7152757232122292E-002   0.0000000000000000        3.4691600406504486E-002
   5.7942423111133630E-002  -2.0845380993966111E-003   3.8343408446400593E-002
   5.8732088990144968E-002  -4.1380234444763440E-003   4.2208611754255838E-002
   5.9521754869156299E-002  -6.1604560352391986E-003   4.6287210330070230E-002
   6.0311420748167636E-002  -8.1518358716851681E-003   5.0579204173843803E-002
   4.8652931140184548E-002   0.0000000000000000        3.2790133270620789E-002
   4.9590825139839603E-002  -1.7097441122800212E-003   3.6965425763977891E-002
   5.0528719139494666E-002  -3.4332368586954144E-003   4.1223779230663296E-002
   5.1466613139149728E-002  -5.1704782392461724E-003   4.5565193670676976E-002
   5.2404507138804776E-002  -6.9214682539323101E-003   4.9989669084018959E-002
   4.0733104588932478E-002   0.0000000000000000        3.1285860816079814E-002
   4.1688892414600408E-002  -1.3349501251634296E-003   3.5939836374445665E-002
   4.2644680240268316E-002  -2.7284502729144821E-003   4.0546538611508962E-002
   4.3600468065936239E-002  -4.1805004432531549E-003   4.5105967527269676E-002
   4.4556255891604162E-002  -5.6911006361794487E-003   4.9618123121727843E-002
   3.3393277578366090E-002   0.0000000000000000        3.0178783042881550E-002
   3.4236624935416016E-002  -9.6015613804683892E-004   3.5266640277803921E-002
   3.5079972292465948E-002  -2.0236636871335512E-003   4.0176889896792842E-002
   3.5923319649515874E-002  -3.1905226472601347E-003   4.4909531899848358E-002
   3.6766667006565792E-002  -4.4607330184265907E-003   4.9464566286970421E-002
   2.6633450108485373E-002   0.0000000000000000        2.9468899951026008E-002
   2.7234022702286448E-002  -5.8536215093024820E-004   3.4945837474052610E-002
   2.7834595296087523E-002  -1.3188771013526203E-003   4.0114833086514937E-002
   2.8435167889888591E-002  -2.2005448512671145E-003   4.4975886788412973E-002
   2.9035740483689669E-002  -3.2303654006737318E-003   4.9528998579746748E-002
   6.0311420748167636E-002  -8.1518358716851681E-003   5.0579204173843803E-002
   6.0612762443945832E-002  -1.0030790306072963E-002   5.1518141072344335E-002
   6.0914104139724021E-002  -1.1715946690661262E-002   5.2244794235870390E-002
   6.1215445835502202E-002  -1.3207305025450084E-002   5.2759163664421967E-002
   6.1516787531280391E-002  -1.4504865310439451E-002   5.3061249357999045E-002
   5.2404507138804776E-002  -6.9214682539323101E-003   4.9989669084018959E-002
   5.2532375296213671E-002  -8.5852110414534697E-003   5.1217099110419335E-002
   5.2660243453622579E-002  -1.0060710740509319E-002   5.2309865795055616E-002
   5.2788111611031488E-002  -1.1347967351099865E-002   5.3267969137927779E-002
   5.2915979768440390E-002  -1.2446980873225100E-002   5.4091409139035866E-002
   4.4556255891604162E-002  -5.6911006361794487E-003   4.9618123121727843E-002
   4.4588270903854157E-002  -7.1396317768339761E-003   5.1128491314693873E-002
   4.4620285916104153E-002  -8.4054747903573764E-003   5.2581816559106202E-002
   4.4652300928354156E-002  -9.4886296767496235E-003   5.3978098854964782E-002
   4.4684315940604138E-002  -1.0389096436010724E-002   5.5317338202269674E-002
   3.6766667006565792E-002  -4.4607330184265907E-003   4.9464566286970421E-002
   3.6780449266867271E-002  -5.6940525122144876E-003   5.1252317685167956E-002
   3.6794231527168736E-002  -6.7502388402054300E-003   5.3060646528022164E-002
   3.6808013787470208E-002  -7.6292920023993838E-003   5.4889552815533045E-002
   3.6821796047771686E-002  -8.3312119987963684E-003   5.6739036547700579E-002
   2.9035740483689669E-002  -3.2303654006737318E-003   4.9528998579746748E-002
   2.9108910385252998E-002  -4.2484732475949940E-003   5.1588578221841590E-002
   2.9182080286816337E-002  -5.0950028900534775E-003   5.3746355701803507E-002
   2.9255250188379676E-002  -5.7699543280491476E-003   5.6002331019632430E-002
   2.9328420089943005E-002  -6.2733275615819983E-003   5.8356504175328477E-002
   6.1516787531280391E-002  -1.4504865310439451E-002   5.3061249357999045E-002
   6.0193406839888913E-002  -1.5511379302880747E-002   5.1647806562349852E-002
   5.8870026148497415E-002  -1.6129598760025461E-002   5.0683988482485703E-002
   5.7546645457105937E-002  -1.6359523681873562E-002   5.0169795118406683E-002
   5.6223264765714459E-002  -1.6201154068424942E-002   5.0105226470112854E-002
   5.2915979768440390E-002  -1.2446980873225100E-002   5.4091409139035866E-002
   5.1990349140946607E-002  -1.3298165463751673E-002   5.3343090281517208E-002
   5.1064718513452845E-002  -1.3841935279546351E-002   5.2940646836008867E-002
   5.0139087885959069E-002  -1.4078290320609059E-002   5.2884078802510788E-002
   4.9213457258465293E-002  -1.4007230586939812E-002   5.3173386181023019E-002
   4.4684315940604138E-002  -1.0389096436010724E-002   5.5317338202269674E-002
   4.4052686073233212E-002  -1.1084951624622603E-002   5.5153263522317024E-002
   4.3421056205862306E-002  -1.1554271799067265E-002   5.5231314950599769E-002
   4.2789426338491393E-002  -1.1797056959344585E-002   5.5551492487117958E-002
   4.2157796471120466E-002  -1.1813307105454675E-002   5.6113796131871535E-002
   3.6821796047771686E-002  -8.3312119987963684E-003   5.6739036547700579E-002
   3.6380417636748763E-002  -8.8717377854935445E-003   5.7078326284749174E-002
   3.5939039225725833E-002  -9.2666083185881255E-003   5.7555992826258388E-002
   3.5497660814702903E-002  -9.5158235980801475E-003   5.8172036172228075E-002
   3.5056282403679986E-002  -9.6193836239695692E-003   5.8926456322658367E-002
   2.9328420089943005E-002  -6.2733275615819983E-003   5.8356504175328477E-002
   2.8973543831493212E-002  -6.6585239463644551E-003   5.9118278568813715E-002
   2.8618667573043422E-002  -6.9789448381090552E-003   5.9914680462984635E-002
   2.8263791314593632E-002  -7.2345902368156877E-003   6.0745709857841251E-002
   2.7908915056143839E-002  -7.4254601424843802E-003   6.1611366753383634E-002
   5.6223264765714459E-002  -1.6201154068424942E-002   5.0105226470112854E-002
   5.4744438262839451E-002  -1.5853993213641809E-002   4.9812181819719470E-002
   5.3265611759964485E-002  -1.5517544411485968E-002   4.9684641647632526E-002
   5.1786785257089483E-002  -1.5191807661957591E-002   4.9722605953852236E-002
   5.0307958754214510E-002  -1.4876782965056512E-002   4.9926074738378512E-002
   4.9213457258465293E-002  -1.4007230586939812E-002   5.3173386181023019E-002
   4.7906508247780269E-002  -1.3775508961440440E-002   5.2842459742567689E-002
   4.6599559237095238E-002  -1.3529878327012856E-002   5.2689783810185783E-002
   4.5292610226410207E-002  -1.3270338683656839E-002   5.2715358383877121E-002
   4.3985661215725197E-002  -1.2996890031372582E-002   5.2919183463641953E-002
   4.2157796471120466E-002  -1.1813307105454675E-002   5.6113796131871535E-002
   4.1035470980392168E-002  -1.1697024709239126E-002   5.5769608966910050E-002
   3.9913145489663862E-002  -1.1542212242539632E-002   5.5616418335788766E-002
   3.8790819998935550E-002  -1.1348869705356127E-002   5.5654224238507528E-002
   3.7668494508207237E-002  -1.1116997097688652E-002   5.5883026675066380E-002
   3.5056282403679986E-002  -9.6193836239695692E-003   5.8926456322658367E-002
   3.4131326460675140E-002  -9.6185404570377983E-003   5.8593629492746512E-002
   3.3206370517670308E-002  -9.5545461580664355E-003   5.8464545224441423E-002
   3.2281414574665462E-002  -9.4274007270553819E-003   5.8539203517743173E-002
   3.1356458631660630E-002  -9.2371041640047641E-003   5.8817604372651849E-002
   2.7908915056143839E-002  -7.4254601424843802E-003   6.1611366753383634E-002
   2.7194074688629222E-002  -7.5400562048364081E-003   6.1314521320076892E-002
   2.6479234321114615E-002  -7.5668800735933170E-003   6.1234164476143757E-002
   2.5764393953600008E-002  -7.5059317487546958E-003   6.1370296221584304E-002
   2.5049553586085391E-002  -7.3572112303207926E-003   6.1722916556398416E-002
   5.0307958754214510E-002  -1.4876782965056512E-002   4.9926074738378512E-002
   4.8695901700087793E-002  -1.4540758360492276E-002   4.9505829738531459E-002
   4.7083844645961076E-002  -1.4152021887974306E-002   4.9316539440012547E-002
   4.5471787591834345E-002  -1.3710573547502502E-002   4.9358203842821621E-002
   4.3859730537707642E-002  -1.3216413339076971E-002   4.9630822946958753E-002
   4.3985661215725197E-002  -1.2996890031372582E-002   5.2919183463641953E-002
   4.2598889931695486E-002  -1.2695581777225531E-002   5.2545661394910667E-002
   4.1212118647665774E-002  -1.2352463328281132E-002   5.2391756165045343E-002
   3.9825347363636077E-002  -1.1967534684539378E-002   5.2457467774045988E-002
   3.8438576079606379E-002  -1.1540795846000346E-002   5.2742796221912636E-002
   3.7668494508207237E-002  -1.1116997097688652E-002   5.5883026675066380E-002
   3.6495671131812388E-002  -1.0850405193958738E-002   5.5545325864294504E-002
   3.5322847755417532E-002  -1.0552904768587966E-002   5.5415904029926473E-002
   3.4150024379022675E-002  -1.0224495821576257E-002   5.5494761171962184E-002
   3.2977201002627833E-002  -9.8651783529237203E-003   5.5781897290401658E-002
   3.1356458631660630E-002  -9.2371041640047641E-003   5.8817604372651849E-002
   3.0386245300438489E-002  -9.0052286106919420E-003   5.8504823146682976E-002
   2.9416031969216348E-002  -8.7533462088948237E-003   5.8388983034655707E-002
   2.8445818637994204E-002  -8.4814569586131629E-003   5.8470084036570037E-002
   2.7475605306772066E-002  -8.1895608598470948E-003   5.8748126152426076E-002
   2.5049553586085391E-002  -7.3572112303207926E-003   6.1722916556398416E-002
   2.4270612437573801E-002  -7.1600520274252150E-003   6.1424153242076007E-002
   2.3491671289062210E-002  -6.9537876492016815E-003   6.1310993179233109E-002
   2.2712730140550620E-002  -6.7384180956500256E-003   6.1383436367869651E-002
   2.1933788992039016E-002  -6.5139433667704694E-003   6.1641482807985759E-002
   4.3859730537707642E-002  -1.3216413339076971E-002   4.9630822946958753E-002
   4.2281519630280845E-002  -1.2699586635813637E-002   4.9399468988249678E-002
   4.0703308722854006E-002  -1.2190138810828338E-002   4.9344460822729974E-002
   3.9125097815427189E-002  -1.1688069864121277E-002   4.9465798450399431E-002
   3.7546886908000371E-002  -1.1193379795692127E-002   4.9763481871258231E-002
   3.8438576079606379E-002  -1.1540795846000346E-002   5.2742796221912636E-002
   3.7040511053450104E-002  -1.1094451859035764E-002   5.2470032344295314E-002
   3.5642446027293842E-002  -1.0650707770017580E-002   5.2381214436030041E-002
   3.4244381001137573E-002  -1.0209563578945520E-002   5.2476342497116503E-002
   3.2846315974981305E-002  -9.7710192858198597E-003   5.2755416527554777E-002
   3.2977201002627833E-002  -9.8651783529237203E-003   5.5781897290401658E-002
   3.1766882033904660E-002  -9.4893170822579337E-003   5.5472502474208173E-002
   3.0556563065181539E-002  -9.1112767292067104E-003   5.5354653803528928E-002
   2.9346244096458390E-002  -8.7310572937698734E-003   5.5428351278364103E-002
   2.8135925127735252E-002  -8.3486587759475372E-003   5.5693594898713783E-002
   2.7475605306772066E-002  -8.1895608598470948E-003   5.8748126152426076E-002
   2.6460632571644591E-002  -7.8841823054800822E-003   5.8406879377987955E-002
   2.5445659836517118E-002  -7.5718456883957855E-003   5.8264778925226787E-002
   2.4430687101389650E-002  -7.2525510085941162E-003   5.8321824794142614E-002
   2.3415714366262171E-002  -6.9262982660752426E-003   5.8578016984735401E-002
   2.1933788992039016E-002  -6.5139433667704694E-003   6.1641482807985759E-002
   2.1121762666669791E-002  -6.2790475287022585E-003   6.1273163055634849E-002
   2.0309736341300552E-002  -6.0324146475850826E-003   6.1111589801123634E-002
   1.9497710015931313E-002  -5.7740447234183867E-003   6.1156763044451778E-002
   1.8685683690562088E-002  -5.5039377562028924E-003   6.1408682785619451E-002
   3.7546886908000371E-002  -1.1193379795692127E-002   4.9763481871258231E-002
   3.5899880791237654E-002  -1.0691684547120106E-002   4.9445354452467394E-002
   3.4252874674474923E-002  -1.0168600059983823E-002   4.9323550686392825E-002
   3.2605868557712199E-002  -9.6241263342831257E-003   4.9398070573034830E-002
   3.0958862440949475E-002  -9.0582633700182491E-003   4.9668914112393159E-002
   3.2846315974981305E-002  -9.7710192858198597E-003   5.2755416527554777E-002
   3.1394693980618782E-002  -9.3248190011283039E-003   5.2446180224041711E-002
   2.9943071986256245E-002  -8.8607068353587087E-003   5.2331388512612542E-002
   2.8491449991893715E-002  -8.3786827885110431E-003   5.2411041393267063E-002
   2.7039827997531185E-002  -7.8787468605852062E-003   5.2685138866005787E-002
   2.8135925127735252E-002  -8.3486587759475372E-003   5.5693594898713783E-002
   2.6877808195140344E-002  -7.9579534551365017E-003   5.5389772352992375E-002
   2.5619691262545447E-002  -7.5528136107335941E-003   5.5278515338722273E-002
   2.4361574329950550E-002  -7.1332392427387939E-003   5.5359823855903642E-002
   2.3103457397355642E-002  -6.6992303511521634E-003   5.5633697904536233E-002
   2.3415714366262171E-002  -6.9262982660752426E-003   5.8578016984735401E-002
   2.2349223434802334E-002  -6.5910879091445607E-003   5.8276130839319609E-002
   2.1282732503342481E-002  -6.2449203861085628E-003   5.8164931164722232E-002
   2.0216241571882641E-002  -5.8877956969666835E-003   5.8244417960943859E-002
   1.9149750640422791E-002  -5.5197138417191205E-003   5.8514591227984351E-002
   1.8685683690562088E-002  -5.5039377562028924E-003   6.1408682785619451E-002
   1.7808939699604745E-002  -5.2242223631529527E-003   6.1105255683022885E-002
   1.6932195708647402E-002  -4.9370271614833650E-003   6.0990635990612441E-002
   1.6055451717690052E-002  -4.6423521511946286E-003   6.1064823708388088E-002
   1.5178707726732701E-002  -4.3401973322861331E-003   6.1327818836350245E-002
   3.0958862440949475E-002  -9.0582633700182491E-003   4.9668914112393159E-002
   2.9379585868834351E-002  -8.4943979348721665E-003   4.9486056039646287E-002
   2.7800309296719228E-002  -7.9559167965272126E-003   4.9510815316887669E-002
   2.6221032724604049E-002  -7.4428199549841714E-003   4.9743191944117193E-002
   2.4641756152488925E-002  -6.9551074102423005E-003   5.0183185921334639E-002
   2.7039827997531185E-002  -7.8787468605852062E-003   5.2685138866005787E-002
   2.5658919272851605E-002  -7.3793277734371943E-003   5.2453530204231380E-002
   2.4278010548172024E-002  -6.8988542489227811E-003   5.2411039887339944E-002
   2.2897101823492423E-002  -6.4373262870419390E-003   5.2557667915331521E-002
   2.1516193098812864E-002  -5.9947438877947512E-003   5.2893414288205931E-002
   2.3103457397355642E-002  -6.6992303511521634E-003   5.5633697904536233E-002
   2.1902417515006364E-002  -6.2642576120024440E-003   5.5359777387902320E-002
   2.0701377632657142E-002  -5.8417917013182247E-003   5.5256476211046179E-002
   1.9500337750307857E-002  -5.4318326190998974E-003   5.5323794373967901E-002
   1.8299297867958586E-002  -5.0343803653469799E-003   5.5561731876666853E-002
   1.9149750640422791E-002  -5.5197138417191205E-003   5.8514591227984351E-002
   1.8110080595298665E-002  -5.1491874505676383E-003   5.8204797590658774E-002
   1.7070410550174532E-002  -4.7847291537136197E-003   5.8047124288005833E-002
   1.6030740505050371E-002  -4.4263389511576493E-003   5.8041571320025610E-002
   1.4991070459926273E-002  -4.0740168428992640E-003   5.8188138686717475E-002
   1.5178707726732701E-002  -4.3401973322861331E-003   6.1327818836350245E-002
   1.4281908513728472E-002  -4.0341172891328880E-003   6.0988590812501242E-002
   1.3385109300724209E-002  -3.7276666061092228E-003   6.0782984118219391E-002
   1.2488310087719962E-002  -3.4208452832157864E-003   6.0710998753504983E-002
   1.1591510874715716E-002  -3.1136533204516592E-003   6.0772634718357699E-002
   2.6633450108485373E-002   0.0000000000000000        2.9468899951026008E-002
   2.7234022702286448E-002  -5.8536215093024820E-004   3.4945837474052610E-002
   2.7834595296087523E-002  -1.3188771013526203E-003   4.0114833086514937E-002
   2.8435167889888591E-002  -2.2005448512671145E-003   4.4975886788412973E-002
   2.9035740483689669E-002  -3.2303654006737318E-003   4.9528998579746748E-002
   2.0116488702067864E-002   0.0000000000000000        2.9021524918733482E-002
   2.0448569075832562E-002  -4.3902161320622489E-004   3.4314011018977304E-002
   2.0780649449597260E-002  -9.8915782602317526E-004   3.9377454589712674E-002
   2.1112729823361959E-002  -1.6504086384508485E-003   4.4211855630939559E-002
   2.1444810197126657E-002  -2.4227740504892490E-003   4.8817214142657973E-002
   1.3505259881891104E-002   0.0000000000000000        2.8701971324224279E-002
   1.3647747416675236E-002  -2.9268107548220158E-004   3.3847044201566742E-002
   1.3790234951459365E-002  -6.5943855069373024E-004   3.8841973930456526E-002
   1.3932722486243498E-002  -1.1002724256345842E-003   4.3686760510893659E-002
   1.4075210021027627E-002  -1.6151827003047631E-003   4.8381403942878140E-002
   6.7997636479550849E-003   0.0000000000000000        2.8510239167498404E-002
   6.8315577248144596E-003  -1.4634053775817741E-004   3.3544937021820875E-002
   6.8633518016738369E-003  -3.2971927536428348E-004   3.8508391108746508E-002
   6.8951458785332107E-003  -5.5013621281831560E-004   4.3400601428275294E-002
   6.9269399553925880E-003  -8.0759135012027704E-004   4.8221567980407207E-002
   2.5980953499704640E-013   0.0000000000000000        2.8446328448555852E-002
   2.5024080030355833E-013  -3.4154970518507355E-014   3.3407689479739752E-002
   2.4067033088659429E-013  -3.4840186291518194E-014   3.8376706124582612E-002
   2.3110029515049924E-013  -2.0539125955565396E-015   4.3353378383084423E-002
   2.2153112677614217E-013   6.4205585292853584E-014   4.8337706255245201E-002
   2.9035740483689669E-002  -3.2303654006737318E-003   4.9528998579746748E-002
   2.9108910385252998E-002  -4.2484732475949940E-003   5.1588578221841590E-002
   2.9182080286816337E-002  -5.0950028900534775E-003   5.3746355701803507E-002
   2.9255250188379676E-002  -5.7699543280491476E-003   5.6002331019632430E-002
   2.9328420089943005E-002  -6.2733275615819983E-003   5.8356504175328477E-002
   2.1444810197126657E-002  -2.4227740504892490E-003   4.8817214142657973E-002
   2.1587055358238020E-002  -3.1863549356593722E-003   5.1219132245802851E-002
   2.1729300519349383E-002  -3.8212521674821820E-003   5.3661003030176728E-002
   2.1871545680460742E-002  -4.3274657459577417E-003   5.6142826495779535E-002
   2.2013790841572109E-002  -4.7049956710859958E-003   5.8664602642611446E-002
   1.4075210021027627E-002  -1.6151827003047631E-003   4.8381403942878140E-002
   1.4228285285048967E-002  -2.1242366237237157E-003   5.1082765955957461E-002
   1.4381360549070313E-002  -2.5475014449109147E-003   5.3765835493627782E-002
   1.4534435813091653E-002  -2.8849771638663323E-003   5.6430612555889034E-002
   1.4687511077112992E-002  -3.1366637805899933E-003   5.9077097142741231E-002
   6.9269399553925880E-003  -8.0759135012027704E-004   4.8221567980407207E-002
   7.0326001656858574E-003  -1.0621183117880766E-003   5.1179479352305539E-002
   7.1382603759791215E-003  -1.2737507223396333E-003   5.4060853092156747E-002
   7.2439205862723883E-003  -1.4424885817749351E-003   5.6865689199960864E-002
   7.3495807965656568E-003  -1.5683318900939699E-003   5.9593987675717899E-002
   2.2153112677614217E-013   6.4205585292853584E-014   4.8337706255245201E-002
   1.4867490918946125E-013   1.4757205873960899E-013   5.1509272434846959E-002
   7.5818691602780319E-014   2.3165844242889477E-013   5.4546055825763586E-002
   2.9633413778373807E-015   3.1647167525461484E-013   5.7448056427995053E-002
  -6.9893743570581535E-014   4.0201175721676918E-013   6.0215274241541369E-002
   2.9328420089943005E-002  -6.2733275615819983E-003   5.8356504175328477E-002
   2.8973543831493212E-002  -6.6585239463644551E-003   5.9118278568813715E-002
   2.8618667573043422E-002  -6.9789448381090552E-003   5.9914680462984635E-002
   2.8263791314593632E-002  -7.2345902368156877E-003   6.0745709857841251E-002
   2.7908915056143839E-002  -7.4254601424843802E-003   6.1611366753383634E-002
   2.2013790841572109E-002  -4.7049956710859958E-003   5.8664602642611446E-002
   2.1707064974767216E-002  -4.9938929596255698E-003   5.9484927967401693E-002
   2.1400339107962331E-002  -5.2342086283350304E-003   6.0366926574795990E-002
   2.1093613241157442E-002  -5.4259426772144308E-003   6.1310598464794405E-002
   2.0786887374352556E-002  -5.5690951062636884E-003   6.2315943637396946E-002
   1.4687511077112992E-002  -3.1366637805899933E-003   5.9077097142741231E-002
   1.4455981383871420E-002  -3.3292619728866307E-003   5.9939779525628609E-002
   1.4224451690629844E-002  -3.4894724185609918E-003   6.0891180973038507E-002
   1.3992921997388273E-002  -3.6172951176131184E-003   6.1931301484970933E-002
   1.3761392304146696E-002  -3.7127300700430105E-003   6.3060141061425878E-002
   7.3495807965656568E-003  -1.5683318900939699E-003   5.9593987675717899E-002
   7.2202930588058066E-003  -1.6646309861477046E-003   6.0482833243494592E-002
   7.0910053210459538E-003  -1.7447362087870087E-003   6.1487443657712262E-002
   6.9617175832861027E-003  -1.8086475580118755E-003   6.2607818918370792E-002
   6.8324298455262507E-003  -1.8563650338222978E-003   6.3843959025470257E-002
  -6.9893743570581535E-014   4.0201175721676918E-013   6.0215274241541369E-002
  -4.2961554452825013E-013   5.9122845508241539E-013   6.1114089120999568E-002
  -7.8933994757113268E-013   9.8707500506556300E-013   6.2155714628817103E-002
  -1.1490630495714083E-012   1.5894239049907277E-012   6.3340150764993969E-002
  -1.5087861515716838E-012   2.3983731667343022E-012   6.4667397529530171E-002
   2.7908915056143839E-002  -7.4254601424843802E-003   6.1611366753383634E-002
   2.7194074688629222E-002  -7.5400562048364081E-003   6.1314521320076892E-002
   2.6479234321114615E-002  -7.5668800735933170E-003   6.1234164476143757E-002
   2.5764393953600008E-002  -7.5059317487546958E-003   6.1370296221584304E-002
   2.5049553586085391E-002  -7.3572112303207926E-003   6.1722916556398416E-002
   2.0786887374352556E-002  -5.5690951062636884E-003   6.2315943637396946E-002
   2.0279090971768072E-002  -5.6550421528461445E-003   6.2182986860581650E-002
   1.9771294569183570E-002  -5.6751600543250152E-003   6.2247629424252993E-002
   1.9263498166599082E-002  -5.6294488107002556E-003   6.2509871328411015E-002
   1.8755701764014587E-002  -5.5179084219718622E-003   6.2969712573055489E-002
   1.3761392304146696E-002  -3.7127300700430105E-003   6.3060141061425878E-002
   1.3441750617605344E-002  -3.7700281008557872E-003   6.3069129892610210E-002
   1.3122108931063987E-002  -3.7834400350566892E-003   6.3256828815394212E-002
   1.2802467244522631E-002  -3.7529658726457608E-003   6.3623237829777871E-002
   1.2482825557981275E-002  -3.6786056136229317E-003   6.4168356935761187E-002
   6.8324298455262507E-003  -1.8563650338222978E-003   6.3843959025470257E-002
   6.6820536261410586E-003  -1.8850140488654490E-003   6.3972950416162577E-002
   6.5316774067558639E-003  -1.8917200157884308E-003   6.4261762649567525E-002
   6.3813011873706743E-003  -1.8764829345912933E-003   6.4710395725685169E-002
   6.2309249679854770E-003  -1.8393028052739735E-003   6.5318849644515467E-002
  -1.5087861515716838E-012   2.3983731667343022E-012   6.4667397529530171E-002
  -2.6247962137126990E-012   3.1248892362611969E-012   6.4894448431238663E-002
  -3.7408028064067622E-012   3.4798587622564270E-012   6.5262430926772863E-002
  -4.8568137359095154E-012   3.4631681203323161E-012   6.5771345016132743E-002
  -5.9728194612418406E-012   3.0749292001530648E-012   6.6421190699318289E-002
   2.5049553586085391E-002  -7.3572112303207926E-003   6.1722916556398416E-002
   2.4270612437573801E-002  -7.1600520274252150E-003   6.1424153242076007E-002
   2.3491671289062210E-002  -6.9537876492016815E-003   6.1310993179233109E-002
   2.2712730140550620E-002  -6.7384180956500256E-003   6.1383436367869651E-002
   2.1933788992039016E-002  -6.5139433667704694E-003   6.1641482807985759E-002
   1.8755701764014587E-002  -5.5179084219718622E-003   6.2969712573055489E-002
   1.8164646875980968E-002  -5.3700390200388387E-003   6.2702174912085920E-002
   1.7573591987947338E-002  -5.2153407368001198E-003   6.2624806520592907E-002
   1.6982537099913708E-002  -5.0538135722556603E-003   6.2737607398576326E-002
   1.6391482211880082E-002  -4.8854575264055122E-003   6.3040577546036064E-002
   1.2482825557981275E-002  -3.6786056136229317E-003   6.4168356935761187E-002
   1.2084222948422601E-002  -3.5800260126524833E-003   6.3929768634122155E-002
   1.1685620338863938E-002  -3.4768938243985581E-003   6.3885915619956685E-002
   1.1287017729305264E-002  -3.3692090488612950E-003   6.4036797893264635E-002
   1.0888415119746600E-002  -3.2569716860406106E-003   6.4382415454045938E-002
   6.2309249679854770E-003  -1.8393028052739735E-003   6.5318849644515467E-002
   6.0293406548987405E-003  -1.7900130052660897E-003   6.5106934408184700E-002
   5.8277563418120031E-003  -1.7384469119970242E-003   6.5094320477324441E-002
   5.6261720287252709E-003  -1.6846045254669019E-003   6.5281007851934622E-002
   5.4245877156385292E-003  -1.6284858456756535E-003   6.5666996532015104E-002
  -5.9728194612418406E-012   3.0749292001530648E-012   6.6421190699318289E-002
  -4.5906368983938961E-012   2.1202761768535083E-012   6.6233672234273594E-002
  -3.2084560702694276E-012   4.0452363680998360E-013   6.6250021092696260E-002
  -1.8262717726980071E-012  -2.0725053617720590E-012   6.6470237274586244E-002
  -4.4409267929701457E-013  -5.3107518382944363E-012   6.6894320779943728E-002
   2.1933788992039016E-002  -6.5139433667704694E-003   6.1641482807985759E-002
   2.1121762666669791E-002  -6.2790475287022585E-003   6.1273163055634849E-002
   2.0309736341300552E-002  -6.0324146475850826E-003   6.1111589801123634E-002
   1.9497710015931313E-002  -5.7740447234183867E-003   6.1156763044451778E-002
   1.8685683690562088E-002  -5.5039377562028924E-003   6.1408682785619451E-002
   1.6391482211880082E-002  -4.8854575264055122E-003   6.3040577546036064E-002
   1.5785267405334036E-002  -4.7092856486166401E-003   6.2720832415504885E-002
   1.5179052598787997E-002  -4.5243109882559807E-003   6.2605963824780550E-002
   1.4572837792241947E-002  -4.3305335453233881E-003   6.2695971773863102E-002
   1.3966622985695912E-002  -4.1279533198190221E-003   6.2990856262752415E-002
   1.0888415119746600E-002  -3.2569716860406106E-003   6.4382415454045938E-002
   1.0486141873991085E-002  -3.1395237685310079E-003   6.4108310684857006E-002
   1.0083868628235571E-002  -3.0162073289268232E-003   6.4037212497442209E-002
   9.6815953824800592E-003  -2.8870223672282230E-003   6.4169120891801684E-002
   9.2793221367245410E-003  -2.7519688834351796E-003   6.4504035867935322E-002
   5.4245877156385292E-003  -1.6284858456756535E-003   6.5666996532015104E-002
   5.2243860726409038E-003  -1.5697618884453271E-003   6.5435597863691103E-002
   5.0241844296432803E-003  -1.5081036695977768E-003   6.5405335819108623E-002
   4.8239827866456498E-003  -1.4435111891331412E-003   6.5576210398267692E-002
   4.6237811436480314E-003  -1.3759844470513788E-003   6.5948221601168339E-002
  -4.4409267929701457E-013  -5.3107518382944363E-012   6.6894320779943728E-002
   1.2835149609813357E-012  -8.3597573308225037E-012   6.6702693952007314E-002
   3.0111208665362099E-012  -1.0268591532636151E-011   6.6710333789779724E-002
   4.7387233026441322E-012  -1.1038121805473367E-011   6.6917240293261071E-002
   6.4663344123694344E-012  -1.0667522420959585E-011   6.7323413462451354E-002
   1.8685683690562088E-002  -5.5039377562028924E-003   6.1408682785619451E-002
   1.7808939699604745E-002  -5.2242223631529527E-003   6.1105255683022885E-002
   1.6932195708647402E-002  -4.9370271614833650E-003   6.0990635990612441E-002
   1.6055451717690052E-002  -4.6423521511946286E-003   6.1064823708388088E-002
   1.5178707726732701E-002  -4.3401973322861331E-003   6.1327818836350245E-002
   1.3966622985695912E-002  -4.1279533198190221E-003   6.2990856262752415E-002
   1.3286281051679241E-002  -3.9181667744271342E-003   6.2733328495716334E-002
   1.2605939117662585E-002  -3.7027703718320315E-003   6.2679797432375534E-002
   1.1925597183645918E-002  -3.4817641120334780E-003   6.2830263072729986E-002
   1.1245255249629257E-002  -3.2551479950318485E-003   6.3184725416779386E-002
   9.2793221367245410E-003  -2.7519688834351796E-003   6.4504035867935322E-002
   8.8105715531574987E-003  -2.6121111857012880E-003   6.4290537485043653E-002
   8.3418209695904494E-003  -2.4685135821804760E-003   6.4296225099356286E-002
   7.8730703860234088E-003  -2.3211760728726050E-003   6.4521098710872860E-002
   7.4043198024563613E-003  -2.1700986577777581E-003   6.4965158319593527E-002
   4.6237811436480314E-003  -1.3759844470513788E-003   6.5948221601168339E-002
   4.3818112040395216E-003  -1.3060555969755666E-003   6.5776882651005023E-002
   4.1398412644310240E-003  -1.2342567925290315E-003   6.5839918991554613E-002
   3.8978713248225211E-003  -1.1605880337117597E-003   6.6137330622817250E-002
   3.6559013852140174E-003  -1.0850493205236816E-003   6.6669117544793030E-002
   6.4663344123694344E-012  -1.0667522420959585E-011   6.7323413462451354E-002
   4.3253074732962915E-012  -8.2496509623553038E-012   6.7192363993599957E-002
   2.1842874731170525E-012  -2.8775593019503276E-012   6.7310879108970434E-002
   4.3262268767385592E-014   5.4493423662371754E-012   6.7678958808562867E-002
  -2.0977594661353294E-012   1.6730561380740028E-011   6.8296603092377228E-002
   1.5178707726732701E-002  -4.3401973322861331E-003   6.1327818836350245E-002
   1.4281908513728472E-002  -4.0341172891328880E-003   6.0988590812501242E-002
   1.3385109300724209E-002  -3.7276666061092228E-003   6.0782984118219391E-002
   1.2488310087719962E-002  -3.4208452832157864E-003   6.0710998753504983E-002
   1.1591510874715716E-002  -3.1136533204516592E-003   6.0772634718357699E-002
   1.1245255249629257E-002  -3.2551479950318485E-003   6.3184725416779386E-002
   1.0504721984149409E-002  -3.0255879588422241E-003   6.2960983351339428E-002
   9.7641887186695545E-003  -2.7957499414795611E-003   6.2916151851381164E-002
   9.0236554531897169E-003  -2.5656339429440921E-003   6.3050230916904551E-002
   8.2831221877098515E-003  -2.3352399632357024E-003   6.3363220547908883E-002
   7.4043198024563613E-003  -2.1700986577777581E-003   6.4965158319593527E-002
   6.8653417204151239E-003  -2.0170586285515879E-003   6.4856809553865677E-002
   6.3263636383738917E-003  -1.8638332768499064E-003   6.4972660589533521E-002
   5.7873855563326361E-003  -1.7104226026725938E-003   6.5312711426596795E-002
   5.2484074742914222E-003  -1.5568266060197455E-003   6.5876962065056499E-002
   3.6559013852140174E-003  -1.0850493205236816E-003   6.6669117544793030E-002
   3.3637677225256072E-003  -1.0085292982611599E-003   6.6676069420079503E-002
   3.0716340598371983E-003  -9.3191661222013708E-004   6.6952510332676143E-002
   2.7795003971487807E-003  -8.5521126240110847E-004   6.7498440282582867E-002
   2.4873667344603792E-003  -7.7841324880378870E-004   6.8313859269798813E-002
  -2.0977594661353294E-012   1.6730561380740028E-011   6.8296603092377228E-002
  -9.5191250715220832E-012   3.2029545682377147E-011   6.8418762949981282E-002
  -1.6940494146355789E-011   5.2409479533999104E-011   6.8855701080809212E-002
  -2.4361858017019067E-011   7.7870477427355311E-011   6.9607417484861531E-002
  -3.1783228826576249E-011   1.0841216813162191E-010   7.0673912162137809E-002
   2.5980953499704640E-013   0.0000000000000000        2.8446328448555852E-002
   2.5024080030355833E-013  -3.4154970518507355E-014   3.3407689479739752E-002
   2.4067033088659429E-013  -3.4840186291518194E-014   3.8376706124582612E-002
   2.3110029515049924E-013  -2.0539125955565396E-015   4.3353378383084423E-002
   2.2153112677614217E-013   6.4205585292853584E-014   4.8337706255245201E-002
  -6.7997636474417152E-003   0.0000000000000000        2.8510239167395701E-002
  -6.8315577243143995E-003   1.4634053768094926E-004   3.3544937021771373E-002
  -6.8633518011870856E-003   3.2971927526261133E-004   3.8508391108761857E-002
  -6.8951458780597708E-003   5.5013621274498884E-004   4.3400601428367137E-002
  -6.9269399549324560E-003   8.0759135012807917E-004   4.8221567980587243E-002
  -1.3505259881396482E-002   0.0000000000000000        2.8701971324017035E-002
  -1.3647747416176435E-002   2.9268107539605261E-004   3.3847044201451723E-002
  -1.3790234950956388E-002   6.5943855056006112E-004   3.8841973930457074E-002
  -1.3932722485736342E-002   1.1002724254920299E-003   4.3686760511033075E-002
  -1.4075210020516286E-002   1.6151827001919528E-003   4.8381403943179746E-002
  -2.0116488701604495E-002   0.0000000000000000        2.9021524918419847E-002
  -2.0448569075335859E-002   4.3902161311115597E-004   3.4314011018780802E-002
  -2.0780649449067230E-002   9.8915782585751524E-004   3.9377454589668251E-002
  -2.1112729822798593E-002   1.6504086382390717E-003   4.4211855631082229E-002
  -2.1444810196529964E-002   2.4227740502558263E-003   4.8817214143022689E-002
  -2.6633450108065747E-002   0.0000000000000000        2.9468899950604147E-002
  -2.7234022701792683E-002   5.8536215082626020E-004   3.4945837473758602E-002
  -2.7834595295519619E-002   1.3188771011549607E-003   4.0114833086395414E-002
  -2.8435167889246559E-002   2.2005448509861119E-003   4.4975886788514580E-002
  -2.9035740482973495E-002   3.2303654003196999E-003   4.9528998580116099E-002
   2.2153112677614217E-013   6.4205585292853584E-014   4.8337706255245201E-002
   1.4867490918946125E-013   1.4757205873960899E-013   5.1509272434846959E-002
   7.5818691602780319E-014   2.3165844242889477E-013   5.4546055825763586E-002
   2.9633413778373807E-015   3.1647167525461484E-013   5.7448056427995053E-002
  -6.9893743570581535E-014   4.0201175721676918E-013   6.0215274241541369E-002
  -6.9269399549324560E-003   8.0759135012807917E-004   4.8221567980587243E-002
  -7.0326001653610313E-003   1.0621183119111834E-003   5.1179479352538637E-002
  -7.1382603757896039E-003   1.2737507225936287E-003   5.4060853092463709E-002
  -7.2439205862181747E-003   1.4424885821753936E-003   5.6865689200362536E-002
  -7.3495807966467500E-003   1.5683318906564853E-003   5.9593987676235048E-002
  -1.4075210020516286E-002   1.6151827001919528E-003   4.8381403943179746E-002
  -1.4228285284641720E-002   2.1242366236748265E-003   5.1082765956379332E-002
  -1.4381360548767149E-002   2.5475014449556060E-003   5.3765835494211503E-002
  -1.4534435812892578E-002   2.8849771640343191E-003   5.6430612556676231E-002
  -1.4687511077018012E-002   3.1366637809109449E-003   5.9077097143773544E-002
  -2.1444810196529964E-002   2.4227740502558263E-003   4.8817214143022689E-002
  -2.1587055357693397E-002   3.1863549354384469E-003   5.1219132246369092E-002
  -2.1729300518856815E-002   3.8212521673175867E-003   5.3661003031006925E-002
  -2.1871545680020230E-002   4.3274657458932360E-003   5.6142826496936193E-002
  -2.2013790841183659E-002   4.7049956711654115E-003   5.8664602644156898E-002
  -2.9035740482973495E-002   3.2303654003196999E-003   4.9528998580116099E-002
  -2.9108910384516049E-002   4.2484732472020791E-003   5.1588578222507911E-002
  -2.9182080286058600E-002   5.0950028896795466E-003   5.3746355702849989E-002
  -2.9255250187601153E-002   5.7699543277521647E-003   5.6002331021142410E-002
  -2.9328420089143711E-002   6.2733275614198711E-003   5.8356504177385103E-002
  -6.9893743570581535E-014   4.0201175721676918E-013   6.0215274241541369E-002
  -4.2961554452825013E-013   5.9122845508241539E-013   6.1114089120999568E-002
  -7.8933994757113268E-013   9.8707500506556300E-013   6.2155714628817103E-002
  -1.1490630495714083E-012   1.5894239049907277E-012   6.3340150764993969E-002
  -1.5087861515716838E-012   2.3983731667343022E-012   6.4667397529530171E-002
  -7.3495807966467500E-003   1.5683318906564853E-003   5.9593987676235048E-002
  -7.2202930595595786E-003   1.6646309870196052E-003   6.0482833244522069E-002
  -7.0910053224724004E-003   1.7447362102473753E-003   6.1487443659343527E-002
  -6.9617175853852221E-003   1.8086475603399316E-003   6.2607818920699512E-002
  -6.8324298482980456E-003   1.8563650372971224E-003   6.3843959028589914E-002
  -1.4687511077018012E-002   3.1366637809109449E-003   5.9077097143773544E-002
  -1.4455981384308795E-002   3.3292619734479507E-003   5.9939779527547518E-002
  -1.4224451691599589E-002   3.4894724195077432E-003   6.0891180976031065E-002
  -1.3992921998890382E-002   3.6172951190903834E-003   6.1931301489224183E-002
  -1.3761392306181175E-002   3.7127300721958092E-003   6.3060141067126929E-002
  -2.2013790841183659E-002   4.7049956711654115E-003   5.8664602644156898E-002
  -2.1707064974677285E-002   4.9938929598763050E-003   5.9484927970075901E-002
  -2.1400339108170907E-002   5.2342086287681050E-003   6.0366926578879605E-002
  -2.1093613241664529E-002   5.4259426778408629E-003   6.1310598470568023E-002
  -2.0786887375158151E-002   5.5690951070944995E-003   6.2315943645141252E-002
  -2.9328420089143711E-002   6.2733275614198711E-003   5.8356504177385103E-002
  -2.8973543830665024E-002   6.6585239463046661E-003   5.9118278572107226E-002
  -2.8618667572186354E-002   6.9789448380284513E-003   5.9914680467889225E-002
  -2.8263791313707681E-002   7.2345902365913671E-003   6.0745709864731087E-002
  -2.7908915055228994E-002   7.4254601419932176E-003   6.1611366762632819E-002
  -1.5087861515716838E-012   2.3983731667343022E-012   6.4667397529530171E-002
  -2.6247962137126990E-012   3.1248892362611969E-012   6.4894448431238663E-002
  -3.7408028064067622E-012   3.4798587622564270E-012   6.5262430926772863E-002
  -4.8568137359095154E-012   3.4631681203323161E-012   6.5771345016132743E-002
  -5.9728194612418406E-012   3.0749292001530648E-012   6.6421190699318289E-002
  -6.8324298482980456E-003   1.8563650372971224E-003   6.3843959028589914E-002
  -6.6820536309698132E-003   1.8850140533596335E-003   6.3972950419310254E-002
  -6.5316774136415781E-003   1.8917200207680222E-003   6.4261762653093385E-002
  -6.3813011963133413E-003   1.8764829395224751E-003   6.4710395729939307E-002
  -6.2309249789851105E-003   1.8393028096228281E-003   6.5318849649848076E-002
  -1.3761392306181175E-002   3.7127300721958092E-003   6.3060141067126929E-002
  -1.3441750621171599E-002   3.7700281035943639E-003   6.3069129898576673E-002
  -1.3122108936162028E-002   3.7834400380563505E-003   6.3256828822326264E-002
  -1.2802467251152453E-002   3.7529658755817955E-003   6.3623237838375771E-002
  -1.2482825566142882E-002   3.6786056161706715E-003   6.4168356946725139E-002
  -2.0786887375158151E-002   5.5690951070944995E-003   6.2315943645141252E-002
  -2.0279090973230166E-002   5.6550421538291151E-003   6.2182986869037865E-002
  -1.9771294571302153E-002   5.6751600553446519E-003   6.2247629434471430E-002
  -1.9263498169374151E-002   5.6294488116410534E-003   6.2509871341441967E-002
  -1.8755701767446158E-002   5.5179084227185288E-003   6.2969712589949475E-002
  -2.7908915055228994E-002   7.4254601419932176E-003   6.1611366762632819E-002
  -2.7194074687145478E-002   7.5400562040638178E-003   6.1314521330693789E-002
  -2.6479234319061955E-002   7.5668800726329186E-003   6.1234164489528842E-002
  -2.5764393950978431E-002   7.5059317477004141E-003   6.1370296239137943E-002
  -2.5049553582894912E-002   7.3572112292664138E-003   6.1722916579521170E-002
  -5.9728194612418406E-012   3.0749292001530648E-012   6.6421190699318289E-002
  -4.5906368983938961E-012   2.1202761768535083E-012   6.6233672234273594E-002
  -3.2084560702694276E-012   4.0452363680998360E-013   6.6250021092696260E-002
  -1.8262717726980071E-012  -2.0725053617720590E-012   6.6470237274586244E-002
  -4.4409267929701457E-013  -5.3107518382944363E-012   6.6894320779943728E-002
  -6.2309249789851105E-003   1.8393028096228281E-003   6.5318849649848076E-002
  -6.0293406633941593E-003   1.7900130081390797E-003   6.5106934413761586E-002
  -5.8277563478032202E-003   1.7384469121414364E-003   6.5094320482625215E-002
  -5.6261720322122706E-003   1.6846045216296381E-003   6.5281007856438977E-002
  -5.4245877166213298E-003   1.6284858366040489E-003   6.5666996535202860E-002
  -1.2482825566142882E-002   3.6786056161706715E-003   6.4168356946725139E-002
  -1.2084222954860471E-002   3.5800260141578694E-003   6.3929768645844140E-002
  -1.1685620343578054E-002   3.4768938238783145E-003   6.3885915631395951E-002
  -1.1287017732295634E-002   3.3692090453319185E-003   6.4036797903380502E-002
  -1.0888415121013224E-002   3.2569716785187941E-003   6.4382415461798015E-002
  -1.8755701767446158E-002   5.5179084227185288E-003   6.2969712589949475E-002
  -1.8164646878989561E-002   5.3700390201766382E-003   6.2702174930521201E-002
  -1.7573591990532964E-002   5.2153407356151822E-003   6.2624806539008343E-002
  -1.6982537102076360E-002   5.0538135690341860E-003   6.2737607415411123E-002
  -1.6391482213619774E-002   4.8854575204335116E-003   6.3040577559729361E-002
  -2.5049553582894912E-002   7.3572112292664138E-003   6.1722916579521170E-002
  -2.4270612435781422E-002   7.1600520261954487E-003   6.1424153267792686E-002
  -2.3491671288667949E-002   6.9537876473521609E-003   6.1310993205462516E-002
  -2.2712730141554473E-002   6.7384180927363840E-003   6.1383436392530535E-002
  -2.1933788994440980E-002   6.5139433623483400E-003   6.1641482828996896E-002
  -4.4409267929701457E-013  -5.3107518382944363E-012   6.6894320779943728E-002
   1.2835149609813357E-012  -8.3597573308225037E-012   6.6702693952007314E-002
   3.0111208665362099E-012  -1.0268591532636151E-011   6.6710333789779724E-002
   4.7387233026441322E-012  -1.1038121805473367E-011   6.6917240293261071E-002
   6.4663344123694344E-012  -1.0667522420959585E-011   6.7323413462451354E-002
  -5.4245877166213298E-003   1.6284858366040489E-003   6.5666996535202860E-002
  -5.2243860705326909E-003   1.5697618745060815E-003   6.5435597868458428E-002
  -5.0241844244440555E-003   1.5081036527774053E-003   6.5405335824727268E-002
  -4.8239827783554175E-003   1.4435111714183688E-003   6.5576210404009141E-002
  -4.6237811322667813E-003   1.3759844304287450E-003   6.5948221606304286E-002
  -1.0888415121013224E-002   3.2569716785187941E-003   6.4382415461798015E-002
  -1.0486141873259316E-002   3.1395237573718093E-003   6.4108310695475346E-002
  -1.0083868625505400E-002   3.0162073158237906E-003   6.4037212509470087E-002
  -9.6815953777514979E-003   2.8870223538748040E-003   6.4169120903782212E-002
  -9.2793221299975782E-003   2.7519688715249291E-003   6.4504035878411831E-002
  -1.6391482213619774E-002   4.8854575204335116E-003   6.3040577559729361E-002
  -1.5785267406896345E-002   4.7092856402373429E-003   6.2720832433058066E-002
  -1.5179052600172913E-002   4.5243109788701205E-003   6.2605963844008378E-002
  -1.4572837793449487E-002   4.3305335363312669E-003   6.2695971792580227E-002
  -1.3966622986726046E-002   4.1279533126211548E-003   6.2990856278773849E-002
  -2.1933788994440980E-002   6.5139433623483400E-003   6.1641482828996896E-002
  -2.1121762671443792E-002   6.2790475231033205E-003   6.1273163081206422E-002
  -2.0309736348446607E-002   6.0324146419162006E-003   6.1111589828341889E-002
  -1.9497710025449411E-002   5.7740447187877367E-003   6.1156763070403269E-002
  -1.8685683702452223E-002   5.5039377537173251E-003   6.1408682807390480E-002
   6.4663344123694344E-012  -1.0667522420959585E-011   6.7323413462451354E-002
   4.3253074732962915E-012  -8.2496509623553038E-012   6.7192363993599957E-002
   2.1842874731170525E-012  -2.8775593019503276E-012   6.7310879108970434E-002
   4.3262268767385592E-014   5.4493423662371754E-012   6.7678958808562867E-002
  -2.0977594661353294E-012   1.6730561380740028E-011   6.8296603092377228E-002
  -4.6237811322667813E-003   1.3759844304287450E-003   6.5948221606304286E-002
  -4.3818111969993589E-003   1.3060555849868372E-003   6.5776882658482000E-002
  -4.1398412617319313E-003   1.2342567902712265E-003   6.5839919001254729E-002
  -3.8978713264645063E-003   1.1605880462817186E-003   6.6137330634622460E-002
  -3.6559013911970743E-003   1.0850493530184524E-003   6.6669117558585012E-002
  -9.2793221299975782E-003   2.7519688715249291E-003   6.4504035878411831E-002
  -8.8105715509486961E-003   2.6121111782235612E-003   6.4290537499390399E-002
  -8.3418209718998035E-003   2.4685135834198874E-003   6.4296225117336916E-002
  -7.8730703928509213E-003   2.3211760871142025E-003   6.4521098732251370E-002
  -7.4043198138020305E-003   2.1700986893062602E-003   6.4965158344133953E-002
  -1.3966622986726046E-002   4.1279533126211548E-003   6.2990856278773849E-002
  -1.3286281057522706E-002   3.9181667714601395E-003   6.2733328516324946E-002
  -1.2605939128319334E-002   3.7027703765686384E-003   6.2679797457217065E-002
  -1.1925597199115979E-002   3.4817641279465770E-003   6.2830263101450110E-002
  -1.1245255269912623E-002   3.2551480255939985E-003   6.3184725449023996E-002
  -1.8685683702452223E-002   5.5039377537173251E-003   6.1408682807390480E-002
  -1.7808939716721373E-002   5.2242223646968289E-003   6.1105255709285766E-002
  -1.6932195730990529E-002   4.9370271697172785E-003   6.0990636020894995E-002
  -1.6055451745259682E-002   4.6423521687791042E-003   6.1064823742218194E-002
  -1.5178707759528828E-002   4.3401973618819034E-003   6.1327818873255391E-002
  -2.0977594661353294E-012   1.6730561380740028E-011   6.8296603092377228E-002
  -9.5191250715220832E-012   3.2029545682377147E-011   6.8418762949981282E-002
  -1.6940494146355789E-011   5.2409479533999104E-011   6.8855701080809212E-002
  -2.4361858017019067E-011   7.7870477427355311E-011   6.9607417484861531E-002
  -3.1783228826576249E-011   1.0841216813162191E-010   7.0673912162137809E-002
  -3.6559013911970743E-003   1.0850493530184524E-003   6.6669117558585012E-002
  -3.3637677428968969E-003   1.0085293573363630E-003   6.6676069439939090E-002
  -3.0716340945967247E-003   9.3191670609019117E-004   6.6952510359512302E-002
  -2.7795004462965638E-003   8.5521139928041584E-004   6.7498440317304245E-002
  -2.4873667979963682E-003   7.7841343690643328E-004   6.8313859313315017E-002
  -7.4043198138020305E-003   2.1700986893062602E-003   6.4965158344133953E-002
  -6.8653417447855228E-003   2.0170586826428194E-003   6.4856809588593661E-002
  -6.3263636757690160E-003   1.8638333597708404E-003   6.4972660636266777E-002
  -5.7873856067525153E-003   1.7104227206902693E-003   6.5312711487153924E-002
  -5.2484075377360155E-003   1.5568267654008094E-003   6.5876962141254769E-002
  -1.1245255269912623E-002   3.2551480255939985E-003   6.3184725449023996E-002
  -1.0504722015184993E-002   3.0255880079496228E-003   6.2960983395944414E-002
  -9.7641887604573933E-003   2.7957500134515763E-003   6.2916151911073040E-002
  -9.0236555057297847E-003   2.5656340421000541E-003   6.3050230994410206E-002
  -8.2831222510021361E-003   2.3352400938951301E-003   6.3363220645956245E-002
  -1.5178707759528828E-002   4.3401973618819034E-003   6.1327818873255391E-002
  -1.4281908554095328E-002   4.0341173332560376E-003   6.0988590861991598E-002
  -1.3385109348661824E-002   3.7276666671321318E-003   6.0782984183931105E-002
  -1.2488310143228312E-002   3.4208453635100715E-003   6.0710998839073951E-002
  -1.1591510937794813E-002   3.1136534223894508E-003   6.0772634827419791E-002
  -2.6633450108065747E-002   0.0000000000000000        2.9468899950604147E-002
  -2.7234022701792683E-002   5.8536215082626020E-004   3.4945837473758602E-002
  -2.7834595295519619E-002   1.3188771011549607E-003   4.0114833086395414E-002
  -2.8435167889246559E-002   2.2005448509861119E-003   4.4975886788514580E-002
  -2.9035740482973495E-002   3.2303654003196999E-003   4.9528998580116099E-002
  -3.3393277578003207E-002   0.0000000000000000        3.0178783042348462E-002
  -3.4236624934941770E-002   9.6015613793548615E-004   3.5266640277382889E-002
  -3.5079972291880333E-002   2.0236636869147596E-003   4.0176889896511692E-002
  -3.5923319648818904E-002   3.1905226469378205E-003   4.4909531899734879E-002
  -3.6766667005757460E-002   4.4607330180046756E-003   4.9464566287052453E-002
  -4.0733104588639817E-002   0.0000000000000000        3.1285860815431332E-002
  -4.1688892414177996E-002   1.3349501250447138E-003   3.5939836373887063E-002
  -4.2644680239716154E-002   2.7284502726745595E-003   4.0546538611049204E-002
  -4.3600468065254319E-002   4.1805004428895369E-003   4.5105967526917777E-002
  -4.4556255890792491E-002   5.6911006356896478E-003   4.9618123121492726E-002
  -4.8652931139975604E-002   0.0000000000000000        3.2790133269852750E-002
  -4.9590825139501339E-002   1.7097441121539394E-003   3.6965425763271144E-002
  -5.0528719139027081E-002   3.4332368584343593E-003   4.1223779230007973E-002
  -5.1466613138552823E-002   5.1704782388412550E-003   4.5565193670063224E-002
  -5.2404507138078558E-002   6.9214682533746182E-003   4.9989669083436952E-002
  -5.7152757232010541E-002   0.0000000000000000        3.4691600405612741E-002
  -5.7942423110911828E-002   2.0845380992631675E-003   3.8343408445535118E-002
  -5.8732088989813122E-002   4.1380234441941565E-003   4.2208611753387977E-002
  -5.9521754868714423E-002   6.1604560347929636E-003   4.6287210329171297E-002
  -6.0311420747615717E-002   8.1518358710595939E-003   5.0579204172885084E-002
  -2.9035740482973495E-002   3.2303654003196999E-003   4.9528998580116099E-002
  -2.9108910384516049E-002   4.2484732472020791E-003   5.1588578222507911E-002
  -2.9182080286058600E-002   5.0950028896795466E-003   5.3746355702849989E-002
  -2.9255250187601153E-002   5.7699543277521647E-003   5.6002331021142410E-002
  -2.9328420089143711E-002   6.2733275614198711E-003   5.8356504177385103E-002
  -3.6766667005757460E-002   4.4607330180046756E-003   4.9464566287052453E-002
  -3.6780449265964445E-002   5.6940525117203915E-003   5.1252317685503007E-002
  -3.6794231526171416E-002   6.7502388396900263E-003   5.3060646528674399E-002
  -3.6808013786378387E-002   7.6292920019136058E-003   5.4889552816566649E-002
  -3.6821796046585364E-002   8.3312119983911040E-003   5.6739036549179743E-002
  -4.4556255890792491E-002   5.6911006356896478E-003   4.9618123121492726E-002
  -4.4588270902893336E-002   7.1396317762386979E-003   5.1128491314660837E-002
  -4.4620285914994180E-002   8.4054747897004990E-003   5.2581816559320371E-002
  -4.4652300927095032E-002   9.4886296760750624E-003   5.3978098855471286E-002
  -4.4684315939195869E-002   1.0389096435362368E-002   5.5317338203113631E-002
  -5.2404507138078558E-002   6.9214682533746182E-003   4.9989669083436952E-002
  -5.2532375295302733E-002   8.5852110407570112E-003   5.1217099109981429E-002
  -5.2660243452526893E-002   1.0060710739710968E-002   5.2309865794787906E-002
  -5.2788111609751040E-002   1.1347967350236490E-002   5.3267969137856350E-002
  -5.2915979766975207E-002   1.2446980872333596E-002   5.4091409139186718E-002
  -6.0311420747615717E-002   8.1518358710595939E-003   5.0579204172885084E-002
  -6.0612762443192629E-002   1.0030790305275324E-002   5.1518141071464782E-002
  -6.0914104138769548E-002   1.1715946689721438E-002   5.2244794235077004E-002
  -6.1215445834346460E-002   1.3207305024397965E-002   5.2759163663721749E-002
  -6.1516787529923379E-002   1.4504865309304865E-002   5.3061249357399004E-002
  -2.9328420089143711E-002   6.2733275614198711E-003   5.8356504177385103E-002
  -2.8973543830665024E-002   6.6585239463046661E-003   5.9118278572107226E-002
  -2.8618667572186354E-002   6.9789448380284513E-003   5.9914680467889225E-002
  -2.8263791313707681E-002   7.2345902365913671E-003   6.0745709864731087E-002
  -2.7908915055228994E-002   7.4254601419932176E-003   6.1611366762632819E-002
  -3.6821796046585364E-002   8.3312119983911040E-003   5.6739036549179743E-002
  -3.6380417635223504E-002   8.8717377851356138E-003   5.7078326287115871E-002
  -3.5939039223861657E-002   9.2666083181600651E-003   5.7555992829758484E-002
  -3.5497660812499818E-002   9.5158235974644699E-003   5.8172036177107554E-002
  -3.5056282401137950E-002   9.6193836230489271E-003   5.8926456329163150E-002
  -4.4684315939195869E-002   1.0389096435362368E-002   5.5317338203113631E-002
  -4.4052686071304220E-002   1.1084951623966523E-002   5.5153263523704699E-002
  -4.3421056203412571E-002   1.1554271798291611E-002   5.5231314952648859E-002
  -4.2789426335520908E-002   1.1797056958337644E-002   5.5551492489946161E-002
  -4.2157796467629252E-002   1.1813307104104651E-002   5.6113796135596521E-002
  -5.2915979766975207E-002   1.2446980872333596E-002   5.4091409139186718E-002
  -5.1990349138907141E-002   1.3298165462797452E-002   5.3343090281873666E-002
  -5.1064718510839054E-002   1.3841935278423156E-002   5.2940646836560357E-002
  -5.0139087882770994E-002   1.4078290319210823E-002   5.2884078803246727E-002
  -4.9213457254702900E-002   1.4007230585160339E-002   5.3173386181932909E-002
  -6.1516787529923379E-002   1.4504865309304865E-002   5.3061249357399004E-002
  -6.0193406838032253E-002   1.5511379301628363E-002   5.1647806561622822E-002
  -5.8870026146141147E-002   1.6129598758554756E-002   5.0683988481492970E-002
  -5.7546645454250034E-002   1.6359523680083931E-002   5.0169795117009475E-002
  -5.6223264762358907E-002   1.6201154066216084E-002   5.0105226468172337E-002
  -2.7908915055228994E-002   7.4254601419932176E-003   6.1611366762632819E-002
  -2.7194074687145478E-002   7.5400562040638178E-003   6.1314521330693789E-002
  -2.6479234319061955E-002   7.5668800726329186E-003   6.1234164489528842E-002
  -2.5764393950978431E-002   7.5059317477004141E-003   6.1370296239137943E-002
  -2.5049553582894912E-002   7.3572112292664138E-003   6.1722916579521170E-002
  -3.5056282401137950E-002   9.6193836230489271E-003   5.8926456329163150E-002
  -3.4131326456487976E-002   9.6185404558443363E-003   5.8593629499754350E-002
  -3.3206370511837995E-002   9.5545461567816403E-003   5.8464545232704432E-002
  -3.2281414567188006E-002   9.4274007258608600E-003   5.8539203528013381E-002
  -3.1356458622538025E-002   9.2371041630819606E-003   5.8817604385681135E-002
  -4.2157796467629252E-002   1.1813307104104651E-002   5.6113796135596521E-002
  -4.1035470974828014E-002   1.1697024707624782E-002   5.5769608970361442E-002
  -3.9913145482026784E-002   1.1542212240930310E-002   5.5616418339069981E-002
  -3.8790819989225567E-002   1.1348869704021238E-002   5.5654224241722165E-002
  -3.7668494496424315E-002   1.1116997096897507E-002   5.5883026678317987E-002
  -4.9213457254702900E-002   1.4007230585160339E-002   5.3173386181932909E-002
  -4.7906508242165635E-002   1.3775508959405236E-002   5.2842459742514933E-002
  -4.6599559229628384E-002   1.3529878325079006E-002   5.2689783808625469E-002
  -4.5292610217091134E-002   1.3270338682181566E-002   5.2715358380264324E-002
  -4.3985661204553862E-002   1.2996890030713082E-002   5.2919183457431768E-002
  -5.6223264762358907E-002   1.6201154066216084E-002   5.0105226468172337E-002
  -5.4744438258500831E-002   1.5853993211185760E-002   4.9812181816215009E-002
  -5.3265611754642742E-002   1.5517544409227688E-002   4.9684641641370930E-002
  -5.1786785250784652E-002   1.5191807660342043E-002   4.9722605943640016E-002
  -5.0307958746926576E-002   1.4876782964528601E-002   4.9926074723022351E-002
  -2.5049553582894912E-002   7.3572112292664138E-003   6.1722916579521170E-002
  -2.4270612435781422E-002   7.1600520261954487E-003   6.1424153267792686E-002
  -2.3491671288667949E-002   6.9537876473521609E-003   6.1310993205462516E-002
  -2.2712730141554473E-002   6.7384180927363840E-003   6.1383436392530535E-002
  -2.1933788994440980E-002   6.5139433623483400E-003   6.1641482828996896E-002
  -3.1356458622538025E-002   9.2371041630819606E-003   5.8817604385681135E-002
  -3.0386245294407692E-002   9.0052286099842060E-003   5.8504823159052088E-002
  -2.9416031966277359E-002   8.7533462081069296E-003   5.8388983045058539E-002
  -2.8445818638147043E-002   8.4814569574500932E-003   5.8470084043700299E-002
  -2.7475605310016690E-002   8.1895608580135060E-003   5.8748126154977709E-002
  -3.7668494496424315E-002   1.1116997096897507E-002   5.5883026678317987E-002
  -3.6495671124039952E-002   1.0850405193773081E-002   5.5545325863781095E-002
  -3.5322847751655576E-002   1.0552904768861809E-002   5.5415904025116883E-002
  -3.4150024379271220E-002   1.0224495822163747E-002   5.5494761162325351E-002
  -3.2977201006886836E-002   9.8651783536787829E-003   5.5781897275406417E-002
  -4.3985661204553862E-002   1.2996890030713082E-002   5.2919183457431768E-002
  -4.2598889924678231E-002   1.2695581777561967E-002   5.2545661381979858E-002
  -4.1212118644802592E-002   1.2352463329616661E-002   5.2391756145637798E-002
  -3.9825347364926947E-002   1.1967534686877401E-002   5.2457467748405553E-002
  -3.8438576085051322E-002   1.1540795849343977E-002   5.2742796190283291E-002
  -5.0307958746926576E-002   1.4876782964528601E-002   4.9926074723022351E-002
  -4.8695901696322472E-002   1.4540758361350686E-002   4.9505829713648170E-002
  -4.7083844645718374E-002   1.4152021890371486E-002   4.9316539406620979E-002
  -4.5471787595114291E-002   1.3710573551591089E-002   4.9358203801940920E-002
  -4.3859730544510173E-002   1.3216413345009281E-002   4.9630822899607907E-002
  -2.1933788994440980E-002   6.5139433623483400E-003   6.1641482828996896E-002
  -2.1121762671443792E-002   6.2790475231033205E-003   6.1273163081206422E-002
  -2.0309736348446607E-002   6.0324146419162006E-003   6.1111589828341889E-002
  -1.9497710025449411E-002   5.7740447187877367E-003   6.1156763070403269E-002
  -1.8685683702452223E-002   5.5039377537173251E-003   6.1408682807390480E-002
  -2.7475605310016690E-002   8.1895608580135060E-003   5.8748126154977709E-002
  -2.6460632579517959E-002   7.8841823030966068E-003   5.8406879386407137E-002
  -2.5445659849019212E-002   7.5718456859985780E-003   5.8264778937913764E-002
  -2.4430687118520453E-002   7.2525510067194040E-003   5.8321824809497755E-002
  -2.3415714388021727E-002   6.9262982652590899E-003   5.8578017001158722E-002
  -3.2977201006886836E-002   9.8651783536787829E-003   5.5781897275406417E-002
  -3.1766882043735171E-002   9.4893170830900597E-003   5.5472502465816316E-002
  -3.0556563080583542E-002   9.1112767300809000E-003   5.5354653801454740E-002
  -2.9346244117431902E-002   8.7310572946510713E-003   5.5428351282321868E-002
  -2.8135925154280240E-002   8.3486587768007159E-003   5.5693594908417438E-002
  -3.8438576085051322E-002   1.1540795849343977E-002   5.2742796190283291E-002
  -3.7040511064095435E-002   1.1094451863083513E-002   5.2470032319434097E-002
  -3.5642446043139542E-002   1.0650707774163166E-002   5.2381214418964858E-002
  -3.4244381022183655E-002   1.0209563582582794E-002   5.2476342488875512E-002
  -3.2846316001227796E-002   9.7710192883423835E-003   5.2755416529166085E-002
  -4.3859730544510173E-002   1.3216413345009281E-002   4.9630822899607907E-002
  -4.2281519640598730E-002   1.2699586643076854E-002   4.9399468947260383E-002
  -4.0703308736687274E-002   1.2190138818245641E-002   4.9344460790444078E-002
  -3.9125097832775825E-002   1.1688069870514389E-002   4.9465798429159089E-002
  -3.7546886928864362E-002   1.1193379799884051E-002   4.9763481863405234E-002
  -1.8685683702452223E-002   5.5039377537173251E-003   6.1408682807390480E-002
  -1.7808939716721373E-002   5.2242223646968289E-003   6.1105255709285766E-002
  -1.6932195730990529E-002   4.9370271697172785E-003   6.0990636020894995E-002
  -1.6055451745259682E-002   4.6423521687791042E-003   6.1064823742218194E-002
  -1.5178707759528828E-002   4.3401973618819034E-003   6.1327818873255391E-002
  -2.3415714388021727E-002   6.9262982652590899E-003   5.8578017001158722E-002
  -2.2349223461892359E-002   6.5910879103746878E-003   5.8276130867736670E-002
  -2.1282732535763030E-002   6.2449203908233747E-003   5.8164931205397397E-002
  -2.0216241609633690E-002   5.8877957066050292E-003   5.8244418014141278E-002
  -1.9149750683504326E-002   5.5197138577195992E-003   5.8514591293968243E-002
  -2.8135925154280240E-002   8.3486587768007159E-003   5.5693594908417438E-002
  -2.6877808226383377E-002   7.9579534560525189E-003   5.5389772380969565E-002
  -2.5619691298486503E-002   7.5528136119292488E-003   5.5278515385973975E-002
  -2.4361574370589625E-002   7.1332392444307877E-003   5.5359823923430293E-002
  -2.3103457442692737E-002   6.6992303535573228E-003   5.5633697993338824E-002
  -3.2846316001227796E-002   9.7710192883423835E-003   5.2755416529166085E-002
  -3.1394694010194374E-002   9.3248190017302807E-003   5.2446180248984786E-002
  -2.9943072019160931E-002   8.8607068330352895E-003   5.2331388562624460E-002
  -2.8491450028127498E-002   8.3786827822567959E-003   5.2411041470085185E-002
  -2.7039828037094066E-002   7.8787468493950324E-003   5.2685138971367021E-002
  -3.7546886928864362E-002   1.1193379799884051E-002   4.9763481863405234E-002
  -3.5899880813325347E-002   1.0691684547408209E-002   4.9445354471782110E-002
  -3.4252874697786338E-002   1.0168600054141247E-002   4.9323550735349025E-002
  -3.2605868582247316E-002   9.6241263200826446E-003   4.9398070654105952E-002
  -3.0958862466708301E-002   9.0582633452327976E-003   4.9668914228053029E-002
  -1.5178707759528828E-002   4.3401973618819034E-003   6.1327818873255391E-002
  -1.4281908554095328E-002   4.0341173332560376E-003   6.0988590861991598E-002
  -1.3385109348661824E-002   3.7276666671321318E-003   6.0782984183931105E-002
  -1.2488310143228312E-002   3.4208453635100715E-003   6.0710998839073951E-002
  -1.1591510937794813E-002   3.1136534223894508E-003   6.0772634827419791E-002
  -1.9149750683504326E-002   5.5197138577195992E-003   5.8514591293968243E-002
  -1.8110080642438710E-002   5.1491874730074660E-003   5.8204797677677833E-002
  -1.7070410601373071E-002   4.7847291813088721E-003   5.8047124399448480E-002
  -1.6030740560307431E-002   4.4263389826236163E-003   5.8041571459280419E-002
  -1.4991070519241832E-002   4.0740168769519691E-003   5.8188138857172889E-002
  -2.3103457442692737E-002   6.6992303535573228E-003   5.5633697993338824E-002
  -2.1902417561137300E-002   6.2642576127588112E-003   5.5359777502533625E-002
  -2.0701377679581849E-002   5.8417916954856750E-003   5.5256476354647303E-002
  -1.9500337798026436E-002   5.4318326017374127E-003   5.5323794549679506E-002
  -1.8299297916470957E-002   5.0343803315144875E-003   5.5561732087630378E-002
  -2.7039828037094066E-002   7.8787468493950324E-003   5.2685138971367021E-002
  -2.5658919310191163E-002   7.3793277525102535E-003   5.2453530336558842E-002
  -2.4278010583288219E-002   6.8988542096624465E-003   5.2411040049527076E-002
  -2.2897101856385257E-002   6.4373262208512498E-003   5.2557668110271898E-002
  -2.1516193129482376E-002   5.9947437860770059E-003   5.2893414518792370E-002
  -3.0958862466708301E-002   9.0582633452327976E-003   4.9668914228053029E-002
  -2.9379585889600199E-002   8.4943978922615293E-003   4.9486056179753601E-002
  -2.7800309312492104E-002   7.9559167238391765E-003   4.9510815484088228E-002
  -2.6221032735384012E-002   7.4428198399649100E-003   4.9743192141056672E-002
  -2.4641756158275907E-002   6.9551072406395242E-003   5.0183186150659420E-002
  -5.7152757232010541E-002   0.0000000000000000        3.4691600405612741E-002
  -5.7942423110911828E-002   2.0845380992631675E-003   3.8343408445535118E-002
  -5.8732088989813122E-002   4.1380234441941565E-003   4.2208611753387977E-002
  -5.9521754868714423E-002   6.1604560347929636E-003   4.6287210329171297E-002
  -6.0311420747615717E-002   8.1518358710595939E-003   5.0579204172885084E-002
  -6.5820741935593507E-002   0.0000000000000000        3.7213274566613538E-002
  -6.6626003659805241E-002   2.9144691189843756E-003   4.0835432707144063E-002
  -6.7431265384016975E-002   5.7713087847927978E-003   4.4213003889123234E-002
  -6.8236527108228737E-002   8.5705189974252735E-003   4.7345988112551030E-002
  -6.9041788832440470E-002   1.1312099756881798E-002   5.0234385377427471E-002
  -7.4245044321573347E-002   0.0000000000000000        4.0578168096757433E-002
  -7.5523884117577378E-002   3.7444001387055810E-003   4.4144099639052331E-002
  -7.6802723913581394E-002   7.4045941253914399E-003   4.7007461996314025E-002
  -7.8081563709585397E-002   1.0980581960057582E-002   4.9168255168542521E-002
  -7.9360403505589441E-002   1.4472363642704010E-002   5.0626479155737841E-002
  -8.2425664389950082E-002   0.0000000000000000        4.4786280996044425E-002
  -8.4636064484228210E-002   4.5743311584267882E-003   4.8269409241259907E-002
  -8.6846464578506324E-002   9.0378794659900855E-003   5.0591986074960377E-002
  -8.9056864672784466E-002   1.3390644922689895E-002   5.1754011497145834E-002
  -9.1267264767062595E-002   1.7632627528526214E-002   5.1755485507816244E-002
  -9.0362602140723697E-002   0.0000000000000000        4.9837613264474501E-002
  -9.3962544759757752E-002   5.4042621781479946E-003   5.3211361513766813E-002
  -9.7562487378791835E-002   1.0671164806588723E-002   5.4966576125062276E-002
 -0.10116242999782590        1.5800707885322202E-002   5.5103257098360899E-002
 -0.10476237261685996        2.0792891414348428E-002   5.3621404433662659E-002
  -6.0311420747615717E-002   8.1518358710595939E-003   5.0579204172885084E-002
  -6.0612762443192629E-002   1.0030790305275324E-002   5.1518141071464782E-002
  -6.0914104138769548E-002   1.1715946689721438E-002   5.2244794235077004E-002
  -6.1215445834346460E-002   1.3207305024397965E-002   5.2759163663721749E-002
  -6.1516787529923379E-002   1.4504865309304865E-002   5.3061249357399004E-002
  -6.9041788832440470E-002   1.1312099756881798E-002   5.0234385377427471E-002
  -6.9317704526671672E-002   1.3756729551765635E-002   4.9457750161126621E-002
  -6.9593620220902916E-002   1.5665086870680037E-002   4.8944250682484647E-002
  -6.9869535915134146E-002   1.7037171713624989E-002   4.8693886941501584E-002
  -7.0145451609365347E-002   1.7872984080600507E-002   4.8706658938177369E-002
  -7.9360403505589441E-002   1.4472363642704010E-002   5.0626479155737841E-002
  -7.9135473725848587E-002   1.7482668798255937E-002   4.7791797398356636E-002
  -7.8910543946107747E-002   1.9614227051638615E-002   4.5695670851260653E-002
  -7.8685614166366893E-002   2.0867038402852024E-002   4.4338099514449940E-002
  -7.8460684386626053E-002   2.1241102851896176E-002   4.3719083387924448E-002
  -9.1267264767062595E-002   1.7632627528526214E-002   5.1755485507816244E-002
  -9.0066070040723339E-002   2.1208608044746228E-002   4.6520282783154850E-002
  -8.8864875314384084E-002   2.3563367232597193E-002   4.2499054741405043E-002
  -8.7663680588044829E-002   2.4696905092079047E-002   3.9691801382566824E-002
  -8.6462485861705546E-002   2.4609221623191832E-002   3.8098522706640242E-002
 -0.10476237261685996        2.0792891414348428E-002   5.3621404433662659E-002
 -0.10210949347129591        2.4934547291236550E-002   4.5643206315521226E-002
  -9.9456614325731885E-002   2.7512507413555789E-002   3.9354402352917782E-002
  -9.6803735180167827E-002   2.8526771781306092E-002   3.4754992545852272E-002
  -9.4150856034603811E-002   2.7977340394487495E-002   3.1844976894324716E-002
  -6.1516787529923379E-002   1.4504865309304865E-002   5.3061249357399004E-002
  -6.0193406838032253E-002   1.5511379301628363E-002   5.1647806561622822E-002
  -5.8870026146141147E-002   1.6129598758554756E-002   5.0683988481492970E-002
  -5.7546645454250034E-002   1.6359523680083931E-002   5.0169795117009475E-002
  -5.6223264762358907E-002   1.6201154066216084E-002   5.0105226468172337E-002
  -7.0145451609365347E-002   1.7872984080600507E-002   4.8706658938177369E-002
  -6.8418126050143011E-002   1.8329396403718966E-002   4.7255556522696342E-002
  -6.6690800490920688E-002   1.8563281115092787E-002   4.6162719126231461E-002
  -6.4963474931698351E-002   1.8574638214721870E-002   4.5428146748782566E-002
  -6.3236149372476014E-002   1.8363467702606287E-002   4.5051839390349832E-002
  -7.8460684386626053E-002   2.1241102851896176E-002   4.3719083387924448E-002
  -7.6420773656702801E-002   2.1147413505809586E-002   4.2396088276391103E-002
  -7.4380862926779506E-002   2.0996963471630763E-002   4.1339998487243533E-002
  -7.2340952196856226E-002   2.0789752749359743E-002   4.0550814020481801E-002
  -7.0301041466932945E-002   2.0525781338996490E-002   4.0028534876105873E-002
  -8.6462485861705546E-002   2.4609221623191832E-002   3.8098522706640242E-002
  -8.4201349657711574E-002   2.3965430607900188E-002   3.7069401822707015E-002
  -8.1940213453717672E-002   2.3430645828168773E-002   3.6215826564529298E-002
  -7.9679077249723715E-002   2.3004867283997647E-002   3.5537796932107089E-002
  -7.7417941045729771E-002   2.2688094975386694E-002   3.5035312925440487E-002
  -9.4150856034603811E-002   2.7977340394487495E-002   3.1844976894324716E-002
  -9.1759854053169429E-002   2.6783447709990797E-002   3.1275497161644017E-002
  -8.9368852071735089E-002   2.5864328184706777E-002   3.0790203358088634E-002
  -8.6977850090300748E-002   2.5219981818635526E-002   3.0389095483658514E-002
  -8.4586848108866380E-002   2.4850408611776925E-002   3.0072173538353675E-002
  -5.6223264762358907E-002   1.6201154066216084E-002   5.0105226468172337E-002
  -5.4744438258500831E-002   1.5853993211185760E-002   4.9812181816215009E-002
  -5.3265611754642742E-002   1.5517544409227688E-002   4.9684641641370930E-002
  -5.1786785250784652E-002   1.5191807660342043E-002   4.9722605943640016E-002
  -5.0307958746926576E-002   1.4876782964528601E-002   4.9926074723022351E-002
  -6.3236149372476014E-002   1.8363467702606287E-002   4.5051839390349832E-002
  -6.1577194893145712E-002   1.8024581253817624E-002   4.4710314648147072E-002
  -5.9918240413815424E-002   1.7652790543427447E-002   4.4563541379775494E-002
  -5.8259285934485115E-002   1.7248095571435751E-002   4.4611519585235140E-002
  -5.6600331455154848E-002   1.6810496337842512E-002   4.4854249264525942E-002
  -7.0301041466932945E-002   2.0525781338996490E-002   4.0028534876105873E-002
  -6.8432712015412470E-002   2.0195169296449496E-002   3.9594913728983869E-002
  -6.6564382563892008E-002   1.9788036677627123E-002   3.9385291052411016E-002
  -6.4696053112371546E-002   1.9304383482529462E-002   3.9399666846387377E-002
  -6.2827723660851070E-002   1.8744209711156451E-002   3.9638041110912875E-002
  -7.7417941045729771E-002   2.2688094975386694E-002   3.5035312925440487E-002
  -7.5310989625301097E-002   2.2365757339081280E-002   3.4465979058725352E-002
  -7.3204038204872451E-002   2.1923282811826827E-002   3.4149890659277468E-002
  -7.1097086784443778E-002   2.1360671393623170E-002   3.4087047727096670E-002
  -6.8990135364015159E-002   2.0677923084470376E-002   3.4277450262183005E-002
  -8.4586848108866380E-002   2.4850408611776925E-002   3.0072173538353675E-002
  -8.2212027722811581E-002   2.4536345381713245E-002   2.9323510637371666E-002
  -7.9837207336756769E-002   2.4058528946026544E-002   2.8857340200374781E-002
  -7.7462386950701984E-002   2.3416959304716860E-002   2.8673662227363138E-002
  -7.5087566564647185E-002   2.2611636457784273E-002   2.8772476718336520E-002
  -5.0307958746926576E-002   1.4876782964528601E-002   4.9926074723022351E-002
  -4.8695901696322472E-002   1.4540758361350686E-002   4.9505829713648170E-002
  -4.7083844645718374E-002   1.4152021890371486E-002   4.9316539406620979E-002
  -4.5471787595114291E-002   1.3710573551591089E-002   4.9358203801940920E-002
  -4.3859730544510173E-002   1.3216413345009281E-002   4.9630822899607907E-002
  -5.6600331455154848E-002   1.6810496337842512E-002   4.4854249264525942E-002
  -5.4766857834770970E-002   1.6344333797184210E-002   4.4450979514951430E-002
  -5.2933384214387119E-002   1.5853948903996933E-002   4.4259588202589378E-002
  -5.1099910594003248E-002   1.5339341658280851E-002   4.4280075327439807E-002
  -4.9266436973619390E-002   1.4800512060035798E-002   4.4512440889502625E-002
  -6.2827723660851070E-002   1.8744209711156451E-002   3.9638041110912875E-002
  -6.0791909735822033E-002   1.8147909233017637E-002   3.9280236136410511E-002
  -5.8756095810793010E-002   1.7555875917622268E-002   3.9115233333985991E-002
  -5.6720281885763953E-002   1.6968109764970585E-002   3.9143032703639363E-002
  -5.4684467960734943E-002   1.6384610775062397E-002   3.9363634245370580E-002
  -6.8990135364015159E-002   2.0677923084470376E-002   3.4277450262183005E-002
  -6.6771057399475559E-002   1.9951484668851029E-002   3.3993599578025245E-002
  -6.4551979434935944E-002   1.9257802931247632E-002   3.3883474800810692E-002
  -6.2332901470396350E-002   1.8596877871660332E-002   3.3947075930539403E-002
  -6.0113823505856728E-002   1.7968709490089010E-002   3.4184402967211439E-002
  -7.5087566564647185E-002   2.2611636457784273E-002   2.8772476718336520E-002
  -7.2704300825731621E-002   2.1755060104684462E-002   2.8591069839795674E-002
  -7.0321035086816031E-002   2.0959729944873044E-002   2.8564312603063621E-002
  -6.7937769347900467E-002   2.0225645978350137E-002   2.8692205008140230E-002
  -6.5554503608984904E-002   1.9552808205115568E-002   2.8974747055025396E-002
  -4.3859730544510173E-002   1.3216413345009281E-002   4.9630822899607907E-002
  -4.2281519640598730E-002   1.2699586643076854E-002   4.9399468947260383E-002
  -4.0703308736687274E-002   1.2190138818245641E-002   4.9344460790444078E-002
  -3.9125097832775825E-002   1.1688069870514389E-002   4.9465798429159089E-002
  -3.7546886928864362E-002   1.1193379799884051E-002   4.9763481863405234E-002
  -4.9266436973619390E-002   1.4800512060035798E-002   4.4512440889502625E-002
  -4.7511305872424428E-002   1.4247655376406820E-002   4.4272110310331736E-002
  -4.5756174771229459E-002   1.3690966874538357E-002   4.4209274330196641E-002
  -4.4001043670034518E-002   1.3130446554430616E-002   4.4323932949097311E-002
  -4.2245912568839535E-002   1.2566094416083806E-002   4.4616086167033719E-002
  -5.4684467960734943E-002   1.6384610775062397E-002   3.9363634245370580E-002
  -5.2751267858751928E-002   1.5795724109736425E-002   3.9103116344036348E-002
  -5.0818067756768892E-002   1.5191794930831413E-002   3.9021241845242506E-002
  -4.8884867654785870E-002   1.4572823238346957E-002   3.9118010748988907E-002
  -4.6951667552802848E-002   1.3938809032283478E-002   3.9393423055275684E-002
  -6.0113823505856728E-002   1.7968709490089010E-002   3.4184402967211439E-002
  -5.8001405599581154E-002   1.7343792843066155E-002   3.3892487048374026E-002
  -5.5888987693305539E-002   1.6692622987124300E-002   3.3780363335581612E-002
  -5.3776569787029958E-002   1.6015199922263353E-002   3.3848031828834009E-002
  -5.1664151880754350E-002   1.5311523648483275E-002   3.4095492528131106E-002
  -6.5554503608984904E-002   1.9552808205115568E-002   2.8974747055025396E-002
  -6.3261719094912183E-002   1.8891861576395969E-002   2.8640222423344935E-002
  -6.0968934580839462E-002   1.8193451043417214E-002   2.8486638801214020E-002
  -5.8676150066766741E-002   1.7457576606179449E-002   2.8513996188632387E-002
  -5.6383365552693993E-002   1.6684238264682905E-002   2.8722294585600161E-002
  -3.7546886928864362E-002   1.1193379799884051E-002   4.9763481863405234E-002
  -3.5899880813325347E-002   1.0691684547408209E-002   4.9445354471782110E-002
  -3.4252874697786338E-002   1.0168600054141247E-002   4.9323550735349025E-002
  -3.2605868582247316E-002   9.6241263200826446E-003   4.9398070654105952E-002
  -3.0958862466708301E-002   9.0582633452327976E-003   4.9668914228053029E-002
  -4.2245912568839535E-002   1.2566094416083806E-002   4.4616086167033719E-002
  -4.0402952100515734E-002   1.1995108874275823E-002   4.4275448014279989E-002
  -3.8559991632191967E-002   1.1414688343785201E-002   4.4130394911905901E-002
  -3.6717031163868152E-002   1.0824832824612100E-002   4.4180926859911138E-002
  -3.4874070695544407E-002   1.0225542316756264E-002   4.4427043858295823E-002
  -4.6951667552802848E-002   1.3938809032283478E-002   3.9393423055275684E-002
  -4.4913491336504900E-002   1.3298533201143437E-002   3.9042228393500314E-002
  -4.2875315120207001E-002   1.2660776633429474E-002   3.8885880177293622E-002
  -4.0837138903909054E-002   1.2025539329141608E-002   3.8924378406655871E-002
  -3.8798962687611099E-002   1.1392821288279703E-002   3.9157723081586895E-002
  -5.1664151880754350E-002   1.5311523648483275E-002   3.4095492528131106E-002
  -4.9431498521292902E-002   1.4601957528011023E-002   3.3745695609442586E-002
  -4.7198845161831510E-002   1.3906864923073588E-002   3.3590006531512395E-002
  -4.4966191802370048E-002   1.3226245833671034E-002   3.3628425294340347E-002
  -4.2733538442908663E-002   1.2560100259803156E-002   3.3860951897926345E-002
  -5.6383365552693993E-002   1.6684238264682905E-002   2.8722294585600161E-002
  -5.3956973654879753E-002   1.5905381854878664E-002   2.8385849662107332E-002
  -5.1530581757065430E-002   1.5152953212717854E-002   2.8242773974562041E-002
  -4.9104189859251149E-002   1.4426952338200499E-002   2.8293067522964302E-002
  -4.6677797961436868E-002   1.3727379231326553E-002   2.8536730307314129E-002
  -3.0958862466708301E-002   9.0582633452327976E-003   4.9668914228053029E-002
  -2.9379585889600199E-002   8.4943978922615293E-003   4.9486056179753601E-002
  -2.7800309312492104E-002   7.9559167238391765E-003   4.9510815484088228E-002
  -2.6221032735384012E-002   7.4428198399649100E-003   4.9743192141056672E-002
  -2.4641756158275907E-002   6.9551072406395242E-003   5.0183186150659420E-002
  -3.4874070695544407E-002   1.0225542316756264E-002   4.4427043858295823E-002
  -3.3097033637425548E-002   9.5914487416385585E-003   4.4207251744496162E-002
  -3.1319996579306737E-002   8.8971840206800989E-003   4.4175363240083809E-002
  -2.9542959521188048E-002   8.1427481538804761E-003   4.4331378345059000E-002
  -2.7765922463069054E-002   7.3281411412398079E-003   4.4675297059421415E-002
  -3.8798962687611099E-002   1.1392821288279703E-002   3.9157723081586895E-002
  -3.6843878891728271E-002   1.0688499591015671E-002   3.8815441471897361E-002
  -3.4888795095845401E-002   9.8384513175211255E-003   3.8641349728348658E-002
  -3.2933711299962531E-002   8.8426764677959849E-003   3.8635447850940627E-002
  -3.0978627504079675E-002   7.7011750418402025E-003   3.8797735839673497E-002
  -4.2733538442908663E-002   1.2560100259803156E-002   3.3860951897926345E-002
  -4.0620121652508313E-002   1.1785550440392908E-002   3.3310625361957509E-002
  -3.8506704862107985E-002   1.0779718614362211E-002   3.2908774948882932E-002
  -3.6393288071707754E-002   9.5426047817114105E-003   3.2655400658702066E-002
  -3.4279871281307425E-002   8.0742089424405972E-003   3.2550502491415848E-002
  -4.6677797961436868E-002   1.3727379231326553E-002   2.8536730307314129E-002
  -4.4425761919765716E-002   1.2882601289769757E-002   2.7692803414676281E-002
  -4.2173725878094578E-002   1.1720985911203116E-002   2.6977638901685946E-002
  -3.9921689836423517E-002   1.0242533095626987E-002   2.6391236768343138E-002
  -3.7669653794752345E-002   8.4472428430408808E-003   2.5933597014647924E-002
  -9.0362602140723697E-002   0.0000000000000000        4.9837613264474501E-002
  -9.3962544759757752E-002   5.4042621781479946E-003   5.3211361513766813E-002
  -9.7562487378791835E-002   1.0671164806588723E-002   5.4966576125062276E-002
 -0.10116242999782590        1.5800707885322202E-002   5.5103257098360899E-002
 -0.10476237261685996        2.0792891414348428E-002   5.3621404433662659E-002
 -0.10329424041266462        0.0000000000000000        5.8665388452147249E-002
 -0.10683113491953862        1.0884380476937489E-002   5.2120727371398737E-002
 -0.11036802942641258        1.9172305063062209E-002   4.7320696152967252E-002
 -0.11390492393328656        2.4863773758374140E-002   4.4265294796852803E-002
 -0.11744181844016054        2.7958786562873303E-002   4.2954523303055422E-002
 -0.12645896204454332        0.0000000000000000        7.4202830109162274E-002
 -0.12656964493894335        1.6364498775726995E-002   5.5280663357267390E-002
 -0.12668032783334332        2.7673445319535684E-002   4.1466289968003431E-002
 -0.12679101072774332        3.3926839631426065E-002   3.2759709941370396E-002
 -0.12690169362214332        3.5124681711398174E-002   2.9160923277368290E-002
 -0.15985676703635979        0.0000000000000000        9.6449938235519547E-002
 -0.15317807481797191        2.1844617074516497E-002   6.2691169471372793E-002
 -0.14649938259958409        3.6174585576009173E-002   3.7403357570170832E-002
 -0.13982069038119618        4.2989905504478031E-002   2.0586502531913724E-002
 -0.13314199816280831        4.2290576859923060E-002   1.2240604356601391E-002
 -0.20348765538811400        0.0000000000000000       0.12540671283121907     
 -0.18665642455662440        2.7324735373305993E-002   7.4352245713714918E-002
 -0.16982519372513474        4.4675725832482645E-002   3.5131898959469464E-002
 -0.15299396289364514        5.2052971377529941E-002   7.7456725684827282E-003
 -0.13616273206215551        4.9456472008447924E-002  -7.8064334592453169E-003
 -0.10476237261685996        2.0792891414348428E-002   5.3621404433662659E-002
 -0.10210949347129591        2.4934547291236550E-002   4.5643206315521226E-002
  -9.9456614325731885E-002   2.7512507413555789E-002   3.9354402352917782E-002
  -9.6803735180167827E-002   2.8526771781306092E-002   3.4754992545852272E-002
  -9.4150856034603811E-002   2.7977340394487495E-002   3.1844976894324716E-002
 -0.11744181844016054        2.7958786562873303E-002   4.2954523303055422E-002
 -0.11348743842117889        2.9431368369182781E-002   3.6701951614043660E-002
 -0.10953305840219722        3.0255544069925672E-002   3.1362987516329190E-002
 -0.10557867838321558        3.0431313665102003E-002   2.6937631009911978E-002
 -0.10162429836423392        2.9958677154711746E-002   2.3425882094792065E-002
 -0.12690169362214332        3.5124681711398174E-002   2.9160923277368290E-002
 -0.12242159929398473        3.3928189447128991E-002   2.5549267666488591E-002
 -0.11794150496582619        3.2998580726295572E-002   2.2075433082665501E-002
 -0.11346141063766763        3.2335855548897924E-002   1.8739419525898911E-002
 -0.10898131630950908        3.1940013914936033E-002   1.5541226996188944E-002
 -0.13314199816280831        4.2290576859923060E-002   1.2240604356601391E-002
 -0.12891197608971353        3.8425010525075222E-002   1.2185154472856055E-002
 -0.12468195401661875        3.5741617382665479E-002   1.1491739051926608E-002
 -0.12045193194352397        3.4240397432693900E-002   1.0160358093813004E-002
 -0.11622190987042916        3.3921350675160299E-002   8.1910115985152996E-003
 -0.13616273206215551        4.9456472008447924E-002  -7.8064334592453169E-003
 -0.13295856880836521        4.2921831603021460E-002  -3.3903879668540048E-003
 -0.12975440555457493        3.8484654039035331E-002  -3.8809457588742137E-004
 -0.12655024230078463        3.6144939316489773E-002   1.2004467136541796E-003
 -0.12334607904699435        3.5902687435384550E-002   1.3752359017711602E-003
  -9.4150856034603811E-002   2.7977340394487495E-002   3.1844976894324716E-002
  -9.1759854053169429E-002   2.6783447709990797E-002   3.1275497161644017E-002
  -8.9368852071735089E-002   2.5864328184706777E-002   3.0790203358088634E-002
  -8.6977850090300748E-002   2.5219981818635526E-002   3.0389095483658514E-002
  -8.4586848108866380E-002   2.4850408611776925E-002   3.0072173538353675E-002
 -0.10162429836423392        2.9958677154711746E-002   2.3425882094792065E-002
  -9.9135667892520415E-002   2.9187618845953757E-002   2.3149437141642165E-002
  -9.6647037420806936E-002   2.8468123046026923E-002   2.2984063239925284E-002
  -9.4158406949093471E-002   2.7800189754931169E-002   2.2929760389641410E-002
  -9.1669776477379949E-002   2.7183818972666515E-002   2.2986528590790534E-002
 -0.10898131630950908        3.1940013914936033E-002   1.5541226996188944E-002
 -0.10636817222520871        3.1591789981916751E-002   1.5334606172188184E-002
 -0.10375502814090834        3.1071917907347053E-002   1.5265941521928273E-002
 -0.10114188405660797        3.0380397691226871E-002   1.5335233045409001E-002
  -9.8528739972307572E-002   2.9517229333556175E-002   1.5542480742630503E-002
 -0.11622190987042916        3.3921350675160299E-002   8.1910115985152996E-003
 -0.11345736705123424        3.3995961117879725E-002   7.8310042532821807E-003
 -0.11069282423203927        3.3675712768667217E-002   7.6358382040975581E-003
 -0.10792828141284426        3.2960605627522517E-002   7.6055134509613936E-003
 -0.10516373859364934        3.1850639694445772E-002   7.7400299938737063E-003
 -0.12334607904699435        3.5902687435384550E-002   1.3752359017711602E-003
 -0.12040325237059701        3.6400132253842726E-002   6.3863138492414873E-004
 -0.11746042569419970        3.6279507629987315E-002   9.3753286433163885E-005
 -0.11451759901780241        3.5540813563818274E-002  -2.5939839370144567E-004
 -0.11157477234140506        3.4184050055335424E-002  -4.2082365547990719E-004
  -8.4586848108866380E-002   2.4850408611776925E-002   3.0072173538353675E-002
  -8.2212027722811581E-002   2.4536345381713245E-002   2.9323510637371666E-002
  -7.9837207336756769E-002   2.4058528946026544E-002   2.8857340200374781E-002
  -7.7462386950701984E-002   2.3416959304716860E-002   2.8673662227363138E-002
  -7.5087566564647185E-002   2.2611636457784273E-002   2.8772476718336520E-002
  -9.1669776477379949E-002   2.7183818972666515E-002   2.2986528590790534E-002
  -8.9040146711059559E-002   2.6567837591428091E-002   2.2326879023474085E-002
  -8.6410516944739169E-002   2.5901072503410980E-002   2.1894355752703674E-002
  -8.3780887178418778E-002   2.5183523708615069E-002   2.1688958778479397E-002
  -8.1151257412098360E-002   2.4415191207040443E-002   2.1710688100801109E-002
  -9.8528739972307572E-002   2.9517229333556175E-002   1.5542480742630503E-002
  -9.5699666993160681E-002   2.8599329801143082E-002   1.5084814007823837E-002
  -9.2870594014013763E-002   2.7743616060795444E-002   1.4798907402124185E-002
  -9.0041521034866859E-002   2.6950088112513197E-002   1.4684760925531528E-002
  -8.7212448055719927E-002   2.6218745956296627E-002   1.4742374578045746E-002
 -0.10516373859364934        3.1850639694445772E-002   7.7400299938737063E-003
 -0.10219058856911493        3.0630822010858001E-002   7.5973155904210778E-003
  -9.9217438544580580E-002   2.9586159618179810E-002   7.5709951486361525E-003
  -9.6244288520046226E-002   2.8716652516411475E-002   7.6610686685194699E-003
  -9.3271138495511857E-002   2.8022300705552748E-002   7.8675361500704557E-003
 -0.11157477234140506        3.4184050055335424E-002  -4.2082365547990719E-004
 -0.10851291143892239        3.2662314220572891E-002  -1.3561622873425883E-004
 -0.10545105053643963        3.1428703175564301E-002   2.1061899224004976E-004
 -0.10238918963395695        3.0483216920309520E-002   6.1788200744330654E-004
  -9.9327328731474207E-002   2.9825855454808925E-002   1.0861728168754525E-003
  -7.5087566564647185E-002   2.2611636457784273E-002   2.8772476718336520E-002
  -7.2704300825731621E-002   2.1755060104684462E-002   2.8591069839795674E-002
  -7.0321035086816031E-002   2.0959729944873044E-002   2.8564312603063621E-002
  -6.7937769347900467E-002   2.0225645978350137E-002   2.8692205008140230E-002
  -6.5554503608984904E-002   1.9552808205115568E-002   2.8974747055025396E-002
  -8.1151257412098360E-002   2.4415191207040443E-002   2.1710688100801109E-002
  -7.8612025388611603E-002   2.3628669053181700E-002   2.1570923366601852E-002
  -7.6072793365124833E-002   2.2856551301533183E-002   2.1588441559736236E-002
  -7.3533561341638076E-002   2.2098837952095204E-002   2.1763242680204572E-002
  -7.0994329318151292E-002   2.1355529004867563E-002   2.2095326728006404E-002
  -8.7212448055719927E-002   2.6218745956296627E-002   1.4742374578045746E-002
  -8.4514616462136927E-002   2.5502278001678945E-002   1.4597410197109952E-002
  -8.1816784868553913E-002   2.4753372658193353E-002   1.4612362029032971E-002
  -7.9118953274970871E-002   2.3972029925840327E-002   1.4787230073814705E-002
  -7.6421121681387899E-002   2.3158249804619585E-002   1.5122014331455311E-002
  -9.3271138495511857E-002   2.8022300705552748E-002   7.8675361500704557E-003
  -9.0412074046307578E-002   2.7375886950176075E-002   7.6705303313201276E-003
  -8.7553009597103312E-002   2.6650194014853648E-002   7.6360740109535493E-003
  -8.4693945147899033E-002   2.5845221899585449E-002   7.7641671889708466E-003
  -8.1834880698694754E-002   2.4960970604371482E-002   8.0548098653719057E-003
  -9.9327328731474207E-002   2.9825855454808925E-002   1.0861728168754525E-003
  -9.6304398141123571E-002   2.9249495898673289E-002   7.9028376923240273E-004
  -9.3281467550772990E-002   2.8547015371513704E-002   6.5957750549806848E-004
  -9.0258536960422381E-002   2.7718413873330402E-002   6.9405402567255040E-004
  -8.7235606370071772E-002   2.6763691404123491E-002   8.9371332975629603E-004
  -6.5554503608984904E-002   1.9552808205115568E-002   2.8974747055025396E-002
  -6.3261719094912183E-002   1.8891861576395969E-002   2.8640222423344935E-002
  -6.0968934580839462E-002   1.8193451043417214E-002   2.8486638801214020E-002
  -5.8676150066766741E-002   1.7457576606179449E-002   2.8513996188632387E-002
  -5.6383365552693993E-002   1.6684238264682905E-002   2.8722294585600161E-002
  -7.0994329318151292E-002   2.1355529004867563E-002   2.2095326728006404E-002
  -6.8519326332834030E-002   2.0614541070960488E-002   2.1751499764036883E-002
  -6.6044323347516781E-002   1.9863790761483972E-002   2.1591168733006927E-002
  -6.3569320362199547E-002   1.9103278076438301E-002   2.1614333634916681E-002
  -6.1094317376882257E-002   1.8333003015823301E-002   2.1820994469766153E-002
  -7.6421121681387899E-002   2.3158249804619585E-002   1.5122014331455311E-002
  -7.3761345301435841E-002   2.2337220565524993E-002   1.4796586563886112E-002
  -7.1101568921483699E-002   2.1534130479550842E-002   1.4657209652647038E-002
  -6.8441792541531571E-002   2.0748979546697150E-002   1.4703883597737895E-002
  -6.5782016161579498E-002   1.9981767766963865E-002   1.4936608399158682E-002
  -8.1834880698694754E-002   2.4960970604371482E-002   8.0548098653719057E-003
  -7.8987776000717547E-002   2.4059900060089449E-002   7.7754828228928218E-003
  -7.6140671302740298E-002   2.3204470197617795E-002   7.6847615601340936E-003
  -7.3293566604763064E-002   2.2394681016955777E-002   7.7826460770956847E-003
  -7.0446461906785829E-002   2.1630532518104123E-002   8.0691363737776904E-003
  -8.7235606370071772E-002   2.6763691404123491E-002   8.9371332975629603E-004
  -8.4198618430679106E-002   2.5782579554653906E-002   6.8818854105712202E-004
  -8.1161630491286496E-002   2.4874809915684581E-002   6.7382445546837477E-004
  -7.8124642551893858E-002   2.4040382487214518E-002   8.5062107299047063E-004
  -7.5087654612501220E-002   2.3279297269244714E-002   1.2185783936229377E-003
  -5.6383365552693993E-002   1.6684238264682905E-002   2.8722294585600161E-002
  -5.3956973654879753E-002   1.5905381854878664E-002   2.8385849662107332E-002
  -5.1530581757065430E-002   1.5152953212717854E-002   2.8242773974562041E-002
  -4.9104189859251149E-002   1.4426952338200499E-002   2.8293067522964302E-002
  -4.6677797961436868E-002   1.3727379231326553E-002   2.8536730307314129E-002
  -6.1094317376882257E-002   1.8333003015823301E-002   2.1820994469766153E-002
  -5.8478351494223632E-002   1.7562083264715200E-002   2.1521457715774295E-002
  -5.5862385611565035E-002   1.6799636508189941E-002   2.1407699695523558E-002
  -5.3246419728906411E-002   1.6045662746247746E-002   2.1479720409013914E-002
  -5.0630453846247758E-002   1.5300161978888338E-002   2.1737519856245446E-002
  -6.5782016161579498E-002   1.9981767766963865E-002   1.4936608399158682E-002
  -6.2984066796283045E-002   1.9218784674551848E-002   1.4656025041607151E-002
  -6.0186117430986508E-002   1.8446319803662146E-002   1.4553629915590595E-002
  -5.7388168065690005E-002   1.7664373154294886E-002   1.4629423021108239E-002
  -5.4590218700393510E-002   1.6872944726449818E-002   1.4883404358160865E-002
  -7.0446461906785829E-002   2.1630532518104123E-002   8.0691363737776904E-003
  -6.7474119561057838E-002   2.0875486084388301E-002   7.7895516396059086E-003
  -6.4501777215329889E-002   2.0093003099134293E-002   7.6805646347624917E-003
  -6.1529434869601954E-002   1.9283083562342023E-002   7.7421753592473571E-003
  -5.8557092523873949E-002   1.8445727474011395E-002   7.9743838130605892E-003
  -7.5087654612501220E-002   2.3279297269244714E-002   1.2185783936229377E-003
  -7.1948509788548221E-002   2.2532187494225087E-002   9.2203750977037924E-004
  -6.8809364964595221E-002   2.1739686394606411E-002   7.8850385304005122E-004
  -6.5670220140642221E-002   2.0901793970389153E-002   8.1797742343089203E-004
  -6.2531075316689222E-002   2.0018510221573083E-002   1.0104582209440327E-003
  -4.6677797961436868E-002   1.3727379231326553E-002   2.8536730307314129E-002
  -4.4425761919765716E-002   1.2882601289769757E-002   2.7692803414676281E-002
  -4.2173725878094578E-002   1.1720985911203116E-002   2.6977638901685946E-002
  -3.9921689836423517E-002   1.0242533095626987E-002   2.6391236768343138E-002
  -3.7669653794752345E-002   8.4472428430408808E-003   2.5933597014647924E-002
  -5.0630453846247758E-002   1.5300161978888338E-002   2.1737519856245446E-002
  -4.8266959587809133E-002   1.4602469494653714E-002   2.0754332898721639E-002
  -4.5903465329370480E-002   1.3991920582086481E-002   1.9865299995085406E-002
  -4.3539971070931827E-002   1.3468515241186071E-002   1.9070421145336941E-002
  -4.1176476812493146E-002   1.3032253471952582E-002   1.8369696349475717E-002
  -5.4590218700393510E-002   1.6872944726449818E-002   1.4883404358160865E-002
  -5.2149874550947183E-002   1.6322337699537920E-002   1.4164938344427599E-002
  -4.9709530401500876E-002   1.6262855252969687E-002   1.3506018058822282E-002
  -4.7269186252054424E-002   1.6694497386745298E-002   1.2906643501344437E-002
  -4.4828842102608249E-002   1.7617264100864394E-002   1.2366814671994408E-002
  -5.8557092523873949E-002   1.8445727474011395E-002   7.9743838130605892E-003
  -5.6074506809179865E-002   1.8042205904421890E-002   7.9246197517946169E-003
  -5.3591921094485837E-002   1.8533789923853027E-002   7.8997930928967047E-003
  -5.1109335379791662E-002   1.9920479532304174E-002   7.8999038363667187E-003
  -4.8626749665097654E-002   2.2202274729776206E-002   7.9249519822044007E-003
  -6.2531075316689222E-002   2.0018510221573083E-002   1.0104582209440327E-003
  -6.0040856362507222E-002   1.9762074109305972E-002   2.0333771208224105E-003
  -5.7550637408325223E-002   2.0804724594736368E-002   3.0466250973086029E-003
  -5.5060418454143112E-002   2.3146461677863800E-002   4.0502021504030331E-003
  -5.2570199499961223E-002   2.6787285358687907E-002   5.0441082801049308E-003
 </DataArray>
 </PointData>
 </Piece>
 <Piece  NumberOfPoints="          1600 "  NumberOfCells="         1024 ">
 <Points>
 <DataArray  type="Float64" NumberOfComponents="3"  format="ascii" >
  0.50000000000000000        0.0000000000000000        0.0000000000000000     
  0.53125000000000000        0.0000000000000000        0.0000000000000000     
  0.56250000000000000        0.0000000000000000        0.0000000000000000     
  0.59375000000000000        0.0000000000000000        0.0000000000000000     
  0.62500000000000000        0.0000000000000000        0.0000000000000000     
  0.50000000000000000        3.1250000000000000E-002   0.0000000000000000     
  0.53125000000000000        3.1250000000000000E-002   0.0000000000000000     
  0.56250000000000000        3.1250000000000000E-002   0.0000000000000000     
  0.59375000000000000        3.1250000000000000E-002   0.0000000000000000     
  0.62500000000000000        3.1250000000000000E-002   0.0000000000000000     
  0.50000000000000000        6.2500000000000000E-002   0.0000000000000000     
  0.53125000000000000        6.2500000000000000E-002   0.0000000000000000     
  0.56250000000000000        6.2500000000000000E-002   0.0000000000000000     
  0.59375000000000000        6.2500000000000000E-002   0.0000000000000000     
  0.62500000000000000        6.2500000000000000E-002   0.0000000000000000     
  0.50000000000000000        9.3750000000000000E-002   0.0000000000000000     
  0.53125000000000000        9.3750000000000000E-002   0.0000000000000000     
  0.56250000000000000        9.3750000000000000E-002   0.0000000000000000     
  0.59375000000000000        9.3750000000000000E-002   0.0000000000000000     
  0.62500000000000000        9.3750000000000000E-002   0.0000000000000000     
  0.50000000000000000       0.12500000000000000        0.0000000000000000     
  0.53125000000000000       0.12500000000000000        0.0000000000000000     
  0.56250000000000000       0.12500000000000000        0.0000000000000000     
  0.59375000000000000       0.12500000000000000        0.0000000000000000     
  0.62500000000000000       0.12500000000000000        0.0000000000000000     
  0.62500000000000000        0.0000000000000000        0.0000000000000000     
  0.65625000000000000        0.0000000000000000        0.0000000000000000     
  0.68750000000000000        0.0000000000000000        0.0000000000000000     
  0.71875000000000000        0.0000000000000000        0.0000000000000000     
  0.75000000000000000        0.0000000000000000        0.0000000000000000     
  0.62500000000000000        3.1250000000000000E-002   0.0000000000000000     
  0.65625000000000000        3.1250000000000000E-002   0.0000000000000000     
  0.68750000000000000        3.1250000000000000E-002   0.0000000000000000     
  0.71875000000000000        3.1250000000000000E-002   0.0000000000000000     
  0.75000000000000000        3.1250000000000000E-002   0.0000000000000000     
  0.62500000000000000        6.2500000000000000E-002   0.0000000000000000     
  0.65625000000000000        6.2500000000000000E-002   0.0000000000000000     
  0.68750000000000000        6.2500000000000000E-002   0.0000000000000000     
  0.71875000000000000        6.2500000000000000E-002   0.0000000000000000     
  0.75000000000000000        6.2500000000000000E-002   0.0000000000000000     
  0.62500000000000000        9.3750000000000000E-002   0.0000000000000000     
  0.65625000000000000        9.3750000000000000E-002   0.0000000000000000     
  0.68750000000000000        9.3750000000000000E-002   0.0000000000000000     
  0.71875000000000000        9.3750000000000000E-002   0.0000000000000000     
  0.75000000000000000        9.3750000000000000E-002   0.0000000000000000     
  0.62500000000000000       0.12500000000000000        0.0000000000000000     
  0.65625000000000000       0.12500000000000000        0.0000000000000000     
  0.68750000000000000       0.12500000000000000        0.0000000000000000     
  0.71875000000000000       0.12500000000000000        0.0000000000000000     
  0.75000000000000000       0.12500000000000000        0.0000000000000000     
  0.75000000000000000        0.0000000000000000        0.0000000000000000     
  0.78125000000000000        0.0000000000000000        0.0000000000000000     
  0.81250000000000000        0.0000000000000000        0.0000000000000000     
  0.84375000000000000        0.0000000000000000        0.0000000000000000     
  0.87500000000000000        0.0000000000000000        0.0000000000000000     
  0.75000000000000000        3.1250000000000000E-002   0.0000000000000000     
  0.78125000000000000        3.1250000000000000E-002   0.0000000000000000     
  0.81250000000000000        3.1250000000000000E-002   0.0000000000000000     
  0.84375000000000000        3.1250000000000000E-002   0.0000000000000000     
  0.87500000000000000        3.1250000000000000E-002   0.0000000000000000     
  0.75000000000000000        6.2500000000000000E-002   0.0000000000000000     
  0.78125000000000000        6.2500000000000000E-002   0.0000000000000000     
  0.81250000000000000        6.2500000000000000E-002   0.0000000000000000     
  0.84375000000000000        6.2500000000000000E-002   0.0000000000000000     
  0.87500000000000000        6.2500000000000000E-002   0.0000000000000000     
  0.75000000000000000        9.3750000000000000E-002   0.0000000000000000     
  0.78125000000000000        9.3750000000000000E-002   0.0000000000000000     
  0.81250000000000000        9.3750000000000000E-002   0.0000000000000000     
  0.84375000000000000        9.3750000000000000E-002   0.0000000000000000     
  0.87500000000000000        9.3750000000000000E-002   0.0000000000000000     
  0.75000000000000000       0.12500000000000000        0.0000000000000000     
  0.78125000000000000       0.12500000000000000        0.0000000000000000     
  0.81250000000000000       0.12500000000000000        0.0000000000000000     
  0.84375000000000000       0.12500000000000000        0.0000000000000000     
  0.87500000000000000       0.12500000000000000        0.0000000000000000     
  0.87500000000000000        0.0000000000000000        0.0000000000000000     
  0.90625000000000000        0.0000000000000000        0.0000000000000000     
  0.93750000000000000        0.0000000000000000        0.0000000000000000     
  0.96875000000000000        0.0000000000000000        0.0000000000000000     
   1.0000000000000000        0.0000000000000000        0.0000000000000000     
  0.87500000000000000        3.1250000000000000E-002   0.0000000000000000     
  0.90625000000000000        3.1250000000000000E-002   0.0000000000000000     
  0.93750000000000000        3.1250000000000000E-002   0.0000000000000000     
  0.96875000000000000        3.1250000000000000E-002   0.0000000000000000     
   1.0000000000000000        3.1250000000000000E-002   0.0000000000000000     
  0.87500000000000000        6.2500000000000000E-002   0.0000000000000000     
  0.90625000000000000        6.2500000000000000E-002   0.0000000000000000     
  0.93750000000000000        6.2500000000000000E-002   0.0000000000000000     
  0.96875000000000000        6.2500000000000000E-002   0.0000000000000000     
   1.0000000000000000        6.2500000000000000E-002   0.0000000000000000     
  0.87500000000000000        9.3750000000000000E-002   0.0000000000000000     
  0.90625000000000000        9.3750000000000000E-002   0.0000000000000000     
  0.93750000000000000        9.3750000000000000E-002   0.0000000000000000     
  0.96875000000000000        9.3750000000000000E-002   0.0000000000000000     
   1.0000000000000000        9.3750000000000000E-002   0.0000000000000000     
  0.87500000000000000       0.12500000000000000        0.0000000000000000     
  0.90625000000000000       0.12500000000000000        0.0000000000000000     
  0.93750000000000000       0.12500000000000000        0.0000000000000000     
  0.96875000000000000       0.12500000000000000        0.0000000000000000     
   1.0000000000000000       0.12500000000000000        0.0000000000000000     
   1.0000000000000000        0.0000000000000000        0.0000000000000000     
   1.0312500000000000        0.0000000000000000        0.0000000000000000     
   1.0625000000000000        0.0000000000000000        0.0000000000000000     
   1.0937500000000000        0.0000000000000000        0.0000000000000000     
   1.1250000000000000        0.0000000000000000        0.0000000000000000     
   1.0000000000000000        3.1250000000000000E-002   0.0000000000000000     
   1.0312500000000000        3.1250000000000000E-002   0.0000000000000000     
   1.0625000000000000        3.1250000000000000E-002   0.0000000000000000     
   1.0937500000000000        3.1250000000000000E-002   0.0000000000000000     
   1.1250000000000000        3.1250000000000000E-002   0.0000000000000000     
   1.0000000000000000        6.2500000000000000E-002   0.0000000000000000     
   1.0312500000000000        6.2500000000000000E-002   0.0000000000000000     
   1.0625000000000000        6.2500000000000000E-002   0.0000000000000000     
   1.0937500000000000        6.2500000000000000E-002   0.0000000000000000     
   1.1250000000000000        6.2500000000000000E-002   0.0000000000000000     
   1.0000000000000000        9.3750000000000000E-002   0.0000000000000000     
   1.0312500000000000        9.3750000000000000E-002   0.0000000000000000     
   1.0625000000000000        9.3750000000000000E-002   0.0000000000000000     
   1.0937500000000000        9.3750000000000000E-002   0.0000000000000000     
   1.1250000000000000        9.3750000000000000E-002   0.0000000000000000     
   1.0000000000000000       0.12500000000000000        0.0000000000000000     
   1.0312500000000000       0.12500000000000000        0.0000000000000000     
   1.0625000000000000       0.12500000000000000        0.0000000000000000     
   1.0937500000000000       0.12500000000000000        0.0000000000000000     
   1.1250000000000000       0.12500000000000000        0.0000000000000000     
   1.1250000000000000        0.0000000000000000        0.0000000000000000     
   1.1562500000000000        0.0000000000000000        0.0000000000000000     
   1.1875000000000000        0.0000000000000000        0.0000000000000000     
   1.2187500000000000        0.0000000000000000        0.0000000000000000     
   1.2500000000000000        0.0000000000000000        0.0000000000000000     
   1.1250000000000000        3.1250000000000000E-002   0.0000000000000000     
   1.1562500000000000        3.1250000000000000E-002   0.0000000000000000     
   1.1875000000000000        3.1250000000000000E-002   0.0000000000000000     
   1.2187500000000000        3.1250000000000000E-002   0.0000000000000000     
   1.2500000000000000        3.1250000000000000E-002   0.0000000000000000     
   1.1250000000000000        6.2500000000000000E-002   0.0000000000000000     
   1.1562500000000000        6.2500000000000000E-002   0.0000000000000000     
   1.1875000000000000        6.2500000000000000E-002   0.0000000000000000     
   1.2187500000000000        6.2500000000000000E-002   0.0000000000000000     
   1.2500000000000000        6.2500000000000000E-002   0.0000000000000000     
   1.1250000000000000        9.3750000000000000E-002   0.0000000000000000     
   1.1562500000000000        9.3750000000000000E-002   0.0000000000000000     
   1.1875000000000000        9.3750000000000000E-002   0.0000000000000000     
   1.2187500000000000        9.3750000000000000E-002   0.0000000000000000     
   1.2500000000000000        9.3750000000000000E-002   0.0000000000000000     
   1.1250000000000000       0.12500000000000000        0.0000000000000000     
   1.1562500000000000       0.12500000000000000        0.0000000000000000     
   1.1875000000000000       0.12500000000000000        0.0000000000000000     
   1.2187500000000000       0.12500000000000000        0.0000000000000000     
   1.2500000000000000       0.12500000000000000        0.0000000000000000     
   1.2500000000000000        0.0000000000000000        0.0000000000000000     
   1.2812500000000000        0.0000000000000000        0.0000000000000000     
   1.3125000000000000        0.0000000000000000        0.0000000000000000     
   1.3437500000000000        0.0000000000000000        0.0000000000000000     
   1.3750000000000000        0.0000000000000000        0.0000000000000000     
   1.2500000000000000        3.1250000000000000E-002   0.0000000000000000     
   1.2812500000000000        3.1250000000000000E-002   0.0000000000000000     
   1.3125000000000000        3.1250000000000000E-002   0.0000000000000000     
   1.3437500000000000        3.1250000000000000E-002   0.0000000000000000     
   1.3750000000000000        3.1250000000000000E-002   0.0000000000000000     
   1.2500000000000000        6.2500000000000000E-002   0.0000000000000000     
   1.2812500000000000        6.2500000000000000E-002   0.0000000000000000     
   1.3125000000000000        6.2500000000000000E-002   0.0000000000000000     
   1.3437500000000000        6.2500000000000000E-002   0.0000000000000000     
   1.3750000000000000        6.2500000000000000E-002   0.0000000000000000     
   1.2500000000000000        9.3750000000000000E-002   0.0000000000000000     
   1.2812500000000000        9.3750000000000000E-002   0.0000000000000000     
   1.3125000000000000        9.3750000000000000E-002   0.0000000000000000     
   1.3437500000000000        9.3750000000000000E-002   0.0000000000000000     
   1.3750000000000000        9.3750000000000000E-002   0.0000000000000000     
   1.2500000000000000       0.12500000000000000        0.0000000000000000     
   1.2812500000000000       0.12500000000000000        0.0000000000000000     
   1.3125000000000000       0.12500000000000000        0.0000000000000000     
   1.3437500000000000       0.12500000000000000        0.0000000000000000     
   1.3750000000000000       0.12500000000000000        0.0000000000000000     
   1.3750000000000000        0.0000000000000000        0.0000000000000000     
   1.4062500000000000        0.0000000000000000        0.0000000000000000     
   1.4375000000000000        0.0000000000000000        0.0000000000000000     
   1.4687500000000000        0.0000000000000000        0.0000000000000000     
   1.5000000000000000        0.0000000000000000        0.0000000000000000     
   1.3750000000000000        3.1250000000000000E-002   0.0000000000000000     
   1.4062500000000000        3.1250000000000000E-002   0.0000000000000000     
   1.4375000000000000        3.1250000000000000E-002   0.0000000000000000     
   1.4687500000000000        3.1250000000000000E-002   0.0000000000000000     
   1.5000000000000000        3.1250000000000000E-002   0.0000000000000000     
   1.3750000000000000        6.2500000000000000E-002   0.0000000000000000     
   1.4062500000000000        6.2500000000000000E-002   0.0000000000000000     
   1.4375000000000000        6.2500000000000000E-002   0.0000000000000000     
   1.4687500000000000        6.2500000000000000E-002   0.0000000000000000     
   1.5000000000000000        6.2500000000000000E-002   0.0000000000000000     
   1.3750000000000000        9.3750000000000000E-002   0.0000000000000000     
   1.4062500000000000        9.3750000000000000E-002   0.0000000000000000     
   1.4375000000000000        9.3750000000000000E-002   0.0000000000000000     
   1.4687500000000000        9.3750000000000000E-002   0.0000000000000000     
   1.5000000000000000        9.3750000000000000E-002   0.0000000000000000     
   1.3750000000000000       0.12500000000000000        0.0000000000000000     
   1.4062500000000000       0.12500000000000000        0.0000000000000000     
   1.4375000000000000       0.12500000000000000        0.0000000000000000     
   1.4687500000000000       0.12500000000000000        0.0000000000000000     
   1.5000000000000000       0.12500000000000000        0.0000000000000000     
  0.50000000000000000       0.12500000000000000        0.0000000000000000     
  0.53125000000000000       0.12500000000000000        0.0000000000000000     
  0.56250000000000000       0.12500000000000000        0.0000000000000000     
  0.59375000000000000       0.12500000000000000        0.0000000000000000     
  0.62500000000000000       0.12500000000000000        0.0000000000000000     
  0.50000000000000000       0.15625000000000000        0.0000000000000000     
  0.53125000000000000       0.15625000000000000        0.0000000000000000     
  0.56250000000000000       0.15625000000000000        0.0000000000000000     
  0.59375000000000000       0.15625000000000000        0.0000000000000000     
  0.62500000000000000       0.15625000000000000        0.0000000000000000     
  0.50000000000000000       0.18750000000000000        0.0000000000000000     
  0.53125000000000000       0.18750000000000000        0.0000000000000000     
  0.56250000000000000       0.18750000000000000        0.0000000000000000     
  0.59375000000000000       0.18750000000000000        0.0000000000000000     
  0.62500000000000000       0.18750000000000000        0.0000000000000000     
  0.50000000000000000       0.21875000000000000        0.0000000000000000     
  0.53125000000000000       0.21875000000000000        0.0000000000000000     
  0.56250000000000000       0.21875000000000000        0.0000000000000000     
  0.59375000000000000       0.21875000000000000        0.0000000000000000     
  0.62500000000000000       0.21875000000000000        0.0000000000000000     
  0.50000000000000000       0.25000000000000000        0.0000000000000000     
  0.53125000000000000       0.25000000000000000        0.0000000000000000     
  0.56250000000000000       0.25000000000000000        0.0000000000000000     
  0.59375000000000000       0.25000000000000000        0.0000000000000000     
  0.62500000000000000       0.25000000000000000        0.0000000000000000     
  0.62500000000000000       0.12500000000000000        0.0000000000000000     
  0.65625000000000000       0.12500000000000000        0.0000000000000000     
  0.68750000000000000       0.12500000000000000        0.0000000000000000     
  0.71875000000000000       0.12500000000000000        0.0000000000000000     
  0.75000000000000000       0.12500000000000000        0.0000000000000000     
  0.62500000000000000       0.15625000000000000        0.0000000000000000     
  0.65625000000000000       0.15625000000000000        0.0000000000000000     
  0.68750000000000000       0.15625000000000000        0.0000000000000000     
  0.71875000000000000       0.15625000000000000        0.0000000000000000     
  0.75000000000000000       0.15625000000000000        0.0000000000000000     
  0.62500000000000000       0.18750000000000000        0.0000000000000000     
  0.65625000000000000       0.18750000000000000        0.0000000000000000     
  0.68750000000000000       0.18750000000000000        0.0000000000000000     
  0.71875000000000000       0.18750000000000000        0.0000000000000000     
  0.75000000000000000       0.18750000000000000        0.0000000000000000     
  0.62500000000000000       0.21875000000000000        0.0000000000000000     
  0.65625000000000000       0.21875000000000000        0.0000000000000000     
  0.68750000000000000       0.21875000000000000        0.0000000000000000     
  0.71875000000000000       0.21875000000000000        0.0000000000000000     
  0.75000000000000000       0.21875000000000000        0.0000000000000000     
  0.62500000000000000       0.25000000000000000        0.0000000000000000     
  0.65625000000000000       0.25000000000000000        0.0000000000000000     
  0.68750000000000000       0.25000000000000000        0.0000000000000000     
  0.71875000000000000       0.25000000000000000        0.0000000000000000     
  0.75000000000000000       0.25000000000000000        0.0000000000000000     
  0.75000000000000000       0.12500000000000000        0.0000000000000000     
  0.78125000000000000       0.12500000000000000        0.0000000000000000     
  0.81250000000000000       0.12500000000000000        0.0000000000000000     
  0.84375000000000000       0.12500000000000000        0.0000000000000000     
  0.87500000000000000       0.12500000000000000        0.0000000000000000     
  0.75000000000000000       0.15625000000000000        0.0000000000000000     
  0.78125000000000000       0.15625000000000000        0.0000000000000000     
  0.81250000000000000       0.15625000000000000        0.0000000000000000     
  0.84375000000000000       0.15625000000000000        0.0000000000000000     
  0.87500000000000000       0.15625000000000000        0.0000000000000000     
  0.75000000000000000       0.18750000000000000        0.0000000000000000     
  0.78125000000000000       0.18750000000000000        0.0000000000000000     
  0.81250000000000000       0.18750000000000000        0.0000000000000000     
  0.84375000000000000       0.18750000000000000        0.0000000000000000     
  0.87500000000000000       0.18750000000000000        0.0000000000000000     
  0.75000000000000000       0.21875000000000000        0.0000000000000000     
  0.78125000000000000       0.21875000000000000        0.0000000000000000     
  0.81250000000000000       0.21875000000000000        0.0000000000000000     
  0.84375000000000000       0.21875000000000000        0.0000000000000000     
  0.87500000000000000       0.21875000000000000        0.0000000000000000     
  0.75000000000000000       0.25000000000000000        0.0000000000000000     
  0.78125000000000000       0.25000000000000000        0.0000000000000000     
  0.81250000000000000       0.25000000000000000        0.0000000000000000     
  0.84375000000000000       0.25000000000000000        0.0000000000000000     
  0.87500000000000000       0.25000000000000000        0.0000000000000000     
  0.87500000000000000       0.12500000000000000        0.0000000000000000     
  0.90625000000000000       0.12500000000000000        0.0000000000000000     
  0.93750000000000000       0.12500000000000000        0.0000000000000000     
  0.96875000000000000       0.12500000000000000        0.0000000000000000     
   1.0000000000000000       0.12500000000000000        0.0000000000000000     
  0.87500000000000000       0.15625000000000000        0.0000000000000000     
  0.90625000000000000       0.15625000000000000        0.0000000000000000     
  0.93750000000000000       0.15625000000000000        0.0000000000000000     
  0.96875000000000000       0.15625000000000000        0.0000000000000000     
   1.0000000000000000       0.15625000000000000        0.0000000000000000     
  0.87500000000000000       0.18750000000000000        0.0000000000000000     
  0.90625000000000000       0.18750000000000000        0.0000000000000000     
  0.93750000000000000       0.18750000000000000        0.0000000000000000     
  0.96875000000000000       0.18750000000000000        0.0000000000000000     
   1.0000000000000000       0.18750000000000000        0.0000000000000000     
  0.87500000000000000       0.21875000000000000        0.0000000000000000     
  0.90625000000000000       0.21875000000000000        0.0000000000000000     
  0.93750000000000000       0.21875000000000000        0.0000000000000000     
  0.96875000000000000       0.21875000000000000        0.0000000000000000     
   1.0000000000000000       0.21875000000000000        0.0000000000000000     
  0.87500000000000000       0.25000000000000000        0.0000000000000000     
  0.90625000000000000       0.25000000000000000        0.0000000000000000     
  0.93750000000000000       0.25000000000000000        0.0000000000000000     
  0.96875000000000000       0.25000000000000000        0.0000000000000000     
   1.0000000000000000       0.25000000000000000        0.0000000000000000     
   1.0000000000000000       0.12500000000000000        0.0000000000000000     
   1.0312500000000000       0.12500000000000000        0.0000000000000000     
   1.0625000000000000       0.12500000000000000        0.0000000000000000     
   1.0937500000000000       0.12500000000000000        0.0000000000000000     
   1.1250000000000000       0.12500000000000000        0.0000000000000000     
   1.0000000000000000       0.15625000000000000        0.0000000000000000     
   1.0312500000000000       0.15625000000000000        0.0000000000000000     
   1.0625000000000000       0.15625000000000000        0.0000000000000000     
   1.0937500000000000       0.15625000000000000        0.0000000000000000     
   1.1250000000000000       0.15625000000000000        0.0000000000000000     
   1.0000000000000000       0.18750000000000000        0.0000000000000000     
   1.0312500000000000       0.18750000000000000        0.0000000000000000     
   1.0625000000000000       0.18750000000000000        0.0000000000000000     
   1.0937500000000000       0.18750000000000000        0.0000000000000000     
   1.1250000000000000       0.18750000000000000        0.0000000000000000     
   1.0000000000000000       0.21875000000000000        0.0000000000000000     
   1.0312500000000000       0.21875000000000000        0.0000000000000000     
   1.0625000000000000       0.21875000000000000        0.0000000000000000     
   1.0937500000000000       0.21875000000000000        0.0000000000000000     
   1.1250000000000000       0.21875000000000000        0.0000000000000000     
   1.0000000000000000       0.25000000000000000        0.0000000000000000     
   1.0312500000000000       0.25000000000000000        0.0000000000000000     
   1.0625000000000000       0.25000000000000000        0.0000000000000000     
   1.0937500000000000       0.25000000000000000        0.0000000000000000     
   1.1250000000000000       0.25000000000000000        0.0000000000000000     
   1.1250000000000000       0.12500000000000000        0.0000000000000000     
   1.1562500000000000       0.12500000000000000        0.0000000000000000     
   1.1875000000000000       0.12500000000000000        0.0000000000000000     
   1.2187500000000000       0.12500000000000000        0.0000000000000000     
   1.2500000000000000       0.12500000000000000        0.0000000000000000     
   1.1250000000000000       0.15625000000000000        0.0000000000000000     
   1.1562500000000000       0.15625000000000000        0.0000000000000000     
   1.1875000000000000       0.15625000000000000        0.0000000000000000     
   1.2187500000000000       0.15625000000000000        0.0000000000000000     
   1.2500000000000000       0.15625000000000000        0.0000000000000000     
   1.1250000000000000       0.18750000000000000        0.0000000000000000     
   1.1562500000000000       0.18750000000000000        0.0000000000000000     
   1.1875000000000000       0.18750000000000000        0.0000000000000000     
   1.2187500000000000       0.18750000000000000        0.0000000000000000     
   1.2500000000000000       0.18750000000000000        0.0000000000000000     
   1.1250000000000000       0.21875000000000000        0.0000000000000000     
   1.1562500000000000       0.21875000000000000        0.0000000000000000     
   1.1875000000000000       0.21875000000000000        0.0000000000000000     
   1.2187500000000000       0.21875000000000000        0.0000000000000000     
   1.2500000000000000       0.21875000000000000        0.0000000000000000     
   1.1250000000000000       0.25000000000000000        0.0000000000000000     
   1.1562500000000000       0.25000000000000000        0.0000000000000000     
   1.1875000000000000       0.25000000000000000        0.0000000000000000     
   1.2187500000000000       0.25000000000000000        0.0000000000000000     
   1.2500000000000000       0.25000000000000000        0.0000000000000000     
   1.2500000000000000       0.12500000000000000        0.0000000000000000     
   1.2812500000000000       0.12500000000000000        0.0000000000000000     
   1.3125000000000000       0.12500000000000000        0.0000000000000000     
   1.3437500000000000       0.12500000000000000        0.0000000000000000     
   1.3750000000000000       0.12500000000000000        0.0000000000000000     
   1.2500000000000000       0.15625000000000000        0.0000000000000000     
   1.2812500000000000       0.15625000000000000        0.0000000000000000     
   1.3125000000000000       0.15625000000000000        0.0000000000000000     
   1.3437500000000000       0.15625000000000000        0.0000000000000000     
   1.3750000000000000       0.15625000000000000        0.0000000000000000     
   1.2500000000000000       0.18750000000000000        0.0000000000000000     
   1.2812500000000000       0.18750000000000000        0.0000000000000000     
   1.3125000000000000       0.18750000000000000        0.0000000000000000     
   1.3437500000000000       0.18750000000000000        0.0000000000000000     
   1.3750000000000000       0.18750000000000000        0.0000000000000000     
   1.2500000000000000       0.21875000000000000        0.0000000000000000     
   1.2812500000000000       0.21875000000000000        0.0000000000000000     
   1.3125000000000000       0.21875000000000000        0.0000000000000000     
   1.3437500000000000       0.21875000000000000        0.0000000000000000     
   1.3750000000000000       0.21875000000000000        0.0000000000000000     
   1.2500000000000000       0.25000000000000000        0.0000000000000000     
   1.2812500000000000       0.25000000000000000        0.0000000000000000     
   1.3125000000000000       0.25000000000000000        0.0000000000000000     
   1.3437500000000000       0.25000000000000000        0.0000000000000000     
   1.3750000000000000       0.25000000000000000        0.0000000000000000     
   1.3750000000000000       0.12500000000000000        0.0000000000000000     
   1.4062500000000000       0.12500000000000000        0.0000000000000000     
   1.4375000000000000       0.12500000000000000        0.0000000000000000     
   1.4687500000000000       0.12500000000000000        0.0000000000000000     
   1.5000000000000000       0.12500000000000000        0.0000000000000000     
   1.3750000000000000       0.15625000000000000        0.0000000000000000     
   1.4062500000000000       0.15625000000000000        0.0000000000000000     
   1.4375000000000000       0.15625000000000000        0.0000000000000000     
   1.4687500000000000       0.15625000000000000        0.0000000000000000     
   1.5000000000000000       0.15625000000000000        0.0000000000000000     
   1.3750000000000000       0.18750000000000000        0.0000000000000000     
   1.4062500000000000       0.18750000000000000        0.0000000000000000     
   1.4375000000000000       0.18750000000000000        0.0000000000000000     
   1.4687500000000000       0.18750000000000000        0.0000000000000000     
   1.5000000000000000       0.18750000000000000        0.0000000000000000     
   1.3750000000000000       0.21875000000000000        0.0000000000000000     
   1.4062500000000000       0.21875000000000000        0.0000000000000000     
   1.4375000000000000       0.21875000000000000        0.0000000000000000     
   1.4687500000000000       0.21875000000000000        0.0000000000000000     
   1.5000000000000000       0.21875000000000000        0.0000000000000000     
   1.3750000000000000       0.25000000000000000        0.0000000000000000     
   1.4062500000000000       0.25000000000000000        0.0000000000000000     
   1.4375000000000000       0.25000000000000000        0.0000000000000000     
   1.4687500000000000       0.25000000000000000        0.0000000000000000     
   1.5000000000000000       0.25000000000000000        0.0000000000000000     
  0.50000000000000000       0.25000000000000000        0.0000000000000000     
  0.53125000000000000       0.25000000000000000        0.0000000000000000     
  0.56250000000000000       0.25000000000000000        0.0000000000000000     
  0.59375000000000000       0.25000000000000000        0.0000000000000000     
  0.62500000000000000       0.25000000000000000        0.0000000000000000     
  0.50000000000000000       0.28125000000000000        0.0000000000000000     
  0.53125000000000000       0.28125000000000000        0.0000000000000000     
  0.56250000000000000       0.28125000000000000        0.0000000000000000     
  0.59375000000000000       0.28125000000000000        0.0000000000000000     
  0.62500000000000000       0.28125000000000000        0.0000000000000000     
  0.50000000000000000       0.31250000000000000        0.0000000000000000     
  0.53125000000000000       0.31250000000000000        0.0000000000000000     
  0.56250000000000000       0.31250000000000000        0.0000000000000000     
  0.59375000000000000       0.31250000000000000        0.0000000000000000     
  0.62500000000000000       0.31250000000000000        0.0000000000000000     
  0.50000000000000000       0.34375000000000000        0.0000000000000000     
  0.53125000000000000       0.34375000000000000        0.0000000000000000     
  0.56250000000000000       0.34375000000000000        0.0000000000000000     
  0.59375000000000000       0.34375000000000000        0.0000000000000000     
  0.62500000000000000       0.34375000000000000        0.0000000000000000     
  0.50000000000000000       0.37500000000000000        0.0000000000000000     
  0.53125000000000000       0.37500000000000000        0.0000000000000000     
  0.56250000000000000       0.37500000000000000        0.0000000000000000     
  0.59375000000000000       0.37500000000000000        0.0000000000000000     
  0.62500000000000000       0.37500000000000000        0.0000000000000000     
  0.62500000000000000       0.25000000000000000        0.0000000000000000     
  0.65625000000000000       0.25000000000000000        0.0000000000000000     
  0.68750000000000000       0.25000000000000000        0.0000000000000000     
  0.71875000000000000       0.25000000000000000        0.0000000000000000     
  0.75000000000000000       0.25000000000000000        0.0000000000000000     
  0.62500000000000000       0.28125000000000000        0.0000000000000000     
  0.65625000000000000       0.28125000000000000        0.0000000000000000     
  0.68750000000000000       0.28125000000000000        0.0000000000000000     
  0.71875000000000000       0.28125000000000000        0.0000000000000000     
  0.75000000000000000       0.28125000000000000        0.0000000000000000     
  0.62500000000000000       0.31250000000000000        0.0000000000000000     
  0.65625000000000000       0.31250000000000000        0.0000000000000000     
  0.68750000000000000       0.31250000000000000        0.0000000000000000     
  0.71875000000000000       0.31250000000000000        0.0000000000000000     
  0.75000000000000000       0.31250000000000000        0.0000000000000000     
  0.62500000000000000       0.34375000000000000        0.0000000000000000     
  0.65625000000000000       0.34375000000000000        0.0000000000000000     
  0.68750000000000000       0.34375000000000000        0.0000000000000000     
  0.71875000000000000       0.34375000000000000        0.0000000000000000     
  0.75000000000000000       0.34375000000000000        0.0000000000000000     
  0.62500000000000000       0.37500000000000000        0.0000000000000000     
  0.65625000000000000       0.37500000000000000        0.0000000000000000     
  0.68750000000000000       0.37500000000000000        0.0000000000000000     
  0.71875000000000000       0.37500000000000000        0.0000000000000000     
  0.75000000000000000       0.37500000000000000        0.0000000000000000     
  0.75000000000000000       0.25000000000000000        0.0000000000000000     
  0.78125000000000000       0.25000000000000000        0.0000000000000000     
  0.81250000000000000       0.25000000000000000        0.0000000000000000     
  0.84375000000000000       0.25000000000000000        0.0000000000000000     
  0.87500000000000000       0.25000000000000000        0.0000000000000000     
  0.75000000000000000       0.28125000000000000        0.0000000000000000     
  0.78125000000000000       0.28125000000000000        0.0000000000000000     
  0.81250000000000000       0.28125000000000000        0.0000000000000000     
  0.84375000000000000       0.28125000000000000        0.0000000000000000     
  0.87500000000000000       0.28125000000000000        0.0000000000000000     
  0.75000000000000000       0.31250000000000000        0.0000000000000000     
  0.78125000000000000       0.31250000000000000        0.0000000000000000     
  0.81250000000000000       0.31250000000000000        0.0000000000000000     
  0.84375000000000000       0.31250000000000000        0.0000000000000000     
  0.87500000000000000       0.31250000000000000        0.0000000000000000     
  0.75000000000000000       0.34375000000000000        0.0000000000000000     
  0.78125000000000000       0.34375000000000000        0.0000000000000000     
  0.81250000000000000       0.34375000000000000        0.0000000000000000     
  0.84375000000000000       0.34375000000000000        0.0000000000000000     
  0.87500000000000000       0.34375000000000000        0.0000000000000000     
  0.75000000000000000       0.37500000000000000        0.0000000000000000     
  0.78125000000000000       0.37500000000000000        0.0000000000000000     
  0.81250000000000000       0.37500000000000000        0.0000000000000000     
  0.84375000000000000       0.37500000000000000        0.0000000000000000     
  0.87500000000000000       0.37500000000000000        0.0000000000000000     
  0.87500000000000000       0.25000000000000000        0.0000000000000000     
  0.90625000000000000       0.25000000000000000        0.0000000000000000     
  0.93750000000000000       0.25000000000000000        0.0000000000000000     
  0.96875000000000000       0.25000000000000000        0.0000000000000000     
   1.0000000000000000       0.25000000000000000        0.0000000000000000     
  0.87500000000000000       0.28125000000000000        0.0000000000000000     
  0.90625000000000000       0.28125000000000000        0.0000000000000000     
  0.93750000000000000       0.28125000000000000        0.0000000000000000     
  0.96875000000000000       0.28125000000000000        0.0000000000000000     
   1.0000000000000000       0.28125000000000000        0.0000000000000000     
  0.87500000000000000       0.31250000000000000        0.0000000000000000     
  0.90625000000000000       0.31250000000000000        0.0000000000000000     
  0.93750000000000000       0.31250000000000000        0.0000000000000000     
  0.96875000000000000       0.31250000000000000        0.0000000000000000     
   1.0000000000000000       0.31250000000000000        0.0000000000000000     
  0.87500000000000000       0.34375000000000000        0.0000000000000000     
  0.90625000000000000       0.34375000000000000        0.0000000000000000     
  0.93750000000000000       0.34375000000000000        0.0000000000000000     
  0.96875000000000000       0.34375000000000000        0.0000000000000000     
   1.0000000000000000       0.34375000000000000        0.0000000000000000     
  0.87500000000000000       0.37500000000000000        0.0000000000000000     
  0.90625000000000000       0.37500000000000000        0.0000000000000000     
  0.93750000000000000       0.37500000000000000        0.0000000000000000     
  0.96875000000000000       0.37500000000000000        0.0000000000000000     
   1.0000000000000000       0.37500000000000000        0.0000000000000000     
   1.0000000000000000       0.25000000000000000        0.0000000000000000     
   1.0312500000000000       0.25000000000000000        0.0000000000000000     
   1.0625000000000000       0.25000000000000000        0.0000000000000000     
   1.0937500000000000       0.25000000000000000        0.0000000000000000     
   1.1250000000000000       0.25000000000000000        0.0000000000000000     
   1.0000000000000000       0.28125000000000000        0.0000000000000000     
   1.0312500000000000       0.28125000000000000        0.0000000000000000     
   1.0625000000000000       0.28125000000000000        0.0000000000000000     
   1.0937500000000000       0.28125000000000000        0.0000000000000000     
   1.1250000000000000       0.28125000000000000        0.0000000000000000     
   1.0000000000000000       0.31250000000000000        0.0000000000000000     
   1.0312500000000000       0.31250000000000000        0.0000000000000000     
   1.0625000000000000       0.31250000000000000        0.0000000000000000     
   1.0937500000000000       0.31250000000000000        0.0000000000000000     
   1.1250000000000000       0.31250000000000000        0.0000000000000000     
   1.0000000000000000       0.34375000000000000        0.0000000000000000     
   1.0312500000000000       0.34375000000000000        0.0000000000000000     
   1.0625000000000000       0.34375000000000000        0.0000000000000000     
   1.0937500000000000       0.34375000000000000        0.0000000000000000     
   1.1250000000000000       0.34375000000000000        0.0000000000000000     
   1.0000000000000000       0.37500000000000000        0.0000000000000000     
   1.0312500000000000       0.37500000000000000        0.0000000000000000     
   1.0625000000000000       0.37500000000000000        0.0000000000000000     
   1.0937500000000000       0.37500000000000000        0.0000000000000000     
   1.1250000000000000       0.37500000000000000        0.0000000000000000     
   1.1250000000000000       0.25000000000000000        0.0000000000000000     
   1.1562500000000000       0.25000000000000000        0.0000000000000000     
   1.1875000000000000       0.25000000000000000        0.0000000000000000     
   1.2187500000000000       0.25000000000000000        0.0000000000000000     
   1.2500000000000000       0.25000000000000000        0.0000000000000000     
   1.1250000000000000       0.28125000000000000        0.0000000000000000     
   1.1562500000000000       0.28125000000000000        0.0000000000000000     
   1.1875000000000000       0.28125000000000000        0.0000000000000000     
   1.2187500000000000       0.28125000000000000        0.0000000000000000     
   1.2500000000000000       0.28125000000000000        0.0000000000000000     
   1.1250000000000000       0.31250000000000000        0.0000000000000000     
   1.1562500000000000       0.31250000000000000        0.0000000000000000     
   1.1875000000000000       0.31250000000000000        0.0000000000000000     
   1.2187500000000000       0.31250000000000000        0.0000000000000000     
   1.2500000000000000       0.31250000000000000        0.0000000000000000     
   1.1250000000000000       0.34375000000000000        0.0000000000000000     
   1.1562500000000000       0.34375000000000000        0.0000000000000000     
   1.1875000000000000       0.34375000000000000        0.0000000000000000     
   1.2187500000000000       0.34375000000000000        0.0000000000000000     
   1.2500000000000000       0.34375000000000000        0.0000000000000000     
   1.1250000000000000       0.37500000000000000        0.0000000000000000     
   1.1562500000000000       0.37500000000000000        0.0000000000000000     
   1.1875000000000000       0.37500000000000000        0.0000000000000000     
   1.2187500000000000       0.37500000000000000        0.0000000000000000     
   1.2500000000000000       0.37500000000000000        0.0000000000000000     
   1.2500000000000000       0.25000000000000000        0.0000000000000000     
   1.2812500000000000       0.25000000000000000        0.0000000000000000     
   1.3125000000000000       0.25000000000000000        0.0000000000000000     
   1.3437500000000000       0.25000000000000000        0.0000000000000000     
   1.3750000000000000       0.25000000000000000        0.0000000000000000     
   1.2500000000000000       0.28125000000000000        0.0000000000000000     
   1.2812500000000000       0.28125000000000000        0.0000000000000000     
   1.3125000000000000       0.28125000000000000        0.0000000000000000     
   1.3437500000000000       0.28125000000000000        0.0000000000000000     
   1.3750000000000000       0.28125000000000000        0.0000000000000000     
   1.2500000000000000       0.31250000000000000        0.0000000000000000     
   1.2812500000000000       0.31250000000000000        0.0000000000000000     
   1.3125000000000000       0.31250000000000000        0.0000000000000000     
   1.3437500000000000       0.31250000000000000        0.0000000000000000     
   1.3750000000000000       0.31250000000000000        0.0000000000000000     
   1.2500000000000000       0.34375000000000000        0.0000000000000000     
   1.2812500000000000       0.34375000000000000        0.0000000000000000     
   1.3125000000000000       0.34375000000000000        0.0000000000000000     
   1.3437500000000000       0.34375000000000000        0.0000000000000000     
   1.3750000000000000       0.34375000000000000        0.0000000000000000     
   1.2500000000000000       0.37500000000000000        0.0000000000000000     
   1.2812500000000000       0.37500000000000000        0.0000000000000000     
   1.3125000000000000       0.37500000000000000        0.0000000000000000     
   1.3437500000000000       0.37500000000000000        0.0000000000000000     
   1.3750000000000000       0.37500000000000000        0.0000000000000000     
   1.3750000000000000       0.25000000000000000        0.0000000000000000     
   1.4062500000000000       0.25000000000000000        0.0000000000000000     
   1.4375000000000000       0.25000000000000000        0.0000000000000000     
   1.4687500000000000       0.25000000000000000        0.0000000000000000     
   1.5000000000000000       0.25000000000000000        0.0000000000000000     
   1.3750000000000000       0.28125000000000000        0.0000000000000000     
   1.4062500000000000       0.28125000000000000        0.0000000000000000     
   1.4375000000000000       0.28125000000000000        0.0000000000000000     
   1.4687500000000000       0.28125000000000000        0.0000000000000000     
   1.5000000000000000       0.28125000000000000        0.0000000000000000     
   1.3750000000000000       0.31250000000000000        0.0000000000000000     
   1.4062500000000000       0.31250000000000000        0.0000000000000000     
   1.4375000000000000       0.31250000000000000        0.0000000000000000     
   1.4687500000000000       0.31250000000000000        0.0000000000000000     
   1.5000000000000000       0.31250000000000000        0.0000000000000000     
   1.3750000000000000       0.34375000000000000        0.0000000000000000     
   1.4062500000000000       0.34375000000000000        0.0000000000000000     
   1.4375000000000000       0.34375000000000000        0.0000000000000000     
   1.4687500000000000       0.34375000000000000        0.0000000000000000     
   1.5000000000000000       0.34375000000000000        0.0000000000000000     
   1.3750000000000000       0.37500000000000000        0.0000000000000000     
   1.4062500000000000       0.37500000000000000        0.0000000000000000     
   1.4375000000000000       0.37500000000000000        0.0000000000000000     
   1.4687500000000000       0.37500000000000000        0.0000000000000000     
   1.5000000000000000       0.37500000000000000        0.0000000000000000     
  0.50000000000000000       0.37500000000000000        0.0000000000000000     
  0.53125000000000000       0.37500000000000000        0.0000000000000000     
  0.56250000000000000       0.37500000000000000        0.0000000000000000     
  0.59375000000000000       0.37500000000000000        0.0000000000000000     
  0.62500000000000000       0.37500000000000000        0.0000000000000000     
  0.50000000000000000       0.40625000000000000        0.0000000000000000     
  0.53125000000000000       0.40625000000000000        0.0000000000000000     
  0.56250000000000000       0.40625000000000000        0.0000000000000000     
  0.59375000000000000       0.40625000000000000        0.0000000000000000     
  0.62500000000000000       0.40625000000000000        0.0000000000000000     
  0.50000000000000000       0.43750000000000000        0.0000000000000000     
  0.53125000000000000       0.43750000000000000        0.0000000000000000     
  0.56250000000000000       0.43750000000000000        0.0000000000000000     
  0.59375000000000000       0.43750000000000000        0.0000000000000000     
  0.62500000000000000       0.43750000000000000        0.0000000000000000     
  0.50000000000000000       0.46875000000000000        0.0000000000000000     
  0.53125000000000000       0.46875000000000000        0.0000000000000000     
  0.56250000000000000       0.46875000000000000        0.0000000000000000     
  0.59375000000000000       0.46875000000000000        0.0000000000000000     
  0.62500000000000000       0.46875000000000000        0.0000000000000000     
  0.50000000000000000       0.50000000000000000        0.0000000000000000     
  0.53125000000000000       0.50000000000000000        0.0000000000000000     
  0.56250000000000000       0.50000000000000000        0.0000000000000000     
  0.59375000000000000       0.50000000000000000        0.0000000000000000     
  0.62500000000000000       0.50000000000000000        0.0000000000000000     
  0.62500000000000000       0.37500000000000000        0.0000000000000000     
  0.65625000000000000       0.37500000000000000        0.0000000000000000     
  0.68750000000000000       0.37500000000000000        0.0000000000000000     
  0.71875000000000000       0.37500000000000000        0.0000000000000000     
  0.75000000000000000       0.37500000000000000        0.0000000000000000     
  0.62500000000000000       0.40625000000000000        0.0000000000000000     
  0.65625000000000000       0.40625000000000000        0.0000000000000000     
  0.68750000000000000       0.40625000000000000        0.0000000000000000     
  0.71875000000000000       0.40625000000000000        0.0000000000000000     
  0.75000000000000000       0.40625000000000000        0.0000000000000000     
  0.62500000000000000       0.43750000000000000        0.0000000000000000     
  0.65625000000000000       0.43750000000000000        0.0000000000000000     
  0.68750000000000000       0.43750000000000000        0.0000000000000000     
  0.71875000000000000       0.43750000000000000        0.0000000000000000     
  0.75000000000000000       0.43750000000000000        0.0000000000000000     
  0.62500000000000000       0.46875000000000000        0.0000000000000000     
  0.65625000000000000       0.46875000000000000        0.0000000000000000     
  0.68750000000000000       0.46875000000000000        0.0000000000000000     
  0.71875000000000000       0.46875000000000000        0.0000000000000000     
  0.75000000000000000       0.46875000000000000        0.0000000000000000     
  0.62500000000000000       0.50000000000000000        0.0000000000000000     
  0.65625000000000000       0.50000000000000000        0.0000000000000000     
  0.68750000000000000       0.50000000000000000        0.0000000000000000     
  0.71875000000000000       0.50000000000000000        0.0000000000000000     
  0.75000000000000000       0.50000000000000000        0.0000000000000000     
  0.75000000000000000       0.37500000000000000        0.0000000000000000     
  0.78125000000000000       0.37500000000000000        0.0000000000000000     
  0.81250000000000000       0.37500000000000000        0.0000000000000000     
  0.84375000000000000       0.37500000000000000        0.0000000000000000     
  0.87500000000000000       0.37500000000000000        0.0000000000000000     
  0.75000000000000000       0.40625000000000000        0.0000000000000000     
  0.78125000000000000       0.40625000000000000        0.0000000000000000     
  0.81250000000000000       0.40625000000000000        0.0000000000000000     
  0.84375000000000000       0.40625000000000000        0.0000000000000000     
  0.87500000000000000       0.40625000000000000        0.0000000000000000     
  0.75000000000000000       0.43750000000000000        0.0000000000000000     
  0.78125000000000000       0.43750000000000000        0.0000000000000000     
  0.81250000000000000       0.43750000000000000        0.0000000000000000     
  0.84375000000000000       0.43750000000000000        0.0000000000000000     
  0.87500000000000000       0.43750000000000000        0.0000000000000000     
  0.75000000000000000       0.46875000000000000        0.0000000000000000     
  0.78125000000000000       0.46875000000000000        0.0000000000000000     
  0.81250000000000000       0.46875000000000000        0.0000000000000000     
  0.84375000000000000       0.46875000000000000        0.0000000000000000     
  0.87500000000000000       0.46875000000000000        0.0000000000000000     
  0.75000000000000000       0.50000000000000000        0.0000000000000000     
  0.78125000000000000       0.50000000000000000        0.0000000000000000     
  0.81250000000000000       0.50000000000000000        0.0000000000000000     
  0.84375000000000000       0.50000000000000000        0.0000000000000000     
  0.87500000000000000       0.50000000000000000        0.0000000000000000     
  0.87500000000000000       0.37500000000000000        0.0000000000000000     
  0.90625000000000000       0.37500000000000000        0.0000000000000000     
  0.93750000000000000       0.37500000000000000        0.0000000000000000     
  0.96875000000000000       0.37500000000000000        0.0000000000000000     
   1.0000000000000000       0.37500000000000000        0.0000000000000000     
  0.87500000000000000       0.40625000000000000        0.0000000000000000     
  0.90625000000000000       0.40625000000000000        0.0000000000000000     
  0.93750000000000000       0.40625000000000000        0.0000000000000000     
  0.96875000000000000       0.40625000000000000        0.0000000000000000     
   1.0000000000000000       0.40625000000000000        0.0000000000000000     
  0.87500000000000000       0.43750000000000000        0.0000000000000000     
  0.90625000000000000       0.43750000000000000        0.0000000000000000     
  0.93750000000000000       0.43750000000000000        0.0000000000000000     
  0.96875000000000000       0.43750000000000000        0.0000000000000000     
   1.0000000000000000       0.43750000000000000        0.0000000000000000     
  0.87500000000000000       0.46875000000000000        0.0000000000000000     
  0.90625000000000000       0.46875000000000000        0.0000000000000000     
  0.93750000000000000       0.46875000000000000        0.0000000000000000     
  0.96875000000000000       0.46875000000000000        0.0000000000000000     
   1.0000000000000000       0.46875000000000000        0.0000000000000000     
  0.87500000000000000       0.50000000000000000        0.0000000000000000     
  0.90625000000000000       0.50000000000000000        0.0000000000000000     
  0.93750000000000000       0.50000000000000000        0.0000000000000000     
  0.96875000000000000       0.50000000000000000        0.0000000000000000     
   1.0000000000000000       0.50000000000000000        0.0000000000000000     
   1.0000000000000000       0.37500000000000000        0.0000000000000000     
   1.0312500000000000       0.37500000000000000        0.0000000000000000     
   1.0625000000000000       0.37500000000000000        0.0000000000000000     
   1.0937500000000000       0.37500000000000000        0.0000000000000000     
   1.1250000000000000       0.37500000000000000        0.0000000000000000     
   1.0000000000000000       0.40625000000000000        0.0000000000000000     
   1.0312500000000000       0.40625000000000000        0.0000000000000000     
   1.0625000000000000       0.40625000000000000        0.0000000000000000     
   1.0937500000000000       0.40625000000000000        0.0000000000000000     
   1.1250000000000000       0.40625000000000000        0.0000000000000000     
   1.0000000000000000       0.43750000000000000        0.0000000000000000     
   1.0312500000000000       0.43750000000000000        0.0000000000000000     
   1.0625000000000000       0.43750000000000000        0.0000000000000000     
   1.0937500000000000       0.43750000000000000        0.0000000000000000     
   1.1250000000000000       0.43750000000000000        0.0000000000000000     
   1.0000000000000000       0.46875000000000000        0.0000000000000000     
   1.0312500000000000       0.46875000000000000        0.0000000000000000     
   1.0625000000000000       0.46875000000000000        0.0000000000000000     
   1.0937500000000000       0.46875000000000000        0.0000000000000000     
   1.1250000000000000       0.46875000000000000        0.0000000000000000     
   1.0000000000000000       0.50000000000000000        0.0000000000000000     
   1.0312500000000000       0.50000000000000000        0.0000000000000000     
   1.0625000000000000       0.50000000000000000        0.0000000000000000     
   1.0937500000000000       0.50000000000000000        0.0000000000000000     
   1.1250000000000000       0.50000000000000000        0.0000000000000000     
   1.1250000000000000       0.37500000000000000        0.0000000000000000     
   1.1562500000000000       0.37500000000000000        0.0000000000000000     
   1.1875000000000000       0.37500000000000000        0.0000000000000000     
   1.2187500000000000       0.37500000000000000        0.0000000000000000     
   1.2500000000000000       0.37500000000000000        0.0000000000000000     
   1.1250000000000000       0.40625000000000000        0.0000000000000000     
   1.1562500000000000       0.40625000000000000        0.0000000000000000     
   1.1875000000000000       0.40625000000000000        0.0000000000000000     
   1.2187500000000000       0.40625000000000000        0.0000000000000000     
   1.2500000000000000       0.40625000000000000        0.0000000000000000     
   1.1250000000000000       0.43750000000000000        0.0000000000000000     
   1.1562500000000000       0.43750000000000000        0.0000000000000000     
   1.1875000000000000       0.43750000000000000        0.0000000000000000     
   1.2187500000000000       0.43750000000000000        0.0000000000000000     
   1.2500000000000000       0.43750000000000000        0.0000000000000000     
   1.1250000000000000       0.46875000000000000        0.0000000000000000     
   1.1562500000000000       0.46875000000000000        0.0000000000000000     
   1.1875000000000000       0.46875000000000000        0.0000000000000000     
   1.2187500000000000       0.46875000000000000        0.0000000000000000     
   1.2500000000000000       0.46875000000000000        0.0000000000000000     
   1.1250000000000000       0.50000000000000000        0.0000000000000000     
   1.1562500000000000       0.50000000000000000        0.0000000000000000     
   1.1875000000000000       0.50000000000000000        0.0000000000000000     
   1.2187500000000000       0.50000000000000000        0.0000000000000000     
   1.2500000000000000       0.50000000000000000        0.0000000000000000     
   1.2500000000000000       0.37500000000000000        0.0000000000000000     
   1.2812500000000000       0.37500000000000000        0.0000000000000000     
   1.3125000000000000       0.37500000000000000        0.0000000000000000     
   1.3437500000000000       0.37500000000000000        0.0000000000000000     
   1.3750000000000000       0.37500000000000000        0.0000000000000000     
   1.2500000000000000       0.40625000000000000        0.0000000000000000     
   1.2812500000000000       0.40625000000000000        0.0000000000000000     
   1.3125000000000000       0.40625000000000000        0.0000000000000000     
   1.3437500000000000       0.40625000000000000        0.0000000000000000     
   1.3750000000000000       0.40625000000000000        0.0000000000000000     
   1.2500000000000000       0.43750000000000000        0.0000000000000000     
   1.2812500000000000       0.43750000000000000        0.0000000000000000     
   1.3125000000000000       0.43750000000000000        0.0000000000000000     
   1.3437500000000000       0.43750000000000000        0.0000000000000000     
   1.3750000000000000       0.43750000000000000        0.0000000000000000     
   1.2500000000000000       0.46875000000000000        0.0000000000000000     
   1.2812500000000000       0.46875000000000000        0.0000000000000000     
   1.3125000000000000       0.46875000000000000        0.0000000000000000     
   1.3437500000000000       0.46875000000000000        0.0000000000000000     
   1.3750000000000000       0.46875000000000000        0.0000000000000000     
   1.2500000000000000       0.50000000000000000        0.0000000000000000     
   1.2812500000000000       0.50000000000000000        0.0000000000000000     
   1.3125000000000000       0.50000000000000000        0.0000000000000000     
   1.3437500000000000       0.50000000000000000        0.0000000000000000     
   1.3750000000000000       0.50000000000000000        0.0000000000000000     
   1.3750000000000000       0.37500000000000000        0.0000000000000000     
   1.4062500000000000       0.37500000000000000        0.0000000000000000     
   1.4375000000000000       0.37500000000000000        0.0000000000000000     
   1.4687500000000000       0.37500000000000000        0.0000000000000000     
   1.5000000000000000       0.37500000000000000        0.0000000000000000     
   1.3750000000000000       0.40625000000000000        0.0000000000000000     
   1.4062500000000000       0.40625000000000000        0.0000000000000000     
   1.4375000000000000       0.40625000000000000        0.0000000000000000     
   1.4687500000000000       0.40625000000000000        0.0000000000000000     
   1.5000000000000000       0.40625000000000000        0.0000000000000000     
   1.3750000000000000       0.43750000000000000        0.0000000000000000     
   1.4062500000000000       0.43750000000000000        0.0000000000000000     
   1.4375000000000000       0.43750000000000000        0.0000000000000000     
   1.4687500000000000       0.43750000000000000        0.0000000000000000     
   1.5000000000000000       0.43750000000000000        0.0000000000000000     
   1.3750000000000000       0.46875000000000000        0.0000000000000000     
   1.4062500000000000       0.46875000000000000        0.0000000000000000     
   1.4375000000000000       0.46875000000000000        0.0000000000000000     
   1.4687500000000000       0.46875000000000000        0.0000000000000000     
   1.5000000000000000       0.46875000000000000        0.0000000000000000     
   1.3750000000000000       0.50000000000000000        0.0000000000000000     
   1.4062500000000000       0.50000000000000000        0.0000000000000000     
   1.4375000000000000       0.50000000000000000        0.0000000000000000     
   1.4687500000000000       0.50000000000000000        0.0000000000000000     
   1.5000000000000000       0.50000000000000000        0.0000000000000000     
  0.50000000000000000       0.50000000000000000        0.0000000000000000     
  0.53125000000000000       0.50000000000000000        0.0000000000000000     
  0.56250000000000000       0.50000000000000000        0.0000000000000000     
  0.59375000000000000       0.50000000000000000        0.0000000000000000     
  0.62500000000000000       0.50000000000000000        0.0000000000000000     
  0.50000000000000000       0.53125000000000000        0.0000000000000000     
  0.53125000000000000       0.53125000000000000        0.0000000000000000     
  0.56250000000000000       0.53125000000000000        0.0000000000000000     
  0.59375000000000000       0.53125000000000000        0.0000000000000000     
  0.62500000000000000       0.53125000000000000        0.0000000000000000     
  0.50000000000000000       0.56250000000000000        0.0000000000000000     
  0.53125000000000000       0.56250000000000000        0.0000000000000000     
  0.56250000000000000       0.56250000000000000        0.0000000000000000     
  0.59375000000000000       0.56250000000000000        0.0000000000000000     
  0.62500000000000000       0.56250000000000000        0.0000000000000000     
  0.50000000000000000       0.59375000000000000        0.0000000000000000     
  0.53125000000000000       0.59375000000000000        0.0000000000000000     
  0.56250000000000000       0.59375000000000000        0.0000000000000000     
  0.59375000000000000       0.59375000000000000        0.0000000000000000     
  0.62500000000000000       0.59375000000000000        0.0000000000000000     
  0.50000000000000000       0.62500000000000000        0.0000000000000000     
  0.53125000000000000       0.62500000000000000        0.0000000000000000     
  0.56250000000000000       0.62500000000000000        0.0000000000000000     
  0.59375000000000000       0.62500000000000000        0.0000000000000000     
  0.62500000000000000       0.62500000000000000        0.0000000000000000     
  0.62500000000000000       0.50000000000000000        0.0000000000000000     
  0.65625000000000000       0.50000000000000000        0.0000000000000000     
  0.68750000000000000       0.50000000000000000        0.0000000000000000     
  0.71875000000000000       0.50000000000000000        0.0000000000000000     
  0.75000000000000000       0.50000000000000000        0.0000000000000000     
  0.62500000000000000       0.53125000000000000        0.0000000000000000     
  0.65625000000000000       0.53125000000000000        0.0000000000000000     
  0.68750000000000000       0.53125000000000000        0.0000000000000000     
  0.71875000000000000       0.53125000000000000        0.0000000000000000     
  0.75000000000000000       0.53125000000000000        0.0000000000000000     
  0.62500000000000000       0.56250000000000000        0.0000000000000000     
  0.65625000000000000       0.56250000000000000        0.0000000000000000     
  0.68750000000000000       0.56250000000000000        0.0000000000000000     
  0.71875000000000000       0.56250000000000000        0.0000000000000000     
  0.75000000000000000       0.56250000000000000        0.0000000000000000     
  0.62500000000000000       0.59375000000000000        0.0000000000000000     
  0.65625000000000000       0.59375000000000000        0.0000000000000000     
  0.68750000000000000       0.59375000000000000        0.0000000000000000     
  0.71875000000000000       0.59375000000000000        0.0000000000000000     
  0.75000000000000000       0.59375000000000000        0.0000000000000000     
  0.62500000000000000       0.62500000000000000        0.0000000000000000     
  0.65625000000000000       0.62500000000000000        0.0000000000000000     
  0.68750000000000000       0.62500000000000000        0.0000000000000000     
  0.71875000000000000       0.62500000000000000        0.0000000000000000     
  0.75000000000000000       0.62500000000000000        0.0000000000000000     
  0.75000000000000000       0.50000000000000000        0.0000000000000000     
  0.78125000000000000       0.50000000000000000        0.0000000000000000     
  0.81250000000000000       0.50000000000000000        0.0000000000000000     
  0.84375000000000000       0.50000000000000000        0.0000000000000000     
  0.87500000000000000       0.50000000000000000        0.0000000000000000     
  0.75000000000000000       0.53125000000000000        0.0000000000000000     
  0.78125000000000000       0.53125000000000000        0.0000000000000000     
  0.81250000000000000       0.53125000000000000        0.0000000000000000     
  0.84375000000000000       0.53125000000000000        0.0000000000000000     
  0.87500000000000000       0.53125000000000000        0.0000000000000000     
  0.75000000000000000       0.56250000000000000        0.0000000000000000     
  0.78125000000000000       0.56250000000000000        0.0000000000000000     
  0.81250000000000000       0.56250000000000000        0.0000000000000000     
  0.84375000000000000       0.56250000000000000        0.0000000000000000     
  0.87500000000000000       0.56250000000000000        0.0000000000000000     
  0.75000000000000000       0.59375000000000000        0.0000000000000000     
  0.78125000000000000       0.59375000000000000        0.0000000000000000     
  0.81250000000000000       0.59375000000000000        0.0000000000000000     
  0.84375000000000000       0.59375000000000000        0.0000000000000000     
  0.87500000000000000       0.59375000000000000        0.0000000000000000     
  0.75000000000000000       0.62500000000000000        0.0000000000000000     
  0.78125000000000000       0.62500000000000000        0.0000000000000000     
  0.81250000000000000       0.62500000000000000        0.0000000000000000     
  0.84375000000000000       0.62500000000000000        0.0000000000000000     
  0.87500000000000000       0.62500000000000000        0.0000000000000000     
  0.87500000000000000       0.50000000000000000        0.0000000000000000     
  0.90625000000000000       0.50000000000000000        0.0000000000000000     
  0.93750000000000000       0.50000000000000000        0.0000000000000000     
  0.96875000000000000       0.50000000000000000        0.0000000000000000     
   1.0000000000000000       0.50000000000000000        0.0000000000000000     
  0.87500000000000000       0.53125000000000000        0.0000000000000000     
  0.90625000000000000       0.53125000000000000        0.0000000000000000     
  0.93750000000000000       0.53125000000000000        0.0000000000000000     
  0.96875000000000000       0.53125000000000000        0.0000000000000000     
   1.0000000000000000       0.53125000000000000        0.0000000000000000     
  0.87500000000000000       0.56250000000000000        0.0000000000000000     
  0.90625000000000000       0.56250000000000000        0.0000000000000000     
  0.93750000000000000       0.56250000000000000        0.0000000000000000     
  0.96875000000000000       0.56250000000000000        0.0000000000000000     
   1.0000000000000000       0.56250000000000000        0.0000000000000000     
  0.87500000000000000       0.59375000000000000        0.0000000000000000     
  0.90625000000000000       0.59375000000000000        0.0000000000000000     
  0.93750000000000000       0.59375000000000000        0.0000000000000000     
  0.96875000000000000       0.59375000000000000        0.0000000000000000     
   1.0000000000000000       0.59375000000000000        0.0000000000000000     
  0.87500000000000000       0.62500000000000000        0.0000000000000000     
  0.90625000000000000       0.62500000000000000        0.0000000000000000     
  0.93750000000000000       0.62500000000000000        0.0000000000000000     
  0.96875000000000000       0.62500000000000000        0.0000000000000000     
   1.0000000000000000       0.62500000000000000        0.0000000000000000     
   1.0000000000000000       0.50000000000000000        0.0000000000000000     
   1.0312500000000000       0.50000000000000000        0.0000000000000000     
   1.0625000000000000       0.50000000000000000        0.0000000000000000     
   1.0937500000000000       0.50000000000000000        0.0000000000000000     
   1.1250000000000000       0.50000000000000000        0.0000000000000000     
   1.0000000000000000       0.53125000000000000        0.0000000000000000     
   1.0312500000000000       0.53125000000000000        0.0000000000000000     
   1.0625000000000000       0.53125000000000000        0.0000000000000000     
   1.0937500000000000       0.53125000000000000        0.0000000000000000     
   1.1250000000000000       0.53125000000000000        0.0000000000000000     
   1.0000000000000000       0.56250000000000000        0.0000000000000000     
   1.0312500000000000       0.56250000000000000        0.0000000000000000     
   1.0625000000000000       0.56250000000000000        0.0000000000000000     
   1.0937500000000000       0.56250000000000000        0.0000000000000000     
   1.1250000000000000       0.56250000000000000        0.0000000000000000     
   1.0000000000000000       0.59375000000000000        0.0000000000000000     
   1.0312500000000000       0.59375000000000000        0.0000000000000000     
   1.0625000000000000       0.59375000000000000        0.0000000000000000     
   1.0937500000000000       0.59375000000000000        0.0000000000000000     
   1.1250000000000000       0.59375000000000000        0.0000000000000000     
   1.0000000000000000       0.62500000000000000        0.0000000000000000     
   1.0312500000000000       0.62500000000000000        0.0000000000000000     
   1.0625000000000000       0.62500000000000000        0.0000000000000000     
   1.0937500000000000       0.62500000000000000        0.0000000000000000     
   1.1250000000000000       0.62500000000000000        0.0000000000000000     
   1.1250000000000000       0.50000000000000000        0.0000000000000000     
   1.1562500000000000       0.50000000000000000        0.0000000000000000     
   1.1875000000000000       0.50000000000000000        0.0000000000000000     
   1.2187500000000000       0.50000000000000000        0.0000000000000000     
   1.2500000000000000       0.50000000000000000        0.0000000000000000     
   1.1250000000000000       0.53125000000000000        0.0000000000000000     
   1.1562500000000000       0.53125000000000000        0.0000000000000000     
   1.1875000000000000       0.53125000000000000        0.0000000000000000     
   1.2187500000000000       0.53125000000000000        0.0000000000000000     
   1.2500000000000000       0.53125000000000000        0.0000000000000000     
   1.1250000000000000       0.56250000000000000        0.0000000000000000     
   1.1562500000000000       0.56250000000000000        0.0000000000000000     
   1.1875000000000000       0.56250000000000000        0.0000000000000000     
   1.2187500000000000       0.56250000000000000        0.0000000000000000     
   1.2500000000000000       0.56250000000000000        0.0000000000000000     
   1.1250000000000000       0.59375000000000000        0.0000000000000000     
   1.1562500000000000       0.59375000000000000        0.0000000000000000     
   1.1875000000000000       0.59375000000000000        0.0000000000000000     
   1.2187500000000000       0.59375000000000000        0.0000000000000000     
   1.2500000000000000       0.59375000000000000        0.0000000000000000     
   1.1250000000000000       0.62500000000000000        0.0000000000000000     
   1.1562500000000000       0.62500000000000000        0.0000000000000000     
   1.1875000000000000       0.62500000000000000        0.0000000000000000     
   1.2187500000000000       0.62500000000000000        0.0000000000000000     
   1.2500000000000000       0.62500000000000000        0.0000000000000000     
   1.2500000000000000       0.50000000000000000        0.0000000000000000     
   1.2812500000000000       0.50000000000000000        0.0000000000000000     
   1.3125000000000000       0.50000000000000000        0.0000000000000000     
   1.3437500000000000       0.50000000000000000        0.0000000000000000     
   1.3750000000000000       0.50000000000000000        0.0000000000000000     
   1.2500000000000000       0.53125000000000000        0.0000000000000000     
   1.2812500000000000       0.53125000000000000        0.0000000000000000     
   1.3125000000000000       0.53125000000000000        0.0000000000000000     
   1.3437500000000000       0.53125000000000000        0.0000000000000000     
   1.3750000000000000       0.53125000000000000        0.0000000000000000     
   1.2500000000000000       0.56250000000000000        0.0000000000000000     
   1.2812500000000000       0.56250000000000000        0.0000000000000000     
   1.3125000000000000       0.56250000000000000        0.0000000000000000     
   1.3437500000000000       0.56250000000000000        0.0000000000000000     
   1.3750000000000000       0.56250000000000000        0.0000000000000000     
   1.2500000000000000       0.59375000000000000        0.0000000000000000     
   1.2812500000000000       0.59375000000000000        0.0000000000000000     
   1.3125000000000000       0.59375000000000000        0.0000000000000000     
   1.3437500000000000       0.59375000000000000        0.0000000000000000     
   1.3750000000000000       0.59375000000000000        0.0000000000000000     
   1.2500000000000000       0.62500000000000000        0.0000000000000000     
   1.2812500000000000       0.62500000000000000        0.0000000000000000     
   1.3125000000000000       0.62500000000000000        0.0000000000000000     
   1.3437500000000000       0.62500000000000000        0.0000000000000000     
   1.3750000000000000       0.62500000000000000        0.0000000000000000     
   1.3750000000000000       0.50000000000000000        0.0000000000000000     
   1.4062500000000000       0.50000000000000000        0.0000000000000000     
   1.4375000000000000       0.50000000000000000        0.0000000000000000     
   1.4687500000000000       0.50000000000000000        0.0000000000000000     
   1.5000000000000000       0.50000000000000000        0.0000000000000000     
   1.3750000000000000       0.53125000000000000        0.0000000000000000     
   1.4062500000000000       0.53125000000000000        0.0000000000000000     
   1.4375000000000000       0.53125000000000000        0.0000000000000000     
   1.4687500000000000       0.53125000000000000        0.0000000000000000     
   1.5000000000000000       0.53125000000000000        0.0000000000000000     
   1.3750000000000000       0.56250000000000000        0.0000000000000000     
   1.4062500000000000       0.56250000000000000        0.0000000000000000     
   1.4375000000000000       0.56250000000000000        0.0000000000000000     
   1.4687500000000000       0.56250000000000000        0.0000000000000000     
   1.5000000000000000       0.56250000000000000        0.0000000000000000     
   1.3750000000000000       0.59375000000000000        0.0000000000000000     
   1.4062500000000000       0.59375000000000000        0.0000000000000000     
   1.4375000000000000       0.59375000000000000        0.0000000000000000     
   1.4687500000000000       0.59375000000000000        0.0000000000000000     
   1.5000000000000000       0.59375000000000000        0.0000000000000000     
   1.3750000000000000       0.62500000000000000        0.0000000000000000     
   1.4062500000000000       0.62500000000000000        0.0000000000000000     
   1.4375000000000000       0.62500000000000000        0.0000000000000000     
   1.4687500000000000       0.62500000000000000        0.0000000000000000     
   1.5000000000000000       0.62500000000000000        0.0000000000000000     
  0.50000000000000000       0.62500000000000000        0.0000000000000000     
  0.53125000000000000       0.62500000000000000        0.0000000000000000     
  0.56250000000000000       0.62500000000000000        0.0000000000000000     
  0.59375000000000000       0.62500000000000000        0.0000000000000000     
  0.62500000000000000       0.62500000000000000        0.0000000000000000     
  0.50000000000000000       0.65625000000000000        0.0000000000000000     
  0.53125000000000000       0.65625000000000000        0.0000000000000000     
  0.56250000000000000       0.65625000000000000        0.0000000000000000     
  0.59375000000000000       0.65625000000000000        0.0000000000000000     
  0.62500000000000000       0.65625000000000000        0.0000000000000000     
  0.50000000000000000       0.68750000000000000        0.0000000000000000     
  0.53125000000000000       0.68750000000000000        0.0000000000000000     
  0.56250000000000000       0.68750000000000000        0.0000000000000000     
  0.59375000000000000       0.68750000000000000        0.0000000000000000     
  0.62500000000000000       0.68750000000000000        0.0000000000000000     
  0.50000000000000000       0.71875000000000000        0.0000000000000000     
  0.53125000000000000       0.71875000000000000        0.0000000000000000     
  0.56250000000000000       0.71875000000000000        0.0000000000000000     
  0.59375000000000000       0.71875000000000000        0.0000000000000000     
  0.62500000000000000       0.71875000000000000        0.0000000000000000     
  0.50000000000000000       0.75000000000000000        0.0000000000000000     
  0.53125000000000000       0.75000000000000000        0.0000000000000000     
  0.56250000000000000       0.75000000000000000        0.0000000000000000     
  0.59375000000000000       0.75000000000000000        0.0000000000000000     
  0.62500000000000000       0.75000000000000000        0.0000000000000000     
  0.62500000000000000       0.62500000000000000        0.0000000000000000     
  0.65625000000000000       0.62500000000000000        0.0000000000000000     
  0.68750000000000000       0.62500000000000000        0.0000000000000000     
  0.71875000000000000       0.62500000000000000        0.0000000000000000     
  0.75000000000000000       0.62500000000000000        0.0000000000000000     
  0.62500000000000000       0.65625000000000000        0.0000000000000000     
  0.65625000000000000       0.65625000000000000        0.0000000000000000     
  0.68750000000000000       0.65625000000000000        0.0000000000000000     
  0.71875000000000000       0.65625000000000000        0.0000000000000000     
  0.75000000000000000       0.65625000000000000        0.0000000000000000     
  0.62500000000000000       0.68750000000000000        0.0000000000000000     
  0.65625000000000000       0.68750000000000000        0.0000000000000000     
  0.68750000000000000       0.68750000000000000        0.0000000000000000     
  0.71875000000000000       0.68750000000000000        0.0000000000000000     
  0.75000000000000000       0.68750000000000000        0.0000000000000000     
  0.62500000000000000       0.71875000000000000        0.0000000000000000     
  0.65625000000000000       0.71875000000000000        0.0000000000000000     
  0.68750000000000000       0.71875000000000000        0.0000000000000000     
  0.71875000000000000       0.71875000000000000        0.0000000000000000     
  0.75000000000000000       0.71875000000000000        0.0000000000000000     
  0.62500000000000000       0.75000000000000000        0.0000000000000000     
  0.65625000000000000       0.75000000000000000        0.0000000000000000     
  0.68750000000000000       0.75000000000000000        0.0000000000000000     
  0.71875000000000000       0.75000000000000000        0.0000000000000000     
  0.75000000000000000       0.75000000000000000        0.0000000000000000     
  0.75000000000000000       0.62500000000000000        0.0000000000000000     
  0.78125000000000000       0.62500000000000000        0.0000000000000000     
  0.81250000000000000       0.62500000000000000        0.0000000000000000     
  0.84375000000000000       0.62500000000000000        0.0000000000000000     
  0.87500000000000000       0.62500000000000000        0.0000000000000000     
  0.75000000000000000       0.65625000000000000        0.0000000000000000     
  0.78125000000000000       0.65625000000000000        0.0000000000000000     
  0.81250000000000000       0.65625000000000000        0.0000000000000000     
  0.84375000000000000       0.65625000000000000        0.0000000000000000     
  0.87500000000000000       0.65625000000000000        0.0000000000000000     
  0.75000000000000000       0.68750000000000000        0.0000000000000000     
  0.78125000000000000       0.68750000000000000        0.0000000000000000     
  0.81250000000000000       0.68750000000000000        0.0000000000000000     
  0.84375000000000000       0.68750000000000000        0.0000000000000000     
  0.87500000000000000       0.68750000000000000        0.0000000000000000     
  0.75000000000000000       0.71875000000000000        0.0000000000000000     
  0.78125000000000000       0.71875000000000000        0.0000000000000000     
  0.81250000000000000       0.71875000000000000        0.0000000000000000     
  0.84375000000000000       0.71875000000000000        0.0000000000000000     
  0.87500000000000000       0.71875000000000000        0.0000000000000000     
  0.75000000000000000       0.75000000000000000        0.0000000000000000     
  0.78125000000000000       0.75000000000000000        0.0000000000000000     
  0.81250000000000000       0.75000000000000000        0.0000000000000000     
  0.84375000000000000       0.75000000000000000        0.0000000000000000     
  0.87500000000000000       0.75000000000000000        0.0000000000000000     
  0.87500000000000000       0.62500000000000000        0.0000000000000000     
  0.90625000000000000       0.62500000000000000        0.0000000000000000     
  0.93750000000000000       0.62500000000000000        0.0000000000000000     
  0.96875000000000000       0.62500000000000000        0.0000000000000000     
   1.0000000000000000       0.62500000000000000        0.0000000000000000     
  0.87500000000000000       0.65625000000000000        0.0000000000000000     
  0.90625000000000000       0.65625000000000000        0.0000000000000000     
  0.93750000000000000       0.65625000000000000        0.0000000000000000     
  0.96875000000000000       0.65625000000000000        0.0000000000000000     
   1.0000000000000000       0.65625000000000000        0.0000000000000000     
  0.87500000000000000       0.68750000000000000        0.0000000000000000     
  0.90625000000000000       0.68750000000000000        0.0000000000000000     
  0.93750000000000000       0.68750000000000000        0.0000000000000000     
  0.96875000000000000       0.68750000000000000        0.0000000000000000     
   1.0000000000000000       0.68750000000000000        0.0000000000000000     
  0.87500000000000000       0.71875000000000000        0.0000000000000000     
  0.90625000000000000       0.71875000000000000        0.0000000000000000     
  0.93750000000000000       0.71875000000000000        0.0000000000000000     
  0.96875000000000000       0.71875000000000000        0.0000000000000000     
   1.0000000000000000       0.71875000000000000        0.0000000000000000     
  0.87500000000000000       0.75000000000000000        0.0000000000000000     
  0.90625000000000000       0.75000000000000000        0.0000000000000000     
  0.93750000000000000       0.75000000000000000        0.0000000000000000     
  0.96875000000000000       0.75000000000000000        0.0000000000000000     
   1.0000000000000000       0.75000000000000000        0.0000000000000000     
   1.0000000000000000       0.62500000000000000        0.0000000000000000     
   1.0312500000000000       0.62500000000000000        0.0000000000000000     
   1.0625000000000000       0.62500000000000000        0.0000000000000000     
   1.0937500000000000       0.62500000000000000        0.0000000000000000     
   1.1250000000000000       0.62500000000000000        0.0000000000000000     
   1.0000000000000000       0.65625000000000000        0.0000000000000000     
   1.0312500000000000       0.65625000000000000        0.0000000000000000     
   1.0625000000000000       0.65625000000000000        0.0000000000000000     
   1.0937500000000000       0.65625000000000000        0.0000000000000000     
   1.1250000000000000       0.65625000000000000        0.0000000000000000     
   1.0000000000000000       0.68750000000000000        0.0000000000000000     
   1.0312500000000000       0.68750000000000000        0.0000000000000000     
   1.0625000000000000       0.68750000000000000        0.0000000000000000     
   1.0937500000000000       0.68750000000000000        0.0000000000000000     
   1.1250000000000000       0.68750000000000000        0.0000000000000000     
   1.0000000000000000       0.71875000000000000        0.0000000000000000     
   1.0312500000000000       0.71875000000000000        0.0000000000000000     
   1.0625000000000000       0.71875000000000000        0.0000000000000000     
   1.0937500000000000       0.71875000000000000        0.0000000000000000     
   1.1250000000000000       0.71875000000000000        0.0000000000000000     
   1.0000000000000000       0.75000000000000000        0.0000000000000000     
   1.0312500000000000       0.75000000000000000        0.0000000000000000     
   1.0625000000000000       0.75000000000000000        0.0000000000000000     
   1.0937500000000000       0.75000000000000000        0.0000000000000000     
   1.1250000000000000       0.75000000000000000        0.0000000000000000     
   1.1250000000000000       0.62500000000000000        0.0000000000000000     
   1.1562500000000000       0.62500000000000000        0.0000000000000000     
   1.1875000000000000       0.62500000000000000        0.0000000000000000     
   1.2187500000000000       0.62500000000000000        0.0000000000000000     
   1.2500000000000000       0.62500000000000000        0.0000000000000000     
   1.1250000000000000       0.65625000000000000        0.0000000000000000     
   1.1562500000000000       0.65625000000000000        0.0000000000000000     
   1.1875000000000000       0.65625000000000000        0.0000000000000000     
   1.2187500000000000       0.65625000000000000        0.0000000000000000     
   1.2500000000000000       0.65625000000000000        0.0000000000000000     
   1.1250000000000000       0.68750000000000000        0.0000000000000000     
   1.1562500000000000       0.68750000000000000        0.0000000000000000     
   1.1875000000000000       0.68750000000000000        0.0000000000000000     
   1.2187500000000000       0.68750000000000000        0.0000000000000000     
   1.2500000000000000       0.68750000000000000        0.0000000000000000     
   1.1250000000000000       0.71875000000000000        0.0000000000000000     
   1.1562500000000000       0.71875000000000000        0.0000000000000000     
   1.1875000000000000       0.71875000000000000        0.0000000000000000     
   1.2187500000000000       0.71875000000000000        0.0000000000000000     
   1.2500000000000000       0.71875000000000000        0.0000000000000000     
   1.1250000000000000       0.75000000000000000        0.0000000000000000     
   1.1562500000000000       0.75000000000000000        0.0000000000000000     
   1.1875000000000000       0.75000000000000000        0.0000000000000000     
   1.2187500000000000       0.75000000000000000        0.0000000000000000     
   1.2500000000000000       0.75000000000000000        0.0000000000000000     
   1.2500000000000000       0.62500000000000000        0.0000000000000000     
   1.2812500000000000       0.62500000000000000        0.0000000000000000     
   1.3125000000000000       0.62500000000000000        0.0000000000000000     
   1.3437500000000000       0.62500000000000000        0.0000000000000000     
   1.3750000000000000       0.62500000000000000        0.0000000000000000     
   1.2500000000000000       0.65625000000000000        0.0000000000000000     
   1.2812500000000000       0.65625000000000000        0.0000000000000000     
   1.3125000000000000       0.65625000000000000        0.0000000000000000     
   1.3437500000000000       0.65625000000000000        0.0000000000000000     
   1.3750000000000000       0.65625000000000000        0.0000000000000000     
   1.2500000000000000       0.68750000000000000        0.0000000000000000     
   1.2812500000000000       0.68750000000000000        0.0000000000000000     
   1.3125000000000000       0.68750000000000000        0.0000000000000000     
   1.3437500000000000       0.68750000000000000        0.0000000000000000     
   1.3750000000000000       0.68750000000000000        0.0000000000000000     
   1.2500000000000000       0.71875000000000000        0.0000000000000000     
   1.2812500000000000       0.71875000000000000        0.0000000000000000     
   1.3125000000000000       0.71875000000000000        0.0000000000000000     
   1.3437500000000000       0.71875000000000000        0.0000000000000000     
   1.3750000000000000       0.71875000000000000        0.0000000000000000     
   1.2500000000000000       0.75000000000000000        0.0000000000000000     
   1.2812500000000000       0.75000000000000000        0.0000000000000000     
   1.3125000000000000       0.75000000000000000        0.0000000000000000     
   1.3437500000000000       0.75000000000000000        0.0000000000000000     
   1.3750000000000000       0.75000000000000000        0.0000000000000000     
   1.3750000000000000       0.62500000000000000        0.0000000000000000     
   1.4062500000000000       0.62500000000000000        0.0000000000000000     
   1.4375000000000000       0.62500000000000000        0.0000000000000000     
   1.4687500000000000       0.62500000000000000        0.0000000000000000     
   1.5000000000000000       0.62500000000000000        0.0000000000000000     
   1.3750000000000000       0.65625000000000000        0.0000000000000000     
   1.4062500000000000       0.65625000000000000        0.0000000000000000     
   1.4375000000000000       0.65625000000000000        0.0000000000000000     
   1.4687500000000000       0.65625000000000000        0.0000000000000000     
   1.5000000000000000       0.65625000000000000        0.0000000000000000     
   1.3750000000000000       0.68750000000000000        0.0000000000000000     
   1.4062500000000000       0.68750000000000000        0.0000000000000000     
   1.4375000000000000       0.68750000000000000        0.0000000000000000     
   1.4687500000000000       0.68750000000000000        0.0000000000000000     
   1.5000000000000000       0.68750000000000000        0.0000000000000000     
   1.3750000000000000       0.71875000000000000        0.0000000000000000     
   1.4062500000000000       0.71875000000000000        0.0000000000000000     
   1.4375000000000000       0.71875000000000000        0.0000000000000000     
   1.4687500000000000       0.71875000000000000        0.0000000000000000     
   1.5000000000000000       0.71875000000000000        0.0000000000000000     
   1.3750000000000000       0.75000000000000000        0.0000000000000000     
   1.4062500000000000       0.75000000000000000        0.0000000000000000     
   1.4375000000000000       0.75000000000000000        0.0000000000000000     
   1.4687500000000000       0.75000000000000000        0.0000000000000000     
   1.5000000000000000       0.75000000000000000        0.0000000000000000     
  0.50000000000000000       0.75000000000000000        0.0000000000000000     
  0.53125000000000000       0.75000000000000000        0.0000000000000000     
  0.56250000000000000       0.75000000000000000        0.0000000000000000     
  0.59375000000000000       0.75000000000000000        0.0000000000000000     
  0.62500000000000000       0.75000000000000000        0.0000000000000000     
  0.50000000000000000       0.78125000000000000        0.0000000000000000     
  0.53125000000000000       0.78125000000000000        0.0000000000000000     
  0.56250000000000000       0.78125000000000000        0.0000000000000000     
  0.59375000000000000       0.78125000000000000        0.0000000000000000     
  0.62500000000000000       0.78125000000000000        0.0000000000000000     
  0.50000000000000000       0.81250000000000000        0.0000000000000000     
  0.53125000000000000       0.81250000000000000        0.0000000000000000     
  0.56250000000000000       0.81250000000000000        0.0000000000000000     
  0.59375000000000000       0.81250000000000000        0.0000000000000000     
  0.62500000000000000       0.81250000000000000        0.0000000000000000     
  0.50000000000000000       0.84375000000000000        0.0000000000000000     
  0.53125000000000000       0.84375000000000000        0.0000000000000000     
  0.56250000000000000       0.84375000000000000        0.0000000000000000     
  0.59375000000000000       0.84375000000000000        0.0000000000000000     
  0.62500000000000000       0.84375000000000000        0.0000000000000000     
  0.50000000000000000       0.87500000000000000        0.0000000000000000     
  0.53125000000000000       0.87500000000000000        0.0000000000000000     
  0.56250000000000000       0.87500000000000000        0.0000000000000000     
  0.59375000000000000       0.87500000000000000        0.0000000000000000     
  0.62500000000000000       0.87500000000000000        0.0000000000000000     
  0.62500000000000000       0.75000000000000000        0.0000000000000000     
  0.65625000000000000       0.75000000000000000        0.0000000000000000     
  0.68750000000000000       0.75000000000000000        0.0000000000000000     
  0.71875000000000000       0.75000000000000000        0.0000000000000000     
  0.75000000000000000       0.75000000000000000        0.0000000000000000     
  0.62500000000000000       0.78125000000000000        0.0000000000000000     
  0.65625000000000000       0.78125000000000000        0.0000000000000000     
  0.68750000000000000       0.78125000000000000        0.0000000000000000     
  0.71875000000000000       0.78125000000000000        0.0000000000000000     
  0.75000000000000000       0.78125000000000000        0.0000000000000000     
  0.62500000000000000       0.81250000000000000        0.0000000000000000     
  0.65625000000000000       0.81250000000000000        0.0000000000000000     
  0.68750000000000000       0.81250000000000000        0.0000000000000000     
  0.71875000000000000       0.81250000000000000        0.0000000000000000     
  0.75000000000000000       0.81250000000000000        0.0000000000000000     
  0.62500000000000000       0.84375000000000000        0.0000000000000000     
  0.65625000000000000       0.84375000000000000        0.0000000000000000     
  0.68750000000000000       0.84375000000000000        0.0000000000000000     
  0.71875000000000000       0.84375000000000000        0.0000000000000000     
  0.75000000000000000       0.84375000000000000        0.0000000000000000     
  0.62500000000000000       0.87500000000000000        0.0000000000000000     
  0.65625000000000000       0.87500000000000000        0.0000000000000000     
  0.68750000000000000       0.87500000000000000        0.0000000000000000     
  0.71875000000000000       0.87500000000000000        0.0000000000000000     
  0.75000000000000000       0.87500000000000000        0.0000000000000000     
  0.75000000000000000       0.75000000000000000        0.0000000000000000     
  0.78125000000000000       0.75000000000000000        0.0000000000000000     
  0.81250000000000000       0.75000000000000000        0.0000000000000000     
  0.84375000000000000       0.75000000000000000        0.0000000000000000     
  0.87500000000000000       0.75000000000000000        0.0000000000000000     
  0.75000000000000000       0.78125000000000000        0.0000000000000000     
  0.78125000000000000       0.78125000000000000        0.0000000000000000     
  0.81250000000000000       0.78125000000000000        0.0000000000000000     
  0.84375000000000000       0.78125000000000000        0.0000000000000000     
  0.87500000000000000       0.78125000000000000        0.0000000000000000     
  0.75000000000000000       0.81250000000000000        0.0000000000000000     
  0.78125000000000000       0.81250000000000000        0.0000000000000000     
  0.81250000000000000       0.81250000000000000        0.0000000000000000     
  0.84375000000000000       0.81250000000000000        0.0000000000000000     
  0.87500000000000000       0.81250000000000000        0.0000000000000000     
  0.75000000000000000       0.84375000000000000        0.0000000000000000     
  0.78125000000000000       0.84375000000000000        0.0000000000000000     
  0.81250000000000000       0.84375000000000000        0.0000000000000000     
  0.84375000000000000       0.84375000000000000        0.0000000000000000     
  0.87500000000000000       0.84375000000000000        0.0000000000000000     
  0.75000000000000000       0.87500000000000000        0.0000000000000000     
  0.78125000000000000       0.87500000000000000        0.0000000000000000     
  0.81250000000000000       0.87500000000000000        0.0000000000000000     
  0.84375000000000000       0.87500000000000000        0.0000000000000000     
  0.87500000000000000       0.87500000000000000        0.0000000000000000     
  0.87500000000000000       0.75000000000000000        0.0000000000000000     
  0.90625000000000000       0.75000000000000000        0.0000000000000000     
  0.93750000000000000       0.75000000000000000        0.0000000000000000     
  0.96875000000000000       0.75000000000000000        0.0000000000000000     
   1.0000000000000000       0.75000000000000000        0.0000000000000000     
  0.87500000000000000       0.78125000000000000        0.0000000000000000     
  0.90625000000000000       0.78125000000000000        0.0000000000000000     
  0.93750000000000000       0.78125000000000000        0.0000000000000000     
  0.96875000000000000       0.78125000000000000        0.0000000000000000     
   1.0000000000000000       0.78125000000000000        0.0000000000000000     
  0.87500000000000000       0.81250000000000000        0.0000000000000000     
  0.90625000000000000       0.81250000000000000        0.0000000000000000     
  0.93750000000000000       0.81250000000000000        0.0000000000000000     
  0.96875000000000000       0.81250000000000000        0.0000000000000000     
   1.0000000000000000       0.81250000000000000        0.0000000000000000     
  0.87500000000000000       0.84375000000000000        0.0000000000000000     
  0.90625000000000000       0.84375000000000000        0.0000000000000000     
  0.93750000000000000       0.84375000000000000        0.0000000000000000     
  0.96875000000000000       0.84375000000000000        0.0000000000000000     
   1.0000000000000000       0.84375000000000000        0.0000000000000000     
  0.87500000000000000       0.87500000000000000        0.0000000000000000     
  0.90625000000000000       0.87500000000000000        0.0000000000000000     
  0.93750000000000000       0.87500000000000000        0.0000000000000000     
  0.96875000000000000       0.87500000000000000        0.0000000000000000     
   1.0000000000000000       0.87500000000000000        0.0000000000000000     
   1.0000000000000000       0.75000000000000000        0.0000000000000000     
   1.0312500000000000       0.75000000000000000        0.0000000000000000     
   1.0625000000000000       0.75000000000000000        0.0000000000000000     
   1.0937500000000000       0.75000000000000000        0.0000000000000000     
   1.1250000000000000       0.75000000000000000        0.0000000000000000     
   1.0000000000000000       0.78125000000000000        0.0000000000000000     
   1.0312500000000000       0.78125000000000000        0.0000000000000000     
   1.0625000000000000       0.78125000000000000        0.0000000000000000     
   1.0937500000000000       0.78125000000000000        0.0000000000000000     
   1.1250000000000000       0.78125000000000000        0.0000000000000000     
   1.0000000000000000       0.81250000000000000        0.0000000000000000     
   1.0312500000000000       0.81250000000000000        0.0000000000000000     
   1.0625000000000000       0.81250000000000000        0.0000000000000000     
   1.0937500000000000       0.81250000000000000        0.0000000000000000     
   1.1250000000000000       0.81250000000000000        0.0000000000000000     
   1.0000000000000000       0.84375000000000000        0.0000000000000000     
   1.0312500000000000       0.84375000000000000        0.0000000000000000     
   1.0625000000000000       0.84375000000000000        0.0000000000000000     
   1.0937500000000000       0.84375000000000000        0.0000000000000000     
   1.1250000000000000       0.84375000000000000        0.0000000000000000     
   1.0000000000000000       0.87500000000000000        0.0000000000000000     
   1.0312500000000000       0.87500000000000000        0.0000000000000000     
   1.0625000000000000       0.87500000000000000        0.0000000000000000     
   1.0937500000000000       0.87500000000000000        0.0000000000000000     
   1.1250000000000000       0.87500000000000000        0.0000000000000000     
   1.1250000000000000       0.75000000000000000        0.0000000000000000     
   1.1562500000000000       0.75000000000000000        0.0000000000000000     
   1.1875000000000000       0.75000000000000000        0.0000000000000000     
   1.2187500000000000       0.75000000000000000        0.0000000000000000     
   1.2500000000000000       0.75000000000000000        0.0000000000000000     
   1.1250000000000000       0.78125000000000000        0.0000000000000000     
   1.1562500000000000       0.78125000000000000        0.0000000000000000     
   1.1875000000000000       0.78125000000000000        0.0000000000000000     
   1.2187500000000000       0.78125000000000000        0.0000000000000000     
   1.2500000000000000       0.78125000000000000        0.0000000000000000     
   1.1250000000000000       0.81250000000000000        0.0000000000000000     
   1.1562500000000000       0.81250000000000000        0.0000000000000000     
   1.1875000000000000       0.81250000000000000        0.0000000000000000     
   1.2187500000000000       0.81250000000000000        0.0000000000000000     
   1.2500000000000000       0.81250000000000000        0.0000000000000000     
   1.1250000000000000       0.84375000000000000        0.0000000000000000     
   1.1562500000000000       0.84375000000000000        0.0000000000000000     
   1.1875000000000000       0.84375000000000000        0.0000000000000000     
   1.2187500000000000       0.84375000000000000        0.0000000000000000     
   1.2500000000000000       0.84375000000000000        0.0000000000000000     
   1.1250000000000000       0.87500000000000000        0.0000000000000000     
   1.1562500000000000       0.87500000000000000        0.0000000000000000     
   1.1875000000000000       0.87500000000000000        0.0000000000000000     
   1.2187500000000000       0.87500000000000000        0.0000000000000000     
   1.2500000000000000       0.87500000000000000        0.0000000000000000     
   1.2500000000000000       0.75000000000000000        0.0000000000000000     
   1.2812500000000000       0.75000000000000000        0.0000000000000000     
   1.3125000000000000       0.75000000000000000        0.0000000000000000     
   1.3437500000000000       0.75000000000000000        0.0000000000000000     
   1.3750000000000000       0.75000000000000000        0.0000000000000000     
   1.2500000000000000       0.78125000000000000        0.0000000000000000     
   1.2812500000000000       0.78125000000000000        0.0000000000000000     
   1.3125000000000000       0.78125000000000000        0.0000000000000000     
   1.3437500000000000       0.78125000000000000        0.0000000000000000     
   1.3750000000000000       0.78125000000000000        0.0000000000000000     
   1.2500000000000000       0.81250000000000000        0.0000000000000000     
   1.2812500000000000       0.81250000000000000        0.0000000000000000     
   1.3125000000000000       0.81250000000000000        0.0000000000000000     
   1.3437500000000000       0.81250000000000000        0.0000000000000000     
   1.3750000000000000       0.81250000000000000        0.0000000000000000     
   1.2500000000000000       0.84375000000000000        0.0000000000000000     
   1.2812500000000000       0.84375000000000000        0.0000000000000000     
   1.3125000000000000       0.84375000000000000        0.0000000000000000     
   1.3437500000000000       0.84375000000000000        0.0000000000000000     
   1.3750000000000000       0.84375000000000000        0.0000000000000000     
   1.2500000000000000       0.87500000000000000        0.0000000000000000     
   1.2812500000000000       0.87500000000000000        0.0000000000000000     
   1.3125000000000000       0.87500000000000000        0.0000000000000000     
   1.3437500000000000       0.87500000000000000        0.0000000000000000     
   1.3750000000000000       0.87500000000000000        0.0000000000000000     
   1.3750000000000000       0.75000000000000000        0.0000000000000000     
   1.4062500000000000       0.75000000000000000        0.0000000000000000     
   1.4375000000000000       0.75000000000000000        0.0000000000000000     
   1.4687500000000000       0.75000000000000000        0.0000000000000000     
   1.5000000000000000       0.75000000000000000        0.0000000000000000     
   1.3750000000000000       0.78125000000000000        0.0000000000000000     
   1.4062500000000000       0.78125000000000000        0.0000000000000000     
   1.4375000000000000       0.78125000000000000        0.0000000000000000     
   1.4687500000000000       0.78125000000000000        0.0000000000000000     
   1.5000000000000000       0.78125000000000000        0.0000000000000000     
   1.3750000000000000       0.81250000000000000        0.0000000000000000     
   1.4062500000000000       0.81250000000000000        0.0000000000000000     
   1.4375000000000000       0.81250000000000000        0.0000000000000000     
   1.4687500000000000       0.81250000000000000        0.0000000000000000     
   1.5000000000000000       0.81250000000000000        0.0000000000000000     
   1.3750000000000000       0.84375000000000000        0.0000000000000000     
   1.4062500000000000       0.84375000000000000        0.0000000000000000     
   1.4375000000000000       0.84375000000000000        0.0000000000000000     
   1.4687500000000000       0.84375000000000000        0.0000000000000000     
   1.5000000000000000       0.84375000000000000        0.0000000000000000     
   1.3750000000000000       0.87500000000000000        0.0000000000000000     
   1.4062500000000000       0.87500000000000000        0.0000000000000000     
   1.4375000000000000       0.87500000000000000        0.0000000000000000     
   1.4687500000000000       0.87500000000000000        0.0000000000000000     
   1.5000000000000000       0.87500000000000000        0.0000000000000000     
  0.50000000000000000       0.87500000000000000        0.0000000000000000     
  0.53125000000000000       0.87500000000000000        0.0000000000000000     
  0.56250000000000000       0.87500000000000000        0.0000000000000000     
  0.59375000000000000       0.87500000000000000        0.0000000000000000     
  0.62500000000000000       0.87500000000000000        0.0000000000000000     
  0.50000000000000000       0.90625000000000000        0.0000000000000000     
  0.53125000000000000       0.90625000000000000        0.0000000000000000     
  0.56250000000000000       0.90625000000000000        0.0000000000000000     
  0.59375000000000000       0.90625000000000000        0.0000000000000000     
  0.62500000000000000       0.90625000000000000        0.0000000000000000     
  0.50000000000000000       0.93750000000000000        0.0000000000000000     
  0.53125000000000000       0.93750000000000000        0.0000000000000000     
  0.56250000000000000       0.93750000000000000        0.0000000000000000     
  0.59375000000000000       0.93750000000000000        0.0000000000000000     
  0.62500000000000000       0.93750000000000000        0.0000000000000000     
  0.50000000000000000       0.96875000000000000        0.0000000000000000     
  0.53125000000000000       0.96875000000000000        0.0000000000000000     
  0.56250000000000000       0.96875000000000000        0.0000000000000000     
  0.59375000000000000       0.96875000000000000        0.0000000000000000     
  0.62500000000000000       0.96875000000000000        0.0000000000000000     
  0.50000000000000000        1.0000000000000000        0.0000000000000000     
  0.53125000000000000        1.0000000000000000        0.0000000000000000     
  0.56250000000000000        1.0000000000000000        0.0000000000000000     
  0.59375000000000000        1.0000000000000000        0.0000000000000000     
  0.62500000000000000        1.0000000000000000        0.0000000000000000     
  0.62500000000000000       0.87500000000000000        0.0000000000000000     
  0.65625000000000000       0.87500000000000000        0.0000000000000000     
  0.68750000000000000       0.87500000000000000        0.0000000000000000     
  0.71875000000000000       0.87500000000000000        0.0000000000000000     
  0.75000000000000000       0.87500000000000000        0.0000000000000000     
  0.62500000000000000       0.90625000000000000        0.0000000000000000     
  0.65625000000000000       0.90625000000000000        0.0000000000000000     
  0.68750000000000000       0.90625000000000000        0.0000000000000000     
  0.71875000000000000       0.90625000000000000        0.0000000000000000     
  0.75000000000000000       0.90625000000000000        0.0000000000000000     
  0.62500000000000000       0.93750000000000000        0.0000000000000000     
  0.65625000000000000       0.93750000000000000        0.0000000000000000     
  0.68750000000000000       0.93750000000000000        0.0000000000000000     
  0.71875000000000000       0.93750000000000000        0.0000000000000000     
  0.75000000000000000       0.93750000000000000        0.0000000000000000     
  0.62500000000000000       0.96875000000000000        0.0000000000000000     
  0.65625000000000000       0.96875000000000000        0.0000000000000000     
  0.68750000000000000       0.96875000000000000        0.0000000000000000     
  0.71875000000000000       0.96875000000000000        0.0000000000000000     
  0.75000000000000000       0.96875000000000000        0.0000000000000000     
  0.62500000000000000        1.0000000000000000        0.0000000000000000     
  0.65625000000000000        1.0000000000000000        0.0000000000000000     
  0.68750000000000000        1.0000000000000000        0.0000000000000000     
  0.71875000000000000        1.0000000000000000        0.0000000000000000     
  0.75000000000000000        1.0000000000000000        0.0000000000000000     
  0.75000000000000000       0.87500000000000000        0.0000000000000000     
  0.78125000000000000       0.87500000000000000        0.0000000000000000     
  0.81250000000000000       0.87500000000000000        0.0000000000000000     
  0.84375000000000000       0.87500000000000000        0.0000000000000000     
  0.87500000000000000       0.87500000000000000        0.0000000000000000     
  0.75000000000000000       0.90625000000000000        0.0000000000000000     
  0.78125000000000000       0.90625000000000000        0.0000000000000000     
  0.81250000000000000       0.90625000000000000        0.0000000000000000     
  0.84375000000000000       0.90625000000000000        0.0000000000000000     
  0.87500000000000000       0.90625000000000000        0.0000000000000000     
  0.75000000000000000       0.93750000000000000        0.0000000000000000     
  0.78125000000000000       0.93750000000000000        0.0000000000000000     
  0.81250000000000000       0.93750000000000000        0.0000000000000000     
  0.84375000000000000       0.93750000000000000        0.0000000000000000     
  0.87500000000000000       0.93750000000000000        0.0000000000000000     
  0.75000000000000000       0.96875000000000000        0.0000000000000000     
  0.78125000000000000       0.96875000000000000        0.0000000000000000     
  0.81250000000000000       0.96875000000000000        0.0000000000000000     
  0.84375000000000000       0.96875000000000000        0.0000000000000000     
  0.87500000000000000       0.96875000000000000        0.0000000000000000     
  0.75000000000000000        1.0000000000000000        0.0000000000000000     
  0.78125000000000000        1.0000000000000000        0.0000000000000000     
  0.81250000000000000        1.0000000000000000        0.0000000000000000     
  0.84375000000000000        1.0000000000000000        0.0000000000000000     
  0.87500000000000000        1.0000000000000000        0.0000000000000000     
  0.87500000000000000       0.87500000000000000        0.0000000000000000     
  0.90625000000000000       0.87500000000000000        0.0000000000000000     
  0.93750000000000000       0.87500000000000000        0.0000000000000000     
  0.96875000000000000       0.87500000000000000        0.0000000000000000     
   1.0000000000000000       0.87500000000000000        0.0000000000000000     
  0.87500000000000000       0.90625000000000000        0.0000000000000000     
  0.90625000000000000       0.90625000000000000        0.0000000000000000     
  0.93750000000000000       0.90625000000000000        0.0000000000000000     
  0.96875000000000000       0.90625000000000000        0.0000000000000000     
   1.0000000000000000       0.90625000000000000        0.0000000000000000     
  0.87500000000000000       0.93750000000000000        0.0000000000000000     
  0.90625000000000000       0.93750000000000000        0.0000000000000000     
  0.93750000000000000       0.93750000000000000        0.0000000000000000     
  0.96875000000000000       0.93750000000000000        0.0000000000000000     
   1.0000000000000000       0.93750000000000000        0.0000000000000000     
  0.87500000000000000       0.96875000000000000        0.0000000000000000     
  0.90625000000000000       0.96875000000000000        0.0000000000000000     
  0.93750000000000000       0.96875000000000000        0.0000000000000000     
  0.96875000000000000       0.96875000000000000        0.0000000000000000     
   1.0000000000000000       0.96875000000000000        0.0000000000000000     
  0.87500000000000000        1.0000000000000000        0.0000000000000000     
  0.90625000000000000        1.0000000000000000        0.0000000000000000     
  0.93750000000000000        1.0000000000000000        0.0000000000000000     
  0.96875000000000000        1.0000000000000000        0.0000000000000000     
   1.0000000000000000        1.0000000000000000        0.0000000000000000     
   1.0000000000000000       0.87500000000000000        0.0000000000000000     
   1.0312500000000000       0.87500000000000000        0.0000000000000000     
   1.0625000000000000       0.87500000000000000        0.0000000000000000     
   1.0937500000000000       0.87500000000000000        0.0000000000000000     
   1.1250000000000000       0.87500000000000000        0.0000000000000000     
   1.0000000000000000       0.90625000000000000        0.0000000000000000     
   1.0312500000000000       0.90625000000000000        0.0000000000000000     
   1.0625000000000000       0.90625000000000000        0.0000000000000000     
   1.0937500000000000       0.90625000000000000        0.0000000000000000     
   1.1250000000000000       0.90625000000000000        0.0000000000000000     
   1.0000000000000000       0.93750000000000000        0.0000000000000000     
   1.0312500000000000       0.93750000000000000        0.0000000000000000     
   1.0625000000000000       0.93750000000000000        0.0000000000000000     
   1.0937500000000000       0.93750000000000000        0.0000000000000000     
   1.1250000000000000       0.93750000000000000        0.0000000000000000     
   1.0000000000000000       0.96875000000000000        0.0000000000000000     
   1.0312500000000000       0.96875000000000000        0.0000000000000000     
   1.0625000000000000       0.96875000000000000        0.0000000000000000     
   1.0937500000000000       0.96875000000000000        0.0000000000000000     
   1.1250000000000000       0.96875000000000000        0.0000000000000000     
   1.0000000000000000        1.0000000000000000        0.0000000000000000     
   1.0312500000000000        1.0000000000000000        0.0000000000000000     
   1.0625000000000000        1.0000000000000000        0.0000000000000000     
   1.0937500000000000        1.0000000000000000        0.0000000000000000     
   1.1250000000000000        1.0000000000000000        0.0000000000000000     
   1.1250000000000000       0.87500000000000000        0.0000000000000000     
   1.1562500000000000       0.87500000000000000        0.0000000000000000     
   1.1875000000000000       0.87500000000000000        0.0000000000000000     
   1.2187500000000000       0.87500000000000000        0.0000000000000000     
   1.2500000000000000       0.87500000000000000        0.0000000000000000     
   1.1250000000000000       0.90625000000000000        0.0000000000000000     
   1.1562500000000000       0.90625000000000000        0.0000000000000000     
   1.1875000000000000       0.90625000000000000        0.0000000000000000     
   1.2187500000000000       0.90625000000000000        0.0000000000000000     
   1.2500000000000000       0.90625000000000000        0.0000000000000000     
   1.1250000000000000       0.93750000000000000        0.0000000000000000     
   1.1562500000000000       0.93750000000000000        0.0000000000000000     
   1.1875000000000000       0.93750000000000000        0.0000000000000000     
   1.2187500000000000       0.93750000000000000        0.0000000000000000     
   1.2500000000000000       0.93750000000000000        0.0000000000000000     
   1.1250000000000000       0.96875000000000000        0.0000000000000000     
   1.1562500000000000       0.96875000000000000        0.0000000000000000     
   1.1875000000000000       0.96875000000000000        0.0000000000000000     
   1.2187500000000000       0.96875000000000000        0.0000000000000000     
   1.2500000000000000       0.96875000000000000        0.0000000000000000     
   1.1250000000000000        1.0000000000000000        0.0000000000000000     
   1.1562500000000000        1.0000000000000000        0.0000000000000000     
   1.1875000000000000        1.0000000000000000        0.0000000000000000     
   1.2187500000000000        1.0000000000000000        0.0000000000000000     
   1.2500000000000000        1.0000000000000000        0.0000000000000000     
   1.2500000000000000       0.87500000000000000        0.0000000000000000     
   1.2812500000000000       0.87500000000000000        0.0000000000000000     
   1.3125000000000000       0.87500000000000000        0.0000000000000000     
   1.3437500000000000       0.87500000000000000        0.0000000000000000     
   1.3750000000000000       0.87500000000000000        0.0000000000000000     
   1.2500000000000000       0.90625000000000000        0.0000000000000000     
   1.2812500000000000       0.90625000000000000        0.0000000000000000     
   1.3125000000000000       0.90625000000000000        0.0000000000000000     
   1.3437500000000000       0.90625000000000000        0.0000000000000000     
   1.3750000000000000       0.90625000000000000        0.0000000000000000     
   1.2500000000000000       0.93750000000000000        0.0000000000000000     
   1.2812500000000000       0.93750000000000000        0.0000000000000000     
   1.3125000000000000       0.93750000000000000        0.0000000000000000     
   1.3437500000000000       0.93750000000000000        0.0000000000000000     
   1.3750000000000000       0.93750000000000000        0.0000000000000000     
   1.2500000000000000       0.96875000000000000        0.0000000000000000     
   1.2812500000000000       0.96875000000000000        0.0000000000000000     
   1.3125000000000000       0.96875000000000000        0.0000000000000000     
   1.3437500000000000       0.96875000000000000        0.0000000000000000     
   1.3750000000000000       0.96875000000000000        0.0000000000000000     
   1.2500000000000000        1.0000000000000000        0.0000000000000000     
   1.2812500000000000        1.0000000000000000        0.0000000000000000     
   1.3125000000000000        1.0000000000000000        0.0000000000000000     
   1.3437500000000000        1.0000000000000000        0.0000000000000000     
   1.3750000000000000        1.0000000000000000        0.0000000000000000     
   1.3750000000000000       0.87500000000000000        0.0000000000000000     
   1.4062500000000000       0.87500000000000000        0.0000000000000000     
   1.4375000000000000       0.87500000000000000        0.0000000000000000     
   1.4687500000000000       0.87500000000000000        0.0000000000000000     
   1.5000000000000000       0.87500000000000000        0.0000000000000000     
   1.3750000000000000       0.90625000000000000        0.0000000000000000     
   1.4062500000000000       0.90625000000000000        0.0000000000000000     
   1.4375000000000000       0.90625000000000000        0.0000000000000000     
   1.4687500000000000       0.90625000000000000        0.0000000000000000     
   1.5000000000000000       0.90625000000000000        0.0000000000000000     
   1.3750000000000000       0.93750000000000000        0.0000000000000000     
   1.4062500000000000       0.93750000000000000        0.0000000000000000     
   1.4375000000000000       0.93750000000000000        0.0000000000000000     
   1.4687500000000000       0.93750000000000000        0.0000000000000000     
   1.5000000000000000       0.93750000000000000        0.0000000000000000     
   1.3750000000000000       0.96875000000000000        0.0000000000000000     
   1.4062500000000000       0.96875000000000000        0.0000000000000000     
   1.4375000000000000       0.96875000000000000        0.0000000000000000     
   1.4687500000000000       0.96875000000000000        0.0000000000000000     
   1.5000000000000000       0.96875000000000000        0.0000000000000000     
   1.3750000000000000        1.0000000000000000        0.0000000000000000     
   1.4062500000000000        1.0000000000000000        0.0000000000000000     
   1.4375000000000000        1.0000000000000000        0.0000000000000000     
   1.4687500000000000        1.0000000000000000        0.0000000000000000     
   1.5000000000000000        1.0000000000000000        0.0000000000000000     
 </DataArray>
 </Points>
 <Cells>
 <DataArray  type="Int32"  Name="connectivity"  format="ascii">
           0           1           6           5
           1           2           7           6
           2           3           8           7
           3           4           9           8
           5           6          11          10
           6           7          12          11
           7           8          13          12
           8           9          14          13
          10          11          16          15
          11          12          17          16
          12          13          18          17
          13          14          19          18
          15          16          21          20
          16          17          22          21
          17          18          23          22
          18          19          24          23
          25          26          31          30
          26          27          32          31
          27          28          33          32
          28          29          34          33
          30          31          36          35
          31          32          37          36
          32          33          38          37
          33          34          39          38
          35          36          41          40
          36          37          42          41
          37          38          43          42
          38          39          44          43
          40          41          46          45
          41          42          47          46
          42          43          48          47
          43          44          49          48
          50          51          56          55
          51          52          57          56
          52          53          58          57
          53          54          59          58
          55          56          61          60
          56          57          62          61
          57          58          63          62
          58          59          64          63
          60          61          66          65
          61          62          67          66
          62          63          68          67
          63          64          69          68
          65          66          71          70
          66          67          72          71
          67          68          73          72
          68          69          74          73
          75          76          81          80
          76          77          82          81
          77          78          83          82
          78          79          84          83
          80          81          86          85
          81          82          87          86
          82          83          88          87
          83          84          89          88
          85          86          91          90
          86          87          92          91
          87          88          93          92
          88          89          94          93
          90          91          96          95
          91          92          97          96
          92          93          98          97
          93          94          99          98
         100         101         106         105
         101         102         107         106
         102         103         108         107
         103         104         109         108
         105         106         111         110
         106         107         112         111
         107         108         113         112
         108         109         114         113
         110         111         116         115
         111         112         117         116
         112         113         118         117
         113         114         119         118
         115         116         121         120
         116         117         122         121
         117         118         123         122
         118         119         124         123
         125         126         131         130
         126         127         132         131
         127         128         133         132
         128         129         134         133
         130         131         136         135
         131         132         137         136
         132         133         138         137
         133         134         139         138
         135         136         141         140
         136         137         142         141
         137         138         143         142
         138         139         144         143
         140         141         146         145
         141         142         147         146
         142         143         148         147
         143         144         149         148
         150         151         156         155
         151         152         157         156
         152         153         158         157
         153         154         159         158
         155         156         161         160
         156         157         162         161
         157         158         163         162
         158         159         164         163
         160         161         166         165
         161         162         167         166
         162         163         168         167
         163         164         169         168
         165         166         171         170
         166         167         172         171
         167         168         173         172
         168         169         174         173
         175         176         181         180
         176         177         182         181
         177         178         183         182
         178         179         184         183
         180         181         186         185
         181         182         187         186
         182         183         188         187
         183         184         189         188
         185         186         191         190
         186         187         192         191
         187         188         193         192
         188         189         194         193
         190         191         196         195
         191         192         197         196
         192         193         198         197
         193         194         199         198
         200         201         206         205
         201         202         207         206
         202         203         208         207
         203         204         209         208
         205         206         211         210
         206         207         212         211
         207         208         213         212
         208         209         214         213
         210         211         216         215
         211         212         217         216
         212         213         218         217
         213         214         219         218
         215         216         221         220
         216         217         222         221
         217         218         223         222
         218         219         224         223
         225         226         231         230
         226         227         232         231
         227         228         233         232
         228         229         234         233
         230         231         236         235
         231         232         237         236
         232         233         238         237
         233         234         239         238
         235         236         241         240
         236         237         242         241
         237         238         243         242
         238         239         244         243
         240         241         246         245
         241         242         247         246
         242         243         248         247
         243         244         249         248
         250         251         256         255
         251         252         257         256
         252         253         258         257
         253         254         259         258
         255         256         261         260
         256         257         262         261
         257         258         263         262
         258         259         264         263
         260         261         266         265
         261         262         267         266
         262         263         268         267
         263         264         269         268
         265         266         271         270
         266         267         272         271
         267         268         273         272
         268         269         274         273
         275         276         281         280
         276         277         282         281
         277         278         283         282
         278         279         284         283
         280         281         286         285
         281         282         287         286
         282         283         288         287
         283         284         289         288
         285         286         291         290
         286         287         292         291
         287         288         293         292
         288         289         294         293
         290         291         296         295
         291         292         297         296
         292         293         298         297
         293         294         299         298
         300         301         306         305
         301         302         307         306
         302         303         308         307
         303         304         309         308
         305         306         311         310
         306         307         312         311
         307         308         313         312
         308         309         314         313
         310         311         316         315
         311         312         317         316
         312         313         318         317
         313         314         319         318
         315         316         321         320
         316         317         322         321
         317         318         323         322
         318         319         324         323
         325         326         331         330
         326         327         332         331
         327         328         333         332
         328         329         334         333
         330         331         336         335
         331         332         337         336
         332         333         338         337
         333         334         339         338
         335         336         341         340
         336         337         342         341
         337         338         343         342
         338         339         344         343
         340         341         346         345
         341         342         347         346
         342         343         348         347
         343         344         349         348
         350         351         356         355
         351         352         357         356
         352         353         358         357
         353         354         359         358
         355         356         361         360
         356         357         362         361
         357         358         363         362
         358         359         364         363
         360         361         366         365
         361         362         367         366
         362         363         368         367
         363         364         369         368
         365         366         371         370
         366         367         372         371
         367         368         373         372
         368         369         374         373
         375         376         381         380
         376         377         382         381
         377         378         383         382
         378         379         384         383
         380         381         386         385
         381         382         387         386
         382         383         388         387
         383         384         389         388
         385         386         391         390
         386         387         392         391
         387         388         393         392
         388         389         394         393
         390         391         396         395
         391         392         397         396
         392         393         398         397
         393         394         399         398
         400         401         406         405
         401         402         407         406
         402         403         408         407
         403         404         409         408
         405         406         411         410
         406         407         412         411
         407         408         413         412
         408         409         414         413
         410         411         416         415
         411         412         417         416
         412         413         418         417
         413         414         419         418
         415         416         421         420
         416         417         422         421
         417         418         423         422
         418         419         424         423
         425         426         431         430
         426         427         432         431
         427         428         433         432
         428         429         434         433
         430         431         436         435
         431         432         437         436
         432         433         438         437
         433         434         439         438
         435         436         441         440
         436         437         442         441
         437         438         443         442
         438         439         444         443
         440         441         446         445
         441         442         447         446
         442         443         448         447
         443         444         449         448
         450         451         456         455
         451         452         457         456
         452         453         458         457
         453         454         459         458
         455         456         461         460
         456         457         462         461
         457         458         463         462
         458         459         464         463
         460         461         466         465
         461         462         467         466
         462         463         468         467
         463         464         469         468
         465         466         471         470
         466         467         472         471
         467         468         473         472
         468         469         474         473
         475         476         481         480
         476         477         482         481
         477         478         483         482
         478         479         484         483
         480         481         486         485
         481         482         487         486
         482         483         488         487
         483         484         489         488
         485         486         491         490
         486         487         492         491
         487         488         493         492
         488         489         494         493
         490         491         496         495
         491         492         497         496
         492         493         498         497
         493         494         499         498
         500         501         506         505
         501         502         507         506
         502         503         508         507
         503         504         509         508
         505         506         511         510
         506         507         512         511
         507         508         513         512
         508         509         514         513
         510         511         516         515
         511         512         517         516
         512         513         518         517
         513         514         519         518
         515         516         521         520
         516         517         522         521
         517         518         523         522
         518         519         524         523
         525         526         531         530
         526         527         532         531
         527         528         533         532
         528         529         534         533
         530         531         536         535
         531         532         537         536
         532         533         538         537
         533         534         539         538
         535         536         541         540
         536         537         542         541
         537         538         543         542
         538         539         544         543
         540         541         546         545
         541         542         547         546
         542         543         548         547
         543         544         549         548
         550         551         556         555
         551         552         557         556
         552         553         558         557
         553         554         559         558
         555         556         561         560
         556         557         562         561
         557         558         563         562
         558         559         564         563
         560         561         566         565
         561         562         567         566
         562         563         568         567
         563         564         569         568
         565         566         571         570
         566         567         572         571
         567         568         573         572
         568         569         574         573
         575         576         581         580
         576         577         582         581
         577         578         583         582
         578         579         584         583
         580         581         586         585
         581         582         587         586
         582         583         588         587
         583         584         589         588
         585         586         591         590
         586         587         592         591
         587         588         593         592
         588         589         594         593
         590         591         596         595
         591         592         597         596
         592         593         598         597
         593         594         599         598
         600         601         606         605
         601         602         607         606
         602         603         608         607
         603         604         609         608
         605         606         611         610
         606         607         612         611
         607         608         613         612
         608         609         614         613
         610         611         616         615
         611         612         617         616
         612         613         618         617
         613         614         619         618
         615         616         621         620
         616         617         622         621
         617         618         623         622
         618         619         624         623
         625         626         631         630
         626         627         632         631
         627         628         633         632
         628         629         634         633
         630         631         636         635
         631         632         637         636
         632         633         638         637
         633         634         639         638
         635         636         641         640
         636         637         642         641
         637         638         643         642
         638         639         644         643
         640         641         646         645
         641         642         647         646
         642         643         648         647
         643         644         649         648
         650         651         656         655
         651         652         657         656
         652         653         658         657
         653         654         659         658
         655         656         661         660
         656         657         662         661
         657         658         663         662
         658         659         664         663
         660         661         666         665
         661         662         667         666
         662         663         668         667
         663         664         669         668
         665         666         671         670
         666         667         672         671
         667         668         673         672
         668         669         674         673
         675         676         681         680
         676         677         682         681
         677         678         683         682
         678         679         684         683
         680         681         686         685
         681         682         687         686
         682         683         688         687
         683         684         689         688
         685         686         691         690
         686         687         692         691
         687         688         693         692
         688         689         694         693
         690         691         696         695
         691         692         697         696
         692         693         698         697
         693         694         699         698
         700         701         706         705
         701         702         707         706
         702         703         708         707
         703         704         709         708
         705         706         711         710
         706         707         712         711
         707         708         713         712
         708         709         714         713
         710         711         716         715
         711         712         717         716
         712         713         718         717
         713         714         719         718
         715         716         721         720
         716         717         722         721
         717         718         723         722
         718         719         724         723
         725         726         731         730
         726         727         732         731
         727         728         733         732
         728         729         734         733
         730         731         736         735
         731         732         737         736
         732         733         738         737
         733         734         739         738
         735         736         741         740
         736         737         742         741
         737         738         743         742
         738         739         744         743
         740         741         746         745
         741         742         747         746
         742         743         748         747
         743         744         749         748
         750         751         756         755
         751         752         757         756
         752         753         758         757
         753         754         759         758
         755         756         761         760
         756         757         762         761
         757         758         763         762
         758         759         764         763
         760         761         766         765
         761         762         767         766
         762         763         768         767
         763         764         769         768
         765         766         771         770
         766         767         772         771
         767         768         773         772
         768         769         774         773
         775         776         781         780
         776         777         782         781
         777         778         783         782
         778         779         784         783
         780         781         786         785
         781         782         787         786
         782         783         788         787
         783         784         789         788
         785         786         791         790
         786         787         792         791
         787         788         793         792
         788         789         794         793
         790         791         796         795
         791         792         797         796
         792         793         798         797
         793         794         799         798
         800         801         806         805
         801         802         807         806
         802         803         808         807
         803         804         809         808
         805         806         811         810
         806         807         812         811
         807         808         813         812
         808         809         814         813
         810         811         816         815
         811         812         817         816
         812         813         818         817
         813         814         819         818
         815         816         821         820
         816         817         822         821
         817         818         823         822
         818         819         824         823
         825         826         831         830
         826         827         832         831
         827         828         833         832
         828         829         834         833
         830         831         836         835
         831         832         837         836
         832         833         838         837
         833         834         839         838
         835         836         841         840
         836         837         842         841
         837         838         843         842
         838         839         844         843
         840         841         846         845
         841         842         847         846
         842         843         848         847
         843         844         849         848
         850         851         856         855
         851         852         857         856
         852         853         858         857
         853         854         859         858
         855         856         861         860
         856         857         862         861
         857         858         863         862
         858         859         864         863
         860         861         866         865
         861         862         867         866
         862         863         868         867
         863         864         869         868
         865         866         871         870
         866         867         872         871
         867         868         873         872
         868         869         874         873
         875         876         881         880
         876         877         882         881
         877         878         883         882
         878         879         884         883
         880         881         886         885
         881         882         887         886
         882         883         888         887
         883         884         889         888
         885         886         891         890
         886         887         892         891
         887         888         893         892
         888         889         894         893
         890         891         896         895
         891         892         897         896
         892         893         898         897
         893         894         899         898
         900         901         906         905
         901         902         907         906
         902         903         908         907
         903         904         909         908
         905         906         911         910
         906         907         912         911
         907         908         913         912
         908         909         914         913
         910         911         916         915
         911         912         917         916
         912         913         918         917
         913         914         919         918
         915         916         921         920
         916         917         922         921
         917         918         923         922
         918         919         924         923
         925         926         931         930
         926         927         932         931
         927         928         933         932
         928         929         934         933
         930         931         936         935
         931         932         937         936
         932         933         938         937
         933         934         939         938
         935         936         941         940
         936         937         942         941
         937         938         943         942
         938         939         944         943
         940         941         946         945
         941         942         947         946
         942         943         948         947
         943         944         949         948
         950         951         956         955
         951         952         957         956
         952         953         958         957
         953         954         959         958
         955         956         961         960
         956         957         962         961
         957         958         963         962
         958         959         964         963
         960         961         966         965
         961         962         967         966
         962         963         968         967
         963         964         969         968
         965         966         971         970
         966         967         972         971
         967         968         973         972
         968         969         974         973
         975         976         981         980
         976         977         982         981
         977         978         983         982
         978         979         984         983
         980         981         986         985
         981         982         987         986
         982         983         988         987
         983         984         989         988
         985         986         991         990
         986         987         992         991
         987         988         993         992
         988         989         994         993
         990         991         996         995
         991         992         997         996
         992         993         998         997
         993         994         999         998
        1000        1001        1006        1005
        1001        1002        1007        1006
        1002        1003        1008        1007
        1003        1004        1009        1008
        1005        1006        1011        1010
        1006        1007        1012        1011
        1007        1008        1013        1012
        1008        1009        1014        1013
        1010        1011        1016        1015
        1011        1012        1017        1016
        1012        1013        1018        1017
        1013        1014        1019        1018
        1015        1016        1021        1020
        1016        1017        1022        1021
        1017        1018        1023        1022
        1018        1019        1024        1023
        1025        1026        1031        1030
        1026        1027        1032        1031
        1027        1028        1033        1032
        1028        1029        1034        1033
        1030        1031        1036        1035
        1031        1032        1037        1036
        1032        1033        1038        1037
        1033        1034        1039        1038
        1035        1036        1041        1040
        1036        1037        1042        1041
        1037        1038        1043        1042
        1038        1039        1044        1043
        1040        1041        1046        1045
        1041        1042        1047        1046
        1042        1043        1048        1047
        1043        1044        1049        1048
        1050        1051        1056        1055
        1051        1052        1057        1056
        1052        1053        1058        1057
        1053        1054        1059        1058
        1055        1056        1061        1060
        1056        1057        1062        1061
        1057        1058        1063        1062
        1058        1059        1064        1063
        1060        1061        1066        1065
        1061        1062        1067        1066
        1062        1063        1068        1067
        1063        1064        1069        1068
        1065        1066        1071        1070
        1066        1067        1072        1071
        1067        1068        1073        1072
        1068        1069        1074        1073
        1075        1076        1081        1080
        1076        1077        1082        1081
        1077        1078        1083        1082
        1078        1079        1084        1083
        1080        1081        1086        1085
        1081        1082        1087        1086
        1082        1083        1088        1087
        1083        1084        1089        1088
        1085        1086        1091        1090
        1086        1087        1092        1091
        1087        1088        1093        1092
        1088        1089        1094        1093
        1090        1091        1096        1095
        1091        1092        1097        1096
        1092        1093        1098        1097
        1093        1094        1099        1098
        1100        1101        1106        1105
        1101        1102        1107        1106
        1102        1103        1108        1107
        1103        1104        1109        1108
        1105        1106        1111        1110
        1106        1107        1112        1111
        1107        1108        1113        1112
        1108        1109        1114        1113
        1110        1111        1116        1115
        1111        1112        1117        1116
        1112        1113        1118        1117
        1113        1114        1119        1118
        1115        1116        1121        1120
        1116        1117        1122        1121
        1117        1118        1123        1122
        1118        1119        1124        1123
        1125        1126        1131        1130
        1126        1127        1132        1131
        1127        1128        1133        1132
        1128        1129        1134        1133
        1130        1131        1136        1135
        1131        1132        1137        1136
        1132        1133        1138        1137
        1133        1134        1139        1138
        1135        1136        1141        1140
        1136        1137        1142        1141
        1137        1138        1143        1142
        1138        1139        1144        1143
        1140        1141        1146        1145
        1141        1142        1147        1146
        1142        1143        1148        1147
        1143        1144        1149        1148
        1150        1151        1156        1155
        1151        1152        1157        1156
        1152        1153        1158        1157
        1153        1154        1159        1158
        1155        1156        1161        1160
        1156        1157        1162        1161
        1157        1158        1163        1162
        1158        1159        1164        1163
        1160        1161        1166        1165
        1161        1162        1167        1166
        1162        1163        1168        1167
        1163        1164        1169        1168
        1165        1166        1171        1170
        1166        1167        1172        1171
        1167        1168        1173        1172
        1168        1169        1174        1173
        1175        1176        1181        1180
        1176        1177        1182        1181
        1177        1178        1183        1182
        1178        1179        1184        1183
        1180        1181        1186        1185
        1181        1182        1187        1186
        1182        1183        1188        1187
        1183        1184        1189        1188
        1185        1186        1191        1190
        1186        1187        1192        1191
        1187        1188        1193        1192
        1188        1189        1194        1193
        1190        1191        1196        1195
        1191        1192        1197        1196
        1192        1193        1198        1197
        1193        1194        1199        1198
        1200        1201        1206        1205
        1201        1202        1207        1206
        1202        1203        1208        1207
        1203        1204        1209        1208
        1205        1206        1211        1210
        1206        1207        1212        1211
        1207        1208        1213        1212
        1208        1209        1214        1213
        1210        1211        1216        1215
        1211        1212        1217        1216
        1212        1213        1218        1217
        1213        1214        1219        1218
        1215        1216        1221        1220
        1216        1217        1222        1221
        1217        1218        1223        1222
        1218        1219        1224        1223
        1225        1226        1231        1230
        1226        1227        1232        1231
        1227        1228        1233        1232
        1228        1229        1234        1233
        1230        1231        1236        1235
        1231        1232        1237        1236
        1232        1233        1238        1237
        1233        1234        1239        1238
        1235        1236        1241        1240
        1236        1237        1242        1241
        1237        1238        1243        1242
        1238        1239        1244        1243
        1240        1241        1246        1245
        1241        1242        1247        1246
        1242        1243        1248        1247
        1243        1244        1249        1248
        1250        1251        1256        1255
        1251        1252        1257        1256
        1252        1253        1258        1257
        1253        1254        1259        1258
        1255        1256        1261        1260
        1256        1257        1262        1261
        1257        1258        1263        1262
        1258        1259        1264        1263
        1260        1261        1266        1265
        1261        1262        1267        1266
        1262        1263        1268        1267
        1263        1264        1269        1268
        1265        1266        1271        1270
        1266        1267        1272        1271
        1267        1268        1273        1272
        1268        1269        1274        1273
        1275        1276        1281        1280
        1276        1277        1282        1281
        1277        1278        1283        1282
        1278        1279        1284        1283
        1280        1281        1286        1285
        1281        1282        1287        1286
        1282        1283        1288        1287
        1283        1284        1289        1288
        1285        1286        1291        1290
        1286        1287        1292        1291
        1287        1288        1293        1292
        1288        1289        1294        1293
        1290        1291        1296        1295
        1291        1292        1297        1296
        1292        1293        1298        1297
        1293        1294        1299        1298
        1300        1301        1306        1305
        1301        1302        1307        1306
        1302        1303        1308        1307
        1303        1304        1309        1308
        1305        1306        1311        1310
        1306        1307        1312        1311
        1307        1308        1313        1312
        1308        1309        1314        1313
        1310        1311        1316        1315
        1311        1312        1317        1316
        1312        1313        1318        1317
        1313        1314        1319        1318
        1315        1316        1321        1320
        1316        1317        1322        1321
        1317        1318        1323        1322
        1318        1319        1324        1323
        1325        1326        1331        1330
        1326        1327        1332        1331
        1327        1328        1333        1332
        1328        1329        1334        1333
        1330        1331        1336        1335
        1331        1332        1337        1336
        1332        1333        1338        1337
        1333        1334        1339        1338
        1335        1336        1341        1340
        1336        1337        1342        1341
        1337        1338        1343        1342
        1338        1339        1344        1343
        1340        1341        1346        1345
        1341        1342        1347        1346
        1342        1343        1348        1347
        1343        1344        1349        1348
        1350        1351        1356        1355
        1351        1352        1357        1356
        1352        1353        1358        1357
        1353        1354        1359        1358
        1355        1356        1361        1360
        1356        1357        1362        1361
        1357        1358        1363        1362
        1358        1359        1364        1363
        1360        1361        1366        1365
        1361        1362        1367        1366
        1362        1363        1368        1367
        1363        1364        1369        1368
        1365        1366        1371        1370
        1366        1367        1372        1371
        1367        1368        1373        1372
        1368        1369        1374        1373
        1375        1376        1381        1380
        1376        1377        1382        1381
        1377        1378        1383        1382
        1378        1379        1384        1383
        1380        1381        1386        1385
        1381        1382        1387        1386
        1382        1383        1388        1387
        1383        1384        1389        1388
        1385        1386        1391        1390
        1386        1387        1392        1391
        1387        1388        1393        1392
        1388        1389        1394        1393
        1390        1391        1396        1395
        1391        1392        1397        1396
        1392        1393        1398        1397
        1393        1394        1399        1398
        1400        1401        1406        1405
        1401        1402        1407        1406
        1402        1403        1408        1407
        1403        1404        1409        1408
        1405        1406        1411        1410
        1406        1407        1412        1411
        1407        1408        1413        1412
        1408        1409        1414        1413
        1410        1411        1416        1415
        1411        1412        1417        1416
        1412        1413        1418        1417
        1413        1414        1419        1418
        1415        1416        1421        1420
        1416        1417        1422        1421
        1417        1418        1423        1422
        1418        1419        1424        1423
        1425        1426        1431        1430
        1426        1427        1432        1431
        1427        1428        1433        1432
        1428        1429        1434        1433
        1430        1431        1436        1435
        1431        1432        1437        1436
        1432        1433        1438        1437
        1433        1434        1439        1438
        1435        1436        1441        1440
        1436        1437        1442        1441
        1437        1438        1443        1442
        1438        1439        1444        1443
        1440        1441        1446        1445
        1441        1442        1447        1446
        1442        1443        1448        1447
        1443        1444        1449        1448
        1450        1451        1456        1455
        1451        1452        1457        1456
        1452        1453        1458        1457
        1453        1454        1459        1458
        1455        1456        1461        1460
        1456        1457        1462        1461
        1457        1458        1463        1462
        1458        1459        1464        1463
        1460        1461        1466        1465
        1461        1462        1467        1466
        1462        1463        1468        1467
        1463        1464        1469        1468
        1465        1466        1471        1470
        1466        1467        1472        1471
        1467        1468        1473        1472
        1468        1469        1474        1473
        1475        1476        1481        1480
        1476        1477        1482        1481
        1477        1478        1483        1482
        1478        1479        1484        1483
        1480        1481        1486        1485
        1481        1482        1487        1486
        1482        1483        1488        1487
        1483        1484        1489        1488
        1485        1486        1491        1490
        1486        1487        1492        1491
        1487        1488        1493        1492
        1488        1489        1494        1493
        1490        1491        1496        1495
        1491        1492        1497        1496
        1492        1493        1498        1497
        1493        1494        1499        1498
        1500        1501        1506        1505
        1501        1502        1507        1506
        1502        1503        1508        1507
        1503        1504        1509        1508
        1505        1506        1511        1510
        1506        1507        1512        1511
        1507        1508        1513        1512
        1508        1509        1514        1513
        1510        1511        1516        1515
        1511        1512        1517        1516
        1512        1513        1518        1517
        1513        1514        1519        1518
        1515        1516        1521        1520
        1516        1517        1522        1521
        1517        1518        1523        1522
        1518        1519        1524        1523
        1525        1526        1531        1530
        1526        1527        1532        1531
        1527        1528        1533        1532
        1528        1529        1534        1533
        1530        1531        1536        1535
        1531        1532        1537        1536
        1532        1533        1538        1537
        1533        1534        1539        1538
        1535        1536        1541        1540
        1536        1537        1542        1541
        1537        1538        1543        1542
        1538        1539        1544        1543
        1540        1541        1546        1545
        1541        1542        1547        1546
        1542        1543        1548        1547
        1543        1544        1549        1548
        1550        1551        1556        1555
        1551        1552        1557        1556
        1552        1553        1558        1557
        1553        1554        1559        1558
        1555        1556        1561        1560
        1556        1557        1562        1561
        1557        1558        1563        1562
        1558        1559        1564        1563
        1560        1561        1566        1565
        1561        1562        1567        1566
        1562        1563        1568        1567
        1563        1564        1569        1568
        1565        1566        1571        1570
        1566        1567        1572        1571
        1567        1568        1573        1572
        1568        1569        1574        1573
        1575        1576        1581        1580
        1576        1577        1582        1581
        1577        1578        1583        1582
        1578        1579        1584        1583
        1580        1581        1586        1585
        1581        1582        1587        1586
        1582        1583        1588        1587
        1583        1584        1589        1588
        1585        1586        1591        1590
        1586        1587        1592        1591
        1587        1588        1593        1592
        1588        1589        1594        1593
        1590        1591        1596        1595
        1591        1592        1597        1596
        1592        1593        1598        1597
        1593        1594        1599        1598
 </DataArray>
 <DataArray  type="Int32"  Name="offsets"  format="ascii"> 
           4
           8
          12
          16
          20
          24
          28
          32
          36
          40
          44
          48
          52
          56
          60
          64
          68
          72
          76
          80
          84
          88
          92
          96
         100
         104
         108
         112
         116
         120
         124
         128
         132
         136
         140
         144
         148
         152
         156
         160
         164
         168
         172
         176
         180
         184
         188
         192
         196
         200
         204
         208
         212
         216
         220
         224
         228
         232
         236
         240
         244
         248
         252
         256
         260
         264
         268
         272
         276
         280
         284
         288
         292
         296
         300
         304
         308
         312
         316
         320
         324
         328
         332
         336
         340
         344
         348
         352
         356
         360
         364
         368
         372
         376
         380
         384
         388
         392
         396
         400
         404
         408
         412
         416
         420
         424
         428
         432
         436
         440
         444
         448
         452
         456
         460
         464
         468
         472
         476
         480
         484
         488
         492
         496
         500
         504
         508
         512
         516
         520
         524
         528
         532
         536
         540
         544
         548
         552
         556
         560
         564
         568
         572
         576
         580
         584
         588
         592
         596
         600
         604
         608
         612
         616
         620
         624
         628
         632
         636
         640
         644
         648
         652
         656
         660
         664
         668
         672
         676
         680
         684
         688
         692
         696
         700
         704
         708
         712
         716
         720
         724
         728
         732
         736
         740
         744
         748
         752
         756
         760
         764
         768
         772
         776
         780
         784
         788
         792
         796
         800
         804
         808
         812
         816
         820
         824
         828
         832
         836
         840
         844
         848
         852
         856
         860
         864
         868
         872
         876
         880
         884
         888
         892
         896
         900
         904
         908
         912
         916
         920
         924
         928
         932
         936
         940
         944
         948
         952
         956
         960
         964
         968
         972
         976
         980
         984
         988
         992
         996
        1000
        1004
        1008
        1012
        1016
        1020
        1024
        1028
        1032
        1036
        1040
        1044
        1048
        1052
        1056
        1060
        1064
        1068
        1072
        1076
        1080
        1084
        1088
        1092
        1096
        1100
        1104
        1108
        1112
        1116
        1120
        1124
        1128
        1132
        1136
        1140
        1144
        1148
        1152
        1156
        1160
        1164
        1168
        1172
        1176
        1180
        1184
        1188
        1192
        1196
        1200
        1204
        1208
        1212
        1216
        1220
        1224
        1228
        1232
        1236
        1240
        1244
        1248
        1252
        1256
        1260
        1264
        1268
        1272
        1276
        1280
        1284
        1288
        1292
        1296
        1300
        1304
        1308
        1312
        1316
        1320
        1324
        1328
        1332
        1336
        1340
        1344
        1348
        1352
        1356
        1360
        1364
        1368
        1372
        1376
        1380
        1384
        1388
        1392
        1396
        1400
        1404
        1408
        1412
        1416
        1420
        1424
        1428
        1432
        1436
        1440
        1444
        1448
        1452
        1456
        1460
        1464
        1468
        1472
        1476
        1480
        1484
        1488
        1492
        1496
        1500
        1504
        1508
        1512
        1516
        1520
        1524
        1528
        1532
        1536
        1540
        1544
        1548
        1552
        1556
        1560
        1564
        1568
        1572
        1576
        1580
        1584
        1588
        1592
        1596
        1600
        1604
        1608
        1612
        1616
        1620
        1624
        1628
        1632
        1636
        1640
        1644
        1648
        1652
        1656
        1660
        1664
        1668
        1672
        1676
        1680
        1684
        1688
        1692
        1696
        1700
        1704
        1708
        1712
        1716
        1720
        1724
        1728
        1732
        1736
        1740
        1744
        1748
        1752
        1756
        1760
        1764
        1768
        1772
        1776
        1780
        1784
        1788
        1792
        1796
        1800
        1804
        1808
        1812
        1816
        1820
        1824
        1828
        1832
        1836
        1840
        1844
        1848
        1852
        1856
        1860
        1864
        1868
        1872
        1876
        1880
        1884
        1888
        1892
        1896
        1900
        1904
        1908
        1912
        1916
        1920
        1924
        1928
        1932
        1936
        1940
        1944
        1948
        1952
        1956
        1960
        1964
        1968
        1972
        1976
        1980
        1984
        1988
        1992
        1996
        2000
        2004
        2008
        2012
        2016
        2020
        2024
        2028
        2032
        2036
        2040
        2044
        2048
        2052
        2056
        2060
        2064
        2068
        2072
        2076
        2080
        2084
        2088
        2092
        2096
        2100
        2104
        2108
        2112
        2116
        2120
        2124
        2128
        2132
        2136
        2140
        2144
        2148
        2152
        2156
        2160
        2164
        2168
        2172
        2176
        2180
        2184
        2188
        2192
        2196
        2200
        2204
        2208
        2212
        2216
        2220
        2224
        2228
        2232
        2236
        2240
        2244
        2248
        2252
        2256
        2260
        2264
        2268
        2272
        2276
        2280
        2284
        2288
        2292
        2296
        2300
        2304
        2308
        2312
        2316
        2320
        2324
        2328
        2332
        2336
        2340
        2344
        2348
        2352
        2356
        2360
        2364
        2368
        2372
        2376
        2380
        2384
        2388
        2392
        2396
        2400
        2404
        2408
        2412
        2416
        2420
        2424
        2428
        2432
        2436
        2440
        2444
        2448
        2452
        2456
        2460
        2464
        2468
        2472
        2476
        2480
        2484
        2488
        2492
        2496
        2500
        2504
        2508
        2512
        2516
        2520
        2524
        2528
        2532
        2536
        2540
        2544
        2548
        2552
        2556
        2560
        2564
        2568
        2572
        2576
        2580
        2584
        2588
        2592
        2596
        2600
        2604
        2608
        2612
        2616
        2620
        2624
        2628
        2632
        2636
        2640
        2644
        2648
        2652
        2656
        2660
        2664
        2668
        2672
        2676
        2680
        2684
        2688
        2692
        2696
        2700
        2704
        2708
        2712
        2716
        2720
        2724
        2728
        2732
        2736
        2740
        2744
        2748
        2752
        2756
        2760
        2764
        2768
        2772
        2776
        2780
        2784
        2788
        2792
        2796
        2800
        2804
        2808
        2812
        2816
        2820
        2824
        2828
        2832
        2836
        2840
        2844
        2848
        2852
        2856
        2860
        2864
        2868
        2872
        2876
        2880
        2884
        2888
        2892
        2896
        2900
        2904
        2908
        2912
        2916
        2920
        2924
        2928
        2932
        2936
        2940
        2944
        2948
        2952
        2956
        2960
        2964
        2968
        2972
        2976
        2980
        2984
        2988
        2992
        2996
        3000
        3004
        3008
        3012
        3016
        3020
        3024
        3028
        3032
        3036
        3040
        3044
        3048
        3052
        3056
        3060
        3064
        3068
        3072
        3076
        3080
        3084
        3088
        3092
        3096
        3100
        3104
        3108
        3112
        3116
        3120
        3124
        3128
        3132
        3136
        3140
        3144
        3148
        3152
        3156
        3160
        3164
        3168
        3172
        3176
        3180
        3184
        3188
        3192
        3196
        3200
        3204
        3208
        3212
        3216
        3220
        3224
        3228
        3232
        3236
        3240
        3244
        3248
        3252
        3256
        3260
        3264
        3268
        3272
        3276
        3280
        3284
        3288
        3292
        3296
        3300
        3304
        3308
        3312
        3316
        3320
        3324
        3328
        3332
        3336
        3340
        3344
        3348
        3352
        3356
        3360
        3364
        3368
        3372
        3376
        3380
        3384
        3388
        3392
        3396
        3400
        3404
        3408
        3412
        3416
        3420
        3424
        3428
        3432
        3436
        3440
        3444
        3448
        3452
        3456
        3460
        3464
        3468
        3472
        3476
        3480
        3484
        3488
        3492
        3496
        3500
        3504
        3508
        3512
        3516
        3520
        3524
        3528
        3532
        3536
        3540
        3544
        3548
        3552
        3556
        3560
        3564
        3568
        3572
        3576
        3580
        3584
        3588
        3592
        3596
        3600
        3604
        3608
        3612
        3616
        3620
        3624
        3628
        3632
        3636
        3640
        3644
        3648
        3652
        3656
        3660
        3664
        3668
        3672
        3676
        3680
        3684
        3688
        3692
        3696
        3700
        3704
        3708
        3712
        3716
        3720
        3724
        3728
        3732
        3736
        3740
        3744
        3748
        3752
        3756
        3760
        3764
        3768
        3772
        3776
        3780
        3784
        3788
        3792
        3796
        3800
        3804
        3808
        3812
        3816
        3820
        3824
        3828
        3832
        3836
        3840
        3844
        3848
        3852
        3856
        3860
        3864
        3868
        3872
        3876
        3880
        3884
        3888
        3892
        3896
        3900
        3904
        3908
        3912
        3916
        3920
        3924
        3928
        3932
        3936
        3940
        3944
        3948
        3952
        3956
        3960
        3964
        3968
        3972
        3976
        3980
        3984
        3988
        3992
        3996
        4000
        4004
        4008
        4012
        4016
        4020
        4024
        4028
        4032
        4036
        4040
        4044
        4048
        4052
        4056
        4060
        4064
        4068
        4072
        4076
        4080
        4084
        4088
        4092
        4096
 </DataArray>
 <DataArray  type="UInt8"  Name="types"  format="ascii">
 9
 9
 9
 9
 9
 9
 9
 9
 9
 9
 9
 9
 9
 9
 9
 9
 9
 9
 9
 9
 9
 9
 9
 9
 9
 9
 9
 9
 9
 9
 9
 9
 9
 9
 9
 9
 9
 9
 9
 9
 9
 9
 9
 9
 9
 9
 9
 9
 9
 9
 9
 9
 9
 9
 9
 9
 9
 9
 9
 9
 9
 9
 9
 9
 9
 9
 9
 9
 9
 9
 9
 9
 9
 9
 9
 9
 9
 9
 9
 9
 9
 9
 9
 9
 9
 9
 9
 9
 9
 9
 9
 9
 9
 9
 9
 9
 9
 9
 9
 9
 9
 9
 9
 9
 9
 9
 9
 9
 9
 9
 9
 9
 9
 9
 9
 9
 9
 9
 9
 9
 9
 9
 9
 9
 9
 9
 9
 9
 9
 9
 9
 9
 9
 9
 9
 9
 9
 9
 9
 9
 9
 9
 9
 9
 9
 9
 9
 9
 9
 9
 9
 9
 9
 9
 9
 9
 9
 9
 9
 9
 9
 9
 9
 9
 9
 9
 9
 9
 9
 9
 9
 9
 9
 9
 9
 9
 9
 9
 9
 9
 9
 9
 9
 9
 9
 9
 9
 9
 9
 9
 9
 9
 9
 9
 9
 9
 9
 9
 9
 9
 9
 9
 9
 9
 9
 9
 9
 9
 9
 9
 9
 9
 9
 9
 9
 9
 9
 9
 9
 9
 9
 9
 9
 9
 9
 9
 9
 9
 9
 9
 9
 9
 9
 9
 9
 9
 9
 9
 9
 9
 9
 9
 9
 9
 9
 9
 9
 9
 9
 9
 9
 9
 9
 9
 9
 9
 9
 9
 9
 9
 9
 9
 9
 9
 9
 9
 9
 9
 9
 9
 9
 9
 9
 9
 9
 9
 9
 9
 9
 9
 9
 9
 9
 9
 9
 9
 9
 9
 9
 9
 9
 9
 9
 9
 9
 9
 9
 9
 9
 9
 9
 9
 9
 9
 9
 9
 9
 9
 9
 9
 9
 9
 9
 9
 9
 9
 9
 9
 9
 9
 9
 9
 9
 9
 9
 9
 9
 9
 9
 9
 9
 9
 9
 9
 9
 9
 9
 9
 9
 9
 9
 9
 9
 9
 9
 9
 9
 9
 9
 9
 9
 9
 9
 9
 9
 9
 9
 9
 9
 9
 9
 9
 9
 9
 9
 9
 9
 9
 9
 9
 9
 9
 9
 9
 9
 9
 9
 9
 9
 9
 9
 9
 9
 9
 9
 9
 9
 9
 9
 9
 9
 9
 9
 9
 9
 9
 9
 9
 9
 9
 9
 9
 9
 9
 9
 9
 9
 9
 9
 9
 9
 9
 9
 9
 9
 9
 9
 9
 9
 9
 9
 9
 9
 9
 9
 9
 9
 9
 9
 9
 9
 9
 9
 9
 9
 9
 9
 9
 9
 9
 9
 9
 9
 9
 9
 9
 9
 9
 9
 9
 9
 9
 9
 9
 9
 9
 9
 9
 9
 9
 9
 9
 9
 9
 9
 9
 9
 9
 9
 9
 9
 9
 9
 9
 9
 9
 9
 9
 9
 9
 9
 9
 9
 9
 9
 9
 9
 9
 9
 9
 9
 9
 9
 9
 9
 9
 9
 9
 9
 9
 9
 9
 9
 9
 9
 9
 9
 9
 9
 9
 9
 9
 9
 9
 9
 9
 9
 9
 9
 9
 9
 9
 9
 9
 9
 9
 9
 9
 9
 9
 9
 9
 9
 9
 9
 9
 9
 9
 9
 9
 9
 9
 9
 9
 9
 9
 9
 9
 9
 9
 9
 9
 9
 9
 9
 9
 9
 9
 9
 9
 9
 9
 9
 9
 9
 9
 9
 9
 9
 9
 9
 9
 9
 9
 9
 9
 9
 9
 9
 9
 9
 9
 9
 9
 9
 9
 9
 9
 9
 9
 9
 9
 9
 9
 9
 9
 9
 9
 9
 9
 9
 9
 9
 9
 9
 9
 9
 9
 9
 9
 9
 9
 9
 9
 9
 9
 9
 9
 9
 9
 9
 9
 9
 9
 9
 9
 9
 9
 9
 9
 9
 9
 9
 9
 9
 9
 9
 9
 9
 9
 9
 9
 9
 9
 9
 9
 9
 9
 9
 9
 9
 9
 9
 9
 9
 9
 9
 9
 9
 9
 9
 9
 9
 9
 9
 9
 9
 9
 9
 9
 9
 9
 9
 9
 9
 9
 9
 9
 9
 9
 9
 9
 9
 9
 9
 9
 9
 9
 9
 9
 9
 9
 9
 9
 9
 9
 9
 9
 9
 9
 9
 9
 9
 9
 9
 9
 9
 9
 9
 9
 9
 9
 9
 9
 9
 9
 9
 9
 9
 9
 9
 9
 9
 9
 9
 9
 9
 9
 9
 9
 9
 9
 9
 9
 9
 9
 9
 9
 9
 9
 9
 9
 9
 9
 9
 9
 9
 9
 9
 9
 9
 9
 9
 9
 9
 9
 9
 9
 9
 9
 9
 9
 9
 9
 9
 9
 9
 9
 9
 9
 9
 9
 9
 9
 9
 9
 9
 9
 9
 9
 9
 9
 9
 9
 9
 9
 9
 9
 9
 9
 9
 9
 9
 9
 9
 9
 9
 9
 9
 9
 9
 9
 9
 9
 9
 9
 9
 9
 9
 9
 9
 9
 9
 9
 9
 9
 9
 9
 9
 9
 9
 9
 9
 9
 9
 9
 9
 9
 9
 9
 9
 9
 9
 9
 9
 9
 9
 9
 9
 9
 9
 9
 9
 9
 9
 9
 9
 9
 9
 9
 9
 9
 9
 9
 9
 9
 9
 9
 9
 9
 9
 9
 9
 9
 9
 9
 9
 9
 9
 9
 9
 9
 9
 9
 9
 9
 9
 9
 9
 9
 9
 9
 9
 9
 9
 9
 9
 9
 9
 9
 9
 9
 9
 9
 9
 9
 9
 9
 9
 9
 9
 9
 9
 9
 9
 9
 9
 9
 9
 9
 9
 9
 9
 9
 9
 9
 9
 9
 9
 9
 9
 9
 9
 9
 9
 9
 9
 9
 9
 9
 9
 9
 9
 9
 9
 9
 9
 9
 9
 9
 9
 9
 9
 9
 9
 9
 9
 9
 9
 9
 9
 9
 9
 9
 9
 9
 9
 9
 9
 9
 9
 9
 9
 9
 9
 9
 9
 9
 9
 9
 9
 9
 9
 9
 9
 9
 9
 9
 9
 9
 9
 9
 9
 9
 9
 9
 9
 9
 9
 9
 9
 9
 9
 9
 9
 9
 9
 9
 9
 9
 9
 9
 9
 9
 9
 9
 9
 9
 9
 9
 9
 9
 9
 9
 9
 9
 9
 9
 9
 9
 9
 9
 9
 9
 </DataArray>
 </Cells> 
 <PointData>
 <DataArray  type="Float64" Name="disp" NumberOfComponents="3" format="ascii">
   6.5583856017991049E-002   6.2270882514238131E-002   0.0000000000000000     
   6.8540290410177701E-002   6.7864263665755736E-002   0.0000000000000000     
   7.1430778835627012E-002   7.3578733009571282E-002   0.0000000000000000     
   7.4255321294338997E-002   7.9414290545684718E-002   0.0000000000000000     
   7.7013917786313640E-002   8.5370936274096074E-002   0.0000000000000000     
   6.0230569104755396E-002   6.1730120470768743E-002   0.0000000000000000     
   6.3058094956881194E-002   6.7205340559818874E-002   0.0000000000000000     
   6.5810665265172513E-002   7.2843435801408840E-002   0.0000000000000000     
   6.8488280029629339E-002   7.8644406195538669E-002   0.0000000000000000     
   7.1090939250251714E-002   8.4608251742208318E-002   0.0000000000000000     
   5.5138422705526248E-002   6.1115483379112094E-002   0.0000000000000000     
   5.7816372093555404E-002   6.6523788547259405E-002   0.0000000000000000     
   6.0415067663510971E-002   7.2121559215669470E-002   0.0000000000000000     
   6.2934509415392956E-002   7.7908795384342311E-002   0.0000000000000000     
   6.5374697349201386E-002   8.3885497053277913E-002   0.0000000000000000     
   5.0307416820303624E-002   6.0426971239268205E-002   0.0000000000000000     
   5.2815121820200345E-002   6.5819607628077315E-002   0.0000000000000000     
   5.5243986030642414E-002   7.1413103252353130E-002   0.0000000000000000     
   5.7594009451629853E-002   7.7207458112095659E-002   0.0000000000000000     
   5.9865192083162641E-002   8.3202672207304901E-002   0.0000000000000000     
   4.5737551449087518E-002   5.9664584051237063E-002   0.0000000000000000     
   4.8054344136816016E-002   6.5092797802272603E-002   0.0000000000000000     
   5.0297420366566835E-002   7.0718067911459806E-002   0.0000000000000000     
   5.2466780138340011E-002   7.6540394378798712E-002   0.0000000000000000     
   5.4562423452135522E-002   8.2559777204289253E-002   0.0000000000000000     
   7.7013917786313640E-002   8.5370936274096074E-002   0.0000000000000000     
   7.9690801199122363E-002   9.1467584619857628E-002   0.0000000000000000     
   8.2270204420336543E-002   9.7723150008021661E-002   0.0000000000000000     
   8.4752127449956166E-002  0.10413763243858819        0.0000000000000000     
   8.7136570287981260E-002  0.11071103191155721        0.0000000000000000     
   7.1090939250251714E-002   8.4608251742208318E-002   0.0000000000000000     
   7.3609373283856902E-002   9.0732423079133276E-002   0.0000000000000000     
   7.6034312487262223E-002   9.7014370844029030E-002   0.0000000000000000     
   7.8365756860467706E-002  0.10345409503689557        0.0000000000000000     
   8.0603706403473294E-002  0.11005159565773290        0.0000000000000000     
   6.5374697349201386E-002   8.3885497053277913E-002   0.0000000000000000     
   6.7730967069748710E-002   9.0035509410492182E-002   0.0000000000000000     
   6.9998654181847489E-002   9.6342677644000965E-002   0.0000000000000000     
   7.2177758685497681E-002  0.10280700175380429        0.0000000000000000     
   7.4268280580699328E-002  0.10942848173990213        0.0000000000000000     
   5.9865192083162641E-002   8.3202672207304901E-002   0.0000000000000000     
   6.2055582556797793E-002   8.9376843613934373E-002   0.0000000000000000     
   6.4163229504092298E-002   9.5708070407937509E-002   0.0000000000000000     
   6.6188132925046161E-002  0.10219635258931438        0.0000000000000000     
   6.8130292819659363E-002  0.10884169015806491        0.0000000000000000     
   5.4562423452135522E-002   8.2559777204289253E-002   0.0000000000000000     
   5.6583219745004153E-002   8.8756425689459795E-002   0.0000000000000000     
   5.8528038453996678E-002   9.5110549135838662E-002   0.0000000000000000     
   6.0396879579113098E-002  0.10162214754342583        0.0000000000000000     
   6.2189743120353400E-002  0.10829122091222128        0.0000000000000000     
   8.7136570287981260E-002  0.11071103191155721        0.0000000000000000     
   8.9425570518527009E-002  0.11743001432340026        0.0000000000000000     
   9.1621165725708636E-002  0.12428124557058892        0.0000000000000000     
   9.3723355909526143E-002  0.13126472565312317        0.0000000000000000     
   9.5732141069979515E-002  0.13838045457100301        0.0000000000000000     
   8.0603706403473294E-002  0.11005159565773290        0.0000000000000000     
   8.2751032855743256E-002  0.11679461765760056        0.0000000000000000     
   8.4810607956741793E-002  0.12367090598755806        0.0000000000000000     
   8.6782431706468904E-002  0.13068046064760544        0.0000000000000000     
   8.8666504104924604E-002  0.13782328163774271        0.0000000000000000     
   7.4268280580699328E-002  0.10942848173990213        0.0000000000000000     
   7.6273382686150387E-002  0.11619546632594373        0.0000000000000000     
   7.8196227820548886E-002  0.12309630423557832        0.0000000000000000     
   8.0036815983894782E-002  0.13013099546880594        0.0000000000000000     
   8.1795147176188104E-002  0.13729954002562650        0.0000000000000000     
   6.8130292819659363E-002  0.10884169015806491        0.0000000000000000     
   6.9992620009748457E-002  0.11563256032842983        0.0000000000000000     
   7.1778025317129915E-002  0.12255744031464967        0.0000000000000000     
   7.3486508741803763E-002  0.12961633011672452        0.0000000000000000     
   7.5118070283770003E-002  0.13680922973465437        0.0000000000000000     
   6.2189743120353400E-002  0.10829122091222128        0.0000000000000000     
   6.3908744826537398E-002  0.11510589966505881        0.0000000000000000     
   6.5556000446484880E-002  0.12205431422477217        0.0000000000000000     
   6.7131509980195861E-002  0.12913646459136136        0.0000000000000000     
   6.8635273427670326E-002  0.13635235076482632        0.0000000000000000     
   9.5732141069979515E-002  0.13838045457100301        0.0000000000000000     
   9.7647125828834960E-002  0.14561772708167428        0.0000000000000000     
   9.9467914807858604E-002  0.15296583794258281        0.0000000000000000     
  0.10119450800705050       0.16042478715372857        0.0000000000000000     
  0.10282690542641061       0.16799457471511159        0.0000000000000000     
   8.8666504104924604E-002  0.13782328163774271        0.0000000000000000     
   9.0462501111520155E-002  0.14508741023248226        0.0000000000000000     
   9.2170098685666890E-002  0.15246088770633656        0.0000000000000000     
   9.3789296827364754E-002  0.15994371405930563        0.0000000000000000     
   9.5320095536613789E-002  0.16753588929138941        0.0000000000000000     
   8.1795147176188104E-002  0.13729954002562650        0.0000000000000000     
   8.3470829760170381E-002  0.14458928871606952        0.0000000000000000     
   8.5063472098583170E-002  0.15198759235016446        0.0000000000000000     
   8.6573074191426486E-002  0.15949445092791131        0.0000000000000000     
   8.7999636038700313E-002  0.16710986444931006        0.0000000000000000     
   7.5118070283770003E-002  0.13680922973465437        0.0000000000000000     
   7.6672111774785598E-002  0.14412336253243607        0.0000000000000000     
   7.8148035046607472E-002  0.15154595187406647        0.0000000000000000     
   7.9545840099235696E-002  0.15907699775954562        0.0000000000000000     
   8.0865526932670198E-002  0.16671650018887346        0.0000000000000000     
   6.8635273427670326E-002  0.13635235076482632        0.0000000000000000     
   7.0066347155365805E-002  0.14368963168158189        0.0000000000000000     
   7.1423787529739810E-002  0.15113596627804263        0.0000000000000000     
   7.2707594550792343E-002  0.15869135455420857        0.0000000000000000     
   7.3917768218523430E-002  0.16635579651007976        0.0000000000000000     
  0.10282690542641061       0.16799457471511159        0.0000000000000000     
  0.10436991131461945       0.17566388902552471        0.0000000000000000     
  0.10582832992035747       0.18342141848376076        0.0000000000000000     
  0.10720216124362472       0.19126716308981984        0.0000000000000000     
  0.10849140528442115       0.19920112284370187        0.0000000000000000     
   9.5320095536613789E-002  0.16753588929138941        0.0000000000000000     
   9.6765224521663237E-002  0.17522765563354564        0.0000000000000000     
   9.8127413490762344E-002  0.18300925531673201        0.0000000000000000     
   9.9406662443911123E-002  0.19088068834094857        0.0000000000000000     
  0.10060297138110957       0.19884195470619526        0.0000000000000000     
   8.7999636038700313E-002  0.16710986444931006        0.0000000000000000     
   8.9344362152128112E-002  0.17482487977478386        0.0000000000000000     
   9.0608457043433344E-002  0.18263054376475596        0.0000000000000000     
   9.1791920712616007E-002  0.19052685641922623        0.0000000000000000     
   9.2894753159676102E-002  0.19851381773819476        0.0000000000000000     
   8.0865526932670198E-002  0.16671650018887346        0.0000000000000000     
   8.2107324206014090E-002  0.17445556144923935        0.0000000000000000     
   8.3271460578370510E-002  0.18228528382783243        0.0000000000000000     
   8.4357936049739374E-002  0.19020566732465277        0.0000000000000000     
   8.5366750620120765E-002  0.19821671193970034        0.0000000000000000     
   7.3917768218523430E-002  0.16635579651007976        0.0000000000000000     
   7.5054110683321185E-002  0.17411970065691212        0.0000000000000000     
   7.6116424095573787E-002  0.18197347550596163        0.0000000000000000     
   7.7104708455281237E-002  0.18991712105722824        0.0000000000000000     
   7.8018963762443522E-002  0.19795063731071200        0.0000000000000000     
  0.10849140528442115       0.19920112284370187        0.0000000000000000     
  0.10970049064956580       0.20722011248635128        0.0000000000000000     
  0.11083384594587763       0.21532094675871241        0.0000000000000000     
  0.11189147117335667       0.22350362566078530        0.0000000000000000     
  0.11287336633200290       0.23176814919256994        0.0000000000000000     
  0.10060297138110957       0.19884195470619526        0.0000000000000000     
  0.10172105520806005       0.20688689644489050        0.0000000000000000     
  0.10276562883046489       0.21500935558945256        0.0000000000000000     
  0.10373669224832413       0.22320933213988145        0.0000000000000000     
  0.10463424546163774       0.23148682609617721        0.0000000000000000     
   9.2894753159676102E-002  0.19851381773819476        0.0000000000000000     
   9.3921076759063291E-002  0.20658359847389174        0.0000000000000000     
   9.4875013885227177E-002  0.21472836937854717        0.0000000000000000     
   9.5756564538167777E-002  0.22294813045216119        0.0000000000000000     
   9.6565728717885144E-002  0.23124288169473375        0.0000000000000000     
   8.5366750620120765E-002  0.19821671193970034        0.0000000000000000     
   8.6300555302575480E-002  0.20631021857335491        0.0000000000000000     
   8.7162001110164450E-002  0.21447798812599631        0.0000000000000000     
   8.7951088042887648E-002  0.22272002059762450        0.0000000000000000     
   8.8667816100745075E-002  0.23103631598823951        0.0000000000000000     
   7.8018963762443522E-002  0.19795063731071200        0.0000000000000000     
   7.8859490838596669E-002  0.20606675674328015        0.0000000000000000     
   7.9626590505276734E-002  0.21425821183179991        0.0000000000000000     
   8.0320262762483691E-002  0.22252500257627139        0.0000000000000000     
   8.0940507610217538E-002  0.23086712897669451        0.0000000000000000     
  0.11287336633200290       0.23176814919256994        0.0000000000000000     
  0.11380792628620351       0.24013103802238306        0.0000000000000000     
  0.11472354590034568       0.24860881281854141        0.0000000000000000     
  0.11562022517442942       0.25720147358104500        0.0000000000000000     
  0.11649796410845469       0.26590902030989383        0.0000000000000000     
  0.10463424546163774       0.23148682609617721        0.0000000000000000     
  0.10546351051282385       0.23986535073232418        0.0000000000000000     
  0.10622970944430050       0.24836841932230677        0.0000000000000000     
  0.10693284225606776       0.25699603186612491        0.0000000000000000     
  0.10757290894812557       0.26574818836377856        0.0000000000000000     
   9.6565728717885144E-002  0.23124288169473375        0.0000000000000000     
   9.7293521147867490E-002  0.23963914706160397        0.0000000000000000     
   9.7930956551603124E-002  0.24816345050811112        0.0000000000000000     
   9.8478034929092059E-002  0.25681579203425503        0.0000000000000000     
   9.8934756280334268E-002  0.26559617164003591        0.0000000000000000     
   8.8667816100745075E-002  0.23103631598823951        0.0000000000000000     
   8.9297958191334445E-002  0.23945242701022246        0.0000000000000000     
   8.9827287222253527E-002  0.24799390637595448        0.0000000000000000     
   9.0255803193502265E-002  0.25666075408543559        0.0000000000000000     
   9.0583506105080730E-002  0.26545297013866581        0.0000000000000000     
   8.0940507610217538E-002  0.23086712897669451        0.0000000000000000     
   8.1476821643224728E-002  0.23930519057817959        0.0000000000000000     
   8.1918701456251700E-002  0.24785978692583691        0.0000000000000000     
   8.2266147049298424E-002  0.25653091801966654        0.0000000000000000     
   8.2519158422364944E-002  0.26531858385966833        0.0000000000000000     
  0.11649796410845469       0.26590902030989383        0.0000000000000000     
  0.11729704098182930       0.27489602518911249        0.0000000000000000     
  0.11795773407396107       0.28432706040272560        0.0000000000000000     
  0.11848004338484995       0.29420212595073303        0.0000000000000000     
  0.11886396891449597       0.30452122183313485        0.0000000000000000     
  0.10757290894812557       0.26574818836377856        0.0000000000000000     
  0.10813087983894129       0.27475699103504231        0.0000000000000000     
  0.10858772524698221       0.28415454209969060        0.0000000000000000     
  0.10894344517224830       0.29394084155772332        0.0000000000000000     
  0.10919803961473962       0.30411588940914058        0.0000000000000000     
   9.8934756280334268E-002  0.26559617164003591        0.0000000000000000     
   9.9312101899391630E-002  0.27460283878843988        0.0000000000000000     
   9.9621053080325997E-002  0.28393404294245339        0.0000000000000000     
   9.9861609823137396E-002  0.29358978410207648        0.0000000000000000     
  0.10003377212782578       0.30357006226730904        0.0000000000000000     
   9.0583506105080730E-002  0.26545297013866581        0.0000000000000000     
   9.0840707163180281E-002  0.27443356844930528        0.0000000000000000     
   9.1057717573992447E-002  0.28366556293101419        0.0000000000000000     
   9.1234537337517171E-002  0.29314895358379250        0.0000000000000000     
   9.1371166453754454E-002  0.30288374040764027        0.0000000000000000     
   8.2519158422364944E-002  0.26531858385966833        0.0000000000000000     
   8.2716695630307285E-002  0.27424918001763837        0.0000000000000000     
   8.2897718727981518E-002  0.28334910206537273        0.0000000000000000     
   8.3062227715387654E-002  0.29261835000287140        0.0000000000000000     
   8.3210222592525654E-002  0.30205692383013427        0.0000000000000000     
   4.5737551449087518E-002   5.9664584051237063E-002   0.0000000000000000     
   4.8054344136816016E-002   6.5092797802272603E-002   0.0000000000000000     
   5.0297420366566835E-002   7.0718067911459806E-002   0.0000000000000000     
   5.2466780138340011E-002   7.6540394378798712E-002   0.0000000000000000     
   5.4562423452135522E-002   8.2559777204289253E-002   0.0000000000000000     
   4.1356925499467220E-002   5.8908262563948141E-002   0.0000000000000000     
   4.3474950233000048E-002   6.4390878406527033E-002   0.0000000000000000     
   4.5526373780997775E-002   7.0060912234292547E-002   0.0000000000000000     
   4.7511196143460388E-002   7.5918364047244682E-002   0.0000000000000000     
   4.9429417320387907E-002   8.1963233845383482E-002   0.0000000000000000     
   3.7093637879032013E-002   5.8237947526330935E-002   0.0000000000000000     
   3.9017851298350115E-002   6.3761368777522351E-002   0.0000000000000000     
   4.0881849383648777E-002   6.9466095262154359E-002   0.0000000000000000     
   4.2685632134927959E-002   7.5352126980226919E-002   0.0000000000000000     
   4.4429199552187701E-002   8.1419463931740071E-002   0.0000000000000000     
   3.2947688587781902E-002   5.7653638938385418E-002   0.0000000000000000     
   3.4683047332866215E-002   6.3204268915258557E-002   0.0000000000000000     
   3.6363847174519820E-002   6.8933616995045188E-002   0.0000000000000000     
   3.7990088112742716E-002   7.4841683177745366E-002   0.0000000000000000     
   3.9561770147534904E-002   8.0928467463359050E-002   0.0000000000000000     
   2.8919077625716876E-002   5.7155336800111617E-002   0.0000000000000000     
   3.0470538336548336E-002   6.2719578819735639E-002   0.0000000000000000     
   3.1972367153610924E-002   6.8463477432965089E-002   0.0000000000000000     
   3.3424564076904639E-002   7.4387032639800010E-002   0.0000000000000000     
   3.4827129106429502E-002   8.0490244440240402E-002   0.0000000000000000     
   5.4562423452135522E-002   8.2559777204289253E-002   0.0000000000000000     
   5.6583219745004153E-002   8.8756425689459795E-002   0.0000000000000000     
   5.8528038453996678E-002   9.5110549135838662E-002   0.0000000000000000     
   6.0396879579113098E-002  0.10162214754342583        0.0000000000000000     
   6.2189743120353400E-002  0.10829122091222128        0.0000000000000000     
   4.9429417320387907E-002   8.1963233845383482E-002   0.0000000000000000     
   5.1279820943559602E-002   8.8180832410788612E-002   0.0000000000000000     
   5.3061190644754765E-002   9.4556470525539865E-002   0.0000000000000000     
   5.4773526423973394E-002  0.10109014818963720        0.0000000000000000     
   5.6416828281215484E-002  0.10778186540308067        0.0000000000000000     
   4.4429199552187701E-002   8.1419463931740071E-002   0.0000000000000000     
   4.6111328461655957E-002   8.7656640551640935E-002   0.0000000000000000     
   4.7730795689560707E-002   9.4052191274876615E-002   0.0000000000000000     
   4.9287601235901944E-002  0.10060611610144718        0.0000000000000000     
   5.0781745100679683E-002  0.10731841503135256        0.0000000000000000     
   3.9561770147534904E-002   8.0928467463359050E-002   0.0000000000000000     
   4.1077742299293216E-002   8.7183850112016750E-002   0.0000000000000000     
   4.2536853588414490E-002   9.3597711383848980E-002   0.0000000000000000     
   4.3939104014898762E-002  0.10017005127885568        0.0000000000000000     
   4.5284493578745977E-002  0.10690086979703695        0.0000000000000000     
   3.4827129106429502E-002   8.0490244440240402E-002   0.0000000000000000     
   3.6179062456471379E-002   8.6762461091916071E-002   0.0000000000000000     
   3.7479364341316150E-002   9.3193030852456865E-002   0.0000000000000000     
   3.8728034760963814E-002   9.9781953721862798E-002   0.0000000000000000     
   3.9925073715414386E-002  0.10652922970013386        0.0000000000000000     
   6.2189743120353400E-002  0.10829122091222128        0.0000000000000000     
   6.3908744826537398E-002  0.11510589966505881        0.0000000000000000     
   6.5556000446484880E-002  0.12205431422477217        0.0000000000000000     
   6.7131509980195861E-002  0.12913646459136136        0.0000000000000000     
   6.8635273427670326E-002  0.13635235076482632        0.0000000000000000     
   5.6416828281215484E-002  0.10778186540308067        0.0000000000000000     
   5.7992318608445032E-002  0.11461929961752235        0.0000000000000000     
   5.9501219797626001E-002  0.12159012828461439        0.0000000000000000     
   6.0943531848758413E-002  0.12869435140435681        0.0000000000000000     
   6.2319254761842247E-002  0.13593196897674958        0.0000000000000000     
   5.0781745100679683E-002  0.10731841503135256        0.0000000000000000     
   5.2213902827399114E-002  0.11417657546751207        0.0000000000000000     
   5.3584749959565484E-002  0.12116808481284502        0.0000000000000000     
   5.4894286497178764E-002  0.12829294306735139        0.0000000000000000     
   5.6142512440238976E-002  0.13555115023103123        0.0000000000000000     
   4.5284493578745977E-002  0.10690086979703695        0.0000000000000000     
   4.6573497483399673E-002  0.11377772721502796        0.0000000000000000     
   4.7806590932303307E-002  0.12078818380946404        0.0000000000000000     
   4.8983773925456935E-002  0.12793223958034519        0.0000000000000000     
   5.0105046462860500E-002  0.13520989452767135        0.0000000000000000     
   3.9925073715414386E-002  0.10652922970013386        0.0000000000000000     
   4.1071102576446673E-002  0.11342275486007009        0.0000000000000000     
   4.2166742715839513E-002  0.12045042527447149        0.0000000000000000     
   4.3211994133592890E-002  0.12761224094333809        0.0000000000000000     
   4.4206856829706827E-002  0.13490820186666985        0.0000000000000000     
   6.8635273427670326E-002  0.13635235076482632        0.0000000000000000     
   7.0066347155365805E-002  0.14368963168158189        0.0000000000000000     
   7.1423787529739810E-002  0.15113596627804263        0.0000000000000000     
   7.2707594550792343E-002  0.15869135455420857        0.0000000000000000     
   7.3917768218523430E-002  0.16635579651007976        0.0000000000000000     
   6.2319254761842247E-002  0.13593196897674958        0.0000000000000000     
   6.3627099686886041E-002  0.14329122519989418        0.0000000000000000     
   6.4865777773898320E-002  0.15076036427189213        0.0000000000000000     
   6.6035289022879057E-002  0.15833938619274335        0.0000000000000000     
   6.7135633433828279E-002  0.16602829096244787        0.0000000000000000     
   5.6142512440238976E-002  0.13555115023103123        0.0000000000000000     
   5.7327933154321352E-002  0.14293127212376025        0.0000000000000000     
   5.8449054005001153E-002  0.15042187456541417        0.0000000000000000     
   5.9505874992278406E-002  0.15802295755599302        0.0000000000000000     
   6.0498396116153055E-002  0.16573452109549680        0.0000000000000000     
   5.0105046462860500E-002  0.13520989452767135        0.0000000000000000     
   5.1168847557671746E-002  0.14260977245318004        0.0000000000000000     
   5.2173616223048370E-002  0.15012049715860884        0.0000000000000000     
   5.3119352458990375E-002  0.15774206864395768        0.0000000000000000     
   5.4006056265497759E-002  0.16547448690922661        0.0000000000000000     
   4.4206856829706827E-002  0.13490820186666985        0.0000000000000000     
   4.5149842896937208E-002  0.14232672618815359        0.0000000000000000     
   4.6039464428039925E-002  0.14985623205147608        0.0000000000000000     
   4.6875721423014979E-002  0.15749671945663732        0.0000000000000000     
   4.7658613881862384E-002  0.16524818840363725        0.0000000000000000     
   7.3917768218523430E-002  0.16635579651007976        0.0000000000000000     
   7.5054110683321185E-002  0.17411970065691212        0.0000000000000000     
   7.6116424095573787E-002  0.18197347550596163        0.0000000000000000     
   7.7104708455281237E-002  0.18991712105722824        0.0000000000000000     
   7.8018963762443522E-002  0.19795063731071200        0.0000000000000000     
   6.7135633433828279E-002  0.16602829096244787        0.0000000000000000     
   6.8166437429901527E-002  0.17381657621283519        0.0000000000000000     
   6.9127327434254315E-002  0.18169373957573481        0.0000000000000000     
   7.0018303446886657E-002  0.18965978105114675        0.0000000000000000     
   7.0839365467798537E-002  0.19771470063907093        0.0000000000000000     
   6.0498396116153055E-002  0.16573452109549680        0.0000000000000000     
   6.1426020291607285E-002  0.17354546693204159        0.0000000000000000     
   6.2288150433623186E-002  0.18144469681374345        0.0000000000000000     
   6.3084786542200760E-002  0.18943221074060240        0.0000000000000000     
   6.3815928617340006E-002  0.19750800871261839        0.0000000000000000     
   5.4006056265497759E-002  0.16547448690922661        0.0000000000000000     
   5.4832859268438457E-002  0.17330637281453132        0.0000000000000000     
   5.5598893093680372E-002  0.18122634721998757        0.0000000000000000     
   5.6304157741223507E-002  0.18923441012559525        0.0000000000000000     
   5.6948653211067880E-002  0.19733056153135439        0.0000000000000000     
   4.7658613881862384E-002  0.16524818840363725        0.0000000000000000     
   4.8386954360395050E-002  0.17309929386030440        0.0000000000000000     
   4.9059555414425901E-002  0.18103869079446702        0.0000000000000000     
   4.9676417043954944E-002  0.18906637920612523        0.0000000000000000     
   5.0237539248982180E-002  0.19718235909527893        0.0000000000000000     
   7.8018963762443522E-002  0.19795063731071200        0.0000000000000000     
   7.8859490838596669E-002  0.20606675674328015        0.0000000000000000     
   7.9626590505276734E-002  0.21425821183179991        0.0000000000000000     
   8.0320262762483691E-002  0.22252500257627139        0.0000000000000000     
   8.0940507610217538E-002  0.23086712897669451        0.0000000000000000     
   7.0839365467798537E-002  0.19771470063907093        0.0000000000000000     
   7.1588546187832350E-002  0.20585235543026936        0.0000000000000000     
   7.2263878297830417E-002  0.21406660251550388        0.0000000000000000     
   7.2865361797792794E-002  0.22235744189477449        0.0000000000000000     
   7.3392996687719425E-002  0.23072487356808122        0.0000000000000000     
   6.3815928617340006E-002  0.19750800871261839        0.0000000000000000     
   6.4478384170988043E-002  0.20566615708092459        0.0000000000000000     
   6.5068960715091995E-002  0.21390072219665390        0.0000000000000000     
   6.5587658249651834E-002  0.22221170405980648        0.0000000000000000     
   6.6034476774667603E-002  0.23059910267038219        0.0000000000000000     
   5.6948653211067880E-002  0.19733056153135439        0.0000000000000000     
   5.7529004788063748E-002  0.20550816169524580        0.0000000000000000     
   5.8041837757061406E-002  0.21376057087525011        0.0000000000000000     
   5.8487152118060853E-002  0.22208778907136725        0.0000000000000000     
   5.8864947871062070E-002  0.23048981628359733        0.0000000000000000     
   5.0237539248982180E-002  0.19718235909527893        0.0000000000000000     
   5.0740408039059465E-002  0.20537836927323302        0.0000000000000000     
   5.1182509423738677E-002  0.21364614855129235        0.0000000000000000     
   5.1563843403019796E-002  0.22198569692945694        0.0000000000000000     
   5.1884409976902836E-002  0.23039701440772670        0.0000000000000000     
   8.0940507610217538E-002  0.23086712897669451        0.0000000000000000     
   8.1476821643224728E-002  0.23930519057817959        0.0000000000000000     
   8.1918701456251700E-002  0.24785978692583691        0.0000000000000000     
   8.2266147049298424E-002  0.25653091801966654        0.0000000000000000     
   8.2519158422364944E-002  0.26531858385966833        0.0000000000000000     
   7.3392996687719425E-002  0.23072487356808122        0.0000000000000000     
   7.3843602670743066E-002  0.23918247272348062        0.0000000000000000     
   7.4213999449996446E-002  0.24774381454902919        0.0000000000000000     
   7.4504187025479576E-002  0.25640889904472691        0.0000000000000000     
   7.4714165397192459E-002  0.26517772621057384        0.0000000000000000     
   6.6034476774667603E-002  0.23059910267038219        0.0000000000000000     
   6.6411792441094214E-002  0.23906930840413088        0.0000000000000000     
   6.6721981399886610E-002  0.24762871163680220        0.0000000000000000     
   6.6965043651044803E-002  0.25627731236839624        0.0000000000000000     
   6.7140979194568781E-002  0.26501511059891292        0.0000000000000000     
   5.8864947871062070E-002  0.23048981628359733        0.0000000000000000     
   5.9181390954278150E-002  0.23896569762013023        0.0000000000000000     
   5.9442647305922150E-002  0.24751447818915592        0.0000000000000000     
   5.9648716925994071E-002  0.25613615799067430        0.0000000000000000     
   5.9799599814493905E-002  0.26483073702468551        0.0000000000000000     
   5.1884409976902836E-002  0.23039701440772670        0.0000000000000000     
   5.2152398210294895E-002  0.23887164037147882        0.0000000000000000     
   5.2375997168103081E-002  0.24740111420609032        0.0000000000000000     
   5.2555206850327385E-002  0.25598543591156125        0.0000000000000000     
   5.2690027256967829E-002  0.26462460548789157        0.0000000000000000     
   8.2519158422364944E-002  0.26531858385966833        0.0000000000000000     
   8.2716695630307285E-002  0.27424918001763837        0.0000000000000000     
   8.2897718727981518E-002  0.28334910206537273        0.0000000000000000     
   8.3062227715387654E-002  0.29261835000287140        0.0000000000000000     
   8.3210222592525654E-002  0.30205692383013427        0.0000000000000000     
   7.4714165397192459E-002  0.26517772621057384        0.0000000000000000     
   7.4884866064814801E-002  0.27404398517207923        0.0000000000000000     
   7.5057220528026339E-002  0.28300136505475221        0.0000000000000000     
   7.5231228786827087E-002  0.29204986585859283        0.0000000000000000     
   7.5406890841217003E-002  0.30118948758360115        0.0000000000000000     
   6.7140979194568781E-002  0.26501511059891292        0.0000000000000000     
   6.7290017230745028E-002  0.27381229559126763        0.0000000000000000     
   6.7452386959860000E-002  0.28263905660837557        0.0000000000000000     
   6.7628088381913712E-002  0.29149539365023663        0.0000000000000000     
   6.7817121496906149E-002  0.30038130671685098        0.0000000000000000     
   5.9799599814493905E-002  0.26483073702468551        0.0000000000000000     
   5.9932149128097960E-002  0.27355411127520357        0.0000000000000000     
   6.0083218023482515E-002  0.28226217672624265        0.0000000000000000     
   6.0252806500647564E-002  0.29095493337780276        0.0000000000000000     
   6.0440914559593120E-002  0.29963238122988395        0.0000000000000000     
   5.2690027256967829E-002  0.26462460548789157        0.0000000000000000     
   5.2811261756873590E-002  0.27326943222388717        0.0000000000000000     
   5.2949713718893857E-002  0.28187072540835378        0.0000000000000000     
   5.3105383143028616E-002  0.29042848504129132        0.0000000000000000     
   5.3278270029277881E-002  0.29894271112269988        0.0000000000000000     
   2.8919077625716876E-002   5.7155336800111617E-002   0.0000000000000000     
   3.0470538336548336E-002   6.2719578819735639E-002   0.0000000000000000     
   3.1972367153610924E-002   6.8463477432965089E-002   0.0000000000000000     
   3.3424564076904639E-002   7.4387032639800010E-002   0.0000000000000000     
   3.4827129106429502E-002   8.0490244440240402E-002   0.0000000000000000     
   2.5016223190499825E-002   5.6728046973920407E-002   0.0000000000000000     
   2.6381493065920365E-002   6.2299154004608656E-002   0.0000000000000000     
   2.7702447419076803E-002   6.8052257644982447E-002   0.0000000000000000     
   2.8979086249969144E-002   7.3987357895041753E-002   0.0000000000000000     
   3.0211409558597385E-002   8.0104454754786586E-002   0.0000000000000000     
   2.1247543479793629E-002   5.6356775322222663E-002   0.0000000000000000     
   2.2417080277506187E-002   6.1934849983532686E-002   0.0000000000000000     
   2.3549126069072175E-002   6.7696538700165593E-002   0.0000000000000000     
   2.4643680854491583E-002   7.3641841472121397E-002   0.0000000000000000     
   2.5700744633764417E-002   7.9770758299400085E-002   0.0000000000000000     
   1.7613038493598274E-002   5.6041521845018392E-002   0.0000000000000000     
   1.8577299971305809E-002   6.1626666756507700E-002   0.0000000000000000     
   1.9512403103597038E-002   6.7396320598514553E-002   0.0000000000000000     
   2.0418347890471974E-002   7.3350483371038958E-002   0.0000000000000000     
   2.1295134331930591E-002   7.9489155074080900E-002   0.0000000000000000     
   1.4112708231913776E-002   5.5782286542307588E-002   0.0000000000000000     
   1.4862152147319226E-002   6.1374604323533713E-002   0.0000000000000000     
   1.5592278522651401E-002   6.7151603340029328E-002   0.0000000000000000     
   1.6303087357910299E-002   7.3113283591794434E-002   0.0000000000000000     
   1.6994578653095917E-002   7.9259645078829016E-002   0.0000000000000000     
   3.4827129106429502E-002   8.0490244440240402E-002   0.0000000000000000     
   3.6179062456471379E-002   8.6762461091916071E-002   0.0000000000000000     
   3.7479364341316150E-002   9.3193030852456865E-002   0.0000000000000000     
   3.8728034760963814E-002   9.9781953721862798E-002   0.0000000000000000     
   3.9925073715414386E-002  0.10652922970013386        0.0000000000000000     
   3.0211409558597385E-002   8.0104454754786586E-002   0.0000000000000000     
   3.1398436853283813E-002   8.6391661724266627E-002   0.0000000000000000     
   3.2539187642350691E-002   9.2837092303531543E-002   0.0000000000000000     
   3.3633661925798038E-002   9.9440746492581361E-002   0.0000000000000000     
   3.4681859703625841E-002  0.10620262429141605        0.0000000000000000     
   2.5700744633764417E-002   7.9770758299400085E-002   0.0000000000000000     
   2.6719013409823876E-002   8.6070640241996191E-002   0.0000000000000000     
   2.7697183185603179E-002   9.2528838359904303E-002   0.0000000000000000     
   2.8635253961102322E-002   9.9145352653124338E-002   0.0000000000000000     
   2.9533225736321302E-002  0.10592018312165635        0.0000000000000000     
   2.1295134331930591E-002   7.9489155074080900E-002   0.0000000000000000     
   2.2140792126091581E-002   8.5799396645104817E-002   0.0000000000000000     
   2.2953350971073611E-002   9.2268269021575075E-002   0.0000000000000000     
   2.3732810866876671E-002   9.8895772203491744E-002   0.0000000000000000     
   2.4479171813500768E-002  0.10568190619085474        0.0000000000000000     
   1.6994578653095917E-002   7.9259645078829016E-002   0.0000000000000000     
   1.7663773002086925E-002   8.5577930933592394E-002   0.0000000000000000     
   1.8307690998761981E-002   9.2055384288543915E-002   0.0000000000000000     
   1.8926332643121078E-002   9.8692005143683523E-002   0.0000000000000000     
   1.9519697935164233E-002  0.10548779349901125        0.0000000000000000     
   3.9925073715414386E-002  0.10652922970013386        0.0000000000000000     
   4.1071102576446673E-002  0.11342275486007009        0.0000000000000000     
   4.2166742715839513E-002  0.12045042527447149        0.0000000000000000     
   4.3211994133592890E-002  0.12761224094333809        0.0000000000000000     
   4.4206856829706827E-002  0.13490820186666985        0.0000000000000000     
   3.4681859703625841E-002  0.10620262429141605        0.0000000000000000     
   3.5684590310637254E-002  0.11311098716126285        0.0000000000000000     
   3.6642663081635413E-002  0.12015409656334891        0.0000000000000000     
   3.7556078016620344E-002  0.12733195249767429        0.0000000000000000     
   3.8424835115592026E-002  0.13464455496423894        0.0000000000000000     
   2.9533225736321302E-002  0.10592018312165635        0.0000000000000000     
   3.0391832890068526E-002  0.11284175287723076        0.0000000000000000     
   3.1211809801152415E-002  0.11989848503157798        0.0000000000000000     
   3.1993156469572952E-002  0.12709037958469799        0.0000000000000000     
   3.2735872895330163E-002  0.13441743653659083        0.0000000000000000     
   2.4479171813500768E-002  0.10568190619085474        0.0000000000000000     
   2.5192830314740507E-002  0.11261505200797385        0.0000000000000000     
   2.5874182874390493E-002  0.11968359067915865        0.0000000000000000     
   2.6523229492450739E-002  0.12688752220440919        0.0000000000000000     
   2.7139970168921231E-002  0.13422684658372547        0.0000000000000000     
   1.9519697935164233E-002  0.10548779349901125        0.0000000000000000     
   2.0087582584653176E-002  0.11243088455349205        0.0000000000000000     
   2.0629782301349660E-002  0.11950941350609091        0.0000000000000000     
   2.1146297085253677E-002  0.12672338035680783        0.0000000000000000     
   2.1637126936365235E-002  0.13407278510564280        0.0000000000000000     
   4.4206856829706827E-002  0.13490820186666985        0.0000000000000000     
   4.5149842896937208E-002  0.14232672618815359        0.0000000000000000     
   4.6039464428039925E-002  0.14985623205147608        0.0000000000000000     
   4.6875721423014979E-002  0.15749671945663732        0.0000000000000000     
   4.7658613881862384E-002  0.16524818840363725        0.0000000000000000     
   3.8424835115592026E-002  0.13464455496423894        0.0000000000000000     
   3.9247576199044468E-002  0.14208005668093041        0.0000000000000000     
   4.0022943087471667E-002  0.14962661036563610        0.0000000000000000     
   4.0750935780873618E-002  0.15728421601835602        0.0000000000000000     
   4.1431554279250327E-002  0.16505287363909024        0.0000000000000000     
   3.2735872895330163E-002  0.13441743653659083        0.0000000000000000     
   3.3438704490920235E-002  0.14186768728375998        0.0000000000000000     
   3.4100396668839399E-002  0.14942916322270908        0.0000000000000000     
   3.4720949429087655E-002  0.15710186435343806        0.0000000000000000     
   3.5300362771664991E-002  0.16488579067594689        0.0000000000000000     
   2.7139970168921231E-002  0.13422684658372547        0.0000000000000000     
   2.7723227772564519E-002  0.14168961799664240        0.0000000000000000     
   2.8271825172143130E-002  0.14926389062269504        0.0000000000000000     
   2.8785762367657092E-002  0.15694966446188333        0.0000000000000000     
   2.9265039359106373E-002  0.16474693951420727        0.0000000000000000     
   2.1637126936365235E-002  0.13407278510564280        0.0000000000000000     
   2.2101146043977307E-002  0.14154584881957760        0.0000000000000000     
   2.2537228597382872E-002  0.14913079256559394        0.0000000000000000     
   2.2945374596581927E-002  0.15682761634369191        0.0000000000000000     
   2.3325584041574476E-002  0.16463632015387134        0.0000000000000000     
   4.7658613881862384E-002  0.16524818840363725        0.0000000000000000     
   4.8386954360395050E-002  0.17309929386030440        0.0000000000000000     
   4.9059555414425901E-002  0.18103869079446702        0.0000000000000000     
   4.9676417043954944E-002  0.18906637920612523        0.0000000000000000     
   5.0237539248982180E-002  0.19718235909527893        0.0000000000000000     
   4.1431554279250327E-002  0.16505287363909024        0.0000000000000000     
   4.2063364440915803E-002  0.17292133967604220        0.0000000000000000     
   4.2644932124184069E-002  0.18087837057741551        0.0000000000000000     
   4.3176257329055133E-002  0.18892396634321024        0.0000000000000000     
   4.3657340055528959E-002  0.19705812697342623        0.0000000000000000     
   3.5300362771664991E-002  0.16488579067594689        0.0000000000000000     
   3.5837148383439474E-002  0.17276961986842621        0.0000000000000000     
   3.6329817951279195E-002  0.18074202960906660        0.0000000000000000     
   3.6778371475184118E-002  0.18880301989786805        0.0000000000000000     
   3.7182808955154280E-002  0.19695259073483057        0.0000000000000000     
   2.9265039359106373E-002  0.16474693951420727        0.0000000000000000     
   2.9708306187966074E-002  0.17264413443745638        0.0000000000000000     
   3.0114212895711260E-002  0.18062966788942020        0.0000000000000000     
   3.0482759482341953E-002  0.18870353987009872        0.0000000000000000     
   3.0813945947858128E-002  0.19686575037949194        0.0000000000000000     
   2.3325584041574476E-002  0.16463632015387134        0.0000000000000000     
   2.3676837854495578E-002  0.17254488338313273        0.0000000000000000     
   2.3998116957480282E-002  0.18054128541847636        0.0000000000000000     
   2.4289421350528594E-002  0.18862552625990223        0.0000000000000000     
   2.4550751033640513E-002  0.19679760590741036        0.0000000000000000     
   5.0237539248982180E-002  0.19718235909527893        0.0000000000000000     
   5.0740408039059465E-002  0.20537836927323302        0.0000000000000000     
   5.1182509423738677E-002  0.21364614855129235        0.0000000000000000     
   5.1563843403019796E-002  0.22198569692945694        0.0000000000000000     
   5.1884409976902836E-002  0.23039701440772670        0.0000000000000000     
   4.3657340055528959E-002  0.19705812697342623        0.0000000000000000     
   4.4086886164441209E-002  0.20527059836725209        0.0000000000000000     
   4.4463601516627496E-002  0.21355112642387622        0.0000000000000000     
   4.4787486112087820E-002  0.22189971114329868        0.0000000000000000     
   4.5058539950822173E-002  0.23031635252551938        0.0000000000000000     
   3.7182808955154280E-002  0.19695259073483057        0.0000000000000000     
   3.7542731404674977E-002  0.20517866752966873        0.0000000000000000     
   3.7857739837231570E-002  0.21346917569209711        0.0000000000000000     
   3.8127834252824025E-002  0.22182411522211570        0.0000000000000000     
   3.8353014651452369E-002  0.23024348611972451        0.0000000000000000     
   3.0813945947858128E-002  0.19686575037949194        0.0000000000000000     
   3.1107943759760781E-002  0.20510257676048299        0.0000000000000000     
   3.1364924385550878E-002  0.21340029635595506        0.0000000000000000     
   3.1584887825228426E-002  0.22175890916590804        0.0000000000000000     
   3.1767834078793432E-002  0.23017841519034202        0.0000000000000000     
   2.4550751033640513E-002  0.19679760590741036        0.0000000000000000     
   2.4782523229698608E-002  0.20504232605969486        0.0000000000000000     
   2.4985155161585445E-002  0.21334448841544995        0.0000000000000000     
   2.5158646829301023E-002  0.22170409297467569        0.0000000000000000     
   2.5302998232845351E-002  0.23012113973737200        0.0000000000000000     
   5.1884409976902836E-002  0.23039701440772670        0.0000000000000000     
   5.2152398210294895E-002  0.23887164037147882        0.0000000000000000     
   5.2375997168103081E-002  0.24740111420609032        0.0000000000000000     
   5.2555206850327385E-002  0.25598543591156125        0.0000000000000000     
   5.2690027256967829E-002  0.26462460548789157        0.0000000000000000     
   4.5058539950822173E-002  0.23031635252551938        0.0000000000000000     
   4.5285688894832574E-002  0.23878570977819918        0.0000000000000000     
   4.5477858806121027E-002  0.24729244210899881        0.0000000000000000     
   4.5635049684687526E-002  0.25583654951791823        0.0000000000000000     
   4.5757261530532098E-002  0.26441803200495756        0.0000000000000000     
   3.8353014651452369E-002  0.23024348611972451        0.0000000000000000     
   3.8542137693579330E-002  0.23870647896031397        0.0000000000000000     
   3.8704060039667615E-002  0.24719228431927470        0.0000000000000000     
   3.8838781689717258E-002  0.25570090219660652        0.0000000000000000     
   3.8946302643728239E-002  0.26423233259230977        0.0000000000000000     
   3.1767834078793432E-002  0.23017841519034202        0.0000000000000000     
   3.1921744606535143E-002  0.23863394791782325        0.0000000000000000     
   3.2054600868742858E-002  0.24710064083691802        0.0000000000000000     
   3.2166402865416562E-002  0.25557849394762627        0.0000000000000000     
   3.2257150596556261E-002  0.26406750724994810        0.0000000000000000     
   2.5302998232845351E-002  0.23012113973737200        0.0000000000000000     
   2.5424509633700049E-002  0.23856811665072700        0.0000000000000000     
   2.5529481293346749E-002  0.24701751166192876        0.0000000000000000     
   2.5617913211785456E-002  0.25546932477097739        0.0000000000000000     
   2.5689805389016163E-002  0.26392355597787276        0.0000000000000000     
   5.2690027256967829E-002  0.26462460548789157        0.0000000000000000     
   5.2811261756873590E-002  0.27326943222388717        0.0000000000000000     
   5.2949713718893857E-002  0.28187072540835378        0.0000000000000000     
   5.3105383143028616E-002  0.29042848504129132        0.0000000000000000     
   5.3278270029277881E-002  0.29894271112269988        0.0000000000000000     
   4.5757261530532098E-002  0.26441803200495756        0.0000000000000000     
   4.5868593433833975E-002  0.27298696548289414        0.0000000000000000     
   4.5993144484772423E-002  0.28149342586450549        0.0000000000000000     
   4.6130914683347436E-002  0.28993741314979149        0.0000000000000000     
   4.6281904029559034E-002  0.29831892733875232        0.0000000000000000     
   3.8946302643728239E-002  0.26423233259230977        0.0000000000000000     
   3.9045382475741158E-002  0.27273541809780033        0.0000000000000000     
   3.9154780759796615E-002  0.28115900130449462        0.0000000000000000     
   3.9274497495894609E-002  0.28950308221239279        0.0000000000000000     
   3.9404532684035140E-002  0.29776766082149464        0.0000000000000000     
   3.2257150596556261E-002  0.26406750724994810        0.0000000000000000     
   3.2341628882595154E-002  0.27251479006860574        0.0000000000000000     
   3.2434622543966438E-002  0.28086745172832139        0.0000000000000000     
   3.2536131580670126E-002  0.28912549222909512        0.0000000000000000     
   3.2646155992706219E-002  0.29728891157092685        0.0000000000000000     
   2.5689805389016163E-002  0.26392355597787276        0.0000000000000000     
   2.5757332654395955E-002  0.27232508139531036        0.0000000000000000     
   2.5832669837281896E-002  0.28061877713598565        0.0000000000000000     
   2.5915816937673995E-002  0.28880464319989851        0.0000000000000000     
   2.6006773955572257E-002  0.29688267958704906        0.0000000000000000     
   1.4112708231913776E-002   5.5782286542307588E-002   0.0000000000000000     
   1.4862152147319226E-002   6.1374604323533713E-002   0.0000000000000000     
   1.5592278522651401E-002   6.7151603340029328E-002   0.0000000000000000     
   1.6303087357910299E-002   7.3113283591794434E-002   0.0000000000000000     
   1.6994578653095917E-002   7.9259645078829016E-002   0.0000000000000000     
   1.0655731793186981E-002   5.5579963603376359E-002   0.0000000000000000     
   1.1193643951250724E-002   6.1178602541868507E-002   0.0000000000000000     
   1.1721392073729813E-002   6.6961757357670515E-002   0.0000000000000000     
   1.2238976160624249E-002   7.2929428050782383E-002   0.0000000000000000     
   1.2746396211934031E-002   7.9081614621204124E-002   0.0000000000000000     
   7.1512882758647429E-003   5.5435447217510821E-002   0.0000000000000000     
   7.4937825288045826E-003   6.1038601268769838E-002   0.0000000000000000     
   7.8323835043268356E-003   6.6826153084398696E-002   0.0000000000000000     
   8.1670912024314982E-003   7.2798102664397374E-002   0.0000000000000000     
   8.4979056231185741E-003   7.8954450008765900E-002   0.0000000000000000     
   3.5993776799470600E-003   5.5348737384710960E-002   0.0000000000000000     
   3.7625678799808036E-003   6.0954600504237740E-002   0.0000000000000000     
   3.9252528144424655E-003   6.6744790520213884E-002   0.0000000000000000     
   4.0874324833320465E-003   7.2719307432639407E-002   0.0000000000000000     
   4.2491068866495453E-003   7.8878151241514316E-002   0.0000000000000000     
   5.4339341186426804E-012   5.5319834104976789E-002   0.0000000000000000     
   4.7793865219636356E-012   6.0926600248272171E-002   0.0000000000000000     
   4.0767059866775313E-012   6.6717669665116067E-002   0.0000000000000000     
   3.3258933801461055E-012   7.2693042355508469E-002   0.0000000000000000     
   2.5269482686884892E-012   7.8852718319449400E-002   0.0000000000000000     
   1.6994578653095917E-002   7.9259645078829016E-002   0.0000000000000000     
   1.7663773002086925E-002   8.5577930933592394E-002   0.0000000000000000     
   1.8307690998761981E-002   9.2055384288543915E-002   0.0000000000000000     
   1.8926332643121078E-002   9.8692005143683523E-002   0.0000000000000000     
   1.9519697935164233E-002  0.10548779349901125        0.0000000000000000     
   1.2746396211934031E-002   7.9081614621204124E-002   0.0000000000000000     
   1.3239973656461507E-002   8.5405926260952364E-002   0.0000000000000000     
   1.3716029923009021E-002   9.1889972162043726E-002   0.0000000000000000     
   1.4174565011576580E-002   9.8533752324478197E-002   0.0000000000000000     
   1.4615578922164179E-002  0.10533726674825580        0.0000000000000000     
   8.4979056231185741E-003   7.8954450008765900E-002   0.0000000000000000     
   8.8214117078669399E-003   8.5283065780678013E-002   0.0000000000000000     
   9.1341943981554808E-003   9.1771820643307467E-002   0.0000000000000000     
   9.4362536939841934E-003   9.8420714596654246E-002   0.0000000000000000     
   9.7275895953530776E-003  0.10522974764071839        0.0000000000000000     
   4.2491068866495453E-003   7.8878151241514316E-002   0.0000000000000000     
   4.4080871563032262E-003   8.5209349492769315E-002   0.0000000000000000     
   4.5621844242013506E-003   9.1700929732335082E-002   0.0000000000000000     
   4.7113986903439195E-003   9.8352891960211644E-002   0.0000000000000000     
   4.8557299547309319E-003  0.10516523617639900        0.0000000000000000     
   2.5269482686884892E-012   7.8852718319449400E-002   0.0000000000000000     
   1.7703631529503161E-012   8.5184777397226297E-002   0.0000000000000000     
   1.1466338946039545E-012   9.1677299429126641E-002   0.0000000000000000     
   6.5575840656022233E-013   9.8330284415150418E-002   0.0000000000000000     
   2.9773796275667230E-013  0.10514373235529764        0.0000000000000000     
   1.9519697935164233E-002  0.10548779349901125        0.0000000000000000     
   2.0087582584653176E-002  0.11243088455349205        0.0000000000000000     
   2.0629782301349660E-002  0.11950941350609091        0.0000000000000000     
   2.1146297085253677E-002  0.12672338035680783        0.0000000000000000     
   2.1637126936365235E-002  0.13407278510564280        0.0000000000000000     
   1.4615578922164179E-002  0.10533726674825580        0.0000000000000000     
   1.5038330942515627E-002  0.11228834639982876        0.0000000000000000     
   1.5442080360374732E-002  0.11937482224564934        0.0000000000000000     
   1.5826827175741496E-002  0.12659669428571751        0.0000000000000000     
   1.6192571388615917E-002  0.13395396252003328        0.0000000000000000     
   9.7275895953530776E-003  0.10522974764071839        0.0000000000000000     
   1.0007316631036926E-002  0.11218653343302730        0.0000000000000000     
   1.0274549329810532E-002  0.11927868563110840        0.0000000000000000     
   1.0529287691673892E-002  0.12650620423496170        0.0000000000000000     
   1.0771531716627012E-002  0.13386908924458721        0.0000000000000000     
   4.8557299547309319E-003  0.10516523617639900        0.0000000000000000     
   4.9945396502170817E-003  0.11212544565308766        0.0000000000000000     
   5.1271892096570616E-003  0.11922100366246816        0.0000000000000000     
   5.2536786330508759E-003  0.12645191020454044        0.0000000000000000     
   5.3740079203985205E-003  0.13381816527930462        0.0000000000000000     
   2.9773796275667230E-013  0.10514373235529764        0.0000000000000000     
   5.6087079425282127E-014  0.11210508306000982        0.0000000000000000     
  -8.5679401941318734E-014  0.11920177633972852        0.0000000000000000     
  -1.2755999056514311E-013  0.12643381219445377        0.0000000000000000     
  -6.9556773535373040E-014  0.13380119062418547        0.0000000000000000     
   2.1637126936365235E-002  0.13407278510564280        0.0000000000000000     
   2.2101146043977307E-002  0.14154584881957760        0.0000000000000000     
   2.2537228597382872E-002  0.14913079256559394        0.0000000000000000     
   2.2945374596581927E-002  0.15682761634369191        0.0000000000000000     
   2.3325584041574476E-002  0.16463632015387134        0.0000000000000000     
   1.6192571388615917E-002  0.13395396252003328        0.0000000000000000     
   1.6538286240953562E-002  0.14143505708777782        0.0000000000000000     
   1.6862944974710001E-002  0.14902840812813223        0.0000000000000000     
   1.7166547589885232E-002  0.15673401564109657        0.0000000000000000     
   1.7449094086479256E-002  0.16455187962667078        0.0000000000000000     
   1.0771531716627012E-002  0.13386908924458721        0.0000000000000000     
   1.1000475299288234E-002  0.14135592013645529        0.0000000000000000     
   1.1215312334275918E-002  0.14895527638703629        0.0000000000000000     
   1.1416042821590058E-002  0.15666715799633021        0.0000000000000000     
   1.1602666761230656E-002  0.16449156496433709        0.0000000000000000     
   5.3740079203985205E-003  0.13381816527930462        0.0000000000000000     
   5.4877132189813261E-003  0.14130843796561002        0.0000000000000000     
   5.5943306760806201E-003  0.14891139734230607        0.0000000000000000     
   5.6938602916964060E-003  0.15662704340939285        0.0000000000000000     
   5.7863020658286794E-003  0.16445537616687031        0.0000000000000000     
  -6.9556773535373040E-014  0.13380119062418547        0.0000000000000000     
   3.2832894389378531E-014  0.14129261057524198        0.0000000000000000     
   1.2411079108876066E-013  0.14889677099394164        0.0000000000000000     
   2.0427301343495241E-013  0.15661367188028447        0.0000000000000000     
   2.7332433191751271E-013  0.16444331323427042        0.0000000000000000     
   2.3325584041574476E-002  0.16463632015387134        0.0000000000000000     
   2.3676837854495578E-002  0.17254488338313273        0.0000000000000000     
   2.3998116957480282E-002  0.18054128541847636        0.0000000000000000     
   2.4289421350528594E-002  0.18862552625990223        0.0000000000000000     
   2.4550751033640513E-002  0.19679760590741036        0.0000000000000000     
   1.7449094086479256E-002  0.16455187962667078        0.0000000000000000     
   1.7709949436758174E-002  0.17246951625036691        0.0000000000000000     
   1.7948478612988088E-002  0.18047444167769705        0.0000000000000000     
   1.8164681615168998E-002  0.18856665590866115        0.0000000000000000     
   1.8358558443300907E-002  0.19674615894325920        0.0000000000000000     
   1.1602666761230656E-002  0.16449156496433709        0.0000000000000000     
   1.1774846988484033E-002  0.17241568258407050        0.0000000000000000     
   1.1932246338636515E-002  0.18042669614854412        0.0000000000000000     
   1.2074864811688096E-002  0.18852460565775797        0.0000000000000000     
   1.2202702407638780E-002  0.19670941111171197        0.0000000000000000     
   5.7863020658286794E-003  0.16445537616687031        0.0000000000000000     
   5.8715305096731594E-003  0.17238338238424356        0.0000000000000000     
   5.9494201344255622E-003  0.18039804883101770        0.0000000000000000     
   6.0199709400858888E-003  0.18849937550719276        0.0000000000000000     
   6.0831829266541357E-003  0.19668736241276866        0.0000000000000000     
   2.7332433191751271E-013  0.16444331323427042        0.0000000000000000     
   3.2554839900222898E-013  0.17237261565088599        0.0000000000000000     
   3.5522984293684390E-013  0.18038849972511767        0.0000000000000000     
   3.6237118449140848E-013  0.18849096545696542        0.0000000000000000     
   3.4697028236663208E-013  0.19668001284642928        0.0000000000000000     
   2.4550751033640513E-002  0.19679760590741036        0.0000000000000000     
   2.4782523229698608E-002  0.20504232605969486        0.0000000000000000     
   2.4985155161585445E-002  0.21334448841544995        0.0000000000000000     
   2.5158646829301023E-002  0.22170409297467569        0.0000000000000000     
   2.5302998232845351E-002  0.23012113973737200        0.0000000000000000     
   1.8358558443300907E-002  0.19674615894325920        0.0000000000000000     
   1.8530562798385445E-002  0.20499653672642643        0.0000000000000000     
   1.8681148381424251E-002  0.21330137520309794        0.0000000000000000     
   1.8810315192417316E-002  0.22166067437327377        0.0000000000000000     
   1.8918063231364652E-002  0.23007443423695387        0.0000000000000000     
   1.2202702407638780E-002  0.19670941111171197        0.0000000000000000     
   1.2316155449718274E-002  0.20496383005979976        0.0000000000000000     
   1.2415620261156283E-002  0.21327058005141492        0.0000000000000000     
   1.2501096841952809E-002  0.22162966108655735        0.0000000000000000     
   1.2572585192107849E-002  0.23004107316522712        0.0000000000000000     
   6.0831829266541357E-003  0.19668736241276866        0.0000000000000000     
   6.1393011836970920E-003  0.20494420605981492        0.0000000000000000     
   6.1885708007815479E-003  0.21325210296040087        0.0000000000000000     
   6.2309917779074971E-003  0.22161105311452653        0.0000000000000000     
   6.2665641150749457E-003  0.23002105652219182        0.0000000000000000     
   3.4697028236663208E-013  0.19668001284642928        0.0000000000000000     
   3.2190222709616023E-013  0.20493766472647185        0.0000000000000000     
   3.0004102501146601E-013  0.21324594393005583        0.0000000000000000     
   2.8138640506200630E-013  0.22160485045718120        0.0000000000000000     
   2.6593787935680346E-013  0.23001438430784793        0.0000000000000000     
   2.5302998232845351E-002  0.23012113973737200        0.0000000000000000     
   2.5424509633700049E-002  0.23856811665072700        0.0000000000000000     
   2.5529481293346749E-002  0.24701751166192876        0.0000000000000000     
   2.5617913211785456E-002  0.25546932477097739        0.0000000000000000     
   2.5689805389016163E-002  0.26392355597787276        0.0000000000000000     
   1.8918063231364652E-002  0.23007443423695387        0.0000000000000000     
   1.9008735844811667E-002  0.23851344544375341        0.0000000000000000     
   1.9086676379303776E-002  0.24694849864328741        0.0000000000000000     
   1.9151884834840982E-002  0.25537959383555592        0.0000000000000000     
   1.9204361211423285E-002  0.26380673102055902        0.0000000000000000     
   1.2572585192107849E-002  0.23004107316522712        0.0000000000000000     
   1.2632726309607645E-002  0.23847439458163067        0.0000000000000000     
   1.2684161192438426E-002  0.24689920362997431        0.0000000000000000     
   1.2726889840600195E-002  0.25531550031025818        0.0000000000000000     
   1.2760912254092954E-002  0.26372328462248212        0.0000000000000000     
   6.2665641150749457E-003  0.23002105652219182        0.0000000000000000     
   6.2964810280879829E-003  0.23845096406435889        0.0000000000000000     
   6.3219357327507011E-003  0.24686962662198958        0.0000000000000000     
   6.3429282290631021E-003  0.25527704419508401        0.0000000000000000     
   6.3594585170251849E-003  0.26367321678364225        0.0000000000000000     
   2.6593787935680346E-013  0.23001438430784793        0.0000000000000000     
   2.5268068887251971E-013  0.23844315389193799        0.0000000000000000     
   2.4059996616559998E-013  0.24685976761933320        0.0000000000000000     
   2.2969665991294519E-013  0.25526422549003364        0.0000000000000000     
   2.1996900828602506E-013  0.26365652750403923        0.0000000000000000     
   2.5689805389016163E-002  0.26392355597787276        0.0000000000000000     
   2.5757332654395955E-002  0.27232508139531036        0.0000000000000000     
   2.5832669837281896E-002  0.28061877713598565        0.0000000000000000     
   2.5915816937673995E-002  0.28880464319989851        0.0000000000000000     
   2.6006773955572257E-002  0.29688267958704906        0.0000000000000000     
   1.9204361211423285E-002  0.26380673102055902        0.0000000000000000     
   1.9254073704215020E-002  0.27217261352438543        0.0000000000000000     
   1.9310990508380539E-002  0.28041994467312398        0.0000000000000000     
   1.9375111623919843E-002  0.28854872446677488        0.0000000000000000     
   1.9446437050832932E-002  0.29655895290533785        0.0000000000000000     
   1.2760912254092954E-002  0.26372328462248212        0.0000000000000000     
   1.2793431945123829E-002  0.27206370790230194        0.0000000000000000     
   1.2831652425899944E-002  0.28027792148537323        0.0000000000000000     
   1.2875573696421304E-002  0.28836592537169586        0.0000000000000000     
   1.2925195756687907E-002  0.29632771956127008        0.0000000000000000     
   6.3594585170251849E-003  0.26367321678364225        0.0000000000000000     
   6.3754073771223755E-003  0.27199836452905995        0.0000000000000000     
   6.3946555898401064E-003  0.28019270757273312        0.0000000000000000     
   6.4172031551783760E-003  0.28825624591466176        0.0000000000000000     
   6.4430500731371817E-003  0.29618897955484580        0.0000000000000000     
   2.1996900828602506E-013  0.26365652750403923        0.0000000000000000     
   2.1066373472045097E-013  0.27197658340465952        0.0000000000000000     
   2.0102647844966182E-013  0.28016430293520389        0.0000000000000000     
   1.9105740210398348E-013  0.28821968609567239        0.0000000000000000     
   1.8075645147330732E-013  0.29614273288606491        0.0000000000000000     
   5.4339341186426804E-012   5.5319834104976789E-002   0.0000000000000000     
   4.7793865219636356E-012   6.0926600248272171E-002   0.0000000000000000     
   4.0767059866775313E-012   6.6717669665116067E-002   0.0000000000000000     
   3.3258933801461055E-012   7.2693042355508469E-002   0.0000000000000000     
   2.5269482686884892E-012   7.8852718319449400E-002   0.0000000000000000     
  -3.5993776703599849E-003   5.5348737379321951E-002   0.0000000000000000     
  -3.7625678715398408E-003   6.0954600501415060E-002   0.0000000000000000     
  -3.9252528072437993E-003   6.6744790519301905E-002   0.0000000000000000     
  -4.0874324774718591E-003   7.2719307432982397E-002   0.0000000000000000     
  -4.2491068822240177E-003   7.8878151242456590E-002   0.0000000000000000     
  -7.1512882701200483E-003   5.5435447208760077E-002   0.0000000000000000     
  -7.4937825237170541E-003   6.1038601264208354E-002   0.0000000000000000     
  -7.8323834999924069E-003   6.6826153082967993E-002   0.0000000000000000     
  -8.1670911989461057E-003   7.2798102665039000E-002   0.0000000000000000     
  -8.4979056205781514E-003   7.8954450010421354E-002   0.0000000000000000     
  -1.0655731793846253E-002   5.5579963593291176E-002   0.0000000000000000     
  -1.1193643951752250E-002   6.1178602536651999E-002   0.0000000000000000     
  -1.1721392074169114E-002   6.6961757356114371E-002   0.0000000000000000     
  -1.2238976161096848E-002   7.2929428051678263E-002   0.0000000000000000     
  -1.2746396212535451E-002   7.9081614623343705E-002   0.0000000000000000     
  -1.4112708241538600E-002   5.5782286532915247E-002   0.0000000000000000     
  -1.4862152155645425E-002   6.1374604318746022E-002   0.0000000000000000     
  -1.5592278529773922E-002   6.7151603338741012E-002   0.0000000000000000     
  -1.6303087363924086E-002   7.3113283592900202E-002   0.0000000000000000     
  -1.6994578658095918E-002   7.9259645081223615E-002   0.0000000000000000     
   2.5269482686884892E-012   7.8852718319449400E-002   0.0000000000000000     
   1.7703631529503161E-012   8.5184777397226297E-002   0.0000000000000000     
   1.1466338946039545E-012   9.1677299429126641E-002   0.0000000000000000     
   6.5575840656022233E-013   9.8330284415150418E-002   0.0000000000000000     
   2.9773796275667230E-013  0.10514373235529764        0.0000000000000000     
  -4.2491068822240177E-003   7.8878151242456590E-002   0.0000000000000000     
  -4.4080871532390809E-003   8.5209349493912581E-002   0.0000000000000000     
  -4.5621844222558418E-003   9.1700929733538508E-002   0.0000000000000000     
  -4.7113986892743055E-003   9.8352891961334357E-002   0.0000000000000000     
  -4.8557299542944712E-003  0.10516523617730011        0.0000000000000000     
  -8.4979056205781514E-003   7.8954450010421354E-002   0.0000000000000000     
  -8.8214117062325355E-003   8.5283065782691819E-002   0.0000000000000000     
  -9.1341943972532511E-003   9.1771820645427132E-002   0.0000000000000000     
  -9.4362536936402931E-003   9.8420714598627293E-002   0.0000000000000000     
  -9.7275895953936667E-003  0.10522974764229227        0.0000000000000000     
  -1.2746396212535451E-002   7.9081614623343705E-002   0.0000000000000000     
  -1.3239973657210006E-002   8.5405926263563983E-002   0.0000000000000000     
  -1.3716029923845588E-002   9.1889972164792486E-002   0.0000000000000000     
  -1.4174565012442205E-002   9.8533752327029184E-002   0.0000000000000000     
  -1.4615578922999849E-002  0.10533726675027408        0.0000000000000000     
  -1.6994578658095918E-002   7.9259645081223615E-002   0.0000000000000000     
  -1.7663773006171484E-002   8.5577930936529101E-002   0.0000000000000000     
  -1.8307691002032857E-002   9.2055384291634595E-002   0.0000000000000000     
  -1.8926332645680034E-002   9.8692005146540071E-002   0.0000000000000000     
  -1.9519697937113018E-002  0.10548779350124553        0.0000000000000000     
   2.9773796275667230E-013  0.10514373235529764        0.0000000000000000     
   5.6087079425282127E-014  0.11210508306000982        0.0000000000000000     
  -8.5679401941318734E-014  0.11920177633972852        0.0000000000000000     
  -1.2755999056514311E-013  0.12643381219445377        0.0000000000000000     
  -6.9556773535373040E-014  0.13380119062418547        0.0000000000000000     
  -4.8557299542944712E-003  0.10516523617730011        0.0000000000000000     
  -4.9945396502005038E-003  0.11212544565370766        0.0000000000000000     
  -5.1271892098765717E-003  0.11922100366282878        0.0000000000000000     
  -5.2536786333226750E-003  0.12645191020466354        0.0000000000000000     
  -5.3740079205388093E-003  0.13381816527921186        0.0000000000000000     
  -9.7275895953936667E-003  0.10522974764229227        0.0000000000000000     
  -1.0007316631307142E-002  0.11218653343409493        0.0000000000000000     
  -1.0274549330174498E-002  0.11927868563170811        0.0000000000000000     
  -1.0529287691995726E-002  0.12650620423513179        0.0000000000000000     
  -1.0771531716770831E-002  0.13386908924436597        0.0000000000000000     
  -1.4615578922999849E-002  0.10533726675027408        0.0000000000000000     
  -1.5038330943263827E-002  0.11228834640117168        0.0000000000000000     
  -1.5442080360979457E-002  0.11937482224636647        0.0000000000000000     
  -1.5826827176146720E-002  0.12659669428585851        0.0000000000000000     
  -1.6192571388765627E-002  0.13395396251964775        0.0000000000000000     
  -1.9519697937113018E-002  0.10548779350124553        0.0000000000000000     
  -2.0087582586070560E-002  0.11243088455493783        0.0000000000000000     
  -2.0629782302291441E-002  0.11950941350680393        0.0000000000000000     
  -2.1146297085775652E-002  0.12672338035684375        0.0000000000000000     
  -2.1637126936523185E-002  0.13407278510505727        0.0000000000000000     
  -6.9556773535373040E-014  0.13380119062418547        0.0000000000000000     
   3.2832894389378531E-014  0.14129261057524198        0.0000000000000000     
   1.2411079108876066E-013  0.14889677099394164        0.0000000000000000     
   2.0427301343495241E-013  0.15661367188028447        0.0000000000000000     
   2.7332433191751271E-013  0.16444331323427042        0.0000000000000000     
  -5.3740079205388093E-003  0.13381816527921186        0.0000000000000000     
  -5.4877132189112728E-003  0.14130843796534959        0.0000000000000000     
  -5.5943306758263521E-003  0.14891139734195255        0.0000000000000000     
  -5.6938602912840492E-003  0.15662704340902067        0.0000000000000000     
  -5.7863020652843640E-003  0.16445537616655401        0.0000000000000000     
  -1.0771531716770831E-002  0.13386908924436597        0.0000000000000000     
  -1.1000475299205023E-002  0.14135592013593129        0.0000000000000000     
  -1.1215312334003505E-002  0.14895527638634837        0.0000000000000000     
  -1.1416042821166277E-002  0.15666715799561720        0.0000000000000000     
  -1.1602666760693343E-002  0.16449156496373771        0.0000000000000000     
  -1.6192571388765627E-002  0.13395396251964775        0.0000000000000000     
  -1.6538286240848420E-002  0.14143505708698703        0.0000000000000000     
  -1.6862944974407348E-002  0.14902840812712911        0.0000000000000000     
  -1.7166547589442412E-002  0.15673401564007386        0.0000000000000000     
  -1.7449094085953611E-002  0.16455187962582143        0.0000000000000000     
  -2.1637126936523185E-002  0.13407278510505727        0.0000000000000000     
  -2.2101146043841457E-002  0.14154584881851687        0.0000000000000000     
  -2.2537228597037884E-002  0.14913079256429473        0.0000000000000000     
  -2.2945374596112452E-002  0.15682761634239084        0.0000000000000000     
  -2.3325584041065172E-002  0.16463632015280524        0.0000000000000000     
   2.7332433191751271E-013  0.16444331323427042        0.0000000000000000     
   3.2554839900222898E-013  0.17237261565088599        0.0000000000000000     
   3.5522984293684390E-013  0.18038849972511767        0.0000000000000000     
   3.6237118449140848E-013  0.18849096545696542        0.0000000000000000     
   3.4697028236663208E-013  0.19668001284642928        0.0000000000000000     
  -5.7863020652843640E-003  0.16445537616655401        0.0000000000000000     
  -5.8715305090313238E-003  0.17238338238401257        0.0000000000000000     
  -5.9494201337289528E-003  0.18039804883085631        0.0000000000000000     
  -6.0199709393772508E-003  0.18849937550708526        0.0000000000000000     
  -6.0831829259762231E-003  0.19668736241269941        0.0000000000000000     
  -1.1602666760693343E-002  0.16449156496373771        0.0000000000000000     
  -1.1774846987869977E-002  0.17241568258363793        0.0000000000000000     
  -1.1932246337981456E-002  0.18042669614824586        0.0000000000000000     
  -1.2074864811027781E-002  0.18852460565756146        0.0000000000000000     
  -1.2202702407008955E-002  0.19670941111158474        0.0000000000000000     
  -1.7449094085953611E-002  0.16455187962582143        0.0000000000000000     
  -1.7709949436190413E-002  0.17246951624976214        0.0000000000000000     
  -1.7948478612402285E-002  0.18047444167728635        0.0000000000000000     
  -1.8164681614589222E-002  0.18856665590839408        0.0000000000000000     
  -1.8358558442751225E-002  0.19674615894308528        0.0000000000000000     
  -2.3325584041065172E-002  0.16463632015280524        0.0000000000000000     
  -2.3676837853992633E-002  0.17254488338238516        0.0000000000000000     
  -2.3998116956991430E-002  0.18054128541797773        0.0000000000000000     
  -2.4289421350061565E-002  0.18862552625958301        0.0000000000000000     
  -2.4550751033203040E-002  0.19679760590720097        0.0000000000000000     
   3.4697028236663208E-013  0.19668001284642928        0.0000000000000000     
   3.2190222709616023E-013  0.20493766472647185        0.0000000000000000     
   3.0004102501146601E-013  0.21324594393005583        0.0000000000000000     
   2.8138640506200630E-013  0.22160485045718120        0.0000000000000000     
   2.6593787935680346E-013  0.23001438430784793        0.0000000000000000     
  -6.0831829259762231E-003  0.19668736241269941        0.0000000000000000     
  -6.1393011830681273E-003  0.20494420605977293        0.0000000000000000     
  -6.1885708001952235E-003  0.21325210296037989        0.0000000000000000     
  -6.2309917773575151E-003  0.22161105311452037        0.0000000000000000     
  -6.2665641145549988E-003  0.23002105652219437        0.0000000000000000     
  -1.2202702407008955E-002  0.19670941111158474        0.0000000000000000     
  -1.2316155449133826E-002  0.20496383005972041        0.0000000000000000     
  -1.2415620260611236E-002  0.21327058005137317        0.0000000000000000     
  -1.2501096841441191E-002  0.22162966108654303        0.0000000000000000     
  -1.2572585191623690E-002  0.23004107316522995        0.0000000000000000     
  -1.8358558442751225E-002  0.19674615894308528        0.0000000000000000     
  -1.8530562797875186E-002  0.20499653672631435        0.0000000000000000     
  -1.8681148380947997E-002  0.21330137520303560        0.0000000000000000     
  -1.8810315191969639E-002  0.22166067437324907        0.0000000000000000     
  -1.8918063230940130E-002  0.23007443423695476        0.0000000000000000     
  -2.4550751033203040E-002  0.19679760590720097        0.0000000000000000     
  -2.4782523229292225E-002  0.20504232605955475        0.0000000000000000     
  -2.4985155161205502E-002  0.21334448841536724        0.0000000000000000     
  -2.5158646828942876E-002  0.22170409297463856        0.0000000000000000     
  -2.5302998232504339E-002  0.23012113973736875        0.0000000000000000     
   2.6593787935680346E-013  0.23001438430784793        0.0000000000000000     
   2.5268068887251971E-013  0.23844315389193799        0.0000000000000000     
   2.4059996616559998E-013  0.24685976761933320        0.0000000000000000     
   2.2969665991294519E-013  0.25526422549003364        0.0000000000000000     
   2.1996900828602506E-013  0.26365652750403923        0.0000000000000000     
  -6.2665641145549988E-003  0.23002105652219437        0.0000000000000000     
  -6.2964810275938088E-003  0.23845096406436728        0.0000000000000000     
  -6.3219357322800724E-003  0.24686962662200457        0.0000000000000000     
  -6.3429282286137940E-003  0.25527704419510638        0.0000000000000000     
  -6.3594585165949709E-003  0.26367321678367256        0.0000000000000000     
  -1.2572585191623690E-002  0.23004107316522995        0.0000000000000000     
  -1.2632726309147030E-002  0.23847439458164604        0.0000000000000000     
  -1.2684161191999516E-002  0.24689920363000337        0.0000000000000000     
  -1.2726889840181147E-002  0.25531550031030181        0.0000000000000000     
  -1.2760912253691917E-002  0.26372328462254147        0.0000000000000000     
  -1.8918063230940130E-002  0.23007443423695476        0.0000000000000000     
  -1.9008735844406995E-002  0.23851344544377431        0.0000000000000000     
  -1.9086676378917731E-002  0.24694849864332932        0.0000000000000000     
  -1.9151884834472357E-002  0.25537959383561992        0.0000000000000000     
  -1.9204361211070869E-002  0.26380673102064606        0.0000000000000000     
  -2.5302998232504339E-002  0.23012113973736875        0.0000000000000000     
  -2.5424509633373685E-002  0.23856811665075203        0.0000000000000000     
  -2.5529481293034714E-002  0.24701751166198271        0.0000000000000000     
  -2.5617913211487431E-002  0.25546932477106082        0.0000000000000000     
  -2.5689805388731828E-002  0.26392355597798633        0.0000000000000000     
   2.1996900828602506E-013  0.26365652750403923        0.0000000000000000     
   2.1066373472045097E-013  0.27197658340465952        0.0000000000000000     
   2.0102647844966182E-013  0.28016430293520389        0.0000000000000000     
   1.9105740210398348E-013  0.28821968609567239        0.0000000000000000     
   1.8075645147330732E-013  0.29614273288606491        0.0000000000000000     
  -6.3594585165949709E-003  0.26367321678367256        0.0000000000000000     
  -6.3754073767104853E-003  0.27199836452909965        0.0000000000000000     
  -6.3946555894472176E-003  0.28019270757278419        0.0000000000000000     
  -6.4172031548051693E-003  0.28825624591472615        0.0000000000000000     
  -6.4430500727843346E-003  0.29618897955492557        0.0000000000000000     
  -1.2760912253691917E-002  0.26372328462254147        0.0000000000000000     
  -1.2793431944740247E-002  0.27206370790237955        0.0000000000000000     
  -1.2831652425534546E-002  0.28027792148547281        0.0000000000000000     
  -1.2875573696074815E-002  0.28836592537182171        0.0000000000000000     
  -1.2925195756361059E-002  0.29632771956142578        0.0000000000000000     
  -1.9204361211070869E-002  0.26380673102064606        0.0000000000000000     
  -1.9254073703878615E-002  0.27217261352449890        0.0000000000000000     
  -1.9310990508060961E-002  0.28041994467326992        0.0000000000000000     
  -1.9375111623617894E-002  0.28854872446695873        0.0000000000000000     
  -1.9446437050549416E-002  0.29655895290556566        0.0000000000000000     
  -2.5689805388731828E-002  0.26392355597798633        0.0000000000000000     
  -2.5757332654125605E-002  0.27232508139545819        0.0000000000000000     
  -2.5832669837026454E-002  0.28061877713617522        0.0000000000000000     
  -2.5915816937434395E-002  0.28880464320013755        0.0000000000000000     
  -2.6006773955349401E-002  0.29688267958734516        0.0000000000000000     
  -1.4112708241538600E-002   5.5782286532915247E-002   0.0000000000000000     
  -1.4862152155645425E-002   6.1374604318746022E-002   0.0000000000000000     
  -1.5592278529773922E-002   6.7151603338741012E-002   0.0000000000000000     
  -1.6303087363924086E-002   7.3113283592900202E-002   0.0000000000000000     
  -1.6994578658095918E-002   7.9259645081223615E-002   0.0000000000000000     
  -1.7613038511261950E-002   5.6041521837551130E-002   0.0000000000000000     
  -1.8577299986639352E-002   6.1626666752764826E-002   0.0000000000000000     
  -1.9512403116695141E-002   6.7396320597661610E-002   0.0000000000000000     
  -2.0418347901429310E-002   7.3350483372241482E-002   0.0000000000000000     
  -2.1295134340841858E-002   7.9489155076504420E-002   0.0000000000000000     
  -2.1247543501081160E-002   5.6356775317117677E-002   0.0000000000000000     
  -2.2417080295976794E-002   6.1934849980982816E-002   0.0000000000000000     
  -2.3549126084821077E-002   6.7696538699689834E-002   0.0000000000000000     
  -2.4643680867614010E-002   7.3641841473238739E-002   0.0000000000000000     
  -2.5700744644355587E-002   7.9770758301629496E-002   0.0000000000000000     
  -2.5016223210996228E-002   5.6728046971614855E-002   0.0000000000000000     
  -2.6381493083657750E-002   6.2299154003399998E-002   0.0000000000000000     
  -2.7702447434151737E-002   6.8052257644825698E-002   0.0000000000000000     
  -2.8979086262478186E-002   7.3987357895891948E-002   0.0000000000000000     
  -3.0211409568637108E-002   8.0104454756598789E-002   0.0000000000000000     
  -2.8919077641007162E-002   5.7155336801042705E-002   0.0000000000000000     
  -3.0470538349682216E-002   6.2719578820016358E-002   0.0000000000000000     
  -3.1972367164687113E-002   6.8463477433069186E-002   0.0000000000000000     
  -3.3424564086021839E-002   7.4387032640201176E-002   0.0000000000000000     
  -3.4827129113686406E-002   8.0490244441412340E-002   0.0000000000000000     
  -1.6994578658095918E-002   7.9259645081223615E-002   0.0000000000000000     
  -1.7663773006171484E-002   8.5577930936529101E-002   0.0000000000000000     
  -1.8307691002032857E-002   9.2055384291634595E-002   0.0000000000000000     
  -1.8926332645680034E-002   9.8692005146540071E-002   0.0000000000000000     
  -1.9519697937113018E-002  0.10548779350124553        0.0000000000000000     
  -2.1295134340841858E-002   7.9489155076504420E-002   0.0000000000000000     
  -2.2140792133129129E-002   8.5799396648122944E-002   0.0000000000000000     
  -2.2953350976487454E-002   9.2268269024769478E-002   0.0000000000000000     
  -2.3732810870916832E-002   9.8895772206444035E-002   0.0000000000000000     
  -2.4479171816417261E-002  0.10568190619314660        0.0000000000000000     
  -2.5700744644355587E-002   7.9770758301629496E-002   0.0000000000000000     
  -2.6719013418095083E-002   8.6070640244881272E-002   0.0000000000000000     
  -2.7697183191881768E-002   9.2528838363013136E-002   0.0000000000000000     
  -2.8635253965715632E-002   9.9145352656025185E-002   0.0000000000000000     
  -2.9533225739596689E-002  0.10592018312391732        0.0000000000000000     
  -3.0211409568637108E-002   8.0104454756598789E-002   0.0000000000000000     
  -3.1398436861069356E-002   8.6391661726804070E-002   0.0000000000000000     
  -3.2539187648215805E-002   9.2837092306365637E-002   0.0000000000000000     
  -3.3633661930076456E-002   9.9440746495283505E-002   0.0000000000000000     
  -3.4681859706651288E-002  0.10620262429355765        0.0000000000000000     
  -3.4827129113686406E-002   8.0490244441412340E-002   0.0000000000000000     
  -3.6179062462051936E-002   8.6762461093891352E-002   0.0000000000000000     
  -3.7479364345489555E-002   9.3193030854826914E-002   0.0000000000000000     
  -3.8728034763999268E-002   9.9781953724218969E-002   0.0000000000000000     
  -3.9925073717581069E-002  0.10652922970206759        0.0000000000000000     
  -1.9519697937113018E-002  0.10548779350124553        0.0000000000000000     
  -2.0087582586070560E-002  0.11243088455493783        0.0000000000000000     
  -2.0629782302291441E-002  0.11950941350680393        0.0000000000000000     
  -2.1146297085775652E-002  0.12672338035684375        0.0000000000000000     
  -2.1637126936523185E-002  0.13407278510505727        0.0000000000000000     
  -2.4479171816417261E-002  0.10568190619314660        0.0000000000000000     
  -2.5192830316737143E-002  0.11261505200942321        0.0000000000000000     
  -2.5874182875624853E-002  0.11968359067981982        0.0000000000000000     
  -2.6523229493080391E-002  0.12688752220433641        0.0000000000000000     
  -2.7139970169103762E-002  0.13422684658297301        0.0000000000000000     
  -2.9533225739596689E-002  0.10592018312391732        0.0000000000000000     
  -3.0391832892273360E-002  0.11284175287865750        0.0000000000000000     
  -3.1211809802494061E-002  0.11989848503221358        0.0000000000000000     
  -3.1993156470258806E-002  0.12709037958458555        0.0000000000000000     
  -3.2735872895567592E-002  0.13441743653577345        0.0000000000000000     
  -3.4681859706651288E-002  0.10620262429355765        0.0000000000000000     
  -3.5684590312679211E-002  0.11311098716264069        0.0000000000000000     
  -3.6642663082899075E-002  0.12015409656398521        0.0000000000000000     
  -3.7556078017310916E-002  0.12733195249759122        0.0000000000000000     
  -3.8424835115914699E-002  0.13464455496345867        0.0000000000000000     
  -3.9925073717581069E-002  0.10652922970206759        0.0000000000000000     
  -4.1071102577954703E-002  0.11342275486137281        0.0000000000000000     
  -4.2166742716839900E-002  0.12045042527513473        0.0000000000000000     
  -4.3211994134236695E-002  0.12761224094335333        0.0000000000000000     
  -4.4206856830145060E-002  0.13490820186602864        0.0000000000000000     
  -2.1637126936523185E-002  0.13407278510505727        0.0000000000000000     
  -2.2101146043841457E-002  0.14154584881851687        0.0000000000000000     
  -2.2537228597037884E-002  0.14913079256429473        0.0000000000000000     
  -2.2945374596112452E-002  0.15682761634239084        0.0000000000000000     
  -2.3325584041065172E-002  0.16463632015280524        0.0000000000000000     
  -2.7139970169103762E-002  0.13422684658297301        0.0000000000000000     
  -2.7723227772431400E-002  0.14168961799537097        0.0000000000000000     
  -2.8271825171799745E-002  0.14926389062117154        0.0000000000000000     
  -2.8785762367208801E-002  0.15694966446037484        0.0000000000000000     
  -2.9265039358658561E-002  0.16474693951298081        0.0000000000000000     
  -3.2735872895567592E-002  0.13441743653577345        0.0000000000000000     
  -3.3438704490865501E-002  0.14186768728239949        0.0000000000000000     
  -3.4100396668597585E-002  0.14942916322108588        0.0000000000000000     
  -3.4720949428763859E-002  0.15710186435183260        0.0000000000000000     
  -3.5300362771364314E-002  0.16488579067463968        0.0000000000000000     
  -3.8424835115914699E-002  0.13464455496345867        0.0000000000000000     
  -3.9247576199143749E-002  0.14208005667960252        0.0000000000000000     
  -4.0022943087431401E-002  0.14962661036403771        0.0000000000000000     
  -4.0750935780777625E-002  0.15728421601676418        0.0000000000000000     
  -4.1431554279182443E-002  0.16505287363778195        0.0000000000000000     
  -4.4206856830145060E-002  0.13490820186602864        0.0000000000000000     
  -4.5149842897266153E-002  0.14232672618698006        0.0000000000000000     
  -4.6039464428301174E-002  0.14985623205002702        0.0000000000000000     
  -4.6875721423250097E-002  0.15749671945516958        0.0000000000000000     
  -4.7658613882112927E-002  0.16524818840240763        0.0000000000000000     
  -2.3325584041065172E-002  0.16463632015280524        0.0000000000000000     
  -2.3676837853992633E-002  0.17254488338238516        0.0000000000000000     
  -2.3998116956991430E-002  0.18054128541797773        0.0000000000000000     
  -2.4289421350061565E-002  0.18862552625958301        0.0000000000000000     
  -2.4550751033203040E-002  0.19679760590720097        0.0000000000000000     
  -2.9265039358658561E-002  0.16474693951298081        0.0000000000000000     
  -2.9708306187567417E-002  0.17264413443660320        0.0000000000000000     
  -3.0114212895353751E-002  0.18062966788885595        0.0000000000000000     
  -3.0482759482017566E-002  0.18870353986973887        0.0000000000000000     
  -3.0813945947558864E-002  0.19686575037925214        0.0000000000000000     
  -3.5300362771364314E-002  0.16488579067463968        0.0000000000000000     
  -3.5837148383205536E-002  0.17276961986751260        0.0000000000000000     
  -3.6329817951094093E-002  0.18074202960845670        0.0000000000000000     
  -3.6778371475029978E-002  0.18880301989747217        0.0000000000000000     
  -3.7182808955013191E-002  0.19695259073455879        0.0000000000000000     
  -4.1431554279182443E-002  0.16505287363778195        0.0000000000000000     
  -4.2063364440907004E-002  0.17292133967511325        0.0000000000000000     
  -4.2644932124212442E-002  0.18087837057678022        0.0000000000000000     
  -4.3176257329098786E-002  0.18892396634278286        0.0000000000000000     
  -4.3657340055566006E-002  0.19705812697312114        0.0000000000000000     
  -4.7658613882112927E-002  0.16524818840240763        0.0000000000000000     
  -4.8386954360671794E-002  0.17309929385940523        0.0000000000000000     
  -4.9059555414708821E-002  0.18103869079382634        0.0000000000000000     
  -4.9676417044223993E-002  0.18906637920567093        0.0000000000000000     
  -5.0237539249217318E-002  0.19718235909493903        0.0000000000000000     
  -2.4550751033203040E-002  0.19679760590720097        0.0000000000000000     
  -2.4782523229292225E-002  0.20504232605955475        0.0000000000000000     
  -2.4985155161205502E-002  0.21334448841536724        0.0000000000000000     
  -2.5158646828942876E-002  0.22170409297463856        0.0000000000000000     
  -2.5302998232504339E-002  0.23012113973736875        0.0000000000000000     
  -3.0813945947558864E-002  0.19686575037925214        0.0000000000000000     
  -3.1107943759481033E-002  0.20510257676031582        0.0000000000000000     
  -3.1364924385287478E-002  0.21340029635585034        0.0000000000000000     
  -3.1584887824978182E-002  0.22175890916585564        0.0000000000000000     
  -3.1767834078553159E-002  0.23017841519033169        0.0000000000000000     
  -3.7182808955013191E-002  0.19695259073455879        0.0000000000000000     
  -3.7542731404537746E-002  0.20517866752947206        0.0000000000000000     
  -3.7857739837097643E-002  0.21346917569196722        0.0000000000000000     
  -3.8127834252692887E-002  0.22182411522204429        0.0000000000000000     
  -3.8353014651323472E-002  0.23024348611970322        0.0000000000000000     
  -4.3657340055566006E-002  0.19705812697312114        0.0000000000000000     
  -4.4086886164462338E-002  0.20527059836702338        0.0000000000000000     
  -4.4463601516636003E-002  0.21355112642371785        0.0000000000000000     
  -4.4787486112086973E-002  0.22189971114320453        0.0000000000000000     
  -4.5058539950815268E-002  0.23031635252548349        0.0000000000000000     
  -5.0237539249217318E-002  0.19718235909493903        0.0000000000000000     
  -5.0740408039254822E-002  0.20537836927296976        0.0000000000000000     
  -5.1182509423902532E-002  0.21364614855110223        0.0000000000000000     
  -5.1563843403160448E-002  0.22198569692933642        0.0000000000000000     
  -5.1884409977028562E-002  0.23039701440767235        0.0000000000000000     
  -2.5302998232504339E-002  0.23012113973736875        0.0000000000000000     
  -2.5424509633373685E-002  0.23856811665075203        0.0000000000000000     
  -2.5529481293034714E-002  0.24701751166198271        0.0000000000000000     
  -2.5617913211487431E-002  0.25546932477106082        0.0000000000000000     
  -2.5689805388731828E-002  0.26392355597798633        0.0000000000000000     
  -3.1767834078553159E-002  0.23017841519033169        0.0000000000000000     
  -3.1921744606303579E-002  0.23863394791784989        0.0000000000000000     
  -3.2054600868520654E-002  0.24710064083698152        0.0000000000000000     
  -3.2166402865204377E-002  0.25557849394772680        0.0000000000000000     
  -3.2257150596354735E-002  0.26406750725008560        0.0000000000000000     
  -3.8353014651323472E-002  0.23024348611970322        0.0000000000000000     
  -3.8542137693453167E-002  0.23870647896033842        0.0000000000000000     
  -3.8704060039545747E-002  0.24719228431934415        0.0000000000000000     
  -3.8838781689601205E-002  0.25570090219672037        0.0000000000000000     
  -3.8946302643619535E-002  0.26423233259246720        0.0000000000000000     
  -4.5058539950815268E-002  0.23031635252548349        0.0000000000000000     
  -4.5285688894822422E-002  0.23878570977821767        0.0000000000000000     
  -4.5477858806109973E-002  0.24729244210907042        0.0000000000000000     
  -4.5635049684677909E-002  0.25583654951804152        0.0000000000000000     
  -4.5757261530526228E-002  0.26441803200513120        0.0000000000000000     
  -5.1884409977028562E-002  0.23039701440767235        0.0000000000000000     
  -5.2152398210411358E-002  0.23887164037148775        0.0000000000000000     
  -5.2375997168213333E-002  0.24740111420616040        0.0000000000000000     
  -5.2555206850434487E-002  0.25598543591169032        0.0000000000000000     
  -5.2690027257074827E-002  0.26462460548807754        0.0000000000000000     
  -2.5689805388731828E-002  0.26392355597798633        0.0000000000000000     
  -2.5757332654125605E-002  0.27232508139545819        0.0000000000000000     
  -2.5832669837026454E-002  0.28061877713617522        0.0000000000000000     
  -2.5915816937434395E-002  0.28880464320013755        0.0000000000000000     
  -2.6006773955349401E-002  0.29688267958734516        0.0000000000000000     
  -3.2257150596354735E-002  0.26406750725008560        0.0000000000000000     
  -3.2341628882405160E-002  0.27251479006878471        0.0000000000000000     
  -3.2434622543789093E-002  0.28086745172855104        0.0000000000000000     
  -3.2536131580506528E-002  0.28912549222938450        0.0000000000000000     
  -3.2646155992557442E-002  0.29728891157128517        0.0000000000000000     
  -3.8946302643619535E-002  0.26423233259246720        0.0000000000000000     
  -3.9045382475641266E-002  0.27273541809800622        0.0000000000000000     
  -3.9154780759706923E-002  0.28115900130475918        0.0000000000000000     
  -3.9274497495816477E-002  0.28950308221272597        0.0000000000000000     
  -3.9404532683969956E-002  0.29776766082190675        0.0000000000000000     
  -4.5757261530526228E-002  0.26441803200513120        0.0000000000000000     
  -4.5868593433833926E-002  0.27298696548312273        0.0000000000000000     
  -4.5993144484779924E-002  0.28149342586479970        0.0000000000000000     
  -4.6130914683364263E-002  0.28993741315016203        0.0000000000000000     
  -4.6281904029586936E-002  0.29831892733920973        0.0000000000000000     
  -5.2690027257074827E-002  0.26462460548807754        0.0000000000000000     
  -5.2811261756983106E-002  0.27326943222413425        0.0000000000000000     
  -5.2949713719008133E-002  0.28187072540867264        0.0000000000000000     
  -5.3105383143149880E-002  0.29042848504169266        0.0000000000000000     
  -5.3278270029408388E-002  0.29894271112319426        0.0000000000000000     
  -2.8919077641007162E-002   5.7155336801042705E-002   0.0000000000000000     
  -3.0470538349682216E-002   6.2719578820016358E-002   0.0000000000000000     
  -3.1972367164687113E-002   6.8463477433069186E-002   0.0000000000000000     
  -3.3424564086021839E-002   7.4387032640201176E-002   0.0000000000000000     
  -3.4827129113686406E-002   8.0490244441412340E-002   0.0000000000000000     
  -3.2947688596185618E-002   5.7653638941241252E-002   0.0000000000000000     
  -3.4683047339898736E-002   6.3204268916217415E-002   0.0000000000000000     
  -3.6363847180293722E-002   6.8933616994975688E-002   0.0000000000000000     
  -3.7990088117370563E-002   7.4841683177516063E-002   0.0000000000000000     
  -3.9561770151129272E-002   8.0928467463838513E-002   0.0000000000000000     
  -3.7093637881603254E-002   5.8237947528050546E-002   0.0000000000000000     
  -3.9017851300155851E-002   6.3761368777388694E-002   0.0000000000000000     
  -4.0881849384838076E-002   6.9466095261100605E-002   0.0000000000000000     
  -4.2685632135649944E-002   7.5352126979186293E-002   0.0000000000000000     
  -4.4429199552591454E-002   8.1419463931645703E-002   0.0000000000000000     
  -4.1356925497260083E-002   5.8908262561470602E-002   0.0000000000000000     
  -4.3474950230453543E-002   6.4390878403530180E-002   0.0000000000000000     
  -4.5526373778320174E-002   7.0060912231443936E-002   0.0000000000000000     
  -4.7511196140859982E-002   7.5918364045211850E-002   0.0000000000000000     
  -4.9429417318072981E-002   8.1963233844833908E-002   0.0000000000000000     
  -4.5737551443156096E-002   5.9664584041501406E-002   0.0000000000000000     
  -4.8054344130791814E-002   6.5092797794641888E-002   0.0000000000000000     
  -5.0297420360740010E-002   7.0718067906005683E-002   0.0000000000000000     
  -5.2466780133000691E-002   7.6540394375592763E-002   0.0000000000000000     
  -5.4562423447573824E-002   8.2559777203403129E-002   0.0000000000000000     
  -3.4827129113686406E-002   8.0490244441412340E-002   0.0000000000000000     
  -3.6179062462051936E-002   8.6762461093891352E-002   0.0000000000000000     
  -3.7479364345489555E-002   9.3193030854826914E-002   0.0000000000000000     
  -3.8728034763999268E-002   9.9781953724218969E-002   0.0000000000000000     
  -3.9925073717581069E-002  0.10652922970206759        0.0000000000000000     
  -3.9561770151129272E-002   8.0928467463838513E-002   0.0000000000000000     
  -4.1077742301997504E-002   8.7183850113437725E-002   0.0000000000000000     
  -4.2536853590402948E-002   9.3597711385808302E-002   0.0000000000000000     
  -4.3939104016345598E-002  0.10017005128095029        0.0000000000000000     
  -4.5284493579825467E-002  0.10690086979886362        0.0000000000000000     
  -4.4429199552591454E-002   8.1419463931645703E-002   0.0000000000000000     
  -4.6111328461860730E-002   8.7656640552737725E-002   0.0000000000000000     
  -4.7730795689655908E-002   9.4052191276721139E-002   0.0000000000000000     
  -4.9287601235976967E-002  0.10060611610359597        0.0000000000000000     
  -5.0781745100823922E-002  0.10731841503336223        0.0000000000000000     
  -4.9429417318072981E-002   8.1963233844833908E-002   0.0000000000000000     
  -5.1279820941641623E-002   8.8180832411791379E-002   0.0000000000000000     
  -5.3061190643248421E-002   9.4556470527565425E-002   0.0000000000000000     
  -5.4773526422893348E-002  0.10109014819215614        0.0000000000000000     
  -5.6416828280576446E-002  0.10778186540556339        0.0000000000000000     
  -5.4562423447573824E-002   8.2559777203403129E-002   0.0000000000000000     
  -5.6583219741340188E-002   8.8756425690598661E-002   0.0000000000000000     
  -5.8528038451180500E-002   9.5110549138341174E-002   0.0000000000000000     
  -6.0396879577094775E-002  0.10162214754663064        0.0000000000000000     
  -6.2189743119083013E-002  0.10829122091546713        0.0000000000000000     
  -3.9925073717581069E-002  0.10652922970206759        0.0000000000000000     
  -4.1071102577954703E-002  0.11342275486137281        0.0000000000000000     
  -4.2166742716839900E-002  0.12045042527513473        0.0000000000000000     
  -4.3211994134236695E-002  0.12761224094335333        0.0000000000000000     
  -4.4206856830145060E-002  0.13490820186602864        0.0000000000000000     
  -4.5284493579825467E-002  0.10690086979886362        0.0000000000000000     
  -4.6573497484236212E-002  0.11377772721636302        0.0000000000000000     
  -4.7806590932971522E-002  0.12078818381026318        0.0000000000000000     
  -4.8983773926031406E-002  0.12793223958056404        0.0000000000000000     
  -5.0105046463415862E-002  0.13520989452726564        0.0000000000000000     
  -5.0781745100823922E-002  0.10731841503336223        0.0000000000000000     
  -5.2213902827660121E-002  0.11417657546912056        0.0000000000000000     
  -5.3584749959948906E-002  0.12116808481397162        0.0000000000000000     
  -5.4894286497690313E-002  0.12829294306791544        0.0000000000000000     
  -5.6142512440884293E-002  0.13555115023095199        0.0000000000000000     
  -5.6416828280576446E-002  0.10778186540556339        0.0000000000000000     
  -5.7992318608226415E-002  0.11461929961964537        0.0000000000000000     
  -5.9501219797772072E-002  0.12159012828626005        0.0000000000000000     
  -6.0943531849213375E-002  0.12869435140540747        0.0000000000000000     
  -6.2319254762550361E-002  0.13593196897708767        0.0000000000000000     
  -6.2189743119083013E-002  0.10829122091546713        0.0000000000000000     
  -6.3908744825935115E-002  0.11510589966793747        0.0000000000000000     
  -6.5556000446440998E-002  0.12205431422712849        0.0000000000000000     
  -6.7131509980600634E-002  0.12913646459304023        0.0000000000000000     
  -6.8635273428414051E-002  0.13635235076567268        0.0000000000000000     
  -4.4206856830145060E-002  0.13490820186602864        0.0000000000000000     
  -4.5149842897266153E-002  0.14232672618698006        0.0000000000000000     
  -4.6039464428301174E-002  0.14985623205002702        0.0000000000000000     
  -4.6875721423250097E-002  0.15749671945516958        0.0000000000000000     
  -4.7658613882112927E-002  0.16524818840240763        0.0000000000000000     
  -5.0105046463415862E-002  0.13520989452726564        0.0000000000000000     
  -5.1168847558241970E-002  0.14260977245224482        0.0000000000000000     
  -5.2173616223626838E-002  0.15012049715737841        0.0000000000000000     
  -5.3119352459570446E-002  0.15774206864266643        0.0000000000000000     
  -5.4006056266072820E-002  0.16547448690810887        0.0000000000000000     
  -5.6142512440884293E-002  0.13555115023095199        0.0000000000000000     
  -5.7327933155080439E-002  0.14293127212310955        0.0000000000000000     
  -5.8449054005828296E-002  0.15042187456441641        0.0000000000000000     
  -5.9505874993127865E-002  0.15802295755487250        0.0000000000000000     
  -6.0498396116979138E-002  0.16573452109447789        0.0000000000000000     
  -6.2319254762550361E-002  0.13593196897708767        0.0000000000000000     
  -6.3627099687781560E-002  0.14329122519957430        0.0000000000000000     
  -6.4865777774905556E-002  0.15076036427114101        0.0000000000000000     
  -6.6035289023922319E-002  0.15833938619178783        0.0000000000000000     
  -6.7135633434831893E-002  0.16602829096151478        0.0000000000000000     
  -6.8635273428414051E-002  0.13635235076567268        0.0000000000000000     
  -7.0066347156345354E-002  0.14368963168163892        0.0000000000000000     
  -7.1423787530858623E-002  0.15113596627755216        0.0000000000000000     
  -7.2707594551953858E-002  0.15869135455341232        0.0000000000000000     
  -7.3917768219631072E-002  0.16635579650921944        0.0000000000000000     
  -4.7658613882112927E-002  0.16524818840240763        0.0000000000000000     
  -4.8386954360671794E-002  0.17309929385940523        0.0000000000000000     
  -4.9059555414708821E-002  0.18103869079382634        0.0000000000000000     
  -4.9676417044223993E-002  0.18906637920567093        0.0000000000000000     
  -5.0237539249217318E-002  0.19718235909493903        0.0000000000000000     
  -5.4006056266072820E-002  0.16547448690810887        0.0000000000000000     
  -5.4832859268997898E-002  0.17330637281367781        0.0000000000000000     
  -5.5598893094209623E-002  0.18122634721934539        0.0000000000000000     
  -5.6304157741708036E-002  0.18923441012511161        0.0000000000000000     
  -5.6948653211493103E-002  0.19733056153097639        0.0000000000000000     
  -6.0498396116979138E-002  0.16573452109447789        0.0000000000000000     
  -6.1426020292383254E-002  0.17354546693122036        0.0000000000000000     
  -6.2288150434341299E-002  0.18144469681308772        0.0000000000000000     
  -6.3084786542853322E-002  0.18943221074007993        0.0000000000000000     
  -6.3815928617919293E-002  0.19750800871219698        0.0000000000000000     
  -6.7135633434831893E-002  0.16602829096151478        0.0000000000000000     
  -6.8166437430827856E-002  0.17381657621203292        0.0000000000000000     
  -6.9127327435103844E-002  0.18169373957505330        0.0000000000000000     
  -7.0018303447659871E-002  0.18965978105057596        0.0000000000000000     
  -7.0839365468495938E-002  0.19771470063860086        0.0000000000000000     
  -7.3917768219631072E-002  0.16635579650921944        0.0000000000000000     
  -7.5054110684331724E-002  0.17411970065611540        0.0000000000000000     
  -7.6116424096497243E-002  0.18197347550524218        0.0000000000000000     
  -7.7104708456127671E-002  0.18991712105659964        0.0000000000000000     
  -7.8018963763222982E-002  0.19795063731018797        0.0000000000000000     
  -5.0237539249217318E-002  0.19718235909493903        0.0000000000000000     
  -5.0740408039254822E-002  0.20537836927296976        0.0000000000000000     
  -5.1182509423902532E-002  0.21364614855110223        0.0000000000000000     
  -5.1563843403160448E-002  0.22198569692933642        0.0000000000000000     
  -5.1884409977028562E-002  0.23039701440767235        0.0000000000000000     
  -5.6948653211493103E-002  0.19733056153097639        0.0000000000000000     
  -5.7529004788428699E-002  0.20550816169494615        0.0000000000000000     
  -5.8041837757378721E-002  0.21376057087502720        0.0000000000000000     
  -5.8487152118343162E-002  0.22208778907121962        0.0000000000000000     
  -5.8864947871322015E-002  0.23048981628352330        0.0000000000000000     
  -6.3815928617919293E-002  0.19750800871219698        0.0000000000000000     
  -6.4478384171497469E-002  0.20566615708058739        0.0000000000000000     
  -6.5068960715545993E-002  0.21390072219639969        0.0000000000000000     
  -6.5587658250064948E-002  0.22221170405963378        0.0000000000000000     
  -6.6034476775054307E-002  0.23059910267028980        0.0000000000000000     
  -7.0839365468495938E-002  0.19771470063860086        0.0000000000000000     
  -7.1588546188461069E-002  0.20585235542989355        0.0000000000000000     
  -7.2263878298404360E-002  0.21406660251521956        0.0000000000000000     
  -7.2865361798325826E-002  0.22235744189457904        0.0000000000000000     
  -7.3392996688225423E-002  0.23072487356797178        0.0000000000000000     
  -7.8018963763222982E-002  0.19795063731018797        0.0000000000000000     
  -7.8859490839319576E-002  0.20606675674286454        0.0000000000000000     
  -7.9626590505953845E-002  0.21425821183148699        0.0000000000000000     
  -8.0320262763125788E-002  0.22252500257605526        0.0000000000000000     
  -8.0940507610835405E-002  0.23086712897656936        0.0000000000000000     
  -5.1884409977028562E-002  0.23039701440767235        0.0000000000000000     
  -5.2152398210411358E-002  0.23887164037148775        0.0000000000000000     
  -5.2375997168213333E-002  0.24740111420616040        0.0000000000000000     
  -5.2555206850434487E-002  0.25598543591169032        0.0000000000000000     
  -5.2690027257074827E-002  0.26462460548807754        0.0000000000000000     
  -5.8864947871322015E-002  0.23048981628352330        0.0000000000000000     
  -5.9181390954523815E-002  0.23896569762012765        0.0000000000000000     
  -5.9442647306157066E-002  0.24751447818922195        0.0000000000000000     
  -5.9648716926221791E-002  0.25613615799080625        0.0000000000000000     
  -5.9799599814717982E-002  0.26483073702488047        0.0000000000000000     
  -6.6034476775054307E-002  0.23059910267028980        0.0000000000000000     
  -6.6411792441463599E-002  0.23906930840411647        0.0000000000000000     
  -6.6721981400242381E-002  0.24762871163686276        0.0000000000000000     
  -6.6965043651390638E-002  0.25627731236852869        0.0000000000000000     
  -6.7140979194908385E-002  0.26501511059911415        0.0000000000000000     
  -7.3392996688225423E-002  0.23072487356797178        0.0000000000000000     
  -7.3843602671230732E-002  0.23918247272345433        0.0000000000000000     
  -7.4213999450469262E-002  0.24774381454908295        0.0000000000000000     
  -7.4504187025941054E-002  0.25640889904485759        0.0000000000000000     
  -7.4714165397646040E-002  0.26517772621077851        0.0000000000000000     
  -8.0940507610835405E-002  0.23086712897656936        0.0000000000000000     
  -8.1476821643825220E-002  0.23930519057814112        0.0000000000000000     
  -8.1918701456837731E-002  0.24785978692588245        0.0000000000000000     
  -8.2266147049872965E-002  0.25653091801979327        0.0000000000000000     
  -8.2519158422930922E-002  0.26531858385987356        0.0000000000000000     
  -5.2690027257074827E-002  0.26462460548807754        0.0000000000000000     
  -5.2811261756983106E-002  0.27326943222413425        0.0000000000000000     
  -5.2949713719008133E-002  0.28187072540867264        0.0000000000000000     
  -5.3105383143149880E-002  0.29042848504169266        0.0000000000000000     
  -5.3278270029408388E-002  0.29894271112319426        0.0000000000000000     
  -5.9799599814717982E-002  0.26483073702488047        0.0000000000000000     
  -5.9932149128321482E-002  0.27355411127546536        0.0000000000000000     
  -6.0083218023708168E-002  0.28226217672658155        0.0000000000000000     
  -6.0252806500878005E-002  0.29095493337822892        0.0000000000000000     
  -6.0440914559831013E-002  0.29963238123040764        0.0000000000000000     
  -6.7140979194908385E-002  0.26501511059911415        0.0000000000000000     
  -6.7290017231081703E-002  0.27381229559154074        0.0000000000000000     
  -6.7452386960196634E-002  0.28263905660873018        0.0000000000000000     
  -6.7628088382253232E-002  0.29149539365068228        0.0000000000000000     
  -6.7817121497251484E-002  0.30038130671739710        0.0000000000000000     
  -7.4714165397646040E-002  0.26517772621077851        0.0000000000000000     
  -7.4884866065263733E-002  0.27404398517236045        0.0000000000000000     
  -7.5057220528473592E-002  0.28300136505511841        0.0000000000000000     
  -7.5231228787275631E-002  0.29204986585905252        0.0000000000000000     
  -7.5406890841669807E-002  0.30118948758416264        0.0000000000000000     
  -8.2519158422930922E-002  0.26531858385987356        0.0000000000000000     
  -8.2716695630867601E-002  0.27424918001792425        0.0000000000000000     
  -8.2897718728539002E-002  0.28334910206574632        0.0000000000000000     
  -8.3062227715945139E-002  0.29261835000333963        0.0000000000000000     
  -8.3210222593085997E-002  0.30205692383070426        0.0000000000000000     
  -4.5737551443156096E-002   5.9664584041501406E-002   0.0000000000000000     
  -4.8054344130791814E-002   6.5092797794641888E-002   0.0000000000000000     
  -5.0297420360740010E-002   7.0718067906005683E-002   0.0000000000000000     
  -5.2466780133000691E-002   7.6540394375592763E-002   0.0000000000000000     
  -5.4562423447573824E-002   8.2559777203403129E-002   0.0000000000000000     
  -5.0307416812327241E-002   6.0426971221761813E-002   0.0000000000000000     
  -5.2815121812275642E-002   6.5819607615561090E-002   0.0000000000000000     
  -5.5243986023093633E-002   7.1413103244229351E-002   0.0000000000000000     
  -5.7594009444781213E-002   7.7207458107766580E-002   0.0000000000000000     
  -5.9865192077338383E-002   8.3202672206172834E-002   0.0000000000000000     
  -5.5138422697809490E-002   6.1115483355870699E-002   0.0000000000000000     
  -5.7816372086009989E-002   6.6523788531125033E-002   0.0000000000000000     
  -6.0415067656377081E-002   7.2121559205558447E-002   0.0000000000000000     
  -6.2934509408910766E-002   7.7908795379170906E-002   0.0000000000000000     
  -6.5374697343611038E-002   8.3885497051962465E-002   0.0000000000000000     
  -6.0230569099602844E-002   6.1730120443828057E-002   0.0000000000000000     
  -6.3058094951994839E-002   6.7205340541333758E-002   0.0000000000000000     
  -6.5810665260590318E-002   7.2843435789992972E-002   0.0000000000000000     
  -6.8488280025389328E-002   7.8644406189805727E-002   0.0000000000000000     
  -7.1090939246391802E-002   8.4608251740771995E-002   0.0000000000000000     
  -6.5583856017707276E-002   6.2270882485633873E-002   0.0000000000000000     
  -6.8540290410230201E-002   6.7864263646187237E-002   0.0000000000000000     
  -7.1430778835733399E-002   7.3578732997532967E-002   0.0000000000000000     
  -7.4255321294216872E-002   7.9414290539671042E-002   0.0000000000000000     
  -7.7013917785680647E-002   8.5370936272601478E-002   0.0000000000000000     
  -5.4562423447573824E-002   8.2559777203403129E-002   0.0000000000000000     
  -5.6583219741340188E-002   8.8756425690598661E-002   0.0000000000000000     
  -5.8528038451180500E-002   9.5110549138341174E-002   0.0000000000000000     
  -6.0396879577094775E-002  0.10162214754663064        0.0000000000000000     
  -6.2189743119083013E-002  0.10829122091546713        0.0000000000000000     
  -5.9865192077338383E-002   8.3202672206172834E-002   0.0000000000000000     
  -6.2055582552119161E-002   8.9376843615300502E-002   0.0000000000000000     
  -6.4163229500477564E-002   9.5708070411002072E-002   0.0000000000000000     
  -6.6188132922413628E-002  0.10219635259327751        0.0000000000000000     
  -6.8130292817927290E-002  0.10884169016212686        0.0000000000000000     
  -6.5374697343611038E-002   8.3885497051962465E-002   0.0000000000000000     
  -6.7730967065141340E-002   9.0035509412037848E-002   0.0000000000000000     
  -6.9998654178165087E-002   9.6342677647501887E-002   0.0000000000000000     
  -7.2177758682682253E-002  0.10280700175835461        0.0000000000000000     
  -7.4268280578692891E-002  0.10942848174459598        0.0000000000000000     
  -7.1090939246391802E-002   8.4608251740771995E-002   0.0000000000000000     
  -7.3609373280406717E-002   9.0732423080810698E-002   0.0000000000000000     
  -7.6034312484243013E-002   9.7014370847840647E-002   0.0000000000000000     
  -7.8365756857900731E-002  0.10345409504186194        0.0000000000000000     
  -8.0603706401379802E-002  0.11005159566287448        0.0000000000000000     
  -7.7013917785680647E-002   8.5370936272601478E-002   0.0000000000000000     
  -7.9690801197915273E-002   9.1467584621618997E-002   0.0000000000000000     
  -8.2270204418711398E-002   9.7723150012018326E-002   0.0000000000000000     
  -8.4752127448068995E-002  0.10413763244379946        0.0000000000000000     
  -8.7136570285988063E-002  0.11071103191696241        0.0000000000000000     
  -6.2189743119083013E-002  0.10829122091546713        0.0000000000000000     
  -6.3908744825935115E-002  0.11510589966793747        0.0000000000000000     
  -6.5556000446440998E-002  0.12205431422712849        0.0000000000000000     
  -6.7131509980600634E-002  0.12913646459304023        0.0000000000000000     
  -6.8635273428414051E-002  0.13635235076567268        0.0000000000000000     
  -6.8130292817927290E-002  0.10884169016212686        0.0000000000000000     
  -6.9992620008810000E-002  0.11563256033209615        0.0000000000000000     
  -7.1778025316853164E-002  0.12255744031773148        0.0000000000000000     
  -7.3486508742056783E-002  0.12961633011903287        0.0000000000000000     
  -7.5118070284420871E-002  0.13680922973600032        0.0000000000000000     
  -7.4268280578692891E-002  0.10942848174459598        0.0000000000000000     
  -7.6273382684874852E-002  0.11619546633022071        0.0000000000000000     
  -7.8196227819906081E-002  0.12309630423922364        0.0000000000000000     
  -8.0036815983786563E-002  0.13013099547160470        0.0000000000000000     
  -8.1795147176516314E-002  0.13729954002736391        0.0000000000000000     
  -8.0603706401379802E-002  0.11005159566287448        0.0000000000000000     
  -8.2751032854129686E-002  0.11679461766231120        0.0000000000000000     
  -8.4810607955599734E-002  0.12367090599160495        0.0000000000000000     
  -8.6782431705789961E-002  0.13068046065075567        0.0000000000000000     
  -8.8666504104700367E-002  0.13782328163976346        0.0000000000000000     
  -8.7136570285988063E-002  0.11071103191696241        0.0000000000000000     
  -8.9425570516574474E-002  0.11743001432836758        0.0000000000000000     
  -9.1621165723934112E-002  0.12428124557487542        0.0000000000000000     
  -9.3723355908066963E-002  0.13126472565648586        0.0000000000000000     
  -9.5732141068973042E-002  0.13838045457319897        0.0000000000000000     
  -6.8635273428414051E-002  0.13635235076567268        0.0000000000000000     
  -7.0066347156345354E-002  0.14368963168163892        0.0000000000000000     
  -7.1423787530858623E-002  0.15113596627755216        0.0000000000000000     
  -7.2707594551953858E-002  0.15869135455341232        0.0000000000000000     
  -7.3917768219631072E-002  0.16635579650921944        0.0000000000000000     
  -7.5118070284420871E-002  0.13680922973600032        0.0000000000000000     
  -7.6672111775714855E-002  0.14412336253285538        0.0000000000000000     
  -7.8148035047708203E-002  0.15154595187381970        0.0000000000000000     
  -7.9545840100400889E-002  0.15907699775889325        0.0000000000000000     
  -8.0865526933792925E-002  0.16671650018807599        0.0000000000000000     
  -8.1795147176516314E-002  0.13729954002736391        0.0000000000000000     
  -8.3470829760833171E-002  0.14458928871677545        0.0000000000000000     
  -8.5063472099475040E-002  0.15198759235011336        0.0000000000000000     
  -8.6573074192441868E-002  0.15949445092737771        0.0000000000000000     
  -8.7999636039733681E-002  0.16710986444856846        0.0000000000000000     
  -8.8666504104700367E-002  0.13782328163976346        0.0000000000000000     
  -9.0462501111700303E-002  0.14508741023339899        0.0000000000000000     
  -9.2170098686159108E-002  0.15246088770643312        0.0000000000000000     
  -9.3789296828076810E-002  0.15994371405886568        0.0000000000000000     
  -9.5320095537453367E-002  0.16753588929069688        0.0000000000000000     
  -9.5732141068973042E-002  0.13838045457319897        0.0000000000000000     
  -9.7647125828316250E-002  0.14561772708272619        0.0000000000000000     
  -9.9467914807760460E-002  0.15296583794277899        0.0000000000000000     
 -0.10119450800730570       0.16042478715335731        0.0000000000000000     
 -0.10282690542695196       0.16799457471446122        0.0000000000000000     
  -7.3917768219631072E-002  0.16635579650921944        0.0000000000000000     
  -7.5054110684331724E-002  0.17411970065611540        0.0000000000000000     
  -7.6116424096497243E-002  0.18197347550524218        0.0000000000000000     
  -7.7104708456127671E-002  0.18991712105659964        0.0000000000000000     
  -7.8018963763222982E-002  0.19795063731018797        0.0000000000000000     
  -8.0865526933792925E-002  0.16671650018807599        0.0000000000000000     
  -8.2107324207047500E-002  0.17445556144844476        0.0000000000000000     
  -8.3271460579327841E-002  0.18228528382707621        0.0000000000000000     
  -8.4357936050633950E-002  0.19020566732397043        0.0000000000000000     
  -8.5366750620965784E-002  0.19821671193912740        0.0000000000000000     
  -8.7999636039733681E-002  0.16710986444856846        0.0000000000000000     
  -8.9344362153127924E-002  0.17482487977399769        0.0000000000000000     
  -9.0608457044401999E-002  0.18263054376397736        0.0000000000000000     
  -9.1791920713555880E-002  0.19052685641850758        0.0000000000000000     
  -9.2894753160589635E-002  0.19851381773758822        0.0000000000000000     
  -9.5320095537453367E-002  0.16753588929069688        0.0000000000000000     
  -9.6765224522572940E-002  0.17522765563277426        0.0000000000000000     
  -9.8127413491719648E-002  0.18300925531594570        0.0000000000000000     
  -9.9406662444893532E-002  0.19088068834021107        0.0000000000000000     
 -0.10060297138209454       0.19884195470557048        0.0000000000000000     
 -0.10282690542695196       0.16799457471446122        0.0000000000000000     
 -0.10436991131538256       0.17566388902477453        0.0000000000000000     
 -0.10582832992128086       0.18342141848298110        0.0000000000000000     
 -0.10720216124464685       0.19126716308908095        0.0000000000000000     
 -0.10849140528548049       0.19920112284307406        0.0000000000000000     
  -7.8018963763222982E-002  0.19795063731018797        0.0000000000000000     
  -7.8859490839319576E-002  0.20606675674286454        0.0000000000000000     
  -7.9626590505953845E-002  0.21425821183148699        0.0000000000000000     
  -8.0320262763125788E-002  0.22252500257605526        0.0000000000000000     
  -8.0940507610835405E-002  0.23086712897656936        0.0000000000000000     
  -8.5366750620965784E-002  0.19821671193912740        0.0000000000000000     
  -8.6300555303380808E-002  0.20631021857290452        0.0000000000000000     
  -8.7162001110936457E-002  0.21447798812565913        0.0000000000000000     
  -8.7951088043632705E-002  0.22272002059739129        0.0000000000000000     
  -8.8667816101469579E-002  0.23103631598810098        0.0000000000000000     
  -9.2894753160589635E-002  0.19851381773758822        0.0000000000000000     
  -9.3921076759952593E-002  0.20658359847341748        0.0000000000000000     
  -9.4875013886094234E-002  0.21472836937819334        0.0000000000000000     
  -9.5756564539014474E-002  0.22294813045191597        0.0000000000000000     
  -9.6565728718713384E-002  0.23124288169458518        0.0000000000000000     
 -0.10060297138209454       0.19884195470557048        0.0000000000000000     
 -0.10172105520903500       0.20688689644440342        0.0000000000000000     
 -0.10276562883142716       0.21500935558908973        0.0000000000000000     
 -0.10373669224927112       0.22320933213962926        0.0000000000000000     
 -0.10463424546256679       0.23148682609602200        0.0000000000000000     
 -0.10849140528548049       0.19920112284307406        0.0000000000000000     
 -0.10970049065062794       0.20722011248586245        0.0000000000000000     
 -0.11083384594693531       0.21532094675834812        0.0000000000000000     
 -0.11189147117440258       0.22350362566053111        0.0000000000000000     
 -0.11287336633302977       0.23176814919241145        0.0000000000000000     
  -8.0940507610835405E-002  0.23086712897656936        0.0000000000000000     
  -8.1476821643825220E-002  0.23930519057814112        0.0000000000000000     
  -8.1918701456837731E-002  0.24785978692588245        0.0000000000000000     
  -8.2266147049872965E-002  0.25653091801979327        0.0000000000000000     
  -8.2519158422930922E-002  0.26531858385987356        0.0000000000000000     
  -8.8667816101469579E-002  0.23103631598810098        0.0000000000000000     
  -8.9297958192042864E-002  0.23945242701017286        0.0000000000000000     
  -8.9827287222948318E-002  0.24799390637599172        0.0000000000000000     
  -9.0255803194185982E-002  0.25666075408555744        0.0000000000000000     
  -9.0583506105755815E-002  0.26545297013887009        0.0000000000000000     
  -9.6565728718713384E-002  0.23124288169458518        0.0000000000000000     
  -9.7293521148679535E-002  0.23963914706154549        0.0000000000000000     
  -9.7930956552401596E-002  0.24816345050814118        0.0000000000000000     
  -9.8478034929879596E-002  0.25681579203437221        0.0000000000000000     
  -9.8934756281113465E-002  0.26559617164023880        0.0000000000000000     
 -0.10463424546256679       0.23148682609602200        0.0000000000000000     
 -0.10546351051373525       0.23986535073225893        0.0000000000000000     
 -0.10622970944519758       0.24836841932233086        0.0000000000000000     
 -0.10693284225695379       0.25699603186623782        0.0000000000000000     
 -0.10757290894900386       0.26574818836397968        0.0000000000000000     
 -0.11287336633302977       0.23176814919241145        0.0000000000000000     
 -0.11380792628720995       0.24013103802231325        0.0000000000000000     
 -0.11472354590133624       0.24860881281856076        0.0000000000000000     
 -0.11562022517540858       0.25720147358115392        0.0000000000000000     
 -0.11649796410942702       0.26590902031009278        0.0000000000000000     
  -8.2519158422930922E-002  0.26531858385987356        0.0000000000000000     
  -8.2716695630867601E-002  0.27424918001792425        0.0000000000000000     
  -8.2897718728539002E-002  0.28334910206574632        0.0000000000000000     
  -8.3062227715945139E-002  0.29261835000333963        0.0000000000000000     
  -8.3210222593085997E-002  0.30205692383070426        0.0000000000000000     
  -9.0583506105755815E-002  0.26545297013887009        0.0000000000000000     
  -9.0840707163849330E-002  0.27443356844959371        0.0000000000000000     
  -9.1057717574658026E-002  0.28366556293139228        0.0000000000000000     
  -9.1234537338181890E-002  0.29314895358426590        0.0000000000000000     
  -9.1371166454420907E-002  0.30288374040821453        0.0000000000000000     
  -9.8934756281113465E-002  0.26559617164023880        0.0000000000000000     
  -9.9312101900164942E-002  0.27460283878872987        0.0000000000000000     
  -9.9621053081095770E-002  0.28393404294283470        0.0000000000000000     
  -9.9861609823905920E-002  0.29358978410255332        0.0000000000000000     
 -0.10003377212859539       0.30357006226788569        0.0000000000000000     
 -0.10757290894900386       0.26574818836397968        0.0000000000000000     
 -0.10813087983981448       0.27475699103533291        0.0000000000000000     
 -0.10858772524785228       0.28415454210007363        0.0000000000000000     
 -0.10894344517311727       0.29394084155820194        0.0000000000000000     
 -0.10919803961560946       0.30411588940971779        0.0000000000000000     
 -0.11649796410942702       0.26590902031009278        0.0000000000000000     
 -0.11729704098279789       0.27489602518940270        0.0000000000000000     
 -0.11795773407492752       0.28432706040310896        0.0000000000000000     
 -0.11848004338581593       0.29420212595121170        0.0000000000000000     
 -0.11886396891546311       0.30452122183371083        0.0000000000000000     
 </DataArray>
 <DataArray  type="Float64" Name="stress" NumberOfComponents="3" format="ascii">
   5988416744.9513903        829181946.28394926        36169761.326573148     
   5758267385.7342873        484071602.67920685        38025968.776386112     
   5559377272.1268730        243158744.44009709        31489392.083808511     
   5391746404.1291542        106443371.56661677        16560031.248821771     
   5255374781.7411165        73925484.058760881       -6762113.7285645008     
   5679178029.9410257        594570239.26131248        126325555.60454164     
   5462456571.2895441        351880857.63037515        143777359.02196351     
   5267375403.5104542        181325778.90740561        156315494.25368971     
   5093934526.6037569        82905003.092415094        163939961.29973182     
   4942133940.5694618        56618530.185417891        166650760.16007829     
   5321362100.7631454        345385367.98843098        259935711.35263687     
   5128008873.9821568        208099047.72273970        281760996.87748605     
   4946676983.3362722        110883847.90737581        302151730.17335016     
   4777366428.8254967        53739768.542367697        321107911.24023521     
   4620077210.4498119        36666809.627669573        338629540.07813424     
   4914968957.4177332        81627332.465285301        437000228.57086569     
   4754924293.8121319        52726172.956315279        451976882.34296280     
   4597282011.6043415        31832951.440035820        468998099.84278595     
   4442042110.7943497        18947667.916434765        488063881.07033831     
   4289204591.3821716        14070322.385527372        509174226.02561384     
   4459998599.9048147       -196703867.30811644        657519107.25921774     
   4343202830.7794771       -114237766.66890192        654425015.41839218     
   4219190488.3146472       -55826910.494643688        656854603.26199985     
   4087961572.5103350       -21471298.785346985        664807870.79004049     
   3949516083.3665309       -11170931.541017532        678284818.00251782     
   5255374781.7411165        73925484.058760881       -6762113.7285645008     
   5067655751.6975479        72068610.118580103       -5045094.5584957516     
   4879050159.0317507        67256527.437656641       -727264.64403653878     
   4689558003.7437258        59489236.015972614        6191376.0148157002     
   4499179285.8334808        48766735.853537083        15710827.418063527     
   4942133940.5694618        56618530.185417891        166650760.16007829     
   4761758953.0031319        53735484.910115957        164782143.67275944     
   4580826585.3938494        48994506.158293247        166198788.65473711     
   4399336837.7416077        42395593.929942608        170900695.10599884     
   4217289710.0464025        33938748.225050926        178887863.02652952     
   4620077210.4498119        36666809.627669573        338629540.07813424     
   4449001838.8604116        33344265.067163467        333559334.27592462     
   4277698269.8073268        29261062.294356108        332458840.66787845     
   4106166503.2905383        24417201.309226751        335328059.25401396     
   3934406539.3100591        18812682.111769199        342166990.03431261     
   4289204591.3821716        14070322.385527372        509174226.02561384     
   4129384409.2693825        10894950.589716673        501286477.25097573     
   3969665212.2721705        8056195.8458156586        498052891.39539611     
   3810047000.3905258        5554058.1538145542        499473468.45888138     
   3650529773.6244555        3388537.5137138367        505548208.44142824     
   3949516083.3665309       -11170931.541017532        678284818.00251782     
   3802906664.2300410       -13612458.522217035        667963572.59792793     
   3656727412.7883887       -14620093.187305212        662980940.83729053     
   3510978329.0415740       -14193835.536265612        663336922.72060096     
   3365659412.9895892       -12333685.569117069        669031518.24786329     
   4499179285.8334808        48766735.853537083        15710827.418063527     
   4317345587.3456087        40446557.091046333        8954156.4085975178     
   4136292176.0337100        34727335.581815004        6431320.2517861053     
   3956019051.8978043        31609071.325891972        8142318.9476427408     
   3776526214.9378810        31091764.323233604        14087152.496142443     
   4217289710.0464025        33938748.225050926        178887863.02652952     
   4047335898.7585435        29034692.069291353        172475999.05792284     
   3877889881.5533781        25823282.855836630        170180339.01974165     
   3708951658.4309077        24304520.584706306        172000882.91197059     
   3540521229.3911304        24478405.255876064        177937630.73462757     
   3934406539.3100591        18812682.111769199        342166990.03431261     
   3775996526.8729672        17223922.057994604        335782024.49774277     
   3617821815.4252706        16419498.635537863        333395631.96934468     
   3459882404.9669733        16399411.844422340        335007812.44911563     
   3302178295.4980707        17163661.684605956        340618565.93706626     
   3650529773.6244555        3388537.5137138367        505548208.44142824     
   3503327471.6888657        5014247.0571341515        498872232.72803169     
   3356087977.6493726        6515982.9208893776        496077199.10057545     
   3208811291.5059915        7893745.1050043106        497163107.55904782     
   3061497413.2587118        9147533.6094695330        502129958.10345298     
   3365659412.9895892       -12333685.569117069        669031518.24786329     
   3229328733.2062340       -7594332.9332920313        661746623.74881268     
   3092688368.2256956       -3887264.2880874872        658225040.41345084     
   2955738318.0479665       -1212479.6335116625        658466768.24177957     
   2818478582.6730471        430021.03042817116        662471807.23380148     
   3776526214.9378810        31091764.323233604        14087152.496142443     
   3595173656.4712911        29436227.024574995        8558980.0560794175     
   3412658186.3161945        23904317.430905342        7472600.3308886671     
   3228979804.4725866        14496035.542198777        10828013.320550978     
   3044138510.9404759        1211381.3584704399        18625219.025080442     
   3540521229.3911304        24478405.255876064        177937630.73462757     
   3370615987.0532074        23883965.135398149        170329846.12774891     
   3199988084.1695910        20880656.529268265        166841028.01769760     
   3028637520.7402849        15468479.437517405        167471176.40449551     
   2856564296.7652922        7647433.8601318598        172220291.28813875     
   3302178295.4980707        17163661.684605956        340618565.93706626     
   3142798008.6659060        17353610.555419087        331444795.49663240     
   2983135312.4308548        16602194.749966741        326067165.33503109     
   2823190206.7929401        14909414.268283486        324485675.45225298     
   2662962691.7521591        12275269.110375047        326700325.84830290     
   3061497413.2587118        9147533.6094695330        502129958.10345298     
   2911719721.3093839        9845163.2846658230        491903828.16277677     
   2762099871.1000051        11068932.093036890        485151012.28290212     
   2612637862.6305699        12818840.034555078        481871510.46383101     
   2463333695.9010911        15094887.109254241        482065322.70557475     
   2818478582.6730471        430021.03042817116        662471807.23380148     
   2677381124.9836535        1358623.3231630325        651706944.12616074     
   2536881760.1770267        4280868.5584615469        644092568.86130369     
   2396980488.2531695        9196756.7363109589        639628681.43924201     
   2257677309.2120843        16106287.856745362        638315281.85996139     
   3044138510.9404759        1211381.3584704399        18625219.025080442     
   2879627814.1126308       -5799000.2545542717        12423049.593481326     
   2716395475.2762094       -8548188.5628331900        7193066.8942997111     
   2554441494.4312057       -7036183.5663815737        2935270.9275394408     
   2393765871.5776253       -1262985.2651976347       -350338.30679051741     
   2856564296.7652922        7647433.8601318598        172220291.28813875     
   2696033595.3508358        3361197.8940647840        165347764.74509832     
   2536273061.8511949        1642188.3107265234        159935937.40756434     
   2377282696.2663517        2490405.1100485325        155984809.27553168     
   2219062498.5963254        5905848.2920928001        153494380.34898752     
   2662962691.7521591        12275269.110375047        326700325.84830290     
   2507807735.6741781        11131903.768218517        318564553.77110910     
   2352914757.4343982        10861797.886738420        312377993.37250048     
   2198283757.0328102        11464951.465885639        308140644.65246648     
   2043914734.4694138        12941364.505686402        305852507.61101180     
   2463333695.9010911        15094887.109254241        482065322.70557475     
   2314950235.0826735        17513117.367934704        472073416.67151374     
   2166320562.0258355        19110640.165227175        464519234.78911674     
   2017444676.7305713        19887455.501093626        459402777.05838293     
   1868322579.1969042        19843563.375600815        456724043.47928971     
   2257677309.2120843        16106287.856745362        638315281.85996139     
   2117461093.5763059        22504838.693178654        625874353.44631851     
   1976490475.6254957        26388715.146172881        616359661.65741444     
   1834765455.3596563        27757917.215719581        609771206.49324894     
   1692286032.7787793        26612444.901830494        606108987.95382226     
   2393765871.5776253       -1262985.2651976347       -350338.30679051741     
   2250762847.0590630        6732706.8694936037       -6832231.5729003772     
   2104451166.3070986        3699544.8928660154       -11270114.424522825     
   1954830829.3217397       -10362471.195094109       -13663986.861691168     
   1801901836.1029723       -35453341.394403100       -14013848.884372097     
   2219062498.5963254        5905848.2920928001        153494380.34898752     
   2080038588.7832551        12958124.673820019        143256735.78636277     
   1938845355.1274035        12779321.579597354        134253649.60265157     
   1795482797.6287887        5369439.0095028877        126485121.79784243     
   1649950916.2874000       -9271523.0365042686        119951152.37192638     
   2043914734.4694138        12941364.505686402        305852507.61101180     
   1906557219.2601957        18356409.103917718        293188332.87427837     
   1768169712.5988333        20338148.861664653        280949264.48087758     
   1628752214.4853246        18886583.778918743        269135302.43079638     
   1488304724.9196689        14001713.855700433        257746446.72405747     
   1868322579.1969042        19843563.375600815        456724043.47928971     
   1730318738.4899004        22927560.159851193        442962559.69083965     
   1592424238.7213931        26376026.739071608        428816730.21014059     
   1454639079.8913531        30188963.113202631        414286555.03720355     
   1316963261.9998016        34366369.282274187        399372034.17202342     
   1692286032.7787793        26612444.901830494        606108987.95382226     
   1551323146.4723756        26671577.841649234        592579416.23604894     
   1411608933.4950745        30892955.211816847        577856046.79045618     
   1273143393.8468874        39276577.012355387        561938879.61705554     
   1135926527.5277967        51822443.243226647        544827914.71583796     
   1801901836.1029723       -35453341.394403100       -14013848.884372097     
   1771170576.0061958       -16672698.676275015       -8342521.5548946429     
   1748503264.2180657        28987771.737362862       -41472338.501969710     
   1733899900.7386060        101528069.84655178       -113403299.72558448     
   1727360485.5678065        200948195.65128660       -224135405.22574151     
   1649950916.2874000       -9271523.0365042686        119951152.37192638     
   1527451457.8592143       -13979884.990135491        135577140.10837403     
   1409114426.4947605       -4813490.0646705031        124833889.86761661     
   1294939822.1940262        18227661.739863515        87721401.649652213     
   1184927644.9570255        55143570.423487663        24239675.454486620     
   1488304724.9196689        14001713.855700433        257746446.72405747     
   1309556800.4439230       -3539733.0844821930        278775320.08171660     
   1131069781.7869561       -20211493.962081969        285866861.76151234     
   952843668.94878018       -36013568.777038395        279021071.76343197     
   774878461.92936885       -50945957.529440492        258237950.08749461     
   1316963261.9998016        34366369.282274187        399372034.17202342     
   1117486603.7603197        14647757.040674269        421252018.36513180     
   914369330.09466648       -17206239.954818130        441626577.17971325     
   707611441.00284529       -61195621.704193354        460495710.61576623     
   497212936.48487604       -117320388.20742625        477859418.67328441     
   1135926527.5277967        51822443.243226647        544827914.71583796     
   951240867.80838931        40582585.385335863        563007234.95862603     
   759013071.41787815        4202271.9570777714        592113036.12222970     
   559243138.35627317       -57318497.041487545        632145318.20663917     
   351931068.62355453       -143979721.61042053        683104081.21186054     
   1727360485.5678065        200948195.65128660       -224135405.22574151     
   1456757697.5724812        184595102.28788960       -96614915.550508052     
   1153989286.1119490        61023264.040448606        60090995.940978229     
   819055251.18619072       -169767319.09105247        245982329.24873012     
   451955592.79520106       -507776647.10669160        461059084.37275535     
   1184927644.9570255        55143570.423487663        24239675.454486620     
   977786773.08641315        11877087.280187905        155599256.66743800     
   732828232.32565629       -157448292.16358301        312801056.87849098     
   450052022.67475438       -452832567.90785933        495845076.08768773     
   129458144.13368130       -874275739.95267308        704731314.29493737     
   774878461.92936885       -50945957.529440492        258237950.08749461     
   621647498.13163173       -123991432.86811456        386842569.84240538     
   424946820.01881766       -341935955.92371178        537946205.77727926     
   184776427.59090510       -704779526.69629693        711548857.89211106     
  -98863679.152111650       -1212522145.1859100        907650526.18688548     
   497212936.48487604       -117320388.20742625        477859418.67328441     
   388339872.70815146       -223010458.15700671        597115023.97440398     
   230345049.19138065       -492439727.24005336        735526442.63732255     
   23228465.934585571       -925608195.45652199        893093674.66203570     
  -233009877.06226662       -1522515862.8064952        1069816720.0485562     
   351931068.62355453       -143979721.61042053        683104081.21186054     
   277863896.81595463       -285179988.58652043        786416619.06342447     
   149022919.84336755       -608959606.11257768        905541767.45862603     
  -34591862.294172883       -1115318574.1884680        1040479526.3974843     
  -272980449.59670019       -1804256892.8143373        1191229895.8799775     
   4459998599.9048147       -196703867.30811644        657519107.25921774     
   4343202830.7794771       -114237766.66890192        654425015.41839218     
   4219190488.3146472       -55826910.494643688        656854603.26199985     
   4087961572.5103350       -21471298.785346985        664807870.79004049     
   3949516083.3665309       -11170931.541017532        678284818.00251782     
   4087553084.9711761       -143305138.41853285        787901586.43039334     
   3977163506.7486382       -85022811.735652447        781350214.84745550     
   3861788957.1889620       -43357056.176563501        779783873.64908457     
   3741429436.2921481       -18307871.741262913        783202562.83527708     
   3616084944.0581975       -9875258.4297585487        791606282.40603983     
   3726335034.7114015       -86538170.126790285        906941670.37179255     
   3620812649.3920474       -52901316.800130606        899536554.71615219     
   3512536894.7378988       -28442361.256093264        896577820.14521062     
   3401507770.7489715       -13161303.494672537        898065466.65897000     
   3287725277.4252577       -7058143.5158760548        903999494.25743139     
   3376344449.1254973       -26402962.432887554        1014639359.0834221     
   3274150258.7097011       -17873281.862336159        1008984035.0244867     
   3171434300.9614677       -11082825.733235002        1007236442.7503883     
   3068196575.8808036       -6031594.0455795527        1009396582.2611217     
   2964437083.4676995       -2719586.7993801832        1015464453.5566883     
   3037581328.2134590        37100484.663176775        1110994652.5652764     
   2937176334.7016025        20061293.077736259        1109692655.7724583     
   2838481175.8596640        8721550.3920096159        1111759741.4646099     
   2741495851.6876431        3081256.6060149670        1117195909.6417263     
   2646220362.1855335        3140411.7197300196        1126001160.3038099     
   3949516083.3665309       -11170931.541017532        678284818.00251782     
   3802906664.2300410       -13612458.522217035        667963572.59792793     
   3656727412.7883887       -14620093.187305212        662980940.83729053     
   3510978329.0415740       -14193835.536265612        663336922.72060096     
   3365659412.9895892       -12333685.569117069        669031518.24786329     
   3616084944.0581975       -9875258.4297585487        791606282.40603983     
   3483257441.4289517       -10816499.877429485        783265992.66763830     
   3350714502.4617329       -10809195.785019398        779842343.78311908     
   3218456127.1565351       -9853346.1525322199        781335335.75248277     
   3086482315.5133605       -7948950.9799715281        787744968.57573247     
   3287725277.4252577       -7058143.5158760548        903999494.25743139     
   3167474054.7602048       -6860790.3929359913        897470288.81360364     
   3047361791.7243667       -6200238.5059528351        895435751.43358982     
   2927388488.3177371       -5076487.8549298048        897895882.11739564     
   2807554144.5403223       -3489538.4398672581        904850680.86501253     
   2964437083.4676995       -2719586.7993801832        1015464453.5566883     
   2855556504.2237940       -1745330.0687447786        1010576461.0358187     
   2746669280.5762897       -793221.35009944439        1009761163.7886983     
   2637775412.5251861        136739.35655343533        1013018561.8153278     
   2528874900.0704813        1044552.0511953831        1020348655.1157076     
   2646220362.1855335        3140411.7197300196        1126001160.3038099     
   2547504789.8197236        4529881.0951519012        1122584509.3342850     
   2448636969.0175047        5411855.6825448275        1122818580.8484480     
   2349616899.7788744        5786335.4818974733        1126703374.8462932     
   2250444582.1038346        5653320.4932194948        1134238891.3278174     
   3365659412.9895892       -12333685.569117069        669031518.24786329     
   3229328733.2062340       -7594332.9332920313        661746623.74881268     
   3092688368.2256956       -3887264.2880874872        658225040.41345084     
   2955738318.0479665       -1212479.6335116625        658466768.24177957     
   2818478582.6730471        430021.03042817116        662471807.23380148     
   3086482315.5133605       -7948950.9799715281        787744968.57573247     
   2959747787.7589402       -4226893.3171964884        780340018.11524296     
   2832890813.2591486       -912991.47231948376        776788172.27632749     
   2705911392.0139852        1992754.5546480417        777089431.05899072     
   2578809524.0234604        4490344.7637451887        781243794.46322370     
   2807554144.5403223       -3489538.4398672581        904850680.86501253     
   2690672321.5516419       -707809.92909920216        897544119.30354786     
   2573855290.2694077        2289890.9364974499        894180455.82153678     
   2457103050.6936212        5503564.1569198370        894759690.41898036     
   2340415602.8242869        8933209.7321729660        899281823.09588706     
   2528874900.0704813        1044552.0511953831        1020348655.1157076     
   2422102334.5843463        2962917.2309956551        1013358927.3137170     
   2315581799.2564769        5721382.9383535385        1010401891.0490630     
   2209313294.0868711        9319949.1732574701        1011477546.3217511     
   2103296819.0755334        13758615.935726523        1016585893.1317759     
   2250444582.1038346        5653320.4932194948        1134238891.3278174     
   2154037826.8570490        6785288.1630897522        1127784442.1457565     
   2058070340.2203493        9381484.5332474709        1125452477.9589155     
   1962542122.1937354        13441909.603691816        1127242998.7672977     
   1867453172.7772067        18966563.374418139        1133156004.5709066     
   2818478582.6730471        430021.03042817116        662471807.23380148     
   2677381124.9836535        1358623.3231630325        651706944.12616074     
   2536881760.1770267        4280868.5584615469        644092568.86130369     
   2396980488.2531695        9196756.7363109589        639628681.43924201     
   2257677309.2120843        16106287.856745362        638315281.85996139     
   2578809524.0234604        4490344.7637451887        781243794.46322370     
   2446433559.2540565        5904892.2674645185        771685400.89775467     
   2314509175.0728650        8824708.3985613585        765573218.99464524     
   2183036371.4798894        13249793.157047033        762907248.75390017     
   2052015148.4751272        19180146.542903900        763687490.17551267     
   2340415602.8242869        8933209.7321729660        899281823.09588706     
   2217606056.1736588        11087180.006522417        890758968.06227136     
   2095101577.8166814        14258044.593064785        885978048.51059175     
   1972902167.7533696        18445803.491804600        884939064.44084239     
   1851007825.9837031        23650456.702712536        887642015.85302699     
   2103296819.0755334        13758615.935726523        1016585893.1317759     
   1990898615.7424552        16905486.540343285        1008927645.6197039     
   1878658968.4084706        20580877.141951561        1005307057.4091376     
   1766577877.0735950        24784787.740579128        1005724128.5000746     
   1654655341.7378068        29517218.336184442        1010178858.8925209     
   1867453172.7772067        18966563.374418139        1133156004.5709066     
   1766311237.9604497        23359811.868923903        1126191433.5700567     
   1665181346.8482406        27793206.045246780        1123560245.6902814     
   1564063499.4405754        32266745.903391838        1125262440.9315910     
   1462957695.7374415        36780431.443308949        1131298019.2939708     
   2257677309.2120843        16106287.856745362        638315281.85996139     
   2117461093.5763059        22504838.693178654        625874353.44631851     
   1976490475.6254957        26388715.146172881        616359661.65741444     
   1834765455.3596563        27757917.215719581        609771206.49324894     
   1692286032.7787793        26612444.901830494        606108987.95382226     
   2052015148.4751272        19180146.542903900        763687490.17551267     
   1919392228.1827207        24553292.579102039        752255343.35004449     
   1786267157.0844975        28252602.595906377        743974588.19480383     
   1652639935.1804609        30278076.593342423        738845224.70977414     
   1518510562.4706020        30629714.571355164        736867252.89495838     
   1851007825.9837031        23650456.702712536        887642015.85302699     
   1726621501.1646109        28191187.977661610        877512944.04316461     
   1601985277.0489118        31898921.597270370        870760418.94899333     
   1477099153.6366103        34773657.561528981        867384440.57051706     
   1351963130.9277053        36815395.870444000        867385008.90773690     
   1654655341.7378068        29517218.336184442        1010178858.8925209     
   1539148912.5219619        33418524.888859332        1001647155.5256667     
   1423644835.5187309        37327672.150252461        996717153.91998422     
   1308143110.7281084        41244660.120336533        995388854.07548022     
   1192643738.1501000        45169488.799136877        997662255.99214482     
   1462957695.7374415        36780431.443308949        1131298019.2939708     
   1356974462.2547889        40235303.312703133        1124657977.7975445     
   1251245832.4939594        44538854.254855692        1121844793.1077743     
   1145771806.4549544        49691084.269754946        1122858465.2246549     
   1040552384.1377748        55691993.357393861        1127698994.1481853     
   1692286032.7787793        26612444.901830494        606108987.95382226     
   1551323146.4723756        26671577.841649234        592579416.23604894     
   1411608933.4950745        30892955.211816847        577856046.79045618     
   1273143393.8468874        39276577.012355387        561938879.61705554     
   1135926527.5277967        51822443.243226647        544827914.71583796     
   1518510562.4706020        30629714.571355164        736867252.89495838     
   1375999575.9035208        28224196.909711242        727678230.95051301     
   1233830736.9669962        26959171.349923134        719060925.90291882     
   1092004045.6610262        26834637.891971350        711015337.75219977     
   950519501.98559678        27850596.535844862        703541466.49834359     
   1351963130.9277053        36815395.870444000        867385008.90773690     
   1212948371.5990405        33458525.857108891        861478923.42162538     
   1073369234.2023724        28220395.617078245        857910069.45705807     
   933225718.73769557        21101005.150359750        856678447.01403177     
   792517825.20501125        12100354.456950784        857784056.09253967     
   1192643738.1501000        45169488.799136877        997662255.99214482     
   1062169533.5589271        42374564.683804929        993981493.64938998     
   930224425.20119250        34676628.013266921        994403477.45285320     
   796808413.07689631        22075678.787520975        998928207.40254140     
   661921497.18602753        4571717.0065388680        1007555683.4984372     
   1040552384.1377748        55691993.357393861        1127698994.1481853     
   923663061.78317714        54972313.389809966        1125185941.6338019     
   804396309.96345794        46327868.538482577        1128541149.8903172     
   682752128.67861950        29758658.803423911        1137764618.9177270     
   558730517.92865419        5264684.1846034229        1152856348.7160351     
   1135926527.5277967        51822443.243226647        544827914.71583796     
   951240867.80838931        40582585.385335863        563007234.95862603     
   759013071.41787815        4202271.9570777714        592113036.12222970     
   559243138.35627317       -57318497.041487545        632145318.20663917     
   351931068.62355453       -143979721.61042053        683104081.21186054     
   950519501.98559678        27850596.535844862        703541466.49834359     
   791459984.24166644        10991108.185705751        721444349.10182154     
   623748678.35721338       -34707673.966147661        749430005.49460506     
   447385584.33223057       -109245749.91977835        787498435.67668879     
   262370702.16672862       -212623119.67513400        835649639.64807618     
   792517825.20501125        12100354.456950784        857784056.09253967     
   656673857.63223517       -11101941.926705182        874115907.67572618     
   511068450.44951320       -66842370.343511224        899686825.91669774     
   355701603.65685135       -155120930.79345703        934496810.81546521     
   190573317.25424129       -275937623.27655244        978545862.37201428     
   661921497.18602753        4571717.0065388680        1007555683.4984372     
   546882487.98009014       -25696564.951942742        1021021910.6803318     
   420972387.69479239       -92201817.174953908        1042883497.3885127     
   284191196.33011985       -194944039.66256130        1073140443.6229582     
   136538913.88609135       -333923232.41466635        1111792749.3836935     
   558730517.92865419        5264684.1846034229        1152856348.7160351     
   462085875.28523499       -32792760.890000015        1162162358.1156549     
   353460490.09303808       -110786014.46053499        1179020019.9100380     
   232854362.35205096       -228715076.52703726        1203429334.0991874     
   100267492.06228632       -386579947.08947015        1235390300.6831138     
   351931068.62355453       -143979721.61042053        683104081.21186054     
   277863896.81595463       -285179988.58652043        786416619.06342447     
   149022919.84336755       -608959606.11257768        905541767.45862603     
  -34591862.294172883       -1115318574.1884680        1040479526.3974843     
  -272980449.59670019       -1804256892.8143373        1191229895.8799775     
   262370702.16672862       -212623119.67513400        835649639.64807618     
   223637594.29201961       -352317771.02835715        885031548.78132057     
   140675957.71052977       -639440851.40418303        945433446.79093862     
   13485792.422235250       -1073992360.8026636        1016855333.6769176     
  -157932901.57282883       -1655972299.2237535        1099297209.4392958     
   190573317.25424129       -275937623.27655244        978545862.37201428     
   173481068.54878893       -418234620.43594587        986299965.32148755     
   122705567.59472921       -672809125.09070528        1000281435.4800732     
   38246814.392070591       -1039661137.2408113        1020490272.8477459     
  -79895191.059202313       -1518790656.8862565        1046926477.4245188     
   136538913.88609135       -333923232.41466635        1111792749.3836935     
   127394319.58624899       -482930536.80935901        1090221868.6839588     
   95111749.495986402       -709064427.17212963        1070085733.5260524     
   39691203.615298867       -1012324903.5029444        1051384343.9099509     
  -38867318.055786908       -1392711965.8018093        1034117699.8357027     
   100267492.06228632       -386579947.08947015        1235390300.6831138     
   85377347.404413968       -546405520.14854062        1196797258.8687084     
   57894503.414309174       -748206757.64838588        1154846340.9288557     
   17818960.091957510       -991983659.58904302        1109537546.8635497     
  -34849282.562611818       -1277736225.9704475        1060870876.6728028     
   3037581328.2134590        37100484.663176775        1110994652.5652764     
   2937176334.7016025        20061293.077736259        1109692655.7724583     
   2838481175.8596640        8721550.3920096159        1111759741.4646099     
   2741495851.6876431        3081256.6060149670        1117195909.6417263     
   2646220362.1855335        3140411.7197300196        1126001160.3038099     
   2674588303.8999386        35757472.396579266        1214283066.7450058     
   2585465224.8433452        22299884.698172569        1207662502.8996522     
   2497594617.1874399        13017201.668700457        1205524728.3302174     
   2410976480.9322162        7909423.3081833124        1207869743.0367088     
   2325610816.0776768        6976549.6166055202        1214697547.0191171     
   2289871187.2363200        27897232.424958944        1317914056.7614546     
   2215212042.0377254        18975854.434396625        1305441335.3827832     
   2141348004.9705813        12704836.882005095        1298565110.0709977     
   2068279076.0348866        9084179.7677807808        1297285380.8260870     
   1996005255.2306464        8113883.0917353630        1301602147.6480565     
   1883429978.2226081        13519764.748307109        1421887622.6146078     
   1826416786.2847373        10089202.286412120        1403029153.2218611     
   1769741339.2090881        7784456.0319154263        1390880886.6869462     
   1713403636.9956553        6605525.9848144054        1385442823.0098665     
   1657403679.6444414        6552412.1451112032        1386714962.1906207     
   1455264676.8587980       -7374930.6333739758        1526203764.3044770     
   1419079457.5843837       -4360071.7457854152        1500425956.4168770     
   1382774619.9029584       -1743940.8815640807        1482472058.1780670     
   1346350163.8145158        473461.95926415920        1472342069.5880494     
   1309806089.3190639        2292136.7767320871        1470035990.6468186     
   2646220362.1855335        3140411.7197300196        1126001160.3038099     
   2547504789.8197236        4529881.0951519012        1122584509.3342850     
   2448636969.0175047        5411855.6825448275        1122818580.8484480     
   2349616899.7788744        5786335.4818974733        1126703374.8462932     
   2250444582.1038346        5653320.4932194948        1134238891.3278174     
   2325610816.0776768        6976549.6166055202        1214697547.0191171     
   2236728083.1057782        6870409.0086725950        1208340370.0052197     
   2147833661.2731009        6725305.5314779282        1206241333.8837290     
   2058927550.5796349        6541239.1849817038        1208400438.6546526     
   1970009751.0253897        6318209.9692263603        1214817684.3179801     
   1996005255.2306464        8113883.0917353630        1301602147.6480565     
   1918690842.8204494        7032776.8507800102        1292468430.7613475     
   1841505301.1251009        6381239.6593192816        1288200273.1757717     
   1764448630.1445947        6159271.5173290968        1288797674.8913326     
   1687520829.8789330        6366872.4248280525        1294260635.9080322     
   1657403679.6444414        6552412.1451112032        1386714962.1906207     
   1593393068.9637403        5016984.6214824915        1374968691.6026664     
   1529651888.5735068        4379658.0660821199        1368695398.7245748     
   1466180138.4737525        4640432.4789407849        1367895083.5563457     
   1402977818.6644635        5799307.8600252271        1372567746.0979762     
   1309806089.3190639        2292136.7767320871        1470035990.6468186     
   1260834761.5356424        823032.32075005770        1455841152.5291834     
   1212273423.6183255        720560.75178134441        1447726710.5301375     
   1164122075.5671048        1984722.0698007941        1445692664.6496811     
   1116380717.3819849        4615516.2748227715        1449739014.8878148     
   2250444582.1038346        5653320.4932194948        1134238891.3278174     
   2154037826.8570490        6785288.1630897522        1127784442.1457565     
   2058070340.2203493        9381484.5332474709        1125452477.9589155     
   1962542122.1937354        13441909.603691816        1127242998.7672977     
   1867453172.7772067        18966563.374418139        1133156004.5709066     
   1970009751.0253897        6318209.9692263603        1214817684.3179801     
   1884662276.7378855        7636779.4956285954        1208197877.7432835     
   1799636711.8576269        10028380.379524350        1205919663.4059176     
   1714933056.3846190        13493012.620917797        1207983041.3058848     
   1630551310.3188560        18030676.219797254        1214388011.4431887     
   1687520829.8789330        6366872.4248280525        1294260635.9080322     
   1613858657.2424550        8059850.0152858496        1287338552.8707204     
   1540401034.8103857        10434661.620445669        1284977169.3128514     
   1467147962.5827279        13491307.240308046        1287176485.2344253     
   1394099440.5594802        17229786.874863863        1293936500.6354487     
   1402977818.6644635        5799307.8600252271        1372567746.0979762     
   1341626968.3707590        8054499.7220624089        1365206467.5280726     
   1280363309.0786264        10600328.256009817        1362624995.6797261     
   1219186840.7880678        13436793.461869299        1364823330.5529325     
   1158097563.4990749        16563895.339620829        1371801472.1476963     
   1116380717.3819849        4615516.2748227715        1449739014.8878148     
   1067967210.1227995        7620728.6159666777        1441801621.7153397     
   1019523534.6623479        10525380.286220729        1438863142.5065365     
   971049691.00063348        13329471.285603166        1440923577.2613952     
   922545679.13764787        16033001.614081144        1447982925.9799178     
   1867453172.7772067        18966563.374418139        1133156004.5709066     
   1766311237.9604497        23359811.868923903        1126191433.5700567     
   1665181346.8482406        27793206.045246780        1123560245.6902814     
   1564063499.4405754        32266745.903391838        1125262440.9315910     
   1462957695.7374415        36780431.443308949        1131298019.2939708     
   1630551310.3188560        18030676.219797254        1214388011.4431887     
   1540637855.5374672        21514008.443394125        1207723198.2942111     
   1450801511.9462471        25254377.967547953        1205572275.0369577     
   1361042279.5451953        29251784.792263508        1207935241.6714263     
   1271360158.3343003        33506228.917504728        1214812098.1976190     
   1394099440.5594802        17229786.874863863        1293936500.6354487     
   1315930199.4438753        19957922.916691482        1287647357.4049115     
   1237903137.0040555        23159987.877795875        1286052610.8367388     
   1160018253.2400277        26835981.758208752        1289152260.9309311     
   1082275548.1517823        30985904.557890832        1296946307.6874955     
   1158097563.4990749        16563895.339620829        1371801472.1476963     
   1092188269.6796651        18691555.288788378        1365963910.9021492     
   1026486222.0216620        21510035.775980115        1365001253.0896175     
   960991420.52506912        25019336.801205158        1368913498.7100918     
   895703865.18988812        29219458.364469051        1377700647.7635803     
   922545679.13764787        16033001.614081144        1447982925.9799178     
   869412066.24484527        17714905.559715778        1442672858.7859325     
   816550766.99906743        20304521.662104845        1442418201.7955959     
   763961781.40033031        23801849.921290904        1447218955.0089202     
   711645109.44861424        28206890.337220043        1457075118.4258964     
   1462957695.7374415        36780431.443308949        1131298019.2939708     
   1356974462.2547889        40235303.312703133        1124657977.7975445     
   1251245832.4939594        44538854.254855692        1121844793.1077743     
   1145771806.4549544        49691084.269754946        1122858465.2246549     
   1040552384.1377748        55691993.357393861        1127698994.1481853     
   1271360158.3343003        33506228.917504728        1214812098.1976190     
   1175710573.0499773        36226139.711934388        1209485893.4288304     
   1080152473.8663983        39251004.175507128        1208451398.4078670     
   984685860.78354883        42580822.308180094        1211708613.1347256     
   889310733.80144250        46215594.109996796        1219257537.6094177     
   1082275548.1517823        30985904.557890832        1296946307.6874955     
   998287762.32628560        33369299.655496478        1292743635.7550735     
   914228344.98044562        35513923.018621922        1293297526.5116427     
   830097296.11425507        37419774.647245735        1298607979.9572165     
   745894615.72772050        39086854.541386157        1308674996.0917926     
   895703865.18988812        29219458.364469051        1377700647.7635803     
   824706030.08371711        31664783.143404752        1374431204.7762637     
   753473445.83610821        33327610.784217626        1376383177.4191124     
   682006112.44707370        34207941.286944956        1383556565.6921377     
   610304029.91660309        34305774.651548564        1395951369.5953336     
   711645109.44861424        28206890.337220043        1457075118.4258964     
   654965376.32226098        31112590.175626725        1454548600.4924104     
   597887776.43339360        32692067.472320080        1457708351.1302700     
   540412309.78200424        32945322.227276087        1466554370.3394752     
   482538976.36809540        31872354.440500528        1481086658.1200309     
   1040552384.1377748        55691993.357393861        1127698994.1481853     
   923663061.78317714        54972313.389809966        1125185941.6338019     
   804396309.96345794        46327868.538482577        1128541149.8903172     
   682752128.67861950        29758658.803423911        1137764618.9177270     
   558730517.92865419        5264684.1846034229        1152856348.7160351     
   889310733.80144250        46215594.109996796        1219257537.6094177     
   787359231.32755315        44494095.576534182        1216734578.2395704     
   683085457.46428800        35031692.411824167        1220065177.6761088     
   576489412.21166098        17828384.615907997        1229249335.9190328     
   467571095.56967133       -7115827.8112224638        1244287052.9683487     
   745894615.72772050        39086854.541386157        1308674996.0917926     
   658838927.52164268        36350935.758159101        1306206480.9548686     
   569516126.00195253        26057972.596229434        1309576822.6598167     
   477926211.16865218        8207965.0555970073        1318786021.2066429     
   384069183.02173859       -17199086.863746628        1333834076.5953465     
   610304029.91660309        34305774.651548564        1395951369.5953336     
   538102150.36545873        30542833.934721977        1393601649.7797060     
   463688315.57644928        19406709.091681063        1397076084.8414490     
   387062525.54958844        897400.12246620655        1406374674.7805452     
   308224780.28486437       -24985092.972956598        1421497419.5970247     
   482538976.36809540        31872354.440500528        1481086658.1200309     
   425148899.85898280        27069790.106163934        1478920084.7140851     
   365602026.18777335        15077901.898170888        1482562964.2209966     
   303898355.35445541       -4103310.1835128963        1492015296.6407611     
   240037887.35904819       -30473846.138835832        1507277081.9733768     
   558730517.92865419        5264684.1846034229        1152856348.7160351     
   462085875.28523499       -32792760.890000015        1162162358.1156549     
   353460490.09303808       -110786014.46053499        1179020019.9100380     
   232854362.35205096       -228715076.52703726        1203429334.0991874     
   100267492.06228632       -386579947.08947015        1235390300.6831138     
   467571095.56967133       -7115827.8112224638        1244287052.9683487     
   390087488.64992893       -41528708.123243213        1242767655.4204993     
   302465220.72292483       -109737125.12613092        1247594810.3201034     
   204704291.78867084       -211741078.81985170        1258768517.6671801     
   96804701.847150758       -347540569.20446485        1276288777.4617221     
   384069183.02173859       -17199086.863746628        1333834076.5953465     
   322303469.11909431       -49000345.225151643        1323638367.2317977     
   252241175.75071973       -108456868.47232696        1318584110.3684132     
   173882302.91661090       -195568656.60528317        1318671306.0051906     
   87226850.616770148       -310335709.62400973        1323899954.1421268     
   308224780.28486437       -24985092.972956598        1421497419.5970247     
   258733816.69274378       -55207672.195708185        1404774493.5495591     
   202788355.17640674       -106945244.49917574        1391987920.0549624     
   140388395.73586714       -180197809.88331985        1383137699.1132219     
   71533938.371125966       -274965368.34813863        1378223830.7243471     
   240037887.35904819       -30473846.138835832        1507277081.9733768     
   199378531.37086427       -60150689.034933403        1486176034.3737898     
   154106758.99999601       -105202253.20664553        1467806239.3797534     
   104222570.24644993       -165628538.65395319        1452167696.9912679     
   49725965.110222846       -241429545.37685862        1439260407.2083442     
   100267492.06228632       -386579947.08947015        1235390300.6831138     
   85377347.404413968       -546405520.14854062        1196797258.8687084     
   57894503.414309174       -748206757.64838588        1154846340.9288557     
   17818960.091957510       -991983659.58904302        1109537546.8635497     
  -34849282.562611818       -1277736225.9704475        1060870876.6728028     
   96804701.847150758       -347540569.20446485        1276288777.4617221     
   79836887.645830363       -488702494.74959558        1221974613.5687971     
   51485557.825844824       -667809472.35693812        1165113122.8800554     
   11750712.387214780       -884861502.02642870        1105704305.3955135     
  -39367648.670049071       -1139858583.7580435        1043748161.1151707     
   87226850.616770148       -310335709.62400973        1323899954.1421268     
   70497222.099544048       -432139231.08699125        1255275382.5031869     
   43593261.677260101       -587857192.23350728        1184914033.3980858     
   6514969.3499077260       -777489593.06356394        1112815906.8268220     
  -40737654.882494986       -1001036433.5771550        1038981002.7894280     
   71533938.371125966       -274965368.34813863        1378223830.7243471     
   57358350.765571833       -376715729.16067100        1296699565.6719007     
   34217614.968547791       -508349917.27809763        1214249072.4829397     
   2111730.9800378084       -669867932.70047128        1130872351.1574950     
  -38959301.199939609       -861269775.42775953        1046569401.6955159     
   49725965.110222846       -241429545.37685862        1439260407.2083442     
   40420273.643899456       -322431988.97068089        1346247163.0749266     
   23358617.699696630       -429287647.49075961        1253118240.1346498     
  -1459002.7224024534       -561996520.93716073        1159873638.3875024     
  -34032587.622391224       -720558609.30986631        1066513357.8334985     
   1455264676.8587980       -7374930.6333739758        1526203764.3044770     
   1419079457.5843837       -4360071.7457854152        1500425956.4168770     
   1382774619.9029584       -1743940.8815640807        1482472058.1780670     
   1346350163.8145158        473461.95926415920        1472342069.5880494     
   1309806089.3190639        2292136.7767320871        1470035990.6468186     
   1035889112.2002035       -22199018.144835651        1495880139.1847558     
   1017873614.8891456       -17200848.106578350        1481879680.9032032     
   999768403.71094596       -12501724.292127669        1473574334.9868250     
   981573478.66559982       -8101646.7014971972        1470964101.4356279     
   963288839.75311279       -4000615.3346710801        1474048980.2496023     
   653553143.94477212       -25911226.735350043        1464205375.3507531     
   647625090.64389622       -20754428.932372928        1462017155.3050911     
   641637228.01574588       -15796995.553643078        1463395250.3409948     
   635589556.06032050       -11038926.599162668        1468339660.4584620     
   629482074.77761972       -6480222.0689333975        1476850385.6574948     
   308256772.09251243       -18511556.404912069        1431179472.8024678     
   308333884.84863853       -15020814.223169148        1440838379.6225445     
   308381092.81735945       -11629754.666111574        1451934804.2405722     
   308398395.99867445       -8338377.7337422967        1464468746.6565549     
   308385794.39258158       -5146683.4260642976        1478440206.8704886     
  -3.3565819537759136       -7.1535245218255206        1396802431.5398982     
  -2.4966301004591713       -3.9789703125754285        1418343353.8555586     
  -1.8842162720188349       -1.6295435468027444        1439192996.6855626     
  -1.5193379292772440      -0.10523263807967914        1459351360.0299053     
  -1.4019974741592116       0.59394920300729559        1478818443.8885880     
   1309806089.3190639        2292136.7767320871        1470035990.6468186     
   1260834761.5356424        823032.32075005770        1455841152.5291834     
   1212273423.6183255        720560.75178134441        1447726710.5301375     
   1164122075.5671048        1984722.0698007941        1445692664.6496811     
   1116380717.3819849        4615516.2748227715        1449739014.8878148     
   963288839.75311279       -4000615.3346710801        1474048980.2496023     
   929590328.12378275       -4193448.3606999516        1464367844.9057024     
   896199308.88172507       -3361306.7624868751        1460060109.3856025     
   863115782.02693963       -1504190.5400311947        1461125773.6892993     
   830339747.55943429        1377900.3066858053        1467564837.8167975     
   629482074.77761972       -6480222.0689333975        1476850385.6574948     
   609036389.88869333       -6002780.4891246557        1471563372.6953626     
   588795699.90821302       -4842022.5478314757        1470942763.2622418     
   568760004.83618367       -2997948.2450336218        1474988557.3581297     
   548929304.67259979       -470557.58074957132        1483700754.9830289     
   308385794.39258158       -5146683.4260642976        1478440206.8704886     
   299172946.83037657       -4604964.0645213723        1477427735.8981631     
   290062596.69779062       -3721586.6042476892        1480374672.1600585     
   281054743.99483097       -2496551.0452201068        1487281015.6561768     
   272149388.72148788       -929857.38747155666        1498146766.3865130     
  -1.4019974741592116       0.59394920300729559        1478818443.8885880     
  -1.0511640550666215       0.91312477268102010        1481960934.5141044     
 -0.74954127154054162        1.0682648904663776        1488355836.0790524     
 -0.49711404864333658        1.0594194592107908        1498003148.5834322     
 -0.29389686655030689       0.88654125249734239        1510902872.0272460     
   1116380717.3819849        4615516.2748227715        1449739014.8878148     
   1067967210.1227995        7620728.6159666777        1441801621.7153397     
   1019523534.6623479        10525380.286220729        1438863142.5065365     
   971049691.00063348        13329471.285603166        1440923577.2613952     
   922545679.13764787        16033001.614081144        1447982925.9799178     
   830339747.55943429        1377900.3066858053        1467564837.8167975     
   794580503.28382504        3797075.3389795721        1461153062.3177660     
   758798632.85919690        6140829.8745436072        1459611660.6829350     
   722994136.28555369        8409163.9133882523        1462940632.9123101     
   687167013.56288767        10602077.455494940        1471139979.0058899     
   548929304.67259979       -470557.58074957132        1483700754.9830289     
   525457065.95353478        1252402.9145960808        1478823396.2183917     
   501969743.13769758        2925083.0873656571        1478687871.2184906     
   478467336.22508872        4547482.9375646412        1483294179.9833343     
   454949845.21570528        6119602.4651803970        1492642322.5129151     
   272149388.72148788       -929857.38747155666        1498146766.3865130     
   260596898.13193306       -13288.657175093889        1494812623.4172211     
   249036865.49784821        878139.92468582094        1496091774.1132052     
   237469290.81923583        1744428.3581212312        1501984218.4744661     
   225894174.09609330        2585576.6431244910        1512489956.5010083     
 -0.29389686655030689       0.88654125249734239        1510902872.0272460     
 -0.18098553791177110       0.62364870593752497        1509120743.9142504     
  -6.0354788932194231E-002  0.38648825440390133        1511823369.3670704     
   6.7997462056594793E-002  0.17506510206689938        1519010748.3857067     
  0.20406698309183047       -1.0632429003166369E-002   1530682880.9701624     
   922545679.13764787        16033001.614081144        1447982925.9799178     
   869412066.24484527        17714905.559715778        1442672858.7859325     
   816550766.99906743        20304521.662104845        1442418201.7955959     
   763961781.40033031        23801849.921290904        1447218955.0089202     
   711645109.44861424        28206890.337220043        1457075118.4258964     
   687167013.56288767        10602077.455494940        1471139979.0058899     
   647098002.10010314        11797864.832605630        1467239949.5667241     
   607233225.87889886        13674436.348318040        1468446384.0781996     
   567572684.89926231        16231792.002592087        1474759282.5403035     
   528116379.16120309        19469931.795451641        1486178644.9530401     
   454949845.21570528        6119602.4651803970        1492642322.5129151     
   428091303.03145218        6873033.6283394396        1490072906.0222163     
   401368917.68331784        8080320.9118937403        1492661007.2291276     
   374782689.17129993        9741464.3158348054        1500406626.1336484     
   348332617.49539995        11856463.840172321        1513309762.7357881     
   225894174.09609330        2585576.6431244910        1512489956.5010083     
   212391969.03888237        2940411.9468859881        1511171728.1524010     
   198957842.41233432        3522175.3528589159        1515062071.2483835     
   185591794.21643955        4330866.8610098362        1524160985.7889559     
   172293824.45120871        5366486.4713699147        1538468471.7741141     
  0.20406698309183047       -1.0632429003166369E-002   1530682880.9701624     
  0.12239961791368738      -0.21173470486070828        1530536415.9572804     
   6.5941574545081011E-002 -0.32880452024101386        1535649576.1359694     
   3.4679608086328778E-002 -0.36188810647786263        1546022361.5062256     
   2.8623989625440119E-002 -0.31095053272183282        1561654772.0680482     
   711645109.44861424        28206890.337220043        1457075118.4258964     
   654965376.32226098        31112590.175626725        1454548600.4924104     
   597887776.43339360        32692067.472320080        1457708351.1302700     
   540412309.78200424        32945322.227276087        1466554370.3394752     
   482538976.36809540        31872354.440500528        1481086658.1200309     
   528116379.16120309        19469931.795451641        1486178644.9530401     
   485933313.53687495        21747226.961319298        1484518591.3900528     
   443451847.83946079        23029855.216894731        1488468568.4124727     
   400671982.06896222        23317816.562188864        1498028576.0203140     
   357593716.22537577        22611110.997192696        1513198614.2135572     
   348332617.49539995        11856463.840172321        1513309762.7357881     
   320428396.55614370        13440007.488398314        1512632218.0142908     
   292325242.23323810        14360439.857795730        1517488465.8922799     
   264023154.52667674        14617760.948338553        1527878506.3697486     
   235522133.43645924        14211970.760029145        1543802339.4466970     
   172293824.45120871        5366486.4713699147        1538468471.7741141     
   158450625.38007393        6190931.7568874285        1538889480.3651259     
   144507959.61471477        6683821.3949865922        1544768043.5696857     
   130465827.15513991        6845155.3857012168        1556104161.3877904     
   116324228.00134182        6674933.7290036492        1572897833.8194468     
   2.8623989625440119E-002 -0.31095053272183282        1561654772.0680482     
   8.6558050104779544E-003 -0.23324460494890475        1563290378.4425619     
  -1.6094131521987513E-002 -0.17147993190249231        1570307301.4446948     
  -4.5635816554272825E-002 -0.12568740691078414        1582705541.0744407     
  -7.9973848056734090E-002  -9.5881315707548348E-002   1600485097.3318019     
   482538976.36809540        31872354.440500528        1481086658.1200309     
   425148899.85898280        27069790.106163934        1478920084.7140851     
   365602026.18777335        15077901.898170888        1482562964.2209966     
   303898355.35445541       -4103310.1835128963        1492015296.6407611     
   240037887.35904819       -30473846.138835832        1507277081.9733768     
   357593716.22537577        22611110.997192696        1513198614.2135572     
   315471969.92156398        19285431.077184513        1509728669.4861741     
   271732625.74560040        10567758.250009149        1511853321.7543998     
   226375683.69748148       -3541907.4843519330        1519572571.0182328     
   179401143.77721405       -23043566.125877537        1532886417.2776785     
   235522133.43645924        14211970.760029145        1543802339.4466970     
   208054843.28866905        12179013.039558940        1539658089.2361429     
   179509154.55868104        6551393.3784251660        1540893580.1039529     
   149885067.24648422       -2670888.2234042063        1547508812.0501239     
   119182581.35208295       -15487831.765911646        1559503785.0746624     
   116324228.00134182        6674933.7290036492        1572897833.8194468     
   102897519.96030436        5750535.9932974391        1568708343.9639952     
   88931612.627014562        3028807.2834195383        1569683739.2696624     
   74426506.001465112       -1490252.4006599300        1575824019.7364507     
   59382200.083655819       -7806643.0589362383        1587129185.3643501     
  -7.9973848056734090E-002  -9.5881315707548348E-002   1600485097.3318019     
  -6.3536355663875208E-002  -6.1613534786995564E-002   1596879433.6697254     
  -4.9401874532565004E-002  -3.5021070292824225E-002   1598223799.2515297     
  -3.7577907818409452E-002  -1.6130320522501736E-002   1604518194.0771999     
  -2.8064272517613287E-002  -4.9420632421579951E-003   1615762618.1467416     
   240037887.35904819       -30473846.138835832        1507277081.9733768     
   199378531.37086427       -60150689.034933403        1486176034.3737898     
   154106758.99999601       -105202253.20664553        1467806239.3797534     
   104222570.24644993       -165628538.65395319        1452167696.9912679     
   49725965.110222846       -241429545.37685862        1439260407.2083442     
   179401143.77721405       -23043566.125877537        1532886417.2776785     
   148216116.61739010       -45508351.347233407        1507303784.2121110     
   113571777.17061728       -79504177.525083959        1484613522.7917225     
   75468125.436921477       -125031044.65934399        1464815633.0164902     
   33905161.416273274       -182088952.75011474        1447910114.8864312     
   119182581.35208295       -15487831.765911646        1559503785.0746624     
   97932223.133777171       -30602457.278586693        1530784854.6548345     
   74375656.724272400       -53404443.428593077        1505119414.9197881     
   48512882.123566374       -83893790.215936273        1482507465.8695092     
   20343899.331665717       -122070497.64059490        1462949007.5040009     
   59382200.083655819       -7806643.0589362383        1587129185.3643501     
   48526850.920029543       -15433006.828987882        1556619245.7019668     
   36518397.660950229       -26903050.917214945        1529323915.7639499     
   23356840.306406327       -42216775.323656589        1505243195.5503185     
   9042178.8564098552       -61374180.048276231        1484377085.0610557     
  -2.8064272517613287E-002  -4.9420632421579951E-003   1615762618.1467416     
  -2.3844571006326441E-002   1.5962963551729263E-003   1584806957.3534830     
  -1.9340252842449224E-002   9.0826842384147052E-003   1557227025.3242135     
  -1.4557105521006976E-002   1.7499543480958835E-002   1533022822.0589218     
  -9.4852697125296405E-003   2.6877309901505796E-002   1512194347.5576169     
   49725965.110222846       -241429545.37685862        1439260407.2083442     
   40420273.643899456       -322431988.97068089        1346247163.0749266     
   23358617.699696630       -429287647.49075961        1253118240.1346498     
  -1459002.7224024534       -561996520.93716073        1159873638.3875024     
  -34032587.622391224       -720558609.30986631        1066513357.8334985     
   33905161.416273274       -182088952.75011474        1447910114.8864312     
   29767647.354431629       -241988259.08179468        1347438625.2158389     
   19813159.934327930       -321277476.60767728        1246188380.6796875     
   4041699.1559794247       -419956605.32771897        1144159381.2779536     
  -17546734.980632782       -538025645.24196041        1041351627.0106722     
   20343899.331665717       -122070497.64059490        1462949007.5040009     
   19480059.649428688       -161435017.61760569        1357281428.6024859     
   14738237.728574604       -213726145.05667531        1250172018.7766960     
   6118433.5690956861       -278943879.95782328        1141620778.0266283     
  -6379352.8290157616       -357088222.32108384        1031627706.3522946     
   9042178.8564098552       -61374180.048276231        1484377085.0610557     
   9557510.5289049000       -80772264.578067929        1375775573.2348554     
   8133851.0824103728       -106633652.83782746        1265069154.4256704     
   4771200.5169300586       -138958344.82754230        1152257828.6335058     
  -530441.16755452007       -177746340.54726058        1037341595.8583628     
  -9.4852697125296405E-003   2.6877309901505796E-002   1512194347.5576169     
  -7.1388865515024796E-003   3.6820500860744496E-002   1402921059.1129663     
  -4.1418333964003615E-003   4.8933979579013839E-002   1290879787.6266215     
  -5.0239116895915356E-004   6.3189449094470523E-002   1176070533.0985940     
   3.7599959775739232E-003   7.9518626116005228E-002   1058493295.5288694     
  -3.3565819537759136       -7.1535245218255206        1396802431.5398982     
  -2.4966301004591713       -3.9789703125754285        1418343353.8555586     
  -1.8842162720188349       -1.6295435468027444        1439192996.6855626     
  -1.5193379292772440      -0.10523263807967914        1459351360.0299053     
  -1.4019974741592116       0.59394920300729559        1478818443.8885880     
  -308256777.17868322        18511546.478348210        1431179473.0480950     
  -308333888.81191331        15020808.655160412        1440838379.6246803     
  -308381095.99272734        11629752.340028435        1451934803.9993403     
  -308398398.72112167        8338377.5329619348        1464468746.1720736     
  -308385796.99709946        5146684.2339509875        1478440206.1428833     
  -653553146.71637321        25911221.395547658        1464205375.0519109     
  -647625092.88926256        20754425.960672945        1462017154.7060363     
  -641637229.90977764        15796994.367041945        1463395249.4419668     
  -635589557.77791893        11038926.614657432        1468339659.2597075     
  -629482076.49368691        6480222.7035171688        1476850384.1592577     
  -1035889111.9696562        22199017.598069251        1495880137.5513458     
  -1017873614.7286763        17200847.937564492        1481879679.0996230     
  -999768403.63536787        12501724.451491833        1473574333.0134451     
  -981573478.68972993        8101647.1398496628        1470964099.2928071     
  -963288839.89176321        4000616.0026349425        1474048977.9377134     
  -1455264672.9385319        7374935.0859096646        1526203760.5464048     
  -1419079454.3301573        4360074.5858358741        1500425952.8054492     
  -1382774617.1694996        1743942.5933758616        1482472054.7137706     
  -1346350161.4565556       -473460.89146667719        1472342066.2713695     
  -1309806087.1913290       -2292135.8686973453        1470035987.4782455     
  -1.4019974741592116       0.59394920300729559        1478818443.8885880     
  -1.0511640550666215       0.91312477268102010        1481960934.5141044     
 -0.74954127154054162        1.0682648904663776        1488355836.0790524     
 -0.49711404864333658        1.0594194592107908        1498003148.5834322     
 -0.29389686655030689       0.88654125249734239        1510902872.0272460     
  -308385796.99709946        5146684.2339509875        1478440206.1428833     
  -299172948.80931866        4604965.4041085243        1477427735.2907157     
  -290062598.13107091        3721588.2091552466        1480374671.6388490     
  -281054744.96236002        2496552.6490790099        1487281015.1872833     
  -272149389.30318391        929858.72388748825        1498146765.9360182     
  -629482076.49368691        6480222.7035171688        1476850384.1592577     
  -609036391.15218532        6002781.5196986794        1471563371.4590218     
  -588795700.78055167        4842023.7696535885        1470942762.2199545     
  -568760005.37878001        2997949.4533996880        1474988556.4420586     
  -548929304.94687688        470558.57092028856        1483700754.1253333     
  -963288839.89176321        4000616.0026349425        1474048977.9377134     
  -929590328.07977355        4193449.2598639727        1464367843.0190208     
  -896199308.69798219        3361307.7497619987        1460060107.8223662     
  -863115781.74638021        1504191.4723646045        1461125772.3477547     
  -830339747.22498119       -1377899.5723761916        1467564836.5951798     
  -1309806087.1913290       -2292135.8686973453        1470035987.4782455     
  -1260834759.5920806       -823031.37538963556        1455841149.9707119     
  -1212273421.8833575       -720559.85049968958        1447726708.4460866     
  -1164122074.0651615       -1984721.2940356135        1445692662.9043703     
  -1116380716.1374919       -4615515.7059878707        1449739013.3455651     
 -0.29389686655030689       0.88654125249734239        1510902872.0272460     
 -0.18098553791177110       0.62364870593752497        1509120743.9142504     
  -6.0354788932194231E-002  0.38648825440390133        1511823369.3670704     
   6.7997462056594793E-002  0.17506510206689938        1519010748.3857067     
  0.20406698309183047       -1.0632429003166369E-002   1530682880.9701624     
  -272149389.30318391        929858.72388748825        1498146765.9360182     
  -260596898.48605025        13289.575887560844        1494812623.0764689     
  -249036865.61226952       -878139.38328962028        1496091773.8586044     
  -237469290.68183500       -1744428.1536216587        1501984218.2824285     
  -225894173.69474930       -2585576.7351138890        1512489956.3479400     
  -548929304.94687688        470558.57092028856        1483700754.1253333     
  -525457066.06589419       -1252402.2543273270        1478823395.5763133     
  -501969743.07932484       -2925082.7276188433        1478687870.7448535     
  -478467335.98717046       -4547482.8489591181        1483294179.6309533     
  -454949844.78942931       -6119602.6183461249        1492642322.2346141     
  -830339747.22498119       -1377899.5723761916        1467564836.5951798     
  -794580502.92050910       -3797074.8669635355        1461153061.4137807     
  -758798632.46152174       -6140829.6464976370        1459611660.0258143     
  -722994135.84801078       -8409163.9109547436        1462940632.4312825     
  -687167013.07997775       -10602077.660336435        1471139978.6301832     
  -1116380716.1374919       -4615515.7059878707        1449739013.3455651     
  -1067967209.0498979       -7620728.2620319128        1441801620.5888767     
  -1019523533.7588488       -10525380.139894605        1438863141.7014914     
  -971049690.26434803       -13329471.339581788        1440923576.6834154     
  -922545678.56639397       -16033001.861093700        1447982925.5346394     
  0.20406698309183047       -1.0632429003166369E-002   1530682880.9701624     
  0.12239961791368738      -0.21173470486070828        1530536415.9572804     
   6.5941574545081011E-002 -0.32880452024101386        1535649576.1359694     
   3.4679608086328778E-002 -0.36188810647786263        1546022361.5062256     
   2.8623989625440119E-002 -0.31095053272183282        1561654772.0680482     
  -225894173.69474930       -2585576.7351138890        1512489956.3479400     
  -212391968.78847992       -2940412.3747978732        1511171728.0625808     
  -198957842.26893812       -3522175.9702407569        1515062071.2160468     
  -185591794.13612509       -4330867.5214460194        1524160985.8083401     
  -172293824.39004219       -5366487.0284196883        1538468471.8394611     
  -454949844.78942931       -6119602.6183461249        1492642322.2346141     
  -428091302.76020414       -6873034.0561277568        1490072905.8628547     
  -401368917.52962911       -8080321.4894141108        1492661007.1771808     
  -374782689.09771949       -9741464.9182509333        1500406626.1775899     
  -348332617.46446747       -11856464.342613220        1513309762.8640912     
  -687167013.07997775       -10602077.660336435        1471139978.6301832     
  -647098001.79276121       -11797865.255687475        1467239949.3580980     
  -607233225.71613693       -13674436.886342317        1468446384.0193682     
  -567572684.85009682       -16231792.552279025        1474759282.6139774     
  -528116379.19465381       -19469932.253540099        1486178645.1419344     
  -922545678.56639397       -16033001.861093700        1447982925.5346394     
  -869412065.88616836       -17714905.973528892        1442672858.5483212     
  -816550766.82845271       -20304522.160996228        1442418201.7426069     
  -763961781.39326298       -23801850.423549563        1447218955.1174972     
  -711645109.58059573       -28206890.761180311        1457075118.6729937     
   2.8623989625440119E-002 -0.31095053272183282        1561654772.0680482     
   8.6558050104779544E-003 -0.23324460494890475        1563290378.4425619     
  -1.6094131521987513E-002 -0.17147993190249231        1570307301.4446948     
  -4.5635816554272825E-002 -0.12568740691078414        1582705541.0744407     
  -7.9973848056734090E-002  -9.5881315707548348E-002   1600485097.3318019     
  -172293824.39004219       -5366487.0284196883        1538468471.8394611     
  -158450625.35630777       -6190932.1650104225        1538889480.4086490     
  -144507959.63864356       -6683821.6885028407        1544768043.5948334     
  -130465827.23705003       -6845155.5988983586        1556104161.3980129     
  -116324228.15152729       -6674933.8961965889        1572897833.8181896     
  -348332617.46446747       -11856464.342613220        1513309762.8640912     
  -320428396.55022967       -13440007.845468700        1512632218.0981257     
  -292325242.26334369       -14360440.106165141        1517488465.9385343     
  -264023154.60380661       -14617761.124688923        1527878506.3853214     
  -235522133.57162330       -14211970.901061311        1543802339.4384842     
  -528116379.19465381       -19469932.253540099        1486178645.1419344     
  -485933313.57311177       -21747227.274625927        1484518591.5109842     
  -443451847.89019692       -23029855.424472943        1488468568.4757936     
  -400671982.14591366       -23317816.703089520        1498028576.0363610     
  -357593716.34026325       -22611111.110482559        1513198614.1926825     
  -711645109.58059573       -28206890.761180311        1457075118.6729937     
  -654965376.42494059       -31112590.452440500        1454548600.6472354     
  -597887776.51920426       -32692067.643428624        1457708351.2066154     
  -540412309.86336899       -32945322.334090054        1466554370.3511343     
  -482538976.45745671       -31872354.524489835        1481086658.0807905     
  -7.9973848056734090E-002  -9.5881315707548348E-002   1600485097.3318019     
  -6.3536355663875208E-002  -6.1613534786995564E-002   1596879433.6697254     
  -4.9401874532565004E-002  -3.5021070292824225E-002   1598223799.2515297     
  -3.7577907818409452E-002  -1.6130320522501736E-002   1604518194.0771999     
  -2.8064272517613287E-002  -4.9420632421579951E-003   1615762618.1467416     
  -116324228.15152729       -6674933.8961965889        1572897833.8181896     
  -102897520.08203974       -5750536.1059987806        1568708343.9599168     
  -88931612.723532736       -3028807.3524038047        1569683739.2625964     
  -74426506.076024368        1490252.3645304590        1575824019.7262282     
  -59382200.139485866        7806643.0448967256        1587129185.3508179     
  -235522133.57162330       -14211970.901061311        1543802339.4384842     
  -208054843.40028000       -12179013.140305087        1539658089.2238860     
  -179509154.64860380       -6551393.4451069012        1540893580.0873227     
  -149885067.31658214        2670888.1845782325        1547508812.0287957     
  -119182581.40422313        15487831.748720825        1559503785.0483098     
  -357593716.34026325       -22611111.110482559        1513198614.1926825     
  -315471970.01826143       -19285431.164550394        1509728669.4616370     
  -271732625.82459015       -10567758.313048780        1511853321.7257137     
  -226375683.75925994        3541907.4439798146        1519572570.9849083     
  -179401143.82226557        23043566.106556714        1532886417.2392228     
  -482538976.45745671       -31872354.524489835        1481086658.0807905     
  -425148899.93597102       -27069790.178684190        1478920084.6731768     
  -365602026.25151521       -15077901.956308901        1482562964.1777673     
  -303898355.40405428        4103310.1427489221        1492015296.5945578     
  -240037887.39361084        30473846.118415073        1507277081.9235551     
  -2.8064272517613287E-002  -4.9420632421579951E-003   1615762618.1467416     
  -2.3844571006326441E-002   1.5962963551729263E-003   1584806957.3534830     
  -1.9340252842449224E-002   9.0826842384147052E-003   1557227025.3242135     
  -1.4557105521006976E-002   1.7499543480958835E-002   1533022822.0589218     
  -9.4852697125296405E-003   2.6877309901505796E-002   1512194347.5576169     
  -59382200.139485866        7806643.0448967256        1587129185.3508179     
  -48526850.967195407        15433006.829585493        1556619245.6900492     
  -36518397.699108124        26903050.933597401        1529323915.7534680     
  -23356840.335235380        42216775.356892392        1505243195.5410743     
  -9042178.8755745888        61374180.099481255        1484377085.0528767     
  -119182581.40422313        15487831.748720825        1559503785.0483098     
  -97932223.177549198        30602457.277482130        1530784854.6314514     
  -74375656.759584203        53404443.443884671        1505119414.8989904     
  -48512882.150319576        83893790.247949734        1482507465.8509231     
  -20343899.349756606        122070497.68967736        1462949007.4872553     
  -179401143.82226557        23043566.106556714        1532886417.2392228     
  -148216116.65491602        45508351.345254041        1507303784.1777048     
  -113571777.20075987        79504177.539976209        1484613522.7607851     
  -75468125.459806874        125031044.69068635        1464815632.9884720     
  -33905161.432047598        182088952.79741746        1447910114.8607504     
  -240037887.39361084        30473846.118415073        1507277081.9235551     
  -199378531.39928064        60150689.032953262        1486176034.3288002     
  -154106759.02264154        105202253.22184762        1467806239.3388462     
  -104222570.26369110        165628538.68511510        1452167696.9537005     
  -49725965.122427002        241429545.42276436        1439260407.1733594     
  -9.4852697125296405E-003   2.6877309901505796E-002   1512194347.5576169     
  -7.1388865515024796E-003   3.6820500860744496E-002   1402921059.1129663     
  -4.1418333964003615E-003   4.8933979579013839E-002   1290879787.6266215     
  -5.0239116895915356E-004   6.3189449094470523E-002   1176070533.0985940     
   3.7599959775739232E-003   7.9518626116005228E-002   1058493295.5288694     
  -9042178.8755745888        61374180.099481255        1484377085.0528767     
  -9557510.5437434353        80772264.648045152        1375775573.2285728     
  -8133851.0916859284        106633652.93069412        1265069154.4212680     
  -4771200.5193839818        138958344.94749519        1152257828.6309533     
   530441.17315059900        177746340.69839987        1037341595.8576300     
  -20343899.349756606        122070497.68967736        1462949007.4872553     
  -19480059.663647257        161435017.68425670        1357281428.5894911     
  -14738237.737704962        213726145.14494342        1250172018.7674155     
  -6118433.5719301105        278943880.07173777        1141620778.0210176     
   6379352.8336688131        357088222.46461940        1031627706.3502884     
  -33905161.432047598        182088952.79741746        1447910114.8607504     
  -29767647.366836682        241988259.14550093        1347438625.1957281     
  -19813159.942206249        321277476.69165224        1246188380.6650636     
  -4041699.1581526697        419956605.43587935        1144159381.2687676     
   17546734.985323817        538025645.37818003        1041351627.0068163     
  -49725965.122427002        241429545.42276436        1439260407.1733594     
  -40420273.653326437        322431989.03173500        1346247163.0472667     
  -23358617.705205768        429287647.57076991        1253118240.1142137     
   1459002.7219434381        561996521.03990269        1159873638.3742163     
   34032587.628106445        720558609.43907881        1066513357.8272470     
  -1455264672.9385319        7374935.0859096646        1526203760.5464048     
  -1419079454.3301573        4360074.5858358741        1500425952.8054492     
  -1382774617.1694996        1743942.5933758616        1482472054.7137706     
  -1346350161.4565556       -473460.89146667719        1472342066.2713695     
  -1309806087.1913290       -2292135.8686973453        1470035987.4782455     
  -1883429971.8495300       -13519758.720535994        1421887621.3667998     
  -1826416780.7600727       -10089198.480699539        1403029151.9184413     
  -1769741334.3352680       -7784453.7897063494        1390880885.3278134     
  -1713403632.5751150       -6605524.6475461721        1385442821.5949166     
  -1657403675.4796162       -6552411.0542385578        1386714960.7197487     
  -2289871179.5588598       -27897225.166477919        1317914057.7799926     
  -2215212035.3927398       -18975850.008060336        1305441336.2044699     
  -2141347999.1082091       -12704834.454940677        1298565110.6951320     
  -2068279070.7052641       -9084178.5071107149        1297285381.2519791     
  -1996005250.1839101       -8113882.1645834446        1301602147.8750093     
  -2674588296.0665255       -35757464.251923919        1214283069.7859843     
  -2585465218.2281590       -22299879.996251106        1207662505.6635361     
  -2497594611.4883184       -13017199.402328253        1205524730.8157303     
  -2410976475.8469992       -7909422.4701488018        1207869745.2425625     
  -2325610811.3042068       -6976549.1997247934        1214697548.9440300     
  -3037581321.3725233       -37100475.976866126        1110994657.3847685     
  -2937176329.2663255       -20061288.445254445        1109692660.2956414     
  -2838481171.4755964       -8721548.6318584681        1111759745.6896048     
  -2741495848.0003219       -3081256.5366600752        1117195913.5666618     
  -2646220358.8405137       -3140412.1596760750        1126001163.9268105     
  -1309806087.1913290       -2292135.8686973453        1470035987.4782455     
  -1260834759.5920806       -823031.37538963556        1455841149.9707119     
  -1212273421.8833575       -720559.85049968958        1447726708.4460866     
  -1164122074.0651615       -1984721.2940356135        1445692662.9043703     
  -1116380716.1374919       -4615515.7059878707        1449739013.3455651     
  -1657403675.4796162       -6552411.0542385578        1386714960.7197487     
  -1593393065.2904980       -5016983.5690943599        1374968690.3414540     
  -1529651885.4056821       -4379657.0982919335        1368695397.5897284     
  -1466180135.8251758       -4640431.6418542862        1367895082.4645660     
  -1402977816.5489740       -5799307.1997662783        1372567744.9659753     
  -1996005250.1839101       -8113882.1645834446        1301602147.8750093     
  -1918690838.4230421       -7032775.9930353165        1292468430.8098791     
  -1841505297.3802574       -6381238.8817660809        1288200273.0149770     
  -1764448627.0555608       -6159270.8307909966        1288797674.4902961     
  -1687520827.4489472       -6366871.8400903940        1294260635.2358415     
  -2325610811.3042068       -6976549.1997247934        1214697548.9440300     
  -2236728078.9897146       -6870408.6472157240        1208340371.3759911     
  -2147833657.8070850       -6725305.2009192705        1206241334.7218332     
  -2058927547.7563207       -6541238.8608382940        1208400438.9815590     
  -1970009748.8374183       -6318209.6269696951        1214817684.1551630     
  -2646220358.8405137       -3140412.1596760750        1126001163.9268105     
  -2547504786.9905148       -4529881.5316326618        1122584512.0397849     
  -2448636966.6861591       -5411856.0557396412        1122818582.7103002     
  -2349616897.9274454       -5786335.7319900990        1126703375.9383523     
  -2250444580.7143764       -5653320.5603816509        1134238891.7239454     
  -1116380716.1374919       -4615515.7059878707        1449739013.3455651     
  -1067967209.0498979       -7620728.2620319128        1441801620.5888767     
  -1019523533.7588488       -10525380.139894605        1438863141.7014914     
  -971049690.26434803       -13329471.339581788        1440923576.6834154     
  -922545678.56639397       -16033001.861093700        1447982925.5346394     
  -1402977816.5489740       -5799307.1997662783        1372567744.9659753     
  -1341626966.6022217       -8054499.2098075151        1365206466.6352246     
  -1280363307.6610286       -10600327.905036986        1362624994.9700587     
  -1219186839.7253900       -13436793.285449803        1364823329.9704776     
  -1158097562.7953088       -16563895.351057112        1371801471.6364815     
  -1687520827.4489472       -6366871.8400903940        1294260635.2358415     
  -1613858655.2250996       -8059849.4787425995        1287338552.2538538     
  -1540401033.2158206       -10434661.165949941        1284977168.7337258     
  -1467147961.4211092       -13491306.901717842        1287176484.6754627     
  -1394099439.8409629       -17229786.686038971        1293936500.0790613     
  -1970009748.8374183       -6318209.6269696951        1214817684.1551630     
  -1884662274.9185379       -7636779.0688508749        1208197877.4447589     
  -1799636710.4232316       -10028379.922656775        1205919662.9924924     
  -1714933055.3515067       -13493012.188390970        1207983040.7983704     
  -1630551309.7033546       -18030675.866043746        1214388010.8623888     
  -2250444580.7143764       -5653320.5603816509        1134238891.7239454     
  -2154037825.6825256       -6785287.9801238775        1127784442.2079451     
  -2058070339.2832561       -9381484.1751412153        1125452477.7463651     
  -1962542121.5165789       -13441909.145463824        1127242998.3392017     
  -1867453172.3824861       -18966562.891067266        1133156003.9864588     
  -922545678.56639397       -16033001.861093700        1447982925.5346394     
  -869412065.88616836       -17714905.973528892        1442672858.5483212     
  -816550766.82845271       -20304522.160996228        1442418201.7426069     
  -763961781.39326298       -23801850.423549563        1447218955.1174972     
  -711645109.58059573       -28206890.761180311        1457075118.6729937     
  -1158097562.7953088       -16563895.351057112        1371801471.6364815     
  -1092188269.2197227       -18691555.438585520        1365963910.5875125     
  -1026486221.7916995       -21510036.017984867        1365001252.9640095     
  -960991420.51124156       -25019337.089271188        1368913498.7659688     
  -895703865.37834966       -29219458.652444065        1377700647.9933915     
  -1394099439.8409629       -17229786.686038971        1293936500.0790613     
  -1315930198.9561400       -19957922.824504316        1287647357.0215650     
  -1237903136.7439241       -23159987.871660233        1286052610.6343880     
  -1160018253.2043161       -26835981.827511609        1289152260.9175351     
  -1082275548.3373201       -30985904.692062676        1296946307.8709993     
  -1630551309.7033546       -18030675.866043746        1214388010.8623888     
  -1540637855.0954146       -21514008.131281853        1207723197.8504786     
  -1450801511.6851244       -25254377.722024858        1205572274.7537460     
  -1361042279.4724920       -29251784.638284087        1207935241.5721927     
  -1271360158.4575078       -33506228.880051494        1214812098.3058190     
  -1867453172.3824861       -18966562.891067266        1133156003.9864588     
  -1766311237.6375489       -23359811.358917356        1126191433.0742507     
  -1665181346.6153097       -27793205.569097519        1123560245.3220761     
  -1564063499.3157644       -32266745.521588624        1125262440.7299409     
  -1462957695.7389147       -36780431.216399491        1131298019.2978396     
  -711645109.58059573       -28206890.761180311        1457075118.6729937     
  -654965376.42494059       -31112590.452440500        1454548600.6472354     
  -597887776.51920426       -32692067.643428624        1457708351.2066154     
  -540412309.86336899       -32945322.334090054        1466554370.3511343     
  -482538976.45745671       -31872354.524489835        1481086658.0807905     
  -895703865.37834966       -29219458.652444065        1377700647.9933915     
  -824706030.23151875       -31664783.347125232        1374431204.9214344     
  -753473445.94966948       -33327610.925077617        1376383177.4891088     
  -682006112.53279889       -34207941.386287063        1383556565.6964169     
  -610304029.98090744       -34305774.730766922        1395951369.5433526     
  -1082275548.3373201       -30985904.692062676        1296946307.8709993     
  -998287762.47218680       -33369299.772023618        1292743635.8685949     
  -914228345.08710539       -35513923.118823647        1293297526.5603192     
  -830097296.18206298       -37419774.732420743        1298607979.9461691     
  -745894615.75707376       -39086854.612861991        1308674996.0261426     
  -1271360158.4575078       -33506228.880051494        1214812098.3058190     
  -1175710573.1469502       -36226139.727163970        1209485893.4887247     
  -1080152473.9315066       -39251004.224649668        1208451398.4202518     
  -984685860.81118131       -42580822.372530937        1211708613.1003969     
  -889310733.78596151       -46215594.170768499        1219257537.5291681     
  -1462957695.7389147       -36780431.216399491        1131298019.2978396     
  -1356974462.2558050       -40235303.212515056        1124657977.7818134     
  -1251245832.4828813       -44538854.242581129        1121844793.0689015     
  -1145771806.4201288       -49691084.306559861        1122858465.1590996     
  -1040552384.0675706       -55691993.404504716        1127698994.0524130     
  -482538976.45745671       -31872354.524489835        1481086658.0807905     
  -425148899.93597102       -27069790.178684190        1478920084.6731768     
  -365602026.25151521       -15077901.956308901        1482562964.1777673     
  -303898355.40405428        4103310.1427489221        1492015296.5945578     
  -240037887.39361084        30473846.118415073        1507277081.9235551     
  -610304029.98090744       -34305774.730766922        1395951369.5433526     
  -538102150.42117190       -30542834.005679160        1393601649.7302425     
  -463688315.62249291       -19406709.150776282        1397076084.7929771     
  -387062525.58484811       -897400.16598650813        1406374674.7315550     
  -308224780.30825377        24985092.948630288        1421497419.5459850     
  -745894615.75707376       -39086854.612861991        1308674996.0261426     
  -658838927.54868996       -36350935.825380981        1306206480.8961623     
  -569516126.02538085       -26057972.654821724        1309576822.6056728     
  -477926211.18715405       -8207965.1011951268        1318786021.1546669     
  -384069183.03399694        17199086.835522130        1333834076.5431523     
  -889310733.78596151       -46215594.170768499        1219257537.5291681     
  -787359231.31851196       -44494095.637748212        1216734578.1709435     
  -683085457.46017694       -35031692.468433738        1220065177.6158555     
  -576489412.21095526       -17828384.662835896        1229249335.8638909     
  -467571095.57084036        7115827.7790738642        1244287052.9150596     
  -1040552384.0675706       -55691993.404504716        1127698994.0524130     
  -923663061.73066437       -54972313.442854464        1125185941.5545859     
  -804396309.92688668       -46327868.591638207        1128541149.8235233     
  -682752128.65626764       -29758658.850946188        1137764618.8592288     
  -558730517.91877818       -5264684.2206893861        1152856348.6617119     
  -240037887.39361084        30473846.118415073        1507277081.9235551     
  -199378531.39928064        60150689.032953262        1486176034.3288002     
  -154106759.02264154        105202253.22184762        1467806239.3388462     
  -104222570.26369110        165628538.68511510        1452167696.9537005     
  -49725965.122427002        241429545.42276436        1439260407.1733594     
  -308224780.30825377        24985092.948630288        1421497419.5459850     
  -258733816.71199515        55207672.189346567        1404774493.5029194     
  -202788355.19194126        106945244.50938642        1391987920.0120294     
  -140388395.74807921        180197809.90877870        1383137699.0733132     
  -71533938.380417794        274965368.38751233        1378223830.6867688     
  -384069183.03399694        17199086.835522130        1333834076.5431523     
  -322303469.12905520        49000345.214426219        1323638367.1835256     
  -252241175.75881642        108456868.47765341        1318584110.3234479     
  -173882302.92328256        195568656.62519786        1318671305.9629009     
  -87226850.622448206        310335709.65707177        1323899954.1019025     
  -467571095.57084036        7115827.7790738642        1244287052.9150596     
  -390087488.65044880        41528708.108207479        1242767655.3706191     
  -302465220.72327036        109737125.12663971        1247594810.2730830     
  -204704291.78929681        211741078.83438036        1258768517.6224542     
  -96804701.848537430        347540569.23141527        1276288777.4187293     
  -558730517.91877818       -5264684.2206893861        1152856348.6617119     
  -462085875.27617997        32792760.870700777        1162162358.0641935     
  -353460490.08529425        110786014.45637165        1179020019.8609478     
  -232854362.34613129        228715076.53630430        1203429334.0519769     
  -100267492.05868149        386579947.11052901        1235390300.6372762     
  -49725965.122427002        241429545.42276436        1439260407.1733594     
  -40420273.653326437        322431989.03173500        1346247163.0472667     
  -23358617.705205768        429287647.57076991        1253118240.1142137     
   1459002.7219434381        561996521.03990269        1159873638.3742163     
   34032587.628106445        720558609.43907881        1066513357.8272470     
  -71533938.380417794        274965368.38751233        1378223830.6867688     
  -57358350.772687927        376715729.21432322        1296699565.6429935     
  -34217614.972677916        508349917.34874147        1214249072.4625335     
  -2111730.9803882837        669867932.79076147        1130872351.1453936     
   38959301.204179555        861269775.54036260        1046569401.6915832     
  -87226850.622448206        310335709.65707177        1323899954.1019025     
  -70497222.103877693        432139231.13335305        1255275382.4725716     
  -43593261.679759443        587857192.29480445        1184914033.3768361     
  -6514969.3500971794        777489593.14140069        1112815906.8147089     
   40737654.885102451        1001036433.6731145        1038981002.7861742     
  -96804701.848537430        347540569.23141527        1276288777.4187293     
  -79836887.646889567        488702494.78886789        1221974613.5359943     
  -51485557.826443166        667809472.40897965        1165113122.8571324     
  -11750712.387181938        884861502.09181035        1105704305.3821552     
   39367648.670885205        1139858583.8373244        1043748161.1110656     
  -100267492.05868149        386579947.11052901        1235390300.6372762     
  -85377347.401744634        546405520.18076968        1196797258.8332675     
  -57894503.412722886        748206757.69129622        1154846340.9034259     
  -17818960.091635644        991983659.64204097        1109537546.8477399     
   34849282.561508715        1277736226.0329731        1060870876.6662029     
  -3037581321.3725233       -37100475.976866126        1110994657.3847685     
  -2937176329.2663255       -20061288.445254445        1109692660.2956414     
  -2838481171.4755964       -8721548.6318584681        1111759745.6896048     
  -2741495848.0003219       -3081256.5366600752        1117195913.5666618     
  -2646220358.8405137       -3140412.1596760750        1126001163.9268105     
  -3376344445.8641133        26402964.168299437        1014639362.0581464     
  -3274150256.0665283        17873282.257490158        1008984038.1270696     
  -3171434298.7911000        11082825.272839904        1007236445.9622170     
  -3068196574.0378237        6031593.2143459320        1009396585.5635904     
  -2964437081.8066945        2719586.0820233822        1015464456.9311898     
  -3726335034.6268754        86538165.032113552        906941672.57652164     
  -3620812649.1860943        52901313.064425707        899536557.22901714     
  -3512536894.4741526        28442358.667273283        896577822.93087900     
  -3401507770.4910564        13161301.840641499        898065469.68209708     
  -3287725277.2368007        7058142.5845417976        903999497.48267555     
  -4087553087.6608038        143305126.61457992        787901588.93988073     
  -3977163508.6250138        85022803.975563765        781350217.60148537     
  -3861788958.5247560        43357051.551442623        779783876.59558475     
  -3741429437.3600287        18307869.342214108        783202565.92217839     
  -3616084945.1308365        9875257.3478796482        791606285.58126783     
  -4459998604.9659071        196703848.91568971        657519111.14823508     
  -4343202834.3832960        114237754.99088931        654425019.24447644     
  -4219190490.9429064        55826903.925347567        656854606.95634401     
  -4087961574.6447411        21471295.719059944        664807874.28384101     
  -3949516085.4887938        11170930.372044325        678284821.22696543     
  -2646220358.8405137       -3140412.1596760750        1126001163.9268105     
  -2547504786.9905148       -4529881.5316326618        1122584512.0397849     
  -2448636966.6861591       -5411856.0557396412        1122818582.7103002     
  -2349616897.9274454       -5786335.7319900990        1126703375.9383523     
  -2250444580.7143764       -5653320.5603816509        1134238891.7239454     
  -2964437081.8066945        2719586.0820233822        1015464456.9311898     
  -2855556502.8076758        1745329.6502081156        1010576463.5671340     
  -2746669279.4160762        793221.19365525246        1009761165.5432146     
  -2637775411.6319075       -136739.28765761852        1013018562.8594315     
  -2528874899.4551506       -1044551.7936886549        1020348655.5157806     
  -3287725277.2368007        7058142.5845417976        903999497.48267555     
  -3167474054.5670557        6860790.0493893623        897470291.23617959     
  -3047361791.5665140        6200238.6168909073        895435753.11241317     
  -2927388488.2351761        5076488.2870497704        897895883.11138058     
  -2807554144.5730395        3489539.0598683357        904850681.23308063     
  -3616084945.1308365        9875257.3478796482        791606285.58126783     
  -3483257442.2686596        10816499.665903568        783265995.04691958     
  -3350714503.1374688        10809196.213973045        779842345.41789925     
  -3218456127.7372603        9853346.9921057224        781335336.69421136     
  -3086482316.0680308        7948952.0002986193        787744968.87584877     
  -3949516085.4887938        11170930.372044325        678284821.22696543     
  -3802906665.9124875        13612458.499743938        667963574.99935758     
  -3656727414.1289420        14620093.984898806        662980942.45967293     
  -3510978330.1381578        14193836.827515841        663336923.60791492     
  -3365659413.9401379        12333687.027587652        669031518.44408321     
  -2250444580.7143764       -5653320.5603816509        1134238891.7239454     
  -2154037825.6825256       -6785287.9801238775        1127784442.2079451     
  -2058070339.2832561       -9381484.1751412153        1125452477.7463651     
  -1962542121.5165789       -13441909.145463824        1127242998.3392017     
  -1867453172.3824861       -18966562.891067266        1133156003.9864588     
  -2528874899.4551506       -1044551.7936886549        1020348655.5157806     
  -2422102334.0536990       -2962916.7782728672        1013358927.3947583     
  -2315581798.8333678       -5721382.3665912151        1010401890.8647420     
  -2209313293.7941542       -9319948.5586397648        1011477545.9257342     
  -2103296818.9360547       -13758615.354401112        1016585892.5777316     
  -2807554144.5730395        3489539.0598683357        904850681.23308063     
  -2690672321.5545936        707810.68465685844        897544119.36708164     
  -2573855290.2658014       -2289890.1227341890        894180455.62867904     
  -2457103050.7066607       -5503563.3622951508        894759690.01787019     
  -2340415602.8771687       -8933209.0340200663        899281822.53465486     
  -3086482316.0680308        7948952.0002986193        787744968.87584877     
  -2959747788.1852040        4226894.4086679220        780340018.12491953     
  -2832890813.5805559        912992.55642461777        776788172.03817165     
  -2705911392.2540908       -1992753.5564208031        777089430.61560726     
  -2578809524.2058139       -4490343.9298945665        781243793.85722256     
  -3365659413.9401379        12333687.027587652        669031518.44408321     
  -3229328733.9455252        7594334.3937687874        661746623.66826940     
  -3092688368.7776327        3887265.6708900928        658225040.09322119     
  -2955738318.4364548        1212480.8589574099        658466767.71894681     
  -2818478582.9219923       -430020.04202210903        662471806.54544187     
  -1867453172.3824861       -18966562.891067266        1133156003.9864588     
  -1766311237.6375489       -23359811.358917356        1126191433.0742507     
  -1665181346.6153097       -27793205.569097519        1123560245.3220761     
  -1564063499.3157644       -32266745.521588624        1125262440.7299409     
  -1462957695.7389147       -36780431.216399491        1131298019.2978396     
  -2103296818.9360547       -13758615.354401112        1016585892.5777316     
  -1990898615.6013734       -16905485.996118665        1008927645.1563630     
  -1878658968.2760539       -20580876.669037223        1005307057.0687330     
  -1766577876.9601064       -24784787.373209715        1005724128.3148377     
  -1654655341.6535182       -29517218.108571351        1010178858.8946720     
  -2340415602.8771687       -8933209.0340200663        899281822.53465486     
  -2217606056.1707349       -11087179.414967656        890758967.60300827     
  -2095101577.7603407       -14258044.116053462        885978048.17879677     
  -1972902167.6459861       -18445803.137269020        884939064.26201880     
  -1851007825.8276784       -23650456.478626966        887642015.85267735     
  -2578809524.2058139       -4490343.9298945665        781243793.85722256     
  -2446433559.3456330       -5904891.6154808998        771685400.41418087     
  -2314509175.0681715       -8824707.9101161957        765573218.65227473     
  -2183036371.3734226       -13249792.813813567        762907248.57149923     
  -2052015148.2613919       -19180146.326560259        763687490.17185628     
  -2818478582.9219923       -430020.04202210903        662471806.54544187     
  -2677381125.1260796       -1358622.5976721048        651706943.58988714     
  -2536881760.1995449       -4280868.0512597561        644092568.48915911     
  -2396980488.1423984       -9196756.4028044939        639628681.24326539     
  -2257677308.9546480       -16106287.652322769        638315281.85220861     
  -1462957695.7389147       -36780431.216399491        1131298019.2978396     
  -1356974462.2558050       -40235303.212515056        1124657977.7818134     
  -1251245832.4828813       -44538854.242581129        1121844793.0689015     
  -1145771806.4201288       -49691084.306559861        1122858465.1590996     
  -1040552384.0675706       -55691993.404504716        1127698994.0524130     
  -1654655341.6535182       -29517218.108571351        1010178858.8946720     
  -1539148912.4489782       -33418524.792127371        1001647155.5169497     
  -1423644835.4444466       -37327672.142381489        996717153.89585364     
  -1308143110.6399353       -41244660.159361184        995388854.03138375     
  -1192643738.0354095       -45169488.842983842        997662255.92354214     
  -1851007825.8276784       -23650456.478626966        887642015.85267735     
  -1726621501.0345242       -28191187.889466643        877512944.04178917     
  -1601985276.9312015       -31898921.599752009        870760418.94104266     
  -1477099153.5177245       -34773657.609524190        867384440.55043530     
  -1351963130.7940834       -36815395.918743432        867385008.86997294     
  -2052015148.2613919       -19180146.326560259        763687490.17185628     
  -1919392228.0124285       -24553292.504485726        752255343.35633278     
  -1786267156.9431381       -28252602.614667058        743974588.20446527     
  -1652639935.0535195       -30278076.657078862        738845224.71625245     
  -1518510562.3435719       -30629714.631732225        736867252.89169478     
  -2257677308.9546480       -16106287.652322769        638315281.85220861     
  -2117461093.3827112       -22504838.637251735        625874353.46058667     
  -1976490475.4802623       -26388715.187141895        616359661.68612599     
  -1834765455.2473218       -27757917.302061558        609771206.52884424     
  -1692286032.6838825       -26612444.981974661        606108987.98872507     
  -1040552384.0675706       -55691993.404504716        1127698994.0524130     
  -923663061.73066437       -54972313.442854464        1125185941.5545859     
  -804396309.92688668       -46327868.591638207        1128541149.8235233     
  -682752128.65626764       -29758658.850946188        1137764618.8592288     
  -558730517.91877818       -5264684.2206893861        1152856348.6617119     
  -1192643738.0354095       -45169488.842983842        997662255.92354214     
  -1062169533.4684843       -42374564.727616966        993981493.59072745     
  -930224425.13430500       -34676628.054749370        994403477.40184021     
  -796808413.03287470       -22075678.824372232        998928207.35688293     
  -661921497.16419327       -4571717.0364910662        1007555683.4558442     
  -1351963130.7940834       -36815395.918743432        867385008.86997294     
  -1212948371.4909749       -33458525.897807360        861478923.38596678     
  -1073369234.1202191       -28220395.651383400        857910069.42304432     
  -933225718.68182766       -21101005.179508924        856678446.98120129     
  -792517825.17579854       -12100354.482169747        857784056.06044292     
  -1518510562.3435719       -30629714.631732225        736867252.89169478     
  -1375999575.7981274       -28224196.953396320        727678230.94029081     
  -1233830736.8846412       -26959171.381602705        719060925.88712728     
  -1092004045.6031258       -26834637.916372418        711015337.73219562     
  -950519501.95357466       -27850596.557676375        703541466.47550774     
  -1692286032.6838825       -26612444.981974661        606108987.98872507     
  -1551323146.3899333       -26671577.894357979        592579416.25370407     
  -1411608933.4275625       -30892955.245350242        577856046.79408920     
  -1273143393.7967582       -39276577.034890652        561938879.60986447     
  -1135926527.4975426       -51822443.263060570        544827914.70102930     
  -558730517.91877818       -5264684.2206893861        1152856348.6617119     
  -462085875.27617997        32792760.870700777        1162162358.0641935     
  -353460490.08529425        110786014.45637165        1179020019.8609478     
  -232854362.34613129        228715076.53630430        1203429334.0519769     
  -100267492.05868149        386579947.11052901        1235390300.6372762     
  -661921497.16419327       -4571717.0364910662        1007555683.4558442     
  -546882487.96107173        25696564.935273677        1021021910.6386642     
  -420972387.67888528        92201817.170602113        1042883497.3475298     
  -284191196.31763023        194944039.66948622        1073140443.5824327     
  -136538913.87731892        333923232.43188977        1111792749.3433723     
  -792517825.17579854       -12100354.482169747        857784056.06044292     
  -656673857.60710526        11101941.911500692        874115907.64285183     
  -511068450.42855763        66842370.338006496        899686825.88306725     
  -355701603.64016038        155120930.79734504        934496810.78109062     
  -190573317.24192357        275937623.28949368        978545862.33692050     
  -950519501.95357466       -27850596.557676375        703541466.47550774     
  -791459984.21425390       -10991108.200588495        721444349.07674956     
  -623748678.33430994        34707673.958597749        749430005.46757042     
  -447385584.31372631        109245749.91990000        787498435.64796138     
  -262370702.15251762        212623119.68329749        835649639.61793244     
  -1135926527.4975426       -51822443.263060570        544827914.70102930     
  -951240867.78255451       -40582585.401049972        563007234.94035089     
  -759013071.39615130       -4202271.9676610827        592113036.10102093     
  -559243138.33832204        57318497.037145197        632145318.18302929     
  -351931068.60909581        143979721.61328602        683104081.18638599     
  -100267492.05868149        386579947.11052901        1235390300.6372762     
  -85377347.401744634        546405520.18076968        1196797258.8332675     
  -57894503.412722886        748206757.69129622        1154846340.9034259     
  -17818960.091635644        991983659.64204097        1109537546.8477399     
   34849282.561508715        1277736226.0329731        1060870876.6662029     
  -136538913.87731892        333923232.43188977        1111792749.3433723     
  -127394319.57966200        482930536.83635676        1090221868.6532192     
  -95111749.491953313        709064427.20766461        1070085733.5046378     
  -39691203.614192188        1012324903.5458055        1051384343.8976296     
   38867318.053606451        1392711965.8507423        1034117699.8321881     
  -190573317.24192357        275937623.28949368        978545862.33692050     
  -173481068.53951648        418234620.45737267        986299965.29492998     
  -122705567.58908561        672809125.11866915        1000281435.4619211     
  -38246814.390622199        1039661137.2733947        1020490272.8378946     
   79895191.055870712        1518790656.9215612        1046926477.4228663     
  -262370702.15251762        212623119.68329749        835649639.61793244     
  -223637594.28132373        352317771.04379773        885031548.75840318     
  -140675957.70412064        639440851.42430615        945433446.77527523     
  -13485792.420911074        1073992360.8248529        1016855333.6685452     
   157932901.56830806        1655972299.2454321        1099297209.4382184     
  -351931068.60909581        143979721.61328602        683104081.18638599     
  -277863896.80507284        285179988.59562033        786416619.04363775     
  -149022919.83706763        608959606.12456799        905541767.44470763     
   34591862.294924915        1115318574.2001317        1040479526.3895823     
   272980449.59091145        1804256892.8223529        1191229895.8782661     
  -4459998604.9659071        196703848.91568971        657519111.14823508     
  -4343202834.3832960        114237754.99088931        654425019.24447644     
  -4219190490.9429064        55826903.925347567        656854606.95634401     
  -4087961574.6447411        21471295.719059944        664807874.28384101     
  -3949516085.4887938        11170930.372044325        678284821.22696543     
  -4914968961.4590807       -81627346.643199682        437000233.13580656     
  -4754924296.9544945       -52726182.062532187        451976886.36899281     
  -4597282014.2133551       -31832956.693346024        468998103.34835076     
  -4442042113.2356558       -18947670.535667658        488063884.07387531     
  -4289204594.0214176       -14070323.589481831        509174228.54556972     
  -5321362103.8570766       -345385377.97353888        259935715.95840776     
  -5128008876.4860945       -208099054.20405722        281761000.60377324     
  -4946676985.4997959       -110883851.71684337        302151733.12585318     
  -4777366430.8981705       -53739770.511872530        321107913.52464330     
  -4620077212.6812229       -36666810.589167356        338629541.80014783     
  -5679178032.1598759       -594570245.07531452        126325559.61603855     
  -5462456572.9781113       -351880861.43372297        143777361.94881785     
  -5267375404.8022375       -181325781.14513254        156315496.28885558     
  -5093934527.6322718       -82905004.209564924        163939962.63614914     
  -4942133941.4682140       -56618530.627013445        166650760.99069342     
  -5988416746.3675032       -829181947.94854426        36169764.108701520     
  -5758267386.4305286       -484071603.75150204        38025970.404128924     
  -5559377272.1206865       -243158744.97822738        31489392.837358300     
  -5391746403.4379692       -106443371.62873030        16560031.408389643     
  -5255374780.3823881       -73925483.702994108       -6762113.8827885697     
  -3949516085.4887938        11170930.372044325        678284821.22696543     
  -3802906665.9124875        13612458.499743938        667963574.99935758     
  -3656727414.1289420        14620093.984898806        662980942.45967293     
  -3510978330.1381578        14193836.827515841        663336923.60791492     
  -3365659413.9401379        12333687.027587652        669031518.44408321     
  -4289204594.0214176       -14070323.589481831        509174228.54556972     
  -4129384411.4715767       -10894950.859845638        501286479.14882970     
  -3969665214.1147027       -8056195.4401028156        498052892.67412519     
  -3810047001.9507933       -5554057.3302400112        499473469.12146163     
  -3650529774.9798512       -3388536.5302693844        505548208.49083471     
  -4620077212.6812229       -36666810.589167356        338629541.80014783     
  -4449001840.7746696       -33344265.342639923        333559335.60070306     
  -4277698271.4612885       -29261062.073347569        332458841.55740970     
  -4106166504.7410784       -24417200.781297445        335328059.67026216     
  -3934406540.6140380       -18812681.466485262        342166989.93926811     
  -4942133941.4682140       -56618530.627013445        166650760.99069342     
  -4761758953.8217697       -53735484.948637724        164782144.35497445     
  -4580826586.1686983       -48994505.914840221        166198789.10951671     
  -4399336838.5090094       -42395593.525653362        170900695.25432026     
  -4217289710.8426900       -33938747.781028748        178887862.78938988     
  -5255374780.3823881       -73925483.702994108       -6762113.8827885697     
  -5067655750.6128759       -72068609.677827835       -5045094.5883654477     
  -4879050158.2369366       -67256526.964590073       -727264.66955618921     
  -4689558003.2545767       -59489235.563276768        6191375.8736291984     
  -4499179285.6658020       -48766735.473910570        15710827.041188074     
  -3365659413.9401379        12333687.027587652        669031518.44408321     
  -3229328733.9455252        7594334.3937687874        661746623.66826940     
  -3092688368.7776327        3887265.6708900928        658225040.09322119     
  -2955738318.4364548        1212480.8589574099        658466767.71894681     
  -2818478582.9219923       -430020.04202210903        662471806.54544187     
  -3650529774.9798512       -3388536.5302693844        505548208.49083471     
  -3503327472.7816110       -5014246.0425441265        498872232.61473322     
  -3356087978.4983706       -6515981.9381606579        496077198.82029730     
  -3208811292.1301417       -7893744.2171483040        497163107.10753238     
  -3061497413.6769123       -9147532.8794673681        502129957.47643179     
  -3934406540.6140380       -18812681.466485262        342166989.93926811     
  -3775996527.9810214       -17223921.387842655        335782024.35987616     
  -3617821816.3513041       -16419497.986863375        333395631.74304754     
  -3459882405.7248878       -16399411.263551712        335007812.08877903     
  -3302178296.1017718       -17163661.217911363        340618565.39707577     
  -4217289710.8426900       -33938747.781028748        178887862.78938988     
  -4047335899.5437703       -29034691.642153740        172475998.90369511     
  -3877889882.3364425       -25823282.475240469        170180338.86146155     
  -3708951659.2207036       -24304520.280293226        172000882.66269007     
  -3540521230.1965499       -24478405.057302237        177937630.30737880     
  -4499179285.6658020       -48766735.473910570        15710827.041188074     
  -4317345587.4698524       -40446556.805464506        8954156.2461915314     
  -4136292176.4537687       -34727335.403252840        6431320.1755566988     
  -3956019052.6175823       -31609071.267352581        8142318.8292670790     
  -3776526215.9612675       -31091764.397701979        14087152.207345253     
  -2818478582.9219923       -430020.04202210903        662471806.54544187     
  -2677381125.1260796       -1358622.5976721048        651706943.58988714     
  -2536881760.1995449       -4280868.0512597561        644092568.48915911     
  -2396980488.1423984       -9196756.4028044939        639628681.24326539     
  -2257677308.9546480       -16106287.652322769        638315281.85220861     
  -3061497413.6769123       -9147532.8794673681        502129957.47643179     
  -2911719721.5785980       -9845162.7425582409        491903827.69164592     
  -2762099871.2098465       -11068931.704214215        485151011.97098732     
  -2612637862.5706701       -12818839.764447093        481871510.31444132     
  -2463333695.6610713       -15094886.923259497        482065322.72201866     
  -3302178296.1017718       -17163661.217911363        340618565.39707577     
  -3142798009.1030836       -17353610.209041119        331444795.11285126     
  -2983135312.6941476       -16602194.499352336        326067165.10203445     
  -2823190206.8749819       -14909414.088898540        324485675.36462194     
  -2662962691.6455717       -12275268.977622747        326700325.90062320     
  -3540521230.1965499       -24478405.057302237        177937630.30737880     
  -3370615987.6995382       -23883964.997121096        170329845.85349968     
  -3199988084.6524582       -20880656.436731339        166841027.88231689     
  -3028637521.0553222       -15468479.376143575        167471176.39381900     
  -2856564296.9081383       -7647433.8153973818        172220291.38802809     
  -3776526215.9612675       -31091764.397701979        14087152.207345253     
  -3595173657.3679609       -29436227.106798649        8558979.9135857075     
  -3412658187.0847602       -23904317.516270876        7472600.3118237890     
  -3228979805.1117148       -14496035.626246691        10828013.402033396     
  -3044138511.4487782       -1211381.4365941286        18625219.184224933     
  -2257677308.9546480       -16106287.652322769        638315281.85220861     
  -2117461093.3827112       -22504838.637251735        625874353.46058667     
  -1976490475.4802623       -26388715.187141895        616359661.68612599     
  -1834765455.2473218       -27757917.302061558        609771206.52884424     
  -1692286032.6838825       -26612444.981974661        606108987.98872507     
  -2463333695.6610713       -15094886.923259497        482065322.72201866     
  -2314950234.9048824       -17513117.304491997        472073416.69071633     
  -2166320561.8980536       -19110640.183604836        464519234.81389803     
  -2017444676.6405969       -19887455.560604811        459402777.09155732     
  -1868322579.1324999       -19843563.435496211        456724043.52369940     
  -2662962691.6455717       -12275268.977622747        326700325.90062320     
  -2507807735.5985260       -11131903.723183990        318564553.80313766     
  -2352914757.3807154       -10861797.899528742        312377993.39744270     
  -2198283756.9921231       -11464951.506616831        308140644.68354225     
  -2043914734.4327772       -12941364.544499040        305852507.66143239     
  -2856564296.9081383       -7647433.8153973818        172220291.38802809     
  -2696033595.4636364       -3361197.8933210373        165347764.79785028     
  -2536273061.9282308       -1642188.3348890543        159935937.43676805     
  -2377282696.3019261       -2490405.1401350498        155984809.30479351     
  -2219062498.5847173       -5905848.3090291023        153494380.40192211     
  -3044138511.4487782       -1211381.4365941286        18625219.184224933     
  -2879627814.5002117        5799000.1851291656        12423049.674836760     
  -2716395475.5406179        8548188.5102660656        7193066.9318619724     
  -2554441494.5699763        7036183.5389000177        2935270.9553056918     
  -2393765871.5883026        1262985.2709740400       -350338.25483464188     
  -1692286032.6838825       -26612444.981974661        606108987.98872507     
  -1551323146.3899333       -26671577.894357979        592579416.25370407     
  -1411608933.4275625       -30892955.245350242        577856046.79408920     
  -1273143393.7967582       -39276577.034890652        561938879.60986447     
  -1135926527.4975426       -51822443.263060570        544827914.70102930     
  -1868322579.1324999       -19843563.435496211        456724043.52369940     
  -1730318738.4314263       -22927560.198627234        442962559.71644127     
  -1592424238.6707458       -26376026.763075352        428816730.22021061     
  -1454639079.8504736       -30188963.128887057        414286555.03500569     
  -1316963261.9705870       -34366369.295981824        399372034.16083270     
  -2043914734.4327772       -12941364.544499040        305852507.66143239     
  -1906557219.2227597       -18356409.127833724        293188332.90497172     
  -1768169712.5619719       -20338148.875254035        280949264.49516773     
  -1628752214.4503872       -18886583.786696494        269135302.43203157     
  -1488304724.8880208       -14001713.862189949        257746446.71555850     
  -2219062498.5847173       -5905848.3090291023        153494380.40192211     
  -2080038588.7639449       -12958124.682009816        143256735.81929570     
  -1938845355.1012092       -12779321.581788898        134253649.61896023     
  -1795482797.5965164       -5369439.0083738565        126485121.80093752     
  -1649950916.2498615        9271523.0382483006        119951152.36520468     
  -2393765871.5883026        1262985.2709740400       -350338.25483464188     
  -2250762847.0549574       -6732706.8611142635       -6832231.5405787956     
  -2104451166.2884874       -3699544.8827762604       -11270114.408395981     
  -1954830829.2888703        10362471.206048131       -13663986.858272428     
  -1801901836.0560982        35453341.405387640       -14013848.890218701     
  -1135926527.4975426       -51822443.263060570        544827914.70102930     
  -951240867.78255451       -40582585.401049972        563007234.94035089     
  -759013071.39615130       -4202271.9676610827        592113036.10102093     
  -559243138.33832204        57318497.037145197        632145318.18302929     
  -351931068.60909581        143979721.61328602        683104081.18638599     
  -1316963261.9705870       -34366369.295981824        399372034.16083270     
  -1117486603.7353196       -14647757.052428842        421252018.35190010     
  -914369330.07348597        17206239.946351647        441626577.16456109     
  -707611440.98508716        61195621.700341702        460495710.59881127     
  -497212936.47011352        117320388.20959014        477859418.65465379     
  -1488304724.8880208       -14001713.862189949        257746446.71555850     
  -1309556800.4174967        3539733.0773653984        278775320.07271671     
  -1131069781.7652352        20211493.956021667        285866861.75171381     
  -952843668.93125522        36013568.773757756        279021071.75255287     
  -774878461.91554964        50945957.530565351        258237950.07522944     
  -1649950916.2498615        9271523.0382483006        119951152.36520468     
  -1527451457.8290715        13979884.988341987        135577140.10279867     
  -1409114426.4713972        4813490.0613536239        124833889.86247921     
  -1294939822.1768317       -18227661.742655754        87721401.644251645     
  -1184927644.9454107       -55143570.423798561        24239675.448108867     
  -1801901836.0560982        35453341.405387640       -14013848.890218701     
  -1771170575.9700482        16672698.680504680       -8342521.5578384418     
  -1748503264.1919558       -28987771.737593293       -41472338.503136083     
  -1733899900.7218356       -101528069.84893233       -113403299.72608487     
  -1727360485.5596869       -200948195.65348703       -224135405.22670484     
  -351931068.60909581        143979721.61328602        683104081.18638599     
  -277863896.80507284        285179988.59562033        786416619.04363775     
  -149022919.83706763        608959606.12456799        905541767.44470763     
   34591862.294924915        1115318574.2001317        1040479526.3895823     
   272980449.59091145        1804256892.8223529        1191229895.8782661     
  -497212936.47011352        117320388.20959014        477859418.65465379     
  -388339872.69681692        223010458.16434056        597115023.95994914     
  -230345049.18437806        492439727.24955988        735526442.62723958     
  -23228465.932787120        925608195.46527624        893093674.65652180     
   233009877.05794460        1522515862.8114867        1069816720.0478003     
  -774878461.91554964        50945957.530565351        258237950.07522944     
  -621647498.12102294        123991432.87333894        386842569.83291101     
  -424946820.01221520        341935955.93039453        537946205.77076876     
  -184776427.58907825        704779526.70185399        711548857.88880777     
   98863679.148352802        1212522145.1876466        907650526.18701613     
  -1184927644.9454107       -55143570.423798561        24239675.448108867     
  -977786773.07770872       -11877087.277428329        155599256.66252929     
  -732828232.32054698        157448292.16714042        312801056.87531328     
  -450052022.67393506        452832567.90985858        495845076.08644772     
  -129458144.13785893        874275739.95082688        704731314.29594946     
  -1727360485.5596869       -200948195.65348703       -224135405.22670484     
  -1456757697.5668592       -184595102.28793502       -96614915.551199809     
  -1153989286.1094375       -61023264.040381253        60090995.940846920     
  -819055251.18736982        169767319.08928150        245982329.24945182     
  -451955592.80070877        507776647.10098922        461059084.37456417     
 </DataArray>
 <DataArray  type="Float64" Name="VM" NumberOfComponents="1" format="ascii">
   5620241588.6172123     
   5532530415.9098797     
   5442147129.2974758     
   5339397579.8592978     
   5218817886.0398674     
   5410894663.8339624     
   5301144575.9400835     
   5186165764.1262665     
   5060964184.4134626     
   4922539447.5189610     
   5176964822.6153030     
   5050823124.9963207     
   4920090327.5314627     
   4783169897.0293655     
   4639080112.4949198     
   4933081660.3776817     
   4793143585.8950739     
   4652907459.7454786     
   4512488210.0034304     
   4372058861.3002510     
   4701550066.1579485     
   4545045125.2565966     
   4397113064.2559786     
   4257413909.2331920     
   4125909928.6421604     
   5218817886.0398674     
   5032016112.3182726     
   4845772127.3994808     
   4660110515.4485521     
   4475077948.2712269     
   4922539447.5189610     
   4743713721.0311785     
   4565610960.5164042     
   4388287894.2617474     
   4211835396.3619690     
   4639080112.4949198     
   4469917895.6715441     
   4301857197.0655403     
   4135005825.9105473     
   3969524750.0499239     
   4372058861.3002510     
   4214357514.1632848     
   4058385941.1476526     
   3904324398.3077173     
   3752432028.2181339     
   4125909928.6421604     
   3981529518.6719804     
   3839786712.5452299     
   3700952871.9066272     
   3565408238.3655338     
   4475077948.2712269     
   4297293056.1603231     
   4119053366.0700827     
   3940334843.1401105     
   3761155863.6252708     
   4211835396.3619690     
   4043946296.6210155     
   3876266370.0348315     
   3708843719.2116508     
   3541780464.1052279     
   3969524750.0499239     
   3812041142.0268092     
   3655538183.3581176     
   3500143691.8535771     
   3346051649.0093007     
   3752432028.2181339     
   3605881650.9779563     
   3461181665.5898218     
   3318541267.4601822     
   3178246123.6903543     
   3565408238.3655338     
   3430287469.1028376     
   3297959848.4990706     
   3168707891.5597167     
   3042896052.6083131     
   3761155863.6252708     
   3580576983.1300569     
   3400793667.3254685     
   3221810833.1100073     
   3043703964.7347665     
   3541780464.1052279     
   3371669567.2463770     
   3202662903.6555147     
   3034827157.0976858     
   2868301268.0794568     
   3346051649.0093007     
   3186300132.7185693     
   3028003421.5054708     
   2871307364.7269578     
   2716437318.4286165     
   3178246123.6903543     
   3029100598.3773813     
   2881815267.7502298     
   2736631212.8000484     
   2593880863.6851869     
   3042896052.6083131     
   2904978451.7103472     
   2769384957.9605012     
   2636461671.5036521     
   2506659658.1063247     
   3043703964.7347665     
   2882611998.7132692     
   2720708167.1867518     
   2557971896.4565983     
   2394397690.9228115     
   2868301268.0794568     
   2709532467.4908805     
   2550540573.1536226     
   2391349536.4091773     
   2232005685.3980889     
   2716437318.4286165     
   2562373315.6517591     
   2409047318.3597326     
   2256597366.7502780     
   2105217600.2339909     
   2593880863.6851869     
   2446899923.8230171     
   2302008814.0029454     
   2159516017.0805154     
   2019836479.7958944     
   2506659658.1063247     
   2368892346.4626875     
   2234894095.4618602     
   2105152793.3463268     
   1980305200.2132273     
   2394397690.9228115     
   2247435212.5758848     
   2102694445.9137542     
   1960175488.0231993     
   1820049387.0231965     
   2232005685.3980889     
   2088382752.6359191     
   1946427399.4084022     
   1806140091.5184691     
   1667598987.1946330     
   2105217600.2339909     
   1964224538.9395757     
   1824191311.6941648     
   1685149947.9652426     
   1547161231.9720683     
   2019836479.7958944     
   1882419748.8008089     
   1745325239.2828786     
   1608686492.0701396     
   1472687373.4903243     
   1980305200.2132273     
   1849159196.8856533     
   1718062343.6542222     
   1587374546.0720334     
   1457621529.5901046     
   1820049387.0231965     
   1779624166.6450212     
   1735678140.3730381     
   1696837714.5988204     
   1681592843.4818866     
   1667598987.1946330     
   1552353204.5798600     
   1427991559.8884392     
   1294867869.1766610     
   1159101325.0378263     
   1547161231.9720683     
   1397402612.7397089     
   1244085026.7506552     
   1084933920.1358423     
   917915880.21927249     
   1472687373.4903243     
   1328526244.7660184     
   1198833718.9228933     
   1088085693.3613334     
   1002181053.7380571     
   1457621529.5901046     
   1348641450.1018546     
   1274646015.5530956     
   1243750933.2920053     
   1262992530.4169099     
   1681592843.4818866     
   1383947734.1120169     
   1129525432.0680847     
   1010070878.8081446     
   1152961367.3512094     
   1159101325.0378263     
   1008577297.9826678     
   985263030.86059713     
   1161460024.8105025     
   1544097882.6976335     
   917915880.21927249     
   963244503.18548596     
   1144972906.1632667     
   1476478406.2519734     
   1957446809.5856993     
   1002181053.7380571     
   1164810898.6799183     
   1425476840.6755269     
   1808767394.3121881     
   2334761307.8801951     
   1262992530.4169099     
   1446765527.0236354     
   1715752385.6667864     
   2110531711.8895218     
   2663535319.4309864     
   4701550066.1579485     
   4545045125.2565966     
   4397113064.2559786     
   4257413909.2331920     
   4125909928.6421604     
   4379127844.1589279     
   4242019865.1976223     
   4111802312.0956702     
   3988401406.3863902     
   3871924474.4356904     
   4084502594.1184225     
   3966374489.1484804     
   3853593726.7469292     
   3746299688.7197652     
   3644727398.7107449     
   3818117800.4640183     
   3719280243.5484443     
   3624478246.9807315     
   3533980348.7586727     
   3448109747.5663652     
   3580294455.2199426     
   3501819111.8568139     
   3426415716.5707779     
   3354361615.6163106     
   3286003299.6041389     
   4125909928.6421604     
   3981529518.6719804     
   3839786712.5452299     
   3700952871.9066272     
   3565408238.3655338     
   3871924474.4356904     
   3743179517.3938560     
   3617745884.9771576     
   3495958268.3215470     
   3378253538.8827920     
   3644727398.7107449     
   3531434424.0688033     
   3422099101.0457315     
   3317098284.6068764     
   3216898161.8166084     
   3448109747.5663652     
   3350072273.0145278     
   3256566336.8745179     
   3167983313.9798279     
   3084785558.8064284     
   3286003299.6041389     
   3202943836.8447628     
   3124862448.3041592     
   3052133494.8587723     
   2985180711.5281830     
   3565408238.3655338     
   3430287469.1028376     
   3297959848.4990706     
   3168707891.5597167     
   3042896052.6083131     
   3378253538.8827920     
   3255676120.7976470     
   3136567740.7512212     
   3021286508.5657845     
   2910279124.0204425     
   3216898161.8166084     
   3107793246.9572825     
   3002918332.8333974     
   2902696604.4460588     
   2807639749.8238616     
   3084785558.8064284     
   2990000159.8719530     
   2900248164.7918563     
   2815993942.7158027     
   2737781764.4686031     
   2985180711.5281830     
   2905340337.4019918     
   2831318354.2147336     
   2763585042.5359063     
   2702674509.8470435     
   3042896052.6083131     
   2904978451.7103472     
   2769384957.9605012     
   2636461671.5036521     
   2506659658.1063247     
   2910279124.0204425     
   2785160888.5065222     
   2663627749.7699351     
   2546169865.9850059     
   2433399236.5184379     
   2807639749.8238616     
   2696973705.0924916     
   2591264781.6867275     
   2491112781.2320681     
   2397235320.2039275     
   2737781764.4686031     
   2642746860.0257430     
   2554025348.6790080     
   2472260199.0284977     
   2398186549.0379901     
   2702674509.8470435     
   2623749570.1905212     
   2552348629.9886141     
   2489079190.4988160     
   2434603752.1119146     
   2506659658.1063247     
   2368892346.4626875     
   2234894095.4618602     
   2105152793.3463268     
   1980305200.2132273     
   2433399236.5184379     
   2309806549.3950267     
   2191249970.5765729     
   2078406494.6410675     
   1972110800.0856168     
   2397235320.2039275     
   2289853257.5140767     
   2188822488.9087424     
   2094930614.6058154     
   2009093547.8287756     
   2398186549.0379901     
   2308365473.4466305     
   2226061966.7663631     
   2152064709.6674871     
   2087236975.5227354     
   2434603752.1119146     
   2362830292.8561988     
   2299451675.1979084     
   2245163911.9927287     
   2200685231.9225464     
   1980305200.2132273     
   1849159196.8856533     
   1718062343.6542222     
   1587374546.0720334     
   1457621529.5901046     
   1972110800.0856168     
   1855769861.4315546     
   1743831378.2102869     
   1637228704.8380213     
   1537108398.7412913     
   2009093547.8287756     
   1912646743.9550509     
   1825008509.8585219     
   1747385869.9696045     
   1681077522.2775836     
   2087236975.5227354     
   2012209824.8692625     
   1949558342.6306288     
   1900361435.8313885     
   1865647398.9791615     
   2200685231.9225464     
   2145583771.7027507     
   2105409487.3379376     
   2080923651.5372944     
   2072799857.9621229     
   1457621529.5901046     
   1348641450.1018546     
   1274646015.5530956     
   1243750933.2920053     
   1262992530.4169099     
   1537108398.7412913     
   1476237289.6510792     
   1448051070.0789113     
   1456511183.3374968     
   1504913291.2941439     
   1681077522.2775836     
   1652534424.3311965     
   1651704890.2083035     
   1680956800.7926576     
   1742900491.6253910     
   1865647398.9791615     
   1855060914.5661578     
   1867445129.7946200     
   1905009299.1212592     
   1970784226.7415123     
   2072799857.9621229     
   2069206570.8349674     
   2084857539.5142794     
   2122384397.3496869     
   2185595253.5403562     
   1262992530.4169099     
   1446765527.0236354     
   1715752385.6667864     
   2110531711.8895218     
   2663535319.4309864     
   1504913291.2941439     
   1613312000.5494936     
   1788899518.8734846     
   2066424304.1016943     
   2476089176.7256789     
   1742900491.6253910     
   1787717688.1467769     
   1884668419.4307127     
   2060660820.3625596     
   2340924898.1302342     
   1970784226.7415123     
   1968940068.1738126     
   2003624065.5958412     
   2093510117.3921571     
   2257260410.4325056     
   2185595253.5403562     
   2156262965.0214243     
   2146507022.5535913     
   2166851614.0180140     
   2228370973.5568190     
   3580294455.2199426     
   3501819111.8568139     
   3426415716.5707779     
   3354361615.6163106     
   3286003299.6041389     
   3388585954.8331656     
   3317049637.8643804     
   3250462465.3072529     
   3189145444.3851085     
   3133490065.8941827     
   3223522859.2344122     
   3158800432.6591110     
   3101151600.5255265     
   3050888447.2665329     
   3008390252.7766995     
   3096339931.3891311     
   3036930258.5309196     
   2986957893.0195098     
   2946664753.8336406     
   2916351326.3140984     
   3019350250.6154017     
   2962064644.3790107     
   2916787681.3034143     
   2883642670.6198616     
   2862798007.5778151     
   3286003299.6041389     
   3202943836.8447628     
   3124862448.3041592     
   3052133494.8587723     
   2985180711.5281830     
   3133490065.8941827     
   3060701199.5382576     
   2993967985.0222588     
   2933675573.2690196     
   2880256485.4642773     
   3008390252.7766995     
   2946074374.3622952     
   2890987934.7830997     
   2843492135.9605050     
   2803989058.3746700     
   2916351326.3140984     
   2864009309.0798531     
   2820130495.7144537     
   2785015781.1019344     
   2758998141.3966856     
   2862798007.5778151     
   2819057936.5652409     
   2785044297.9092531     
   2760970034.0704031     
   2747071926.5477009     
   2985180711.5281830     
   2905340337.4019918     
   2831318354.2147336     
   2763585042.5359063     
   2702674509.8470435     
   2880256485.4642773     
   2813688647.1105576     
   2753810473.7534914     
   2701056630.3104968     
   2655906147.6532226     
   2803989058.3746700     
   2750148889.9943738     
   2703769524.8700128     
   2665216938.2571568     
   2634882365.9721384     
   2758998141.3966856     
   2716723718.0330038     
   2682556790.7099829     
   2656773100.8241982     
   2639658985.4252400     
   2747071926.5477009     
   2714562413.7724237     
   2690685707.5918140     
   2675622145.3612285     
   2669554283.5203252     
   2702674509.8470435     
   2623749570.1905212     
   2552348629.9886141     
   2489079190.4988160     
   2434603752.1119146     
   2655906147.6532226     
   2591653628.4264798     
   2535554624.1299601     
   2488132127.1154609     
   2449935945.4598498     
   2634882365.9721384     
   2584553061.1900492     
   2542845786.4204149     
   2510173887.3380523     
   2486956850.5788002     
   2639658985.4252400     
   2601995793.7894087     
   2573274597.2959881     
   2553793180.8147054     
   2543844420.0878277     
   2669554283.5203252     
   2642859159.8111773     
   2625318754.4684305     
   2617126007.4831862     
   2618466115.3260908     
   2434603752.1119146     
   2362830292.8561988     
   2299451675.1979084     
   2245163911.9927287     
   2200685231.9225464     
   2449935945.4598498     
   2393655073.0023394     
   2346686448.1238985     
   2309589558.0433154     
   2282909605.6424379     
   2486956850.5788002     
   2444982234.3817101     
   2412977900.1624069     
   2391348524.0802207     
   2380466891.5590801     
   2543844420.0878277     
   2514400916.1103368     
   2495398454.5015349     
   2487098471.5165186     
   2489729226.5250254     
   2618466115.3260908     
   2599366242.3173361     
   2591087279.0820532     
   2593775619.5601559     
   2607553091.3078785     
   2200685231.9225464     
   2145583771.7027507     
   2105409487.3379376     
   2080923651.5372944     
   2072799857.9621229     
   2282909605.6424379     
   2242367175.2096291     
   2215757305.1598086     
   2203529398.1007833     
   2206071469.9159713     
   2380466891.5590801     
   2351588149.3332443     
   2335628729.7965341     
   2332841130.8021159     
   2343448445.5258012     
   2489729226.5250254     
   2469904512.1462331     
   2462082364.7104144     
   2466402244.4942408     
   2483000712.1641159     
   2607553091.3078785     
   2594530693.5969739     
   2592751145.3729739     
   2602296480.6086063     
   2623264059.4952869     
   2072799857.9621229     
   2069206570.8349674     
   2084857539.5142794     
   2122384397.3496869     
   2185595253.5403562     
   2206071469.9159713     
   2191690454.4064522     
   2192304162.8304348     
   2209881667.0421457     
   2247340269.9966283     
   2343448445.5258012     
   2319079369.6889000     
   2306238920.7176275     
   2306332613.2514191     
   2321447748.3788772     
   2483000712.1641159     
   2450397784.0117803     
   2426342671.8579736     
   2411780984.6487565     
   2408089532.5076270     
   2623264059.4952869     
   2584863686.0857329     
   2552331141.2543654     
   2526248295.3037033     
   2507424529.9529142     
   2185595253.5403562     
   2156262965.0214243     
   2146507022.5535913     
   2166851614.0180140     
   2228370973.5568190     
   2247340269.9966283     
   2182632908.1613436     
   2134354367.1475728     
   2112169913.3671587     
   2127013051.6674495     
   2321447748.3788772     
   2224708440.7795196     
   2141300273.8909318     
   2079585429.9539762     
   2049731249.1129909     
   2408089532.5076270     
   2282783784.0612054     
   2167991567.1852918     
   2070448963.7205729     
   1998917587.6748912     
   2507424529.9529142     
   2357068782.9422040     
   2214898879.5483227     
   2085891376.5724180     
   1976914939.9441266     
   3019350250.6154017     
   2962064644.3790107     
   2916787681.3034143     
   2883642670.6198616     
   2862798007.5778151     
   2794553084.6275764     
   2764375701.7680902     
   2743438708.1368842     
   2731796232.4030766     
   2729515768.4733505     
   2622294722.3654132     
   2616442734.0359635     
   2616612465.3918505     
   2622818377.9201670     
   2635076857.3662977     
   2499178920.7655110     
   2515546172.1043320     
   2534396293.6662612     
   2555730183.5908980     
   2579548756.3649626     
   2419332779.5628524     
   2456642751.4554701     
   2492755392.1567016     
   2527670701.6665368     
   2561388679.9849792     
   2862798007.5778151     
   2819057936.5652409     
   2785044297.9092531     
   2760970034.0704031     
   2747071926.5477009     
   2729515768.4733505     
   2702068375.8501267     
   2683565439.7606936     
   2674123218.1754255     
   2673866400.7729020     
   2635076857.3662977     
   2621280898.5143685     
   2615448837.5513020     
   2617627891.2147789     
   2627867138.3481355     
   2579548756.3649626     
   2576680322.2134395     
   2580650531.0101919     
   2591469492.0059953     
   2609147449.9228544     
   2561388679.9849792     
   2566831633.4106827     
   2577907927.8305745     
   2594617563.2446547     
   2616960539.6529274     
   2747071926.5477009     
   2714562413.7724237     
   2690685707.5918140     
   2675622145.3612285     
   2669554283.5203252     
   2673866400.7729020     
   2652029473.1597176     
   2638664817.9925952     
   2633874967.6509295     
   2637761176.4830050     
   2627867138.3481355     
   2614613647.2376485     
   2609610571.9813418     
   2612902738.8146367     
   2624533483.8542371     
   2609147449.9228544     
   2602173811.2312632     
   2603204416.0995121     
   2612250033.3211708     
   2629320901.2872581     
   2616960539.6529274     
   2613873803.2156219     
   2618554887.8137355     
   2631003793.4472680     
   2651220520.1162252     
   2669554283.5203252     
   2642859159.8111773     
   2625318754.4684305     
   2617126007.4831862     
   2618466115.3260908     
   2637761176.4830050     
   2620995964.8935013     
   2613354158.4450226     
   2614944421.2571912     
   2625868331.1322927     
   2624533483.8542371     
   2615591503.3095608     
   2615727385.9322953     
   2624988792.2187414     
   2643419283.6242690     
   2629320901.2872581     
   2625912117.8274012     
   2631565143.3270869     
   2646291637.1670909     
   2670102070.0662341     
   2651220520.1162252     
   2650966835.2723827     
   2659823088.4891100     
   2677789279.7664008     
   2704865409.1042542     
   2618466115.3260908     
   2599366242.3173361     
   2591087279.0820532     
   2593775619.5601559     
   2607553091.3078785     
   2625868331.1322927     
   2614846605.3625407     
   2614112339.0527353     
   2623739279.2968502     
   2643786881.5750680     
   2643419283.6242690     
   2638696100.7278042     
   2643818466.3036036     
   2658815651.4477692     
   2683710567.7812743     
   2670102070.0662341     
   2669963758.1147304     
   2679344375.7327228     
   2698250472.5494490     
   2726687039.4581652     
   2704865409.1042542     
   2707698362.4460950     
   2719852029.5985880     
   2741326410.5617218     
   2772121505.3355007     
   2607553091.3078785     
   2594530693.5969739     
   2592751145.3729739     
   2602296480.6086063     
   2623264059.4952869     
   2643786881.5750680     
   2632803153.5097337     
   2632143630.6195273     
   2641848347.8010960     
   2661967716.4216795     
   2683710567.7812743     
   2674423739.5700788     
   2674724190.9878783     
   2684627267.1279182     
   2704153547.3021054     
   2726687039.4581652     
   2718927519.7498035     
   2720178261.1925855     
   2730442539.8572450     
   2749725062.2759809     
   2772121505.3355007     
   2765876312.6777797     
   2768204822.1694112     
   2779107033.8103709     
   2798582947.6006675     
   2623264059.4952869     
   2584863686.0857329     
   2552331141.2543654     
   2526248295.3037033     
   2507424529.9529142     
   2661967716.4216795     
   2616615789.9237480     
   2576913042.7152157     
   2543190628.8825331     
   2515911525.5490851     
   2704153547.3021054     
   2653946309.0115309     
   2609312001.8404346     
   2570398170.7900581     
   2537411646.9781623     
   2749725062.2759809     
   2696763314.8741317     
   2649440458.2497807     
   2607793143.9895530     
   2571872761.0928388     
   2798582947.6006675     
   2744966170.3248754     
   2697196326.7808847     
   2655273416.9686747     
   2619197440.8882618     
   2507424529.9529142     
   2357068782.9422040     
   2214898879.5483227     
   2085891376.5724180     
   1976914939.9441266     
   2515911525.5490851     
   2348067375.0327873     
   2183788849.8507566     
   2026173559.5073781     
   1879781509.2903714     
   2537411646.9781623     
   2357164425.8934193     
   2176657128.9625258     
   1997360214.2479618     
   1821549306.6186171     
   2571872761.0928388     
   2384462784.4088516     
   2193969948.3223028     
   2000772224.6722291     
   1805472934.8465159     
   2619197440.8882618     
   2429930553.3919978     
   2235869378.6330304     
   2037013916.6113796     
   1833364167.3270206     
   2419332779.5628524     
   2456642751.4554701     
   2492755392.1567016     
   2527670701.6665368     
   2561388679.9849792     
   2499178921.1479611     
   2515546172.2311320     
   2534396293.4931302     
   2555730183.0782428     
   2579548755.4777780     
   2622294721.8510981     
   2616442733.2050724     
   2616612464.2009640     
   2622818376.3286448     
   2635076855.3366113     
   2794553081.8125043     
   2764375698.7758384     
   2743438704.9590678     
   2731796229.0303631     
   2729515764.8956900     
   3019350244.1061912     
   2962064638.0139813     
   2916787675.1312828     
   2883642664.6879077     
   2862798001.9310184     
   2561388679.9849792     
   2566831633.4106827     
   2577907927.8305745     
   2594617563.2446547     
   2616960539.6529274     
   2579548755.4777780     
   2576680321.4802389     
   2580650530.3678679     
   2591469491.3925972     
   2609147449.2777977     
   2635076855.3366113     
   2621280896.8492508     
   2615448836.1297197     
   2617627889.9170752     
   2627867137.0562763     
   2729515764.8956900     
   2702068372.9235940     
   2683565437.3137555     
   2674123216.0367413     
   2673866398.7712922     
   2862798001.9310184     
   2819057931.9435906     
   2785044294.1001973     
   2760970030.8590317     
   2747071923.7159071     
   2616960539.6529274     
   2613873803.2156219     
   2618554887.8137355     
   2631003793.4472680     
   2651220520.1162252     
   2609147449.2777977     
   2602173810.7255020     
   2603204415.6971869     
   2612250032.9866328     
   2629320900.9849606     
   2627867137.0562763     
   2614613646.2367558     
   2609610571.1992092     
   2612902738.1791158     
   2624533483.2930918     
   2673866398.7712922     
   2652029471.6269894     
   2638664816.8204732     
   2633874966.7303138     
   2637761175.7036924     
   2747071923.7159071     
   2714562411.6255417     
   2690685705.9868765     
   2675622144.1525278     
   2669554282.5588632     
   2651220520.1162252     
   2650966835.2723827     
   2659823088.4891100     
   2677789279.7664008     
   2704865409.1042542     
   2629320900.9849606     
   2625912117.6353917     
   2631565143.2379780     
   2646291637.1729393     
   2670102070.1584511     
   2624533483.2930918     
   2615591502.9592786     
   2615727385.7774949     
   2624988792.2429523     
   2643419283.8097658     
   2637761175.7036924     
   2620995964.4176221     
   2613354158.2487650     
   2614944421.3150806     
   2625868331.4169564     
   2669554282.5588632     
   2642859159.2399764     
   2625318754.2549572     
   2617126007.5925393     
   2618466115.7207055     
   2704865409.1042542     
   2707698362.4460950     
   2719852029.5985880     
   2741326410.5617218     
   2772121505.3355007     
   2670102070.1584511     
   2669963758.1774397     
   2679344375.7702966     
   2698250472.5663781     
   2726687039.4590554     
   2643419283.8097658     
   2638696100.8514147     
   2643818466.3741155     
   2658815651.4742761     
   2683710567.7731638     
   2625868331.4169564     
   2614846605.5485859     
   2614112339.1535053     
   2623739279.3262396     
   2643786881.5475793     
   2618466115.7207055     
   2599366242.5709424     
   2591087279.2125821     
   2593775619.5865974     
   2607553091.2502589     
   2772121505.3355007     
   2765876312.6777797     
   2768204822.1694112     
   2779107033.8103709     
   2798582947.6006675     
   2726687039.4590554     
   2718927519.7453289     
   2720178261.1824040     
   2730442539.8410864     
   2749725062.2536421     
   2683710567.7731638     
   2674423739.5538788     
   2674724190.9629874     
   2684627267.0938616     
   2704153547.2584825     
   2643786881.5475793     
   2632803153.4741611     
   2632143630.5750923     
   2641848347.7471433     
   2661967716.3576584     
   2607553091.2502589     
   2594530693.5340481     
   2592751145.3038588     
   2602296480.5325217     
   2623264059.4115992     
   2798582947.6006675     
   2744966170.3248754     
   2697196326.7808847     
   2655273416.9686747     
   2619197440.8882618     
   2749725062.2536421     
   2696763314.8544874     
   2649440458.2326283     
   2607793143.9747238     
   2571872761.0802851     
   2704153547.2584825     
   2653946308.9729037     
   2609312001.8063436     
   2570398170.7601876     
   2537411646.9523363     
   2661967716.3576584     
   2616615789.8666501     
   2576913042.6643252     
   2543190628.8373671     
   2515911525.5092731     
   2623264059.4115992     
   2584863686.0105324     
   2552331141.1867099     
   2526248295.2428808     
   2507424529.8983750     
   2619197440.8882618     
   2429930553.3919978     
   2235869378.6330304     
   2037013916.6113796     
   1833364167.3270206     
   2571872761.0802851     
   2384462784.4007983     
   2193969948.3196330     
   2000772224.6763842     
   1805472934.8598363     
   2537411646.9523363     
   2357164425.8764167     
   2176657128.9560108     
   1997360214.2546313     
   1821549306.6426556     
   2515911525.5092731     
   2348067375.0059314     
   2183788849.8391075     
   2026173559.5145719     
   1879781509.3216882     
   2507424529.8983750     
   2357068782.9044914     
   2214898879.5301580     
   2085891376.5779617     
   1976914939.9790499     
   3019350244.1061912     
   2962064638.0139813     
   2916787675.1312828     
   2883642664.6879077     
   2862798001.9310184     
   3096339927.6143694     
   3036930254.5427914     
   2986957888.8979268     
   2946664749.6581535     
   2916351322.1611929     
   3223522857.5783772     
   3158800430.5632610     
   3101151598.1016068     
   3050888444.6282282     
   3008390250.0347500     
   3388585955.0891099     
   3317049637.5500698     
   3250462464.5666742     
   3189145443.3680758     
   3133490064.7490768     
   3580294457.5328012     
   3501819113.5297890     
   3426415717.7817488     
   3354361616.5543504     
   3286003300.4597030     
   2862798001.9310184     
   2819057931.9435906     
   2785044294.1001973     
   2760970030.8590317     
   2747071923.7159071     
   2916351322.1611929     
   2864009305.5138960     
   2820130492.6073084     
   2785015778.3200150     
   2758998138.8001781     
   3008390250.0347500     
   2946074371.8447804     
   2890987932.4328179     
   2843492133.7132540     
   2803989056.1588159     
   3133490064.7490768     
   3060701198.2896729     
   2993967983.6704965     
   2933675571.8076820     
   2880256483.8804498     
   3286003300.4597030     
   3202943837.2682638     
   3124862448.3407578     
   3052133494.5488658     
   2985180710.9083705     
   2747071923.7159071     
   2714562411.6255417     
   2690685705.9868765     
   2675622144.1525278     
   2669554282.5588632     
   2758998138.8001781     
   2716723715.9411979     
   2682556789.0371037     
   2656773099.4811654     
   2639658984.3192301     
   2803989056.1588159     
   2750148888.1030879     
   2703769523.2666478     
   2665216936.9022694     
   2634882364.8233519     
   2880256483.8804498     
   2813688645.6516070     
   2753810472.4232054     
   2701056629.1113687     
   2655906146.5869279     
   2985180710.9083705     
   2905340336.6723833     
   2831318353.4106169     
   2763585041.6932998     
   2702674509.0041595     
   2669554282.5588632     
   2642859159.2399764     
   2625318754.2549572     
   2617126007.5925393     
   2618466115.7207055     
   2639658984.3192301     
   2601995793.0721149     
   2573274596.9590840     
   2553793180.8480477     
   2543844420.4790974     
   2634882364.8233519     
   2584553060.3933978     
   2542845785.9893818     
   2510173887.2858276     
   2486956850.9179554     
   2655906146.5869279     
   2591653627.6353655     
   2535554623.6456738     
   2488132126.9718952     
   2449935945.6931047     
   2702674509.0041595     
   2623749569.5032649     
   2552348629.5017943     
   2489079190.2627192     
   2434603752.1829290     
   2618466115.7207055     
   2599366242.5709424     
   2591087279.2125821     
   2593775619.5865974     
   2607553091.2502589     
   2543844420.4790974     
   2514400916.3651013     
   2495398454.6315045     
   2487098471.5343232     
   2489729226.4442925     
   2486956850.9179554     
   2444982234.5981550     
   2412977900.2627940     
   2391348524.0717802     
   2380466891.4497380     
   2449935945.6931047     
   2393655073.1365185     
   2346686448.1619682     
   2309589557.9882793     
   2282909605.4973783     
   2434603752.1829290     
   2362830292.8613739     
   2299451675.1381941     
   2245163911.8684077     
   2200685231.7330647     
   2607553091.2502589     
   2594530693.5340481     
   2592751145.3038588     
   2602296480.5325217     
   2623264059.4115992     
   2489729226.4442925     
   2469904512.0674472     
   2462082364.6312909     
   2466402244.4125643     
   2483000712.0777225     
   2380466891.4497380     
   2351588149.2344089     
   2335628729.7045512     
   2332841130.7132154     
   2343448445.4362121     
   2282909605.4973783     
   2242367175.0852981     
   2215757305.0512109     
   2203529398.0025587     
   2206071469.8225408     
   2200685231.7330647     
   2145583771.5461311     
   2105409487.2079742     
   2080923651.4270511     
   2072799857.8640604     
   2623264059.4115992     
   2584863686.0105324     
   2552331141.1867099     
   2526248295.2428808     
   2507424529.8983750     
   2483000712.0777225     
   2450397783.9333372     
   2426342671.7865992     
   2411780984.5839047     
   2408089532.4489927     
   2343448445.4362121     
   2319079369.6067619     
   2306238920.6421194     
   2306332613.1821055     
   2321447748.3156919     
   2206071469.8225408     
   2191690454.3200750     
   2192304162.7502770     
   2209881666.9678698     
   2247340269.9282951     
   2072799857.8640604     
   2069206570.7437031     
   2084857539.4289029     
   2122384397.2699177     
   2185595253.4663520     
   2507424529.8983750     
   2357068782.9044914     
   2214898879.5301580     
   2085891376.5779617     
   1976914939.9790499     
   2408089532.4489927     
   2282783784.0222383     
   2167991567.1686759     
   2070448963.7300594     
   1998917587.7153032     
   2321447748.3156919     
   2224708440.7379942     
   2141300273.8735013     
   2079585429.9637892     
   2049731249.1533687     
   2247340269.9282951     
   2182632908.1159172     
   2134354367.1270516     
   2112169913.3737454     
   2127013051.7029502     
   2185595253.4663520     
   2156262964.9707732     
   2146507022.5277636     
   2166851614.0181317     
   2228370973.5830550     
   3580294457.5328012     
   3501819113.5297890     
   3426415717.7817488     
   3354361616.5543504     
   3286003300.4597030     
   3818117800.7195630     
   3719280243.9161406     
   3624478247.5531859     
   3533980349.6245837     
   3448109748.8101263     
   4084502593.0771527     
   3966374488.9138350     
   3853593727.2509375     
   3746299689.9025412     
   3644727400.5185723     
   4379127842.1727324     
   4242019864.7041426     
   4111802312.8129373     
   3988401408.0728617     
   3871924476.8783708     
   4701550063.2033024     
   4545045124.5251541     
   4397113065.2150469     
   4257413911.4371433     
   4125909931.7041636     
   3286003300.4597030     
   3202943837.2682638     
   3124862448.3407578     
   3052133494.5488658     
   2985180710.9083705     
   3448109748.8101263     
   3350072273.9192586     
   3256566337.4618764     
   3167983314.2663627     
   3084785558.8045483     
   3644727400.5185723     
   3531434425.5876389     
   3422099102.2724738     
   3317098285.5324659     
   3216898162.4269977     
   3871924476.8783708     
   3743179519.5710430     
   3617745886.8611345     
   3495958269.8772454     
   3378253540.0686564     
   4125909931.7041636     
   3981529521.4796462     
   3839786715.0476127     
   3700952874.0435719     
   3565408240.0683579     
   2985180710.9083705     
   2905340336.6723833     
   2831318353.4106169     
   2763585041.6932998     
   2702674509.0041595     
   3084785558.8045483     
   2990000159.7076740     
   2900248164.4889383     
   2815993942.2989650     
   2737781763.9650006     
   3216898162.4269977     
   3107793247.3421311     
   3002918333.0061502     
   2902696604.4209709     
   2807639749.6173391     
   3378253540.0686564     
   3255676121.6899471     
   3136567741.3545027     
   3021286508.8849816     
   2910279124.0620089     
   3565408240.0683579     
   3430287470.4437156     
   3297959849.4752369     
   3168707892.1682410     
   3042896052.8469052     
   2702674509.0041595     
   2623749569.5032649     
   2552348629.5017943     
   2489079190.2627192     
   2434603752.1829290     
   2737781763.9650006     
   2642746859.5907516     
   2554025348.3502927     
   2472260198.8494782     
   2398186549.0587916     
   2807639749.6173391     
   2696973704.8758092     
   2591264781.4912114     
   2491112781.0946121     
   2397235320.1681380     
   2910279124.0620089     
   2785160888.4698753     
   2663627749.6812496     
   2546169865.8753972     
   2433399236.4251137     
   3042896052.8469052     
   2904978451.8146420     
   2769384957.9529815     
   2636461671.4109421     
   2506659657.9601088     
   2434603752.1829290     
   2362830292.8613739     
   2299451675.1381941     
   2245163911.8684077     
   2200685231.7330647     
   2398186549.0587916     
   2308365473.4179964     
   2226061966.6894503     
   2152064709.5424356     
   2087236975.3484917     
   2397235320.1681380     
   2289853257.4473720     
   2188822488.8130879     
   2094930614.4819102     
   2009093547.6758056     
   2433399236.4251137     
   2309806549.2907758     
   2191249970.4646864     
   2078406494.5235524     
   1972110799.9628258     
   2506659657.9601088     
   2368892346.3263335     
   2234894095.3403993     
   2105152793.2436051     
   1980305200.1316512     
   2200685231.7330647     
   2145583771.5461311     
   2105409487.2079742     
   2080923651.4270511     
   2072799857.8640604     
   2087236975.3484917     
   2012209824.7248993     
   1949558342.5120897     
   1900361435.7338872     
   1865647398.8971934     
   2009093547.6758056     
   1912646743.8270879     
   1825008509.7533133     
   1747385869.8843858     
   1681077522.2090211     
   1972110799.9628258     
   1855769861.3266540     
   1743831378.1224017     
   1637228704.7660773     
   1537108398.6840684     
   1980305200.1316512     
   1849159196.8127081     
   1718062343.5898521     
   1587374546.0163312     
   1457621529.5434368     
   2072799857.8640604     
   2069206570.7437031     
   2084857539.4289029     
   2122384397.2699177     
   2185595253.4663520     
   1865647398.8971934     
   1855060914.4889300     
   1867445129.7212749     
   1905009299.0514951     
   1970784226.6754365     
   1681077522.2090211     
   1652534424.2658362     
   1651704890.1453650     
   1680956800.7317960     
   1742900491.5667155     
   1537108398.6840684     
   1476237289.5958474     
   1448051070.0249891     
   1456511183.2845500     
   1504913291.2423127     
   1457621529.5434368     
   1348641450.0560646     
   1274646015.5075212     
   1243750933.2463441     
   1262992530.3714480     
   2185595253.4663520     
   2156262964.9707732     
   2146507022.5277636     
   2166851614.0181317     
   2228370973.5830550     
   1970784226.6754365     
   1968940068.1290116     
   2003624065.5740440     
   2093510117.3944368     
   2257260410.4580803     
   1742900491.5667155     
   1787717688.1068888     
   1884668419.4113286     
   2060660820.3642731     
   2340924898.1512876     
   1504913291.2423127     
   1613312000.5135691     
   1788899518.8549850     
   2066424304.1005869     
   2476089176.7392740     
   1262992530.3714480     
   1446765526.9908743     
   1715752385.6478598     
   2110531711.8837166     
   2663535319.4350762     
   4701550063.2033024     
   4545045124.5251541     
   4397113065.2150469     
   4257413911.4371433     
   4125909931.7041636     
   4933081658.7555914     
   4793143585.7173872     
   4652907460.8151131     
   4512488212.0978994     
   4372058864.1789694     
   5176964821.9204483     
   5050823125.0874100     
   4920090328.3970814     
   4783169898.5865269     
   4639080114.6142864     
   5410894663.9096117     
   5301144576.1550541     
   5186165764.5415745     
   5060964185.0262117     
   4922539448.2838850     
   5620241589.4341087     
   5532530416.1734304     
   5442147129.0535574     
   5339397579.1395874     
   5218817884.8559341     
   4125909931.7041636     
   3981529521.4796462     
   3839786715.0476127     
   3700952874.0435719     
   3565408240.0683579     
   4372058864.1789694     
   4214357516.8638215     
   4058385943.6164765     
   3904324400.4841595     
   3752432030.0335598     
   4639080114.6142864     
   4469917897.7312441     
   4301857199.0192051     
   4135005827.7069607     
   3969524751.6314278     
   4922539448.2838850     
   4743713721.9004898     
   4565610961.4588623     
   4388287895.2434530     
   4211835397.3445845     
   5218817884.8559341     
   5032016111.4494009     
   4845772126.8363276     
   4660110515.1808701     
   4475077948.2862883     
   3565408240.0683579     
   3430287470.4437156     
   3297959849.4752369     
   3168707892.1682410     
   3042896052.8469052     
   3752432030.0335598     
   3605881652.4832954     
   3461181666.7663236     
   3318541268.2871594     
   3178246124.1448936     
   3969524751.6314278     
   3812041143.4143310     
   3655538184.5286770     
   3500143692.7819057     
   3346051649.6665230     
   4211835397.3445845     
   4043946297.5950294     
   3876266370.9826107     
   3708843720.1144161     
   3541780464.9410625     
   4475077948.2862883     
   4297293056.4243164     
   4119053366.5779214     
   3940334843.8880486     
   3761155864.6085935     
   3042896052.8469052     
   2904978451.8146420     
   2769384957.9529815     
   2636461671.4109421     
   2506659657.9601088     
   3178246124.1448936     
   3029100598.6649890     
   2881815267.8826070     
   2736631212.7917581     
   2593880863.5543485     
   3346051649.6665230     
   3186300133.1977611     
   3028003421.8109465     
   2871307364.8649597     
   2716437318.4077148     
   3541780464.9410625     
   3371669567.9167905     
   3202662904.1608734     
   3034827157.4398217     
   2868301268.2616773     
   3761155864.6085935     
   3580576983.9850707     
   3400793668.0516572     
   3221810833.7082019     
   3043703965.2069254     
   2506659657.9601088     
   2368892346.3263335     
   2234894095.3403993     
   2105152793.2436051     
   1980305200.1316512     
   2593880863.5543485     
   2446899923.6961207     
   2302008813.8897333     
   2159516016.9907966     
   2019836479.7396507     
   2716437318.4077148     
   2562373315.6116705     
   2409047318.3109360     
   2256597366.7038436     
   2105217600.2019069     
   2868301268.2616773     
   2709532467.6130753     
   2550540573.2236981     
   2391349536.4353261     
   2232005685.3891101     
   3043703965.2069254     
   2882611999.0670743     
   2720708167.4250474     
   2557971896.5816660     
   2394397690.9363565     
   1980305200.1316512     
   1849159196.8127081     
   1718062343.5898521     
   1587374546.0163312     
   1457621529.5434368     
   2019836479.7396507     
   1882419748.7481401     
   1745325239.2338855     
   1608686492.0250633     
   1472687373.4496262     
   2105217600.2019069     
   1964224538.9057744     
   1824191311.6588087     
   1685149947.9285903     
   1547161231.9344571     
   2232005685.3891101     
   2088382752.6194956     
   1946427399.3846931     
   1806140091.4876432     
   1667598987.1568096     
   2394397690.9363565     
   2247435212.5756550     
   2102694445.8999159     
   1960175487.9957812     
   1820049386.9821198     
   1457621529.5434368     
   1348641450.0560646     
   1274646015.5075212     
   1243750933.2463441     
   1262992530.3714480     
   1472687373.4496262     
   1328526244.7277269     
   1198833718.8864911     
   1088085693.3262897     
   1002181053.7040087     
   1547161231.9344571     
   1397402612.7061713     
   1244085026.7211235     
   1084933920.1102171     
   917915880.19740868     
   1667598987.1568096     
   1552353204.5477057     
   1427991559.8623502     
   1294867869.1571319     
   1159101325.0256846     
   1820049386.9821198     
   1779624166.6110618     
   1735678140.3469243     
   1696837714.5812118     
   1681592843.4735491     
   1262992530.3714480     
   1446765526.9908743     
   1715752385.6478598     
   2110531711.8837166     
   2663535319.4350762     
   1002181053.7040087     
   1164810898.6554513     
   1425476840.6616299     
   1808767394.3080733     
   2334761307.8831401     
   917915880.19740868     
   963244503.16887593     
   1144972906.1538897     
   1476478406.2495332     
   1957446809.5878873     
   1159101325.0256846     
   1008577297.9733137     
   985263030.85525358     
   1161460024.8096042     
   1544097882.6994295     
   1681592843.4735491     
   1383947734.1066012     
   1129525432.0655968     
   1010070878.8087114     
   1152961367.3531220     
 </DataArray>
 <DataArray  type="Float64" Name="strain" NumberOfComponents="3" format="ascii">
   9.5661036017770096E-002  -1.6122384620024466E-002   1.5673563241515032E-003
   9.3550765082175413E-002  -2.0723476884017988E-002   1.6477919803100649E-003
   9.1440494146580731E-002  -2.3744240619966078E-002   1.3645403236317022E-003
   8.9330223210986159E-002  -2.5184675827868826E-002   7.1760135411561010E-004
   8.7219952275391477E-002  -2.5044782507726238E-002  -2.9302492823779502E-004
   9.1680115969377196E-002  -1.8486386162016588E-002   5.4741074095301379E-003
   8.9281538566673868E-002  -2.1447601895941470E-002   6.2303522242850851E-003
   8.6882961163970540E-002  -2.3314780702428844E-002   6.7736714176598878E-003
   8.4484383761267212E-002  -2.4087922581478537E-002   7.1040649896550456E-003
   8.2085806358563940E-002  -2.3767027533090346E-002   7.2215329402700590E-003
   8.6962441506110266E-002  -2.0850387704008544E-002   1.1263880825280931E-002
   8.4426319327755572E-002  -2.2171726907865119E-002   1.2209643198024395E-002
   8.1890197149400989E-002  -2.2885320784891763E-002   1.3093241640845174E-002
   7.9354074971046434E-002  -2.2991169335088022E-002   1.3914676153743526E-002
   7.6817952792691852E-002  -2.2489272558454565E-002   1.4673946736719151E-002
   8.1508012627969140E-002  -2.3214389246000583E-002   1.8936676571404180E-002
   7.8985107365420623E-002  -2.2895851919788740E-002   1.9585664901528389E-002
   7.6462202102872176E-002  -2.2455860867354439E-002   2.0323250993187391E-002
   7.3939296840323659E-002  -2.1894416088697841E-002   2.1149434846381328E-002
   7.1416391577775212E-002  -2.1211517583818729E-002   2.2064216461109933E-002
   7.5316829334954150E-002  -2.5578390787992678E-002   2.8492494647899436E-002
   7.2957902679669118E-002  -2.3619976931712416E-002   2.8358417334796993E-002
   7.0598976024384003E-002  -2.2026400949817296E-002   2.8463699474686660E-002
   6.8240049369098985E-002  -2.0797662842307458E-002   2.8808341067568424E-002
   6.5881122713813939E-002  -1.9933762609182948E-002   2.9392342113442438E-002
   8.7219952275391477E-002  -2.5044782507726238E-002  -2.9302492823779502E-004
   8.4100586144366218E-002  -2.4137135256511399E-002  -2.1862076420148258E-004
   8.0981220013340904E-002  -2.3274308671197813E-002  -3.1514801241583346E-005
   7.7861853882315563E-002  -2.2456302751785749E-002   2.6829296064201369E-004
   7.4742487751290332E-002  -2.1683117498275117E-002   6.8080252144941955E-004
   8.2085806358563940E-002  -2.3767027533090346E-002   7.2215329402700590E-003
   7.9093971792168288E-002  -2.2913203349847061E-002   7.1405595591529092E-003
   7.6102137225772692E-002  -2.2087557824331028E-002   7.2019475083719420E-003
   7.3110302659377083E-002  -2.1290090956542329E-002   7.4056967879266161E-003
   7.0118468092981445E-002  -2.0520802746481159E-002   7.7518073978162794E-003
   7.6817952792691852E-002  -2.2489272558454565E-002   1.4673946736719151E-002
   7.3983309322337709E-002  -2.1689271443182667E-002   1.4454237818623400E-002
   7.1148665851983664E-002  -2.0900806977464034E-002   1.4406549762274734E-002
   6.8314022381629508E-002  -2.0123879161298912E-002   1.4530882567673938E-002
   6.5479378911275476E-002  -1.9358487994687479E-002   1.4827236234820212E-002
   7.1416391577775212E-002  -2.1211517583818729E-002   2.2064216461109933E-002
   6.8768598734874453E-002  -2.0465339536518301E-002   2.1722414014208949E-002
   6.6120805891973763E-002  -1.9714056130597256E-002   2.1582291960467164E-002
   6.3473013049073018E-002  -1.8957667366055718E-002   2.1643850299884859E-002
   6.0825220206172356E-002  -1.8196173242893715E-002   2.1907089032461892E-002
   6.5881122713813939E-002  -1.9933762609182948E-002   2.9392342113442438E-002
   6.3449840029778437E-002  -1.9241407629853824E-002   2.8945088145910208E-002
   6.1018557345743005E-002  -1.8527305283730366E-002   2.8729174102949256E-002
   5.8587274661707565E-002  -1.7791455570812298E-002   2.8744599984559374E-002
   5.6155991977672071E-002  -1.7033858491099896E-002   2.8991365790740742E-002
   7.4742487751290332E-002  -2.1683117498275117E-002   6.8080252144941955E-004
   7.1753527003638240E-002  -2.0912618651877268E-002   3.8801344437255914E-004
   6.8764566255986093E-002  -2.0102671953804968E-002   2.7869054424406459E-004
   6.5775605508333945E-002  -1.9253277404057488E-002   3.5283382106451877E-004
   6.2786644760681853E-002  -1.8364435002635515E-002   6.1044327483283922E-004
   7.0118468092981445E-002  -2.0520802746481159E-002   7.7518073978162794E-003
   6.7310424852295936E-002  -1.9752767959304529E-002   7.4739599591766570E-003
   6.4502381611610454E-002  -1.8959061360169616E-002   7.3744813575221391E-003
   6.1694338370924931E-002  -1.8139682949076100E-002   7.4533715928520594E-003
   5.8886295130239463E-002  -1.7294632726024384E-002   7.7106306651671952E-003
   6.5479378911275476E-002  -1.9358487994687479E-002   1.4827236234820212E-002
   6.2847155837592816E-002  -1.8592917266731596E-002   1.4550554394902188E-002
   6.0214932763910156E-002  -1.7815450766534055E-002   1.4447144052004937E-002
   5.7582709690227440E-002  -1.7026088494094493E-002   1.4517005206128343E-002
   5.4950486616544808E-002  -1.6224830449413585E-002   1.4760137857272870E-002
   6.0825220206172356E-002  -1.8196173242893715E-002   2.1907089032461892E-002
   5.8363719959528756E-002  -1.7433066574158759E-002   2.1617796751548041E-002
   5.5902219712885101E-002  -1.6671840172898710E-002   2.1496678627691602E-002
   5.3440719466241501E-002  -1.5912494039113219E-002   2.1543734660892072E-002
   5.0979219219597846E-002  -1.5155028172802398E-002   2.1758964851149629E-002
   5.6155991977672071E-002  -1.7033858491099896E-002   2.8991365790740742E-002
   5.3860117218103687E-002  -1.6273215881586034E-002   2.8675687029115215E-002
   5.1564242458535359E-002  -1.5528229579263267E-002   2.8523085084582872E-002
   4.9268367698967003E-002  -1.4798899584131695E-002   2.8533559957143781E-002
   4.6972492939398647E-002  -1.4085225896191433E-002   2.8707111646798067E-002
   6.2786644760681853E-002  -1.8364435002635515E-002   6.1044327483283922E-004
   5.9772379806065312E-002  -1.7485264498613540E-002   3.7088913576344140E-004
   5.6758114851448715E-002  -1.6664885641065885E-002   3.2381268100517557E-004
   5.3743849896832119E-002  -1.5903298429992954E-002   4.6921391055720907E-004
   5.0729584942215578E-002  -1.5200502865394538E-002   8.0709282442015251E-004
   5.8886295130239463E-002  -1.7294632726024384E-002   7.7106306651671952E-003
   5.6057513291876471E-002  -1.6455013849676070E-002   7.3809599988691188E-003
   5.3228731453513506E-002  -1.5651929478693483E-002   7.2297778807668966E-003
   5.0399949615150499E-002  -1.4885379613076136E-002   7.2570843108614724E-003
   4.7571167776787548E-002  -1.4155364252824265E-002   7.4628792891526796E-003
   5.4950486616544808E-002  -1.6224830449413585E-002   1.4760137857272870E-002
   5.2293198758321335E-002  -1.5424763200739211E-002   1.4362607804854072E-002
   4.9635910900097752E-002  -1.4638973316321496E-002   1.4129577164518015E-002
   4.6978623041874251E-002  -1.3867460796159976E-002   1.4061045936264296E-002
   4.4321335183650779E-002  -1.3110225640254547E-002   1.4157014120093125E-002
   5.0979219219597846E-002  -1.5155028172802398E-002   2.1758964851149629E-002
   4.8479436205399740E-002  -1.4394512551802491E-002   2.1315832553720326E-002
   4.5979653191201571E-002  -1.3626017153949413E-002   2.1023210532259091E-002
   4.3479870177003388E-002  -1.2849541979243598E-002   2.0881098786766011E-002
   4.0980087162805247E-002  -1.2065087027684551E-002   2.0889497317241573E-002
   4.6972492939398647E-002  -1.4085225896191433E-002   2.8707111646798067E-002
   4.4616225633111739E-002  -1.3364261902865548E-002   2.8240634245466967E-002
   4.2259958326824804E-002  -1.2613060991577441E-002   2.7910677983989829E-002
   3.9903691020537937E-002  -1.1831623162327332E-002   2.7717242862367153E-002
   3.7547423714251016E-002  -1.1019948415114666E-002   2.7660328880598328E-002
   5.0729584942215578E-002  -1.5200502865394538E-002   8.0709282442015251E-004
   4.8022791903149953E-002  -1.4494789074805725E-002   5.3833214905085747E-004
   4.5315998864084328E-002  -1.3724447185761601E-002   3.1169956541965416E-004
   4.2609205825018676E-002  -1.2889477198262389E-002   1.2719507352670911E-004
   3.9902412785953079E-002  -1.1989879112308088E-002  -1.5181326627589087E-005
   4.7571167776787548E-002  -1.4155364252824265E-002   7.4628792891526796E-003
   4.4917087266376943E-002  -1.3424148011853099E-002   7.1650698056209272E-003
   4.2263006755966281E-002  -1.2653995504077198E-002   6.9305572876611210E-003
   3.9608926245555620E-002  -1.1844906729497617E-002   6.7593417352730389E-003
   3.6954845735144959E-002  -1.0996881688113413E-002   6.6514231484561259E-003
   4.4321335183650779E-002  -1.3110225640254547E-002   1.4157014120093125E-002
   4.1741136075728547E-002  -1.2353506948900583E-002   1.3804463996748062E-002
   3.9160936967806273E-002  -1.1583543822393016E-002   1.3536379712808355E-002
   3.6580737859884076E-002  -1.0800336260732624E-002   1.3352761268273547E-002
   3.4000538751961795E-002  -1.0003884263918961E-002   1.3253608663143845E-002
   4.0980087162805247E-002  -1.2065087027684551E-002   2.0889497317241573E-002
   3.8494938331204889E-002  -1.1282865885947790E-002   2.0456514722432262E-002
   3.6009789499604455E-002  -1.0513092140708724E-002   2.0129166840861724E-002
   3.3524640668004056E-002  -9.7557657919679630E-003   1.9907453672529926E-002
   3.1039491836403733E-002  -9.0108868397245079E-003   1.9791375217435889E-002
   3.7547423714251016E-002  -1.1019948415114666E-002   2.7660328880598328E-002
   3.5178494032805874E-002  -1.0212224822995219E-002   2.7121221982673804E-002
   3.2809564351360732E-002  -9.4426404590245983E-003   2.6708918671821291E-002
   3.0440634669915673E-002  -8.7111953232029554E-003   2.6423418948040789E-002
   2.8071704988470503E-002  -8.0178894155300551E-003   2.6264722811332297E-002
   3.9902412785953079E-002  -1.1989879112308088E-002  -1.5181326627589087E-005
   3.7479050583303586E-002  -1.1141602454137089E-002  -2.9606336815901635E-004
   3.5055688380653982E-002  -1.0460596749987727E-002  -4.8837162506265575E-004
   3.2632326178004462E-002  -9.9468619998602653E-003  -5.9210609733995057E-004
   3.0208963975354886E-002  -9.6003982037549118E-003  -6.0726678498945752E-004
   3.6954845735144959E-002  -1.0996881688113413E-002   6.6514231484561259E-003
   3.4602519189685155E-002  -1.0184224199352609E-002   6.2077918840757196E-003
   3.2250192644225406E-002  -9.4812380826437281E-003   5.8176581494482349E-003
   2.9897866098765630E-002  -8.8879233379855621E-003   5.4810219445731723E-003
   2.7545539553305853E-002  -8.4042799653787359E-003   5.1978832694501431E-003
   3.4000538751961795E-002  -1.0003884263918961E-002   1.3253608663143845E-002
   3.1684171608817008E-002  -9.2268459445690176E-003   1.2704827757885395E-002
   2.9367804465672234E-002  -8.5018794152997568E-003   1.2174468127504695E-002
   2.7051437322527482E-002  -7.8289846761113099E-003   1.1662529772001176E-002
   2.4735070179382646E-002  -7.2081617270033371E-003   1.1169012691375824E-002
   3.1039491836403733E-002  -9.0108868397245079E-003   1.9791375217435889E-002
   2.8724007840699083E-002  -8.2694676897853148E-003   1.9195044253269719E-002
   2.6408523844994525E-002  -7.5225207479557715E-003   1.8582058309106093E-002
   2.4093039849289871E-002  -6.7700460142367212E-003   1.7952417384945487E-002
   2.1777555853585324E-002  -6.0120434886277718E-003   1.7306121480787681E-002
   2.8071704988470503E-002  -8.0178894155300551E-003   2.6264722811332297E-002
   2.5722027885331344E-002  -7.3120894350010568E-003   2.5678441370228788E-002
   2.3372350782192158E-002  -6.5431620806117585E-003   2.5040428694253103E-002
   2.1022673679053014E-002  -5.7111073523618480E-003   2.4350684783405740E-002
   1.8672996575913814E-002  -4.8159252502518735E-003   2.3609209637686313E-002
   3.0208963975354886E-002  -9.6003982037549118E-003  -6.0726678498945752E-004
   2.9602873093484638E-002  -9.1337311913022301E-003  -3.6150926737876787E-004
   2.8996782211614280E-002  -8.2593867921342823E-003  -1.7971346684186873E-003
   2.8390691329744006E-002  -6.9773650062504994E-003  -4.9141429881086607E-003
   2.7784600447873675E-002  -5.2876658336509230E-003  -9.7125342264487990E-003
   2.7545539553305853E-002  -8.4042799653787359E-003   5.1978832694501431E-003
   2.5527423722604248E-002  -7.8702553724649960E-003   5.8750094046962076E-003
   2.3509307891902698E-002  -7.1257969668849785E-003   5.4094685609300530E-003
   2.1491192061201120E-002  -6.1709047486390722E-003   3.8012607381515962E-003
   1.9473076230499653E-002  -5.0055787177269995E-003   1.0503859363610868E-003
   2.4735070179382646E-002  -7.2081617270033371E-003   1.1169012691375824E-002
   2.1843645339487794E-002  -6.6067795536276508E-003   1.2080263870207719E-002
   1.8952220499593012E-002  -5.9922071416361467E-003   1.2387564009665536E-002
   1.6060795659698195E-002  -5.3644444910278741E-003   1.2090913109748719E-002
   1.3169370819803350E-002  -4.7234916018041861E-003   1.1190311170458100E-002
   2.1777555853585324E-002  -6.0120434886277718E-003   1.7306121480787681E-002
   1.8551537944135291E-002  -5.3433037347903611E-003   1.8254254129155711E-002
   1.5325520034685198E-002  -4.8586173163869678E-003   1.9137151677787574E-002
   1.2099502125235055E-002  -4.5579842334174496E-003   1.9954814126683203E-002
   8.8734842157850644E-003  -4.4414044858814838E-003   2.0707241475842325E-002
   1.8672996575913814E-002  -4.8159252502518735E-003   2.3609209637686313E-002
   1.5651101536546475E-002  -4.0798279159530160E-003   2.4396980181540462E-002
   1.2629206497179246E-002  -3.7250274911380943E-003   2.5658231565296619E-002
   9.6073114578119900E-003  -3.7515239758061578E-003   2.7392963788954366E-002
   6.5854164184446784E-003  -4.1593173699581154E-003   2.9601176852513955E-002
   2.7784600447873675E-002  -5.2876658336509230E-003  -9.7125342264487990E-003
   2.3356319448101903E-002  -4.2072034497309119E-003  -4.1866463405220156E-003
   1.8928038448330242E-002  -4.7528920298856026E-003   2.6039431574423899E-003
   1.4499757448558442E-002  -6.9247315741151616E-003   1.0659234267444972E-002
   1.0071476448786809E-002  -1.0722722082420866E-002   1.9979226989486065E-002
   1.9473076230499653E-002  -5.0055787177269995E-003   1.0503859363610868E-003
   1.6237060781705948E-002  -4.6909824107622677E-003   6.7426344555889806E-003
   1.3001045332912187E-002  -6.2882793643546653E-003   1.3554712464734608E-002
   9.7650298841185368E-003  -9.7974695785047611E-003   2.1486619963799802E-002
   6.5290144353247204E-003  -1.5218553053212958E-002   3.0538356952780621E-002
   1.3169370819803350E-002  -4.7234916018041861E-003   1.1190311170458100E-002
   1.0980748799867768E-002  -5.1747613717934016E-003   1.6763178026504233E-002
   8.7921267799321856E-003  -7.8236666988226178E-003   2.3311002250348767E-002
   6.6035047599965688E-003  -1.2670207582892806E-002   3.0833783841991480E-002
   4.4148827400610213E-003  -1.9714384024004605E-002   3.9331522801431706E-002
   8.8734842157850644E-003  -4.4414044858814838E-003   2.0707241475842325E-002
   7.5873835025875580E-003  -5.6585403328242023E-003   2.5874984372224172E-002
   6.3012827893899441E-003  -9.3590540332911254E-003   3.1872812514283977E-002
   5.0151820761923701E-003  -1.5542945587281629E-002   3.8700725902021546E-002
   3.7290813629946989E-003  -2.4210214994796919E-002   4.6358724535437434E-002
   6.5854164184446784E-003  -4.1593173699581154E-003   2.9601176852513955E-002
   6.0569648898651796E-003  -6.1423192938551141E-003   3.4078053492748395E-002
   5.5285133612856807E-003  -1.0894441367759800E-002   3.9240143256540461E-002
   5.0000618327061264E-003  -1.8415683591670270E-002   4.5087446143890986E-002
   4.4716103041266830E-003  -2.8706045965588789E-002   5.1619962154799026E-002
   7.5316829334954150E-002  -2.5578390787992678E-002   2.8492494647899436E-002
   7.2957902679669118E-002  -2.3619976931712416E-002   2.8358417334796993E-002
   7.0598976024384003E-002  -2.2026400949817296E-002   2.8463699474686660E-002
   6.8240049369098985E-002  -2.0797662842307458E-002   2.8808341067568424E-002
   6.5881122713813939E-002  -1.9933762609182948E-002   2.9392342113442438E-002
   6.8842410441612267E-002  -2.2826184398498095E-002   3.4142402078650380E-002
   6.6711172504488908E-002  -2.1302864396004068E-002   3.3858509310056406E-002
   6.4579934567365521E-002  -2.0031562388887536E-002   3.3790634524793667E-002
   6.2448696630242120E-002  -1.9012278377148459E-002   3.3938777722862010E-002
   6.0317458693118747E-002  -1.8245012360786961E-002   3.4302938904261726E-002
   6.2538274762490645E-002  -2.0073978009003512E-002   3.9300805716111012E-002
   6.0611384073868110E-002  -1.8985751860295746E-002   3.8979917371033262E-002
   5.8684493385245444E-002  -1.8036723827957714E-002   3.8851705539625796E-002
   5.6757602696622889E-002  -1.7226893911989401E-002   3.8916170221888702E-002
   5.4830712008000347E-002  -1.6556262112390890E-002   3.9173311417822029E-002
   5.6404422297589393E-002  -1.7321771619508944E-002   4.3967705560281622E-002
   5.4658537387806697E-002  -1.6668639324587439E-002   4.3722641517727756E-002
   5.2912652478023972E-002  -1.6041885267027923E-002   4.3646912519183491E-002
   5.1166767568241296E-002  -1.5441509446830346E-002   4.3740518564648612E-002
   4.9420882658458558E-002  -1.4867511863994834E-002   4.4003459654123160E-002
   5.0440853046908429E-002  -1.4569565230014347E-002   4.8143101611161976E-002
   4.8852632446304695E-002  -1.4351526788879077E-002   4.8086681750139859E-002
   4.7264411845701015E-002  -1.4047046706098160E-002   4.8176255463466433E-002
   4.5676191245097308E-002  -1.3656124981671298E-002   4.8411822751141476E-002
   4.4087970644493574E-002  -1.3178761615598833E-002   4.8793383613165098E-002
   6.5881122713813939E-002  -1.9933762609182948E-002   2.9392342113442438E-002
   6.3449840029778437E-002  -1.9241407629853824E-002   2.8945088145910208E-002
   6.1018557345743005E-002  -1.8527305283730366E-002   2.8729174102949256E-002
   5.8587274661707565E-002  -1.7791455570812298E-002   2.8744599984559374E-002
   5.6155991977672071E-002  -1.7033858491099896E-002   2.8991365790740742E-002
   6.0317458693118747E-002  -1.8245012360786961E-002   3.4302938904261726E-002
   5.8108373189869680E-002  -1.7596562205101918E-002   3.3941526348930995E-002
   5.5899287686620641E-002  -1.6933725775392316E-002   3.3793168230601828E-002
   5.3690202183371581E-002  -1.6256503071658213E-002   3.3857864549274252E-002
   5.1481116680122535E-002  -1.5564894093899662E-002   3.4135615304948408E-002
   5.4830712008000347E-002  -1.6556262112390890E-002   3.9173311417822029E-002
   5.2825538197968092E-002  -1.5951716780349956E-002   3.8890379181922827E-002
   5.0820364387935871E-002  -1.5340146267054378E-002   3.8802215895455558E-002
   4.8815190577903601E-002  -1.4721550572504183E-002   3.8908821558420480E-002
   4.6810016767871374E-002  -1.4095929696699400E-002   3.9210196170817210E-002
   4.9420882658458558E-002  -1.4867511863994834E-002   4.4003459654123160E-002
   4.7601335054073622E-002  -1.4306871355598050E-002   4.3791646644885475E-002
   4.5781787449688659E-002  -1.3746566758716439E-002   4.3756317097510260E-002
   4.3962239845303674E-002  -1.3186598073350042E-002   4.3897471011997535E-002
   4.2142692240918711E-002  -1.2626965299499152E-002   4.4215108388347329E-002
   4.4087970644493574E-002  -1.3178761615598833E-002   4.8793383613165098E-002
   4.2435763758186307E-002  -1.2662025930846088E-002   4.8645328737819016E-002
   4.0783556871879026E-002  -1.2152987250378444E-002   4.8655471836766079E-002
   3.9131349985571752E-002  -1.1651645574196082E-002   4.8823812910006037E-002
   3.7479143099264478E-002  -1.1158000902298848E-002   4.9150351957538752E-002
   5.6155991977672071E-002  -1.7033858491099896E-002   2.8991365790740742E-002
   5.3860117218103687E-002  -1.6273215881586034E-002   2.8675687029115215E-002
   5.1564242458535359E-002  -1.5528229579263267E-002   2.8523085084582872E-002
   4.9268367698967003E-002  -1.4798899584131695E-002   2.8533559957143781E-002
   4.6972492939398647E-002  -1.4085225896191433E-002   2.8707111646798067E-002
   5.1481116680122535E-002  -1.5564894093899662E-002   3.4135615304948408E-002
   4.9350264262568319E-002  -1.4869187160747976E-002   3.3814734118327194E-002
   4.7219411845014075E-002  -1.4179670590834401E-002   3.3660820798640856E-002
   4.5088559427459846E-002  -1.3496344384159125E-002   3.3673875345889601E-002
   4.2957707009905616E-002  -1.2819208540721549E-002   3.3853897760073026E-002
   4.6810016767871374E-002  -1.4095929696699400E-002   3.9210196170817210E-002
   4.4848077742172865E-002  -1.3465158439909863E-002   3.8893578503153739E-002
   4.2886138716474315E-002  -1.2831111602405416E-002   3.8747819752266592E-002
   4.0924199690775757E-002  -1.2193789184186109E-002   3.8772919918155818E-002
   3.8962260665077256E-002  -1.1553191185251888E-002   3.8968879000821771E-002
   4.2142692240918711E-002  -1.2626965299499152E-002   4.4215108388347329E-002
   4.0353557656917463E-002  -1.2061129719071806E-002   4.3912220183594405E-002
   3.8564423072916180E-002  -1.1482552613976491E-002   4.3784081945459394E-002
   3.6775288488914898E-002  -1.0891233984213398E-002   4.3830693673942552E-002
   3.4986153904913594E-002  -1.0287173829782226E-002   4.4052055369043622E-002
   3.7479143099264478E-002  -1.1158000902298848E-002   4.9150351957538752E-002
   3.5866704006802030E-002  -1.0657100998233748E-002   4.8870659159649443E-002
   3.4254264914339583E-002  -1.0133993625547622E-002   4.8769607378219670E-002
   3.2641825821877135E-002  -9.5886787842404814E-003   4.8847196613249572E-002
   3.1029386729414687E-002  -9.0211564743123973E-003   4.9103426864739286E-002
   4.6972492939398647E-002  -1.4085225896191433E-002   2.8707111646798067E-002
   4.4616225633111739E-002  -1.3364261902865548E-002   2.8240634245466967E-002
   4.2259958326824804E-002  -1.2613060991577441E-002   2.7910677983989829E-002
   3.9903691020537937E-002  -1.1831623162327332E-002   2.7717242862367153E-002
   3.7547423714251016E-002  -1.1019948415114666E-002   2.7660328880598328E-002
   4.2957707009905616E-002  -1.2819208540721549E-002   3.3853897760073026E-002
   4.0744368192896951E-002  -1.2133752925145874E-002   3.3439700705569370E-002
   3.8531029375888273E-002  -1.1425467402054967E-002   3.3174839489767960E-002
   3.6317690558879588E-002  -1.0694351971448662E-002   3.3059314112669005E-002
   3.4104351741870931E-002  -9.9404066333272367E-003   3.3093124574272215E-002
   3.8962260665077256E-002  -1.1553191185251888E-002   3.8968879000821771E-002
   3.6904665036195036E-002  -1.0903243947426255E-002   3.8599555282698428E-002
   3.4847069407312699E-002  -1.0237873812532328E-002   3.8392382102125644E-002
   3.2789473778430472E-002  -9.5570807805701041E-003   3.8347359459103170E-002
   3.0731878149548156E-002  -8.8608648515399735E-003   3.8464487353631172E-002
   3.4986153904913594E-002  -1.0287173829782226E-002   4.4052055369043622E-002
   3.3097116163005869E-002  -9.6727349697065534E-003   4.3720197976853836E-002
   3.1208078421098087E-002  -9.0502802230098267E-003   4.3563305821062631E-002
   2.9319040679190354E-002  -8.4198095896916569E-003   4.3581378901669902E-002
   2.7430002937282524E-002  -7.7813230697526270E-003   4.3774417218675907E-002
   3.1029386729414687E-002  -9.0211564743123973E-003   4.9103426864739286E-002
   2.9321721573329546E-002  -8.4422259919868514E-003   4.8801628788035789E-002
   2.7614056417244445E-002  -7.8626866334870898E-003   4.8687610646578866E-002
   2.5906391261159296E-002  -7.2825383988130120E-003   4.8761372440368947E-002
   2.4198726105074148E-002  -6.7017812879653915E-003   4.9022914169405407E-002
   3.7547423714251016E-002  -1.1019948415114666E-002   2.7660328880598328E-002
   3.5178494032805874E-002  -1.0212224822995219E-002   2.7121221982673804E-002
   3.2809564351360732E-002  -9.4426404590245983E-003   2.6708918671821291E-002
   3.0440634669915673E-002  -8.7111953232029554E-003   2.6423418948040789E-002
   2.8071704988470503E-002  -8.0178894155300551E-003   2.6264722811332297E-002
   3.4104351741870931E-002  -9.9404066333272367E-003   3.3093124574272215E-002
   3.1867104006816499E-002  -9.1877395979285681E-003   3.2597731545168596E-002
   2.9629856271762095E-002  -8.4604590754907144E-003   3.2238898821774831E-002
   2.7392608536707636E-002  -7.7585650660132628E-003   3.2016626404090212E-002
   2.5155360801653259E-002  -7.0820575694970911E-003   3.1930914292114865E-002
   3.0731878149548156E-002  -8.8608648515399735E-003   3.8464487353631172E-002
   2.8636069079521875E-002  -8.1632543728620277E-003   3.8025560908537134E-002
   2.6540260009495512E-002  -7.4782776919567195E-003   3.7732951487789712E-002
   2.4444450939469196E-002  -6.8059348088242363E-003   3.7586659091389071E-002
   2.2348641869442867E-002  -6.1462257234644602E-003   3.7586683719335268E-002
   2.7430002937282524E-002  -7.7813230697526270E-003   4.3774417218675907E-002
   2.5485389250921735E-002  -7.1387691477954873E-003   4.3404710072778893E-002
   2.3540775564560919E-002  -6.4960963084227802E-003   4.3191076669865984E-002
   2.1596161878200123E-002  -5.8533045516349323E-003   4.3133517009937478E-002
   1.9651548191839317E-002  -5.2103938774315517E-003   4.3232031092992944E-002
   2.4198726105074148E-002  -6.7017812879653915E-003   4.9022914169405407E-002
   2.2415064521016298E-002  -6.1142839227288914E-003   4.8735179037893595E-002
   2.0631402936958379E-002  -5.5139149248888686E-003   4.8613274368003556E-002
   1.8847741352900467E-002  -4.9006742944455242E-003   4.8657200159735042E-002
   1.7064079768842610E-002  -4.2745620313989763E-003   4.8866956413088025E-002
   2.8071704988470503E-002  -8.0178894155300551E-003   2.6264722811332297E-002
   2.5722027885331344E-002  -7.3120894350010568E-003   2.5678441370228788E-002
   2.3372350782192158E-002  -6.5431620806117585E-003   2.5040428694253103E-002
   2.1022673679053014E-002  -5.7111073523618480E-003   2.4350684783405740E-002
   1.8672996575913814E-002  -4.8159252502518735E-003   2.3609209637686313E-002
   2.5155360801653259E-002  -7.0820575694970911E-003   3.1930914292114865E-002
   2.2792205280510125E-002  -6.4095945976890834E-003   3.1532723341188895E-002
   2.0429049759366991E-002  -5.7198341623362625E-003   3.1159306789126484E-002
   1.8065894238223912E-002  -5.0127762634389408E-003   3.0810664635928658E-002
   1.5702738717080722E-002  -4.2884209009972363E-003   3.0486796881594891E-002
   2.2348641869442867E-002  -6.1462257234644602E-003   3.7586683719335268E-002
   2.0048513564031797E-002  -5.5070997603767213E-003   3.7330753348270435E-002
   1.7748385258620818E-002  -4.8965062440605583E-003   3.7176103009805853E-002
   1.5448256953209793E-002  -4.3144451745158151E-003   3.7122732703941376E-002
   1.3148128647798768E-002  -3.7609165517425436E-003   3.7170642430676720E-002
   1.9651548191839317E-002  -5.2103938774315517E-003   4.3232031092992944E-002
   1.7490952735896428E-002  -4.6046049230645536E-003   4.3072531391473566E-002
   1.5330357279953541E-002  -4.0731783257848472E-003   4.3090817356290306E-002
   1.3169761824010667E-002  -3.6161140855924655E-003   4.3286888987443463E-002
   1.1009166368067765E-002  -3.2334122024878231E-003   4.3660746284932279E-002
   1.7064079768842610E-002  -4.2745620313989763E-003   4.8866956413088025E-002
   1.5119522796103901E-002  -3.7021100857523859E-003   4.8758057470798088E-002
   1.3174965823365220E-002  -3.2498504075092471E-003   4.8903449828580414E-002
   1.1230408850626539E-002  -2.9177829966693658E-003   4.9303133486434836E-002
   9.2858518778878851E-003  -2.7059078532332137E-003   4.9957108444361520E-002
   1.8672996575913814E-002  -4.8159252502518735E-003   2.3609209637686313E-002
   1.5651101536546475E-002  -4.0798279159530160E-003   2.4396980181540462E-002
   1.2629206497179246E-002  -3.7250274911380943E-003   2.5658231565296619E-002
   9.6073114578119900E-003  -3.7515239758061578E-003   2.7392963788954366E-002
   6.5854164184446784E-003  -4.1593173699581154E-003   2.9601176852513955E-002
   1.5702738717080722E-002  -4.2884209009972363E-003   3.0486796881594891E-002
   1.3136044196432578E-002  -3.7741147847799028E-003   3.1262588461078933E-002
   1.0569349675784295E-002  -3.6972046245551948E-003   3.2475300238099553E-002
   8.0026551551360681E-003  -4.0576904203241254E-003   3.4124932212656514E-002
   5.4359606344878131E-003  -4.8555721720858758E-003   3.6211484384749970E-002
   1.3148128647798768E-002  -3.7609165517425436E-003   3.7170642430676720E-002
   1.1000074003504112E-002  -3.4684016536062623E-003   3.7878355999281466E-002
   8.8520193592094426E-003  -3.6693817579727533E-003   3.8986429123056901E-002
   6.7039647149148077E-003  -4.3638568648418745E-003   4.0494861802003491E-002
   4.5559100706201172E-003  -5.5518269742137472E-003   4.2403654036120619E-002
   1.1009166368067765E-002  -3.2334122024878231E-003   4.3660746284932279E-002
   9.2431909577612159E-003  -3.1626885224328299E-003   4.4244282796147713E-002
   7.4772155474546430E-003  -3.6415588913898608E-003   4.5191618220168886E-002
   5.7112401371481377E-003  -4.6700233093599549E-003   4.6502752556994854E-002
   3.9452647268415214E-003  -6.2480817763415630E-003   4.8177685806626722E-002
   9.2858518778878851E-003  -2.7059078532332137E-003   4.9957108444361520E-002
   7.8653950592039168E-003  -2.8569753912595086E-003   5.0360368851678383E-002
   6.4449382405199762E-003  -3.6137360248074402E-003   5.1090867529434980E-002
   5.0244814218360356E-003  -4.9761897538775426E-003   5.2148604477631449E-002
   3.6040246031521228E-003  -6.9443365784692679E-003   5.3533579696268263E-002
   6.5854164184446784E-003  -4.1593173699581154E-003   2.9601176852513955E-002
   6.0569648898651796E-003  -6.1423192938551141E-003   3.4078053492748395E-002
   5.5285133612856807E-003  -1.0894441367759800E-002   3.9240143256540461E-002
   5.0000618327061264E-003  -1.8415683591670270E-002   4.5087446143890986E-002
   4.4716103041266830E-003  -2.8706045965588789E-002   5.1619962154799026E-002
   5.4359606344878131E-003  -4.8555721720858758E-003   3.6211484384749970E-002
   5.4888820933421123E-003  -6.9901508219327169E-003   3.8351367113857227E-002
   5.5418035521964115E-003  -1.1360727311955698E-002   4.0968782694274009E-002
   5.5947250110505720E-003  -1.7967301642155570E-002   4.4063731125999761E-002
   5.6476464699049544E-003  -2.6809873812531748E-002   4.7636212409036149E-002
   4.5559100706201172E-003  -5.5518269742137472E-003   4.2403654036120619E-002
   4.9825242446595447E-003  -7.8379823500097090E-003   4.2739665163931129E-002
   5.4091384186990138E-003  -1.1827013256152069E-002   4.3345528870803174E-002
   5.8357525927385662E-003  -1.7518919692640543E-002   4.4221245156735658E-002
   6.2623667667779104E-003  -2.4913701659474929E-002   4.5366814021729152E-002
   3.9452647268415214E-003  -6.2480817763415630E-003   4.8177685806626722E-002
   4.5378913438176120E-003  -8.6858138780872285E-003   4.7242947642971544E-002
   5.1305179607937547E-003  -1.2293299200348759E-002   4.6370381786128935E-002
   5.7231445777697031E-003  -1.7070537743125568E-002   4.5559988236097873E-002
   6.3157711947459325E-003  -2.3017529506417889E-002   4.4811766992880447E-002
   3.6040246031521228E-003  -6.9443365784692679E-003   5.3533579696268263E-002
   4.1549833908162692E-003  -9.5336454061644149E-003   5.1861214550977364E-002
   4.7059421784804156E-003  -1.2759585144544644E-002   5.0043341440250411E-002
   5.2569009661445065E-003  -1.6622155793610503E-002   4.8079960364087154E-002
   5.8078597538087084E-003  -2.1121357353361070E-002   4.5971071322488122E-002
   5.0440853046908429E-002  -1.4569565230014347E-002   4.8143101611161976E-002
   4.8852632446304695E-002  -1.4351526788879077E-002   4.8086681750139859E-002
   4.7264411845701015E-002  -1.4047046706098160E-002   4.8176255463466433E-002
   4.5676191245097308E-002  -1.3656124981671298E-002   4.8411822751141476E-002
   4.4087970644493574E-002  -1.3178761615598833E-002   4.8793383613165098E-002
   4.4397684369682749E-002  -1.2776983646223372E-002   5.2618932892283587E-002
   4.2979587657231560E-002  -1.2555661379247185E-002   5.2332041792318262E-002
   4.1561490944780496E-002  -1.2271019724792193E-002   5.2239404894309421E-002
   4.0143394232329356E-002  -1.1923058682858027E-002   5.2341022198257384E-002
   3.8725297519878257E-002  -1.1511778253444960E-002   5.2636893704161747E-002
   3.8025033625147212E-002  -1.0984402062432286E-002   5.7109609126329702E-002
   3.6825321428456771E-002  -1.0759795969615349E-002   5.6569124533253939E-002
   3.5625609231766331E-002  -1.0494992743486156E-002   5.6271154769743231E-002
   3.4425897035075870E-002  -1.0189992384044753E-002   5.6215699835797099E-002
   3.3226184838385429E-002  -9.8447948912909755E-003   5.6402759731415786E-002
   3.1322900813301933E-002  -9.1918204786412550E-003   6.1615130313299675E-002
   3.0389833759980230E-002  -8.9639305599834851E-003   6.0797929972947314E-002
   2.9456766706658557E-002  -8.7189657621801822E-003   6.0271505089767669E-002
   2.8523699653336849E-002  -8.4569260852313689E-003   6.0035855663760879E-002
   2.7590632600015132E-002  -8.1778115291370190E-003   6.0090981694926895E-002
   2.4291285934146839E-002  -7.3992388948502241E-003   6.6135496453193998E-002
   2.3673124651801991E-002  -7.1680651503516768E-003   6.5018458111398003E-002
   2.3054963369457129E-002  -6.9429387808741944E-003   6.4240455854382900E-002
   2.2436802087112274E-002  -6.7238597864181758E-003   6.3801489682148813E-002
   2.1818640804767406E-002  -6.5108281669831181E-003   6.3701559594695478E-002
   4.4087970644493574E-002  -1.3178761615598833E-002   4.8793383613165098E-002
   4.2435763758186307E-002  -1.2662025930846088E-002   4.8645328737819016E-002
   4.0783556871879026E-002  -1.2152987250378444E-002   4.8655471836766079E-002
   3.9131349985571752E-002  -1.1651645574196082E-002   4.8823812910006037E-002
   3.7479143099264478E-002  -1.1158000902298848E-002   4.9150351957538752E-002
   3.8725297519878257E-002  -1.1511778253444960E-002   5.2636893704161747E-002
   3.7244449340052943E-002  -1.1069133598717681E-002   5.2361416033559524E-002
   3.5763601160227622E-002  -1.0627079880840870E-002   5.2270457801628256E-002
   3.4282752980402342E-002  -1.0185617099815147E-002   5.2364019008368276E-002
   3.2801904800577028E-002  -9.7447452556398417E-003   5.2642099653779140E-002
   3.3226184838385429E-002  -9.8447948912909755E-003   5.6402759731415786E-002
   3.1943016829420259E-002  -9.4762412665892470E-003   5.6006965332991723E-002
   3.0659848820455086E-002  -9.1011725113035180E-003   5.5822011837616772E-002
   2.9376680811489933E-002  -8.7195886254341562E-003   5.5847899245291086E-002
   2.8093512802524742E-002  -8.3314896089808632E-003   5.6084627556014732E-002
   2.7590632600015132E-002  -8.1778115291370190E-003   6.0090981694926895E-002
   2.6531466226288259E-002  -7.8833489344606600E-003   5.9581976636115544E-002
   2.5472299852561369E-002  -7.5752651417661659E-003   5.9310133944731579E-002
   2.4413133478834503E-002  -7.2535601510530824E-003   5.9275453620774979E-002
   2.3353967105107603E-002  -6.9182339623218986E-003   5.9477935664245640E-002
   2.1818640804767406E-002  -6.5108281669831181E-003   6.3701559594695478E-002
   2.1009797530656960E-002  -6.2904566023323782E-003   6.3086449942931278E-002
   2.0200954256546520E-002  -6.0493577722286057E-003   6.2734824122972627E-002
   1.9392110982436078E-002  -5.7875316766721786E-003   6.2646682134819512E-002
   1.8583267708325635E-002  -5.5049783156628784E-003   6.2822023978471975E-002
   3.7479143099264478E-002  -1.1158000902298848E-002   4.9150351957538752E-002
   3.5866704006802030E-002  -1.0657100998233748E-002   4.8870659159649443E-002
   3.4254264914339583E-002  -1.0133993625547622E-002   4.8769607378219670E-002
   3.2641825821877135E-002  -9.5886787842404814E-003   4.8847196613249572E-002
   3.1029386729414687E-002  -9.0211564743123973E-003   4.9103426864739286E-002
   3.2801904800577028E-002  -9.7447452556398417E-003   5.2642099653779140E-002
   3.1372854048153279E-002  -9.2960317254289493E-003   5.2355241368875621E-002
   2.9943803295729494E-002  -8.8310438862960611E-003   5.2256518747589770E-002
   2.8514752543305728E-002  -8.3497817382411320E-003   5.2345931789921682E-002
   2.7085701790881947E-002  -7.8522452812643251E-003   5.2623480495871511E-002
   2.8093512802524742E-002  -8.3314896089808632E-003   5.6084627556014732E-002
   2.6857345037297822E-002  -7.9349624526241780E-003   5.5784670624397889E-002
   2.5621177272070868E-002  -7.5280941470445006E-003   5.5682344003556900E-002
   2.4385009506843924E-002  -7.1108846922418381E-003   5.5777647693491764E-002
   2.3148841741617014E-002  -6.6833340882163361E-003   5.6070581694202773E-002
   2.3353967105107603E-002  -6.9182339623218986E-003   5.9477935664245640E-002
   2.2320176974235668E-002  -6.5738931798194206E-003   5.9158946926216482E-002
   2.1286386843363723E-002  -6.2251444077929680E-003   5.9047083146121469E-002
   2.0252596712491782E-002  -5.8719876462425165E-003   5.9142344323960414E-002
   1.9218806581619813E-002  -5.5144228951683610E-003   5.9444730459733502E-002
   1.8583267708325635E-002  -5.5049783156628784E-003   6.2822023978471975E-002
   1.7761349858966824E-002  -5.2128239070145521E-003   6.2478070274331388E-002
   1.6939432009608027E-002  -4.9221946685413936E-003   6.2350736175283250E-002
   1.6117514160249209E-002  -4.6330906002431151E-003   6.2440021681327132E-002
   1.5295596310890391E-002  -4.3455117021202194E-003   6.2745926792463103E-002
   3.1029386729414687E-002  -9.0211564743123973E-003   4.9103426864739286E-002
   2.9321721573329546E-002  -8.4422259919868514E-003   4.8801628788035789E-002
   2.7614056417244445E-002  -7.8626866334870898E-003   4.8687610646578866E-002
   2.5906391261159296E-002  -7.2825383988130120E-003   4.8761372440368947E-002
   2.4198726105074148E-002  -6.7017812879653915E-003   4.9022914169405407E-002
   2.7085701790881947E-002  -7.8522452812643251E-003   5.2623480495871511E-002
   2.5569727550074153E-002  -7.3446224702974350E-003   5.2334671926082488E-002
   2.4053753309266381E-002  -6.8331012602721036E-003   5.2241465251601504E-002
   2.2537779068458604E-002  -6.3176816511882512E-003   5.2343860472428477E-002
   2.1021804827650814E-002  -5.7983636430464225E-003   5.2641857588563490E-002
   2.3148841741617014E-002  -6.6833340882163361E-003   5.6070581694202773E-002
   2.1832380376147799E-002  -6.2470189486078520E-003   5.5798052154212838E-002
   2.0515919010678615E-002  -5.8035158870570133E-003   5.5728946469592013E-002
   1.9199457645209417E-002  -5.3528249035633257E-003   5.5863264640340346E-002
   1.7882996279740250E-002  -4.8949459981273979E-003   5.6201006666458136E-002
   1.9218806581619813E-002  -5.5144228951683610E-003   5.9444730459733502E-002
   1.8109680051550475E-002  -5.1494154269185188E-003   5.9191769472426464E-002
   1.7000553521481134E-002  -4.7739305138419751E-003   5.9150054300550092E-002
   1.5891426991411793E-002  -4.3879681559385935E-003   5.9319584944103977E-002
   1.4782300461342457E-002  -3.9915283532082901E-003   5.9700361403088480E-002
   1.5295596310890391E-002  -4.3455117021202194E-003   6.2745926792463103E-002
   1.4401626576282175E-002  -4.0518119052289636E-003   6.2515823880723742E-002
   1.3507656841673932E-002  -3.7443451406269229E-003   6.2504788744475820E-002
   1.2613687107065716E-002  -3.4231114083134694E-003   6.2712821383719877E-002
   1.1719717372457472E-002  -3.0881107082894044E-003   6.3139921798455512E-002
   2.4198726105074148E-002  -6.7017812879653915E-003   4.9022914169405407E-002
   2.2415064521016298E-002  -6.1142839227288914E-003   4.8735179037893595E-002
   2.0631402936958379E-002  -5.5139149248888686E-003   4.8613274368003556E-002
   1.8847741352900467E-002  -4.9006742944455242E-003   4.8657200159735042E-002
   1.7064079768842610E-002  -4.2745620313989763E-003   4.8866956413088025E-002
   2.1021804827650814E-002  -5.7983636430464225E-003   5.2641857588563490E-002
   1.9414045518939951E-002  -5.2747838700509808E-003   5.2411055381915983E-002
   1.7806286210229103E-002  -4.7465789664068725E-003   5.2366227264340898E-002
   1.6198526901518247E-002  -4.2137489321147428E-003   5.2507373235838109E-002
   1.4590767592807391E-002  -3.6762937671739326E-003   5.2834493296408103E-002
   1.7882996279740250E-002  -4.8949459981273979E-003   5.6201006666458136E-002
   1.6471282873827278E-002  -4.4352838173731535E-003   5.6018890882719857E-002
   1.5059569467914317E-002  -3.9792430079251956E-003   5.6042892815504522E-002
   1.3647856062001357E-002  -3.5268235697838470E-003   5.6273012464812720E-002
   1.2236142656088411E-002  -3.0780255029488335E-003   5.6709249830644348E-002
   1.4782300461342457E-002  -3.9915283532082901E-003   5.9700361403088480E-002
   1.3586776585678263E-002  -3.5957837646951735E-003   5.9558685540304766E-002
   1.2391252710014049E-002  -3.2119070494435811E-003   5.9643271021494873E-002
   1.1195728834349838E-002  -2.8398982074529528E-003   5.9954117846659299E-002
   1.0000204958685643E-002  -2.4797572387238731E-003   6.0491226015797789E-002
   1.1719717372457472E-002  -3.0881107082894044E-003   6.3139921798455512E-002
   1.0760526654492883E-002  -2.7562837120175265E-003   6.3030439354671119E-002
   9.8013359365282937E-003  -2.4445710909616336E-003   6.3167361882311701E-002
   8.8421452185636906E-003  -2.1529728451220864E-003   6.3550689381377257E-002
   7.8829545005990875E-003  -1.8814889744988017E-003   6.4180421851868008E-002
   1.7064079768842610E-002  -4.2745620313989763E-003   4.8866956413088025E-002
   1.5119522796103901E-002  -3.7021100857523859E-003   4.8758057470798088E-002
   1.3174965823365220E-002  -3.2498504075092471E-003   4.8903449828580414E-002
   1.1230408850626539E-002  -2.9177829966693658E-003   4.9303133486434836E-002
   9.2858518778878851E-003  -2.7059078532332137E-003   4.9957108444361520E-002
   1.4590767592807391E-002  -3.6762937671739326E-003   5.2834493296408103E-002
   1.2900183377576549E-002  -3.1952278970288628E-003   5.2725165057048051E-002
   1.1209599162345679E-002  -2.8315657471243705E-003   5.2869491032631388E-002
   9.5190149471148094E-003  -2.5853073174598382E-003   5.3267471223158086E-002
   7.8284307318839674E-003  -2.4564526080353977E-003   5.3919105628628450E-002
   1.2236142656088411E-002  -3.0780255029488335E-003   5.6709249830644348E-002
   1.0798894113236583E-002  -2.6883457083055617E-003   5.6602280841377639E-002
   9.3616455703847273E-003  -2.4132810867392718E-003   5.6748328981925389E-002
   7.9243970275328854E-003  -2.2528316382499775E-003   5.7147394252287861E-002
   6.4871484846810434E-003  -2.2069973628378037E-003   5.7799476652465015E-002
   1.0000204958685643E-002  -2.4797572387238731E-003   6.0491226015797789E-002
   8.8156550030840369E-003  -2.1814635195819276E-003   6.0389404823787261E-002
   7.6311050474824164E-003  -1.9949964263542286E-003   6.0539963676462791E-002
   6.4465550918808099E-003  -1.9203559590401723E-003   6.0942902573823628E-002
   5.2620051362791895E-003  -1.9575421176402652E-003   6.1598221515871070E-002
   7.8829545005990875E-003  -1.8814889744988017E-003   6.4180421851868008E-002
   6.9504660471188945E-003  -1.6745813308588486E-003   6.4086537004277022E-002
   6.0179775936387014E-003  -1.5767117659693519E-003   6.4244395116243191E-002
   5.0854891401584876E-003  -1.5878802798308250E-003   6.4653996187766322E-002
   4.1530006866783153E-003  -1.7080868724425047E-003   6.5315340218846329E-002
   9.2858518778878851E-003  -2.7059078532332137E-003   4.9957108444361520E-002
   7.8653950592039168E-003  -2.8569753912595086E-003   5.0360368851678383E-002
   6.4449382405199762E-003  -3.6137360248074402E-003   5.1090867529434980E-002
   5.0244814218360356E-003  -4.9761897538775426E-003   5.2148604477631449E-002
   3.6040246031521228E-003  -6.9443365784692679E-003   5.3533579696268263E-002
   7.8284307318839674E-003  -2.4564526080353977E-003   5.3919105628628450E-002
   6.7091016847816987E-003  -2.6425825786370316E-003   5.3853265068221634E-002
   5.5897726376794021E-003  -3.3412781890501397E-003   5.4062441780537818E-002
   4.4704435905771056E-003  -4.5525394392742155E-003   5.4546635765577806E-002
   3.3511145434748368E-003  -6.2763663293101679E-003   5.5305847023341292E-002
   6.4871484846810434E-003  -2.2069973628378037E-003   5.7799476652465015E-002
   5.6167262114439967E-003  -2.4281897660146656E-003   5.7357662580044572E-002
   4.7463039382069638E-003  -3.0688203532923813E-003   5.7138644782631240E-002
   3.8758816649699310E-003  -4.1288891246711069E-003   5.7142423260224930E-002
   3.0054593917328842E-003  -5.6083960801506794E-003   5.7368998012825495E-002
   5.2620051362791895E-003  -1.9575421176402652E-003   6.1598221515871070E-002
   4.5882686391909375E-003  -2.2137969533921886E-003   6.0873561387147564E-002
   3.9145321421026578E-003  -2.7963625175349630E-003   6.0319476535715039E-002
   3.2407956450143851E-003  -3.7052388100680001E-003   5.9935966961572953E-002
   2.5670591479261262E-003  -4.9404258309912741E-003   5.9723032664721711E-002
   4.1530006866783153E-003  -1.7080868724425047E-003   6.5315340218846329E-002
   3.6237289680224050E-003  -1.9994041407698782E-003   6.4400961489530895E-002
   3.0944572493664946E-003  -2.5239046817774058E-003   6.3604937039789311E-002
   2.5651855307105981E-003  -3.2815884954648031E-003   6.2927266869621606E-002
   2.0359138120546738E-003  -4.2724555818320908E-003   6.2367950979028253E-002
   3.6040246031521228E-003  -6.9443365784692679E-003   5.3533579696268263E-002
   4.1549833908162692E-003  -9.5336454061644149E-003   5.1861214550977364E-002
   4.7059421784804156E-003  -1.2759585144544644E-002   5.0043341440250411E-002
   5.2569009661445065E-003  -1.6622155793610503E-002   4.8079960364087154E-002
   5.8078597538087084E-003  -2.1121357353361070E-002   4.5971071322488122E-002
   3.3511145434748368E-003  -6.2763663293101679E-003   5.5305847023341292E-002
   3.7741272678451510E-003  -8.5442260173890783E-003   5.2952233254647874E-002
   4.1971399922154373E-003  -1.1387585661744859E-002   5.0488235324802400E-002
   4.6201527165857237E-003  -1.4806445262376552E-002   4.7913853233805592E-002
   5.0431654409560656E-003  -1.8800804819283812E-002   4.5229086981657396E-002
   3.0054593917328842E-003  -5.6083960801506794E-003   5.7368998012825495E-002
   3.3356498570940238E-003  -7.5548066286142412E-003   5.4395266575138101E-002
   3.6658403224552050E-003  -1.0015586178944755E-002   5.1346274780583720E-002
   3.9960307878162821E-003  -1.2990734731142272E-002   4.8222022629162288E-002
   4.3262212531775257E-003  -1.6480252285206776E-002   4.5022510120875214E-002
   2.5670591479261262E-003  -4.9404258309912741E-003   5.9723032664721711E-002
   2.8395511585628860E-003  -6.5653872398390434E-003   5.6190314512449033E-002
   3.1120431691996180E-003  -8.6435866961443661E-003   5.2617459807594053E-002
   3.3845351798363205E-003  -1.1175024199908045E-002   4.9004468550158116E-002
   3.6570271904731375E-003  -1.4159699751129629E-002   4.5351340740139023E-002
   2.0359138120546738E-003  -4.2724555818320908E-003   6.2367950979028253E-002
   2.2858311722517288E-003  -5.5759678510641786E-003   5.8337377066580154E-002
   2.5357485324487422E-003  -7.2715872133444770E-003   5.4301790405834827E-002
   2.7856658926457625E-003  -9.3593136686739992E-003   5.0261190996791771E-002
   3.0355832528428106E-003  -1.1839147217052481E-002   4.6215578839451599E-002
   2.4291285934146839E-002  -7.3992388948502241E-003   6.6135496453193998E-002
   2.3673124651801991E-002  -7.1680651503516768E-003   6.5018458111398003E-002
   2.3054963369457129E-002  -6.9429387808741944E-003   6.4240455854382900E-002
   2.2436802087112274E-002  -6.7238597864181758E-003   6.3801489682148813E-002
   2.1818640804767406E-002  -6.5108281669831181E-003   6.3701559594695478E-002
   1.7375813627394238E-002  -5.5494291967482789E-003   6.4821472698006088E-002
   1.7050564488685319E-002  -5.3760488762220338E-003   6.4214786172472144E-002
   1.6725315349976407E-002  -5.2072040900901922E-003   6.3854887849429082E-002
   1.6400066211267484E-002  -5.0428948383529522E-003   6.3741777728877208E-002
   1.6074817072558568E-002  -4.8831211210100811E-003   6.3875455810816106E-002
   1.1022108532756286E-002  -3.6996194986463615E-003   6.3448899598532629E-002
   1.0897523655393468E-002  -3.5840326020923630E-003   6.3354076729887285E-002
   1.0772938778030646E-002  -3.4714693993061138E-003   6.3413794181443106E-002
   1.0648353900667823E-002  -3.3619298902876470E-003   6.3628051953200024E-002
   1.0523769023304996E-002  -3.2554140750369887E-003   6.3996850045158107E-002
   5.2301706502331010E-003  -1.8498098005444302E-003   6.2017777154773607E-002
   5.2140021519264876E-003  -1.7920163279626783E-003   6.2436329783643593E-002
   5.1978336536198820E-003  -1.7357347085219903E-003   6.2917174850424792E-002
   5.1816651553132850E-003  -1.6809649422224104E-003   6.3460312355117385E-002
   5.1654966570066812E-003  -1.6277070290639795E-003   6.4065742297721176E-002
  -2.0175409953804291E-011  -1.0244249892821244E-010   6.0528105366728924E-002
  -2.1715650111442386E-011  -5.3833021373961287E-011   6.1461545333740875E-002
  -2.3255886799633529E-011  -1.7737977753284895E-011   6.2365029856374377E-002
  -2.4796135630889005E-011   5.8428123450582348E-012   6.3238558934629235E-002
  -2.6336370584356672E-011   1.6909140754250984E-011   6.4082132568505479E-002
   2.1818640804767406E-002  -6.5108281669831181E-003   6.3701559594695478E-002
   2.1009797530656960E-002  -6.2904566023323782E-003   6.3086449942931278E-002
   2.0200954256546520E-002  -6.0493577722286057E-003   6.2734824122972627E-002
   1.9392110982436078E-002  -5.7875316766721786E-003   6.2646682134819512E-002
   1.8583267708325635E-002  -5.5049783156628784E-003   6.2822023978471975E-002
   1.6074817072558568E-002  -4.8831211210100811E-003   6.3875455810816106E-002
   1.5514139377199879E-002  -4.7178424466305796E-003   6.3455939945913767E-002
   1.4953461681841185E-002  -4.5370183237834066E-003   6.3269271406709446E-002
   1.4392783986482484E-002  -4.3406487524685518E-003   6.3315450193202977E-002
   1.3832106291123809E-002  -4.1287337326857410E-003   6.3594476305394554E-002
   1.0523769023304996E-002  -3.2554140750369887E-003   6.3996850045158107E-002
   1.0180620400590513E-002  -3.1452282909288781E-003   6.3767746150132379E-002
   9.8374717778760400E-003  -3.0246788753382561E-003   6.3740853074697151E-002
   9.4943231551615631E-003  -2.8937658282648122E-003   6.3916170818852286E-002
   9.1511745324470775E-003  -2.7524891497088255E-003   6.4293699382597921E-002
   5.1654966570066812E-003  -1.6277070290639795E-003   6.4065742297721176E-002
   5.0092406008288830E-003  -1.5726141352272391E-003   6.4021868555587072E-002
   4.8529845446510823E-003  -1.5123394268930813E-003   6.4149569126935868E-002
   4.6967284884732834E-003  -1.4468829040611567E-003   6.4448844011767661E-002
   4.5404724322954896E-003  -1.3762445667319656E-003   6.4919693210082230E-002
  -2.6336370584356672E-011   1.6909140754250984E-011   6.4082132568505479E-002
  -2.2085024781182128E-011   2.0474566486683443E-011   6.4218307162277860E-002
  -1.7833678978007583E-011   2.1552121198809004E-011   6.4495419563425610E-002
  -1.3582331440109563E-011   2.0142561230063194E-011   6.4913469771948729E-002
  -9.3309873716584946E-012   1.6245171874373909E-011   6.5472457787847327E-002
   1.8583267708325635E-002  -5.5049783156628784E-003   6.2822023978471975E-002
   1.7761349858966824E-002  -5.2128239070145521E-003   6.2478070274331388E-002
   1.6939432009608027E-002  -4.9221946685413936E-003   6.2350736175283250E-002
   1.6117514160249209E-002  -4.6330906002431151E-003   6.2440021681327132E-002
   1.5295596310890391E-002  -4.3455117021202194E-003   6.2745926792463103E-002
   1.3832106291123809E-002  -4.1287337326857410E-003   6.3594476305394554E-002
   1.3224023011368852E-002  -3.9096179274361320E-003   6.3316632700436526E-002
   1.2615939731613898E-002  -3.6916459997202583E-003   6.3249838629593852E-002
   1.2007856451858952E-002  -3.4748179495379637E-003   6.3394094092866768E-002
   1.1399773172103986E-002  -3.2591337768895223E-003   6.3749399090255232E-002
   9.1511745324470775E-003  -2.7524891497088255E-003   6.4293699382597921E-002
   8.7513557513192661E-003  -2.6064119478577397E-003   6.4082347169463635E-002
   8.3515369701914650E-003  -2.4610973308990605E-003   6.4076474419467927E-002
   7.9517181890636553E-003  -2.3165452988326996E-003   6.4276081132611157E-002
   7.5518994079358526E-003  -2.1727558516588530E-003   6.4681167308892992E-002
   4.5404724322954896E-003  -1.3762445667319656E-003   6.4919693210082230E-002
   4.3433480788180930E-003  -1.3032059682792502E-003   6.4775213681412910E-002
   4.1462237253407077E-003  -1.2305486620778107E-003   6.4830643544905558E-002
   3.9490993718633242E-003  -1.1582726481274919E-003   6.5085982800560202E-002
   3.7519750183859328E-003  -1.0863779264283918E-003   6.5541231448377021E-002
  -9.3309873716584946E-012   1.6245171874373909E-011   6.5472457787847327E-002
  -6.1346691615504767E-012   1.1299072788517606E-011   6.5395232236284184E-002
  -2.9383544208894108E-012   6.7432448513926602E-012   6.5512346005906386E-002
   2.5796552394208305E-013   2.5777643908320158E-012   6.5823799096713959E-002
   3.4542785298796730E-012  -1.1975420655119251E-012   6.6329591508707042E-002
   1.5295596310890391E-002  -4.3455117021202194E-003   6.2745926792463103E-002
   1.4401626576282175E-002  -4.0518119052289636E-003   6.2515823880723742E-002
   1.3507656841673932E-002  -3.7443451406269229E-003   6.2504788744475820E-002
   1.2613687107065716E-002  -3.4231114083134694E-003   6.2712821383719877E-002
   1.1719717372457472E-002  -3.0881107082894044E-003   6.3139921798455512E-002
   1.1399773172103986E-002  -3.2591337768895223E-003   6.3749399090255232E-002
   1.0725977377505358E-002  -3.0388589299570890E-003   6.3580397814558043E-002
   1.0052181582906723E-002  -2.8082588569225270E-003   6.3632676643388647E-002
   9.3783857883080780E-003  -2.5673335577864435E-003   6.3906235576746490E-002
   8.7045899937094606E-003  -2.3160830325484882E-003   6.4401074614631737E-002
   7.5518994079358526E-003  -2.1727558516588530E-003   6.4681167308892992E-002
   7.1004898823825054E-003  -2.0259059546849367E-003   6.4569825927629373E-002
   6.6490803568291616E-003  -1.8721725732183600E-003   6.4681976979928862E-002
   6.1976708312758248E-003  -1.7115557072592529E-003   6.5017620465791431E-002
   5.7462613057224707E-003  -1.5440553568074611E-003   6.5576756385217483E-002
   3.7519750183859328E-003  -1.0863779264283918E-003   6.5541231448377021E-002
   3.5251640909136099E-003  -1.0129529794129788E-003   6.5484108219937373E-002
   3.2983531634412774E-003  -9.3608628951402303E-004   6.5652689754096619E-002
   3.0715422359689432E-003  -8.5577785673203368E-004   6.6046976050854758E-002
   2.8447313084966289E-003  -7.7202768106654496E-004   6.6666967110211611E-002
   3.4542785298796730E-012  -1.1975420655119251E-012   6.6329591508707042E-002
   3.0986671561983314E-012  -4.1409098372469089E-012   6.6323244691482153E-002
   2.7430488436230860E-012  -5.8097832100756364E-012   6.6544814965892013E-002
   2.3874340004947925E-012  -6.2048664817293542E-012   6.6994302331936442E-002
   2.0318191573664990E-012  -5.3256288268244134E-012   6.7671706789615427E-002
   1.1719717372457472E-002  -3.0881107082894044E-003   6.3139921798455512E-002
   1.0760526654492883E-002  -2.7562837120175265E-003   6.3030439354671119E-002
   9.8013359365282937E-003  -2.4445710909616336E-003   6.3167361882311701E-002
   8.8421452185636906E-003  -2.1529728451220864E-003   6.3550689381377257E-002
   7.8829545005990875E-003  -1.8814889744988017E-003   6.4180421851868008E-002
   8.7045899937094606E-003  -2.3160830325484882E-003   6.4401074614631737E-002
   7.9901524241413197E-003  -2.0672127849957200E-003   6.4329138960235621E-002
   7.2757148545732064E-003  -1.8334283189157252E-003   6.4500304631207150E-002
   6.5612772850050932E-003  -1.6147296343083303E-003   6.4914571627546935E-002
   5.8468397154369661E-003  -1.4111167311736672E-003   6.5571939949254143E-002
   5.7462613057224707E-003  -1.5440553568074611E-003   6.5576756385217483E-002
   5.2732732384937371E-003  -1.3781418579740801E-003   6.5547396113952605E-002
   4.8002851712649897E-003  -1.2222855468695948E-003   6.5757833521998793E-002
   4.3272971040362526E-003  -1.0764864234944077E-003   6.6208068609355769E-002
   3.8543090368075086E-003  -9.4074448784847720E-004   6.6898101376023533E-002
   2.8447313084966289E-003  -7.7202768106654496E-004   6.6666967110211611E-002
   2.6098890975501284E-003  -6.8907093095224581E-004   6.6685210815822127E-002
   2.3750468866036469E-003  -6.1114277482379742E-004   6.6939948554686379E-002
   2.1402046756571593E-003  -5.3824321268067937E-004   6.7431180326804258E-002
   1.9053624647106786E-003  -4.7037224452331494E-004   6.8158906132176025E-002
   2.0318191573664990E-012  -5.3256288268244134E-012   6.7671706789615427E-002
   1.3104864415858231E-012  -3.9306891075341355E-012   6.7742583065844353E-002
   5.8916413414600299E-013  -2.7775282074316010E-012   6.8046649729270103E-002
  -1.3215990801729305E-013  -1.8666110324083718E-012   6.8583906779892428E-002
  -8.5349088907449300E-013  -1.1981526881754689E-012   6.9354354217711411E-002
   7.8829545005990875E-003  -1.8814889744988017E-003   6.4180421851868008E-002
   6.9504660471188945E-003  -1.6745813308588486E-003   6.4086537004277022E-002
   6.0179775936387014E-003  -1.5767117659693519E-003   6.4244395116243191E-002
   5.0854891401584876E-003  -1.5878802798308250E-003   6.4653996187766322E-002
   4.1530006866783153E-003  -1.7080868724425047E-003   6.5315340218846329E-002
   5.8468397154369661E-003  -1.4111167311736672E-003   6.5571939949254143E-002
   5.1614390099734772E-003  -1.2559359983214113E-003   6.5421575677734212E-002
   4.4760383045099605E-003  -1.1825338245611827E-003   6.5513643942690658E-002
   3.7906375990464508E-003  -1.1909102098932728E-003   6.5848144744123427E-002
   3.1052368935829550E-003  -1.2810651543173623E-003   6.6425078082032740E-002
   3.8543090368075086E-003  -9.4074448784847720E-004   6.6898101376023533E-002
   3.4066856562800230E-003  -8.3729066578402955E-004   6.6718517200232863E-002
   2.9590622757525581E-003  -7.8835588315298577E-004   6.6772055137837960E-002
   2.5114388952250915E-003  -7.9394013995582463E-004   6.7058715188838700E-002
   2.0638155146976075E-003  -8.5404343619227552E-004   6.7578497353235373E-002
   1.9053624647106786E-003  -4.7037224452331494E-004   6.8158906132176025E-002
   1.6862059860385855E-003  -4.1864533324656450E-004   6.7977361571773129E-002
   1.4670495073664785E-003  -3.9417794174474718E-004   6.8019628701685375E-002
   1.2478930286943849E-003  -3.9697007001832443E-004   6.8285707521912861E-002
   1.0287365500222783E-003  -4.2702171806721645E-004   6.8775598032455171E-002
  -8.5349088907449300E-013  -1.1981526881754689E-012   6.9354354217711411E-002
  -7.5087158712960900E-013  -7.0921046813055000E-013   6.9198108792354773E-002
  -6.4825922407862890E-013  -3.3667513221757872E-013   6.9256364634232959E-002
  -5.4564686102764881E-013  -8.0949136282981726E-014   6.9529121743345329E-002
  -4.4302755908276481E-013   5.7953641885433171E-014   7.0016380119692134E-002
   4.1530006866783153E-003  -1.7080868724425047E-003   6.5315340218846329E-002
   3.6237289680224050E-003  -1.9994041407698782E-003   6.4400961489530895E-002
   3.0944572493664946E-003  -2.5239046817774058E-003   6.3604937039789311E-002
   2.5651855307105981E-003  -3.2815884954648031E-003   6.2927266869621606E-002
   2.0359138120546738E-003  -4.2724555818320908E-003   6.2367950979028253E-002
   3.1052368935829550E-003  -1.2810651543173623E-003   6.6425078082032740E-002
   2.6978103670260017E-003  -1.4995531055408406E-003   6.5316497315858146E-002
   2.2903838404690416E-003  -1.8929285112711525E-003   6.4333252654307976E-002
   1.8829573139120780E-003  -2.4611913715070072E-003   6.3475344097381245E-002
   1.4755307873551282E-003  -3.2043416862499452E-003   6.2742771645078688E-002
   2.0638155146976075E-003  -8.5404343619227552E-004   6.7578497353235373E-002
   1.7852160052892196E-003  -9.9970207031199743E-004   6.6334010368376162E-002
   1.5066164958808387E-003  -1.2619523407645800E-003   6.5221841313190823E-002
   1.2280169864724542E-003  -1.6407942475501029E-003   6.4241990187678732E-002
   9.4941747706406981E-004  -2.1362277906682436E-003   6.3394456991840042E-002
   1.0287365500222783E-003  -4.2702171806721645E-004   6.8775598032455171E-002
   8.8594588281209856E-004  -4.9985103508327910E-004   6.7453500647085232E-002
   7.4315521560191188E-004  -6.3097617025833358E-004   6.6270703016437824E-002
   6.0036454839172172E-004  -8.2039712359297488E-004   6.5227205140513805E-002
   4.5757388118154545E-004  -1.0681138950866531E-003   6.4323007019312414E-002
  -4.4302755908276481E-013   5.7953641885433171E-014   7.0016380119692134E-002
  -4.0539099854797200E-013   1.4582779428451431E-013   6.8674968151984261E-002
  -3.6775096856622724E-013   2.4807933485249123E-013   6.7479837764049255E-002
  -3.3011614275491041E-013   3.6444458562101545E-013   6.6430988955886616E-002
  -2.9247437804968968E-013   4.9538151358774485E-013   6.5528421727496733E-002
   2.0359138120546738E-003  -4.2724555818320908E-003   6.2367950979028253E-002
   2.2858311722517288E-003  -5.5759678510641786E-003   5.8337377066580154E-002
   2.5357485324487422E-003  -7.2715872133444770E-003   5.4301790405834827E-002
   2.7856658926457625E-003  -9.3593136686739992E-003   5.0261190996791771E-002
   3.0355832528428106E-003  -1.1839147217052481E-002   4.6215578839451599E-002
   1.4755307873551282E-003  -3.2043416862499452E-003   6.2742771645078688E-002
   1.7060687513161671E-003  -4.1819758881354030E-003   5.8389007092686351E-002
   1.9366067152771851E-003  -5.4536904097995942E-003   5.4001496496119794E-002
   2.1671446792382518E-003  -7.0194852512418804E-003   4.9580239855377989E-002
   2.3976826431992559E-003  -8.8793604124628445E-003   4.5125237170462462E-002
   9.4941747706406981E-004  -2.1362277906682436E-003   6.3394456991840042E-002
   1.1318427489118398E-003  -2.7879839252072380E-003   5.8815528572774389E-002
   1.3142680207596201E-003  -3.6357936062541285E-003   5.4174120813656829E-002
   1.4966932926073779E-003  -4.6796568338091996E-003   4.9470233714487222E-002
   1.6791185644551565E-003  -5.9195736078729855E-003   4.4703867275266096E-002
   4.5757388118154545E-004  -1.0681138950866531E-003   6.4323007019312414E-002
   5.6315316503875463E-004  -1.3939919622789898E-003   5.9616941506843740E-002
   6.6873244889597682E-004  -1.8178968027091763E-003   5.4819663358445715E-002
   7.7431173275321246E-004  -2.3398284163770218E-003   4.9931172574118582E-002
   8.7989101661039432E-004  -2.9597868032832375E-003   4.4951469153862389E-002
  -2.9247437804968968E-013   4.9538151358774485E-013   6.5528421727496733E-002
  -3.0308394682876383E-013   6.4936944710325406E-013   6.0793245894895209E-002
  -3.1370045450174189E-013   8.3627549329889916E-013   5.5938124130486933E-002
  -3.2432043162167190E-013   1.0556694407526379E-012   5.0963056434272402E-002
  -3.3492653095379410E-013   1.3065104553788842E-012   4.5868042806251008E-002
  -2.0175409953804291E-011  -1.0244249892821244E-010   6.0528105366728924E-002
  -2.1715650111442386E-011  -5.3833021373961287E-011   6.1461545333740875E-002
  -2.3255886799633529E-011  -1.7737977753284895E-011   6.2365029856374377E-002
  -2.4796135630889005E-011   5.8428123450582348E-012   6.3238558934629235E-002
  -2.6336370584356672E-011   1.6909140754250984E-011   6.4082132568505479E-002
  -5.2301706853697949E-003   1.8498096605325531E-003   6.2017777165417454E-002
  -5.2140021901410233E-003   1.7920162549789065E-003   6.2436329783736144E-002
  -5.1978336949122638E-003   1.7357346856307770E-003   6.2917174839971418E-002
  -5.1816651996835035E-003   1.6809649524883070E-003   6.3460312334123192E-002
  -5.1654967044547466E-003   1.6277070555513473E-003   6.4065742266191605E-002
  -1.1022108552250626E-002   3.6996194235076607E-003   6.3448899585582808E-002
  -1.0897523677957741E-002   3.5840325637908621E-003   6.3354076703928244E-002
  -1.0772938803664837E-002   3.4714693889995873E-003   6.3413794142485228E-002
  -1.0648353929371936E-002   3.3619298991338850E-003   6.3628051901253993E-002
  -1.0523769055079034E-002   3.2554140941937204E-003   6.3996849980234499E-002
  -1.7375813620817950E-002   5.5494291864827683E-003   6.4821472627224985E-002
  -1.7050564485165762E-002   5.3760488726027900E-003   6.4214786094316995E-002
  -1.6725315349513589E-002   5.2072040923683699E-003   6.3854887763915957E-002
  -1.6400066213861413E-002   5.0428948457794769E-003   6.3741777636021638E-002
  -1.6074817078209229E-002   4.8831211328360657E-003   6.3875455710634244E-002
  -2.4291285891071747E-002   7.3992389494578203E-003   6.6135496290344209E-002
  -2.3673124611765135E-002   7.1680651814147178E-003   6.5018457954902797E-002
  -2.3054963332458541E-002   6.9429387957370969E-003   6.4240455704263399E-002
  -2.2436802053151926E-002   6.7238597924249993E-003   6.3801489538426015E-002
  -2.1818640773845328E-002   6.5108281714783556E-003   6.3701559457390644E-002
  -2.6336370584356672E-011   1.6909140754250984E-011   6.4082132568505479E-002
  -2.2085024781182128E-011   2.0474566486683443E-011   6.4218307162277860E-002
  -1.7833678978007583E-011   2.1552121198809004E-011   6.4495419563425610E-002
  -1.3582331440109563E-011   2.0142561230063194E-011   6.4913469771948729E-002
  -9.3309873716584946E-012   1.6245171874373909E-011   6.5472457787847327E-002
  -5.1654967044547466E-003   1.6277070555513473E-003   6.4065742266191605E-002
  -5.0092406405091872E-003   1.5726141674484023E-003   6.4021868529264350E-002
  -4.8529845765636244E-003   1.5123394608079418E-003   6.4149569104350129E-002
  -4.6967285126180624E-003   1.4468829356297837E-003   6.4448843991448942E-002
  -4.5404724486725022E-003   1.3762445919140442E-003   6.4919693190560790E-002
  -1.0523769055079034E-002   3.2554140941937204E-003   6.3996849980234499E-002
  -1.0180620426801582E-002   3.1452283144225712E-003   6.3767746096557609E-002
  -9.8374717985241292E-003   3.0246789000636515E-003   6.3740853029531364E-002
  -9.4943231702466647E-003   2.8937658511172283E-003   6.3916170779155873E-002
  -9.1511745419692158E-003   2.7524891675830554E-003   6.4293699345431110E-002
  -1.6074817078209229E-002   4.8831211328360657E-003   6.3875455710634244E-002
  -1.5514139380962213E-002   4.7178424613966014E-003   6.3455939864157568E-002
  -1.4953461683715181E-002   4.5370183393192778E-003   6.3269271338969202E-002
  -1.4392783986468160E-002   4.3406487666046451E-003   6.3315450135069368E-002
  -1.3832106289221139E-002   4.1287337432519694E-003   6.3594476252457788E-002
  -2.1818640773845328E-002   6.5108281714783556E-003   6.3701559457390644E-002
  -2.1009797502991062E-002   6.2904566083705760E-003   6.3086449832064184E-002
  -2.0200954232136793E-002   6.0493577785751262E-003   6.2734824032663755E-002
  -1.9392110961282516E-002   5.7875316820918815E-003   6.2646682059189385E-002
  -1.8583267690428257E-002   5.5049783189209944E-003   6.2822023911641156E-002
  -9.3309873716584946E-012   1.6245171874373909E-011   6.5472457787847327E-002
  -6.1346691615504767E-012   1.1299072788517606E-011   6.5395232236284184E-002
  -2.9383544208894108E-012   6.7432448513926602E-012   6.5512346005906386E-002
   2.5796552394208305E-013   2.5777643908320158E-012   6.5823799096713959E-002
   3.4542785298796730E-012  -1.1975420655119251E-012   6.6329591508707042E-002
  -4.5404724486725022E-003   1.3762445919140442E-003   6.4919693190560790E-002
  -4.3433480893136089E-003   1.3032059853617106E-003   6.4775213666646986E-002
  -4.1462237299547105E-003   1.2305486716731873E-003   6.4830643533872856E-002
  -3.9490993705958086E-003   1.1582726508488142E-003   6.5085982792238567E-002
  -3.7519750112369188E-003   1.0863779228885151E-003   6.5541231441744063E-002
  -9.1511745419692158E-003   2.7524891675830554E-003   6.4293699345431110E-002
  -8.7513557564932662E-003   2.6064119594240154E-003   6.4082347141640239E-002
  -8.3515369710173201E-003   2.4610973366029770E-003   6.4076474398943650E-002
  -7.9517181855413791E-003   2.3165452991198675E-003   6.4276081117341316E-002
  -7.5518994000654243E-003   2.1727558469747110E-003   6.4681167296833278E-002
  -1.3832106289221139E-002   4.1287337432519694E-003   6.3594476252457788E-002
  -1.3224023007673667E-002   3.9096179334864867E-003   6.3316632661263833E-002
  -1.2615939726126209E-002   3.6916460015326488E-003   6.3249838601118616E-002
  -1.2007856444578739E-002   3.4748179473908080E-003   6.3394094072022247E-002
  -1.1399773163031281E-002   3.2591337710609486E-003   6.3749399073974602E-002
  -1.8583267690428257E-002   5.5049783189209944E-003   6.2822023911641156E-002
  -1.7761349842854806E-002   5.2128239075489580E-003   6.2478070225517990E-002
  -1.6939431995281341E-002   4.9221946664626676E-003   6.2350736140397961E-002
  -1.6117514147707891E-002   4.6330905956620434E-003   6.2440021656281333E-002
  -1.5295596300134433E-002   4.3455116951470751E-003   6.2745926773167704E-002
   3.4542785298796730E-012  -1.1975420655119251E-012   6.6329591508707042E-002
   3.0986671561983314E-012  -4.1409098372469089E-012   6.6323244691482153E-002
   2.7430488436230860E-012  -5.8097832100756364E-012   6.6544814965892013E-002
   2.3874340004947925E-012  -6.2048664817293542E-012   6.6994302331936442E-002
   2.0318191573664990E-012  -5.3256288268244134E-012   6.7671706789615427E-002
  -3.7519750112369188E-003   1.0863779228885151E-003   6.5541231441744063E-002
  -3.5251640846006762E-003   1.0129529710291019E-003   6.5484108216045167E-002
  -3.2983531579644319E-003   9.3608627850734483E-004   6.5652689752695365E-002
  -3.0715422313281884E-003   8.5577784532319193E-004   6.6046976051694739E-002
  -2.8447313046919380E-003   7.7202767147654949E-004   6.6666967113043318E-002
  -7.5518994000654243E-003   2.1727558469747110E-003   6.4681167296833278E-002
  -7.1004898757227632E-003   2.0259059461988915E-003   6.4569825920723703E-002
  -6.6490803513800812E-003   1.8721725628245769E-003   6.4681976977677830E-002
  -6.1976708270374036E-003   1.7115556968510821E-003   6.5017620467695561E-002
  -5.7462613026947242E-003   1.5440553482787833E-003   6.5576756390777285E-002
  -1.1399773163031281E-002   3.2591337710609486E-003   6.3749399073974602E-002
  -1.0725977370267582E-002   3.0388589213690143E-003   6.3580397805517580E-002
  -1.0052181577503904E-002   2.8082588471416460E-003   6.3632676640839284E-002
  -9.3783857847402202E-003   2.5673335483791674E-003   6.3906235579939019E-002
  -8.7045899919765291E-003   2.3160830250809339E-003   6.4401074622817162E-002
  -1.5295596300134433E-002   4.3455116951470751E-003   6.2745926773167704E-002
  -1.4401626568235161E-002   4.0518118965386929E-003   6.2515823870427256E-002
  -1.3507656836335896E-002   3.7443451314589926E-003   6.2504788742179629E-002
  -1.2613687104436635E-002   3.4231113999071555E-003   6.2712821388424878E-002
  -1.1719717372537360E-002   3.0881107018833065E-003   6.3139921809163058E-002
   2.0318191573664990E-012  -5.3256288268244134E-012   6.7671706789615427E-002
   1.3104864415858231E-012  -3.9306891075341355E-012   6.7742583065844353E-002
   5.8916413414600299E-013  -2.7775282074316010E-012   6.8046649729270103E-002
  -1.3215990801729305E-013  -1.8666110324083718E-012   6.8583906779892428E-002
  -8.5349088907449300E-013  -1.1981526881754689E-012   6.9354354217711411E-002
  -2.8447313046919380E-003   7.7202767147654949E-004   6.6666967113043318E-002
  -2.6098890951134109E-003   6.8907092403136527E-004   6.6685210817708118E-002
  -2.3750468855348785E-003   6.1114277005150375E-004   6.6939948555776119E-002
  -2.1402046759563418E-003   5.3824320953694410E-004   6.7431180327247223E-002
  -1.9053624663778052E-003   4.7037224248769327E-004   6.8158906132121555E-002
  -5.7462613026947242E-003   1.5440553482787833E-003   6.5576756390777285E-002
  -5.2732732366098170E-003   1.3781418519933364E-003   6.5547396117585449E-002
  -4.8002851705249028E-003   1.2222855428806328E-003   6.5757833524003148E-002
  -4.3272971044399991E-003   1.0764864209408843E-003   6.6208068610030590E-002
  -3.8543090383550815E-003   9.4074448617376127E-004   6.6898101375667651E-002
  -8.7045899919765291E-003   2.3160830250809339E-003   6.4401074622817162E-002
  -7.9901524231787337E-003   2.0672127799551271E-003   6.4329138965475985E-002
  -7.2757148543809175E-003   1.8334283157097689E-003   6.4500304633951053E-002
  -6.5612772855831135E-003   1.6147296323447431E-003   6.4914571628242310E-002
  -5.8468397167853077E-003   1.4111167298599403E-003   6.5571939948349575E-002
  -1.1719717372537360E-002   3.0881107018833065E-003   6.3139921809163058E-002
  -1.0760526654820142E-002   2.7562837079173619E-003   6.3030439361380197E-002
  -9.8013359371029278E-003   2.4445710885388772E-003   6.3167361885619999E-002
  -8.8421452193857015E-003   2.1529728437486781E-003   6.3550689381882491E-002
  -7.8829545016684960E-003   1.8814889735457863E-003   6.4180421850167590E-002
  -8.5349088907449300E-013  -1.1981526881754689E-012   6.9354354217711411E-002
  -7.5087158712960900E-013  -7.0921046813055000E-013   6.9198108792354773E-002
  -6.4825922407862890E-013  -3.3667513221757872E-013   6.9256364634232959E-002
  -5.4564686102764881E-013  -8.0949136282981726E-014   6.9529121743345329E-002
  -4.4302755908276481E-013   5.7953641885433171E-014   7.0016380119692134E-002
  -1.9053624663778052E-003   4.7037224248769327E-004   6.8158906132121555E-002
  -1.6862059875040018E-003   4.1864533197688569E-004   6.7977361571596395E-002
  -1.4670495086301933E-003   3.9417794107760029E-004   6.8019628701379176E-002
  -1.2478930297563917E-003   3.9697006978896276E-004   6.8285707521469896E-002
  -1.0287365508825815E-003   4.2702171811237477E-004   6.8775598031868779E-002
  -3.8543090383550815E-003   9.4074448617376127E-004   6.6898101375667651E-002
  -3.4066856576364744E-003   8.3729066466298185E-004   6.6718517199701732E-002
  -2.9590622769178621E-003   7.8835588249123734E-004   6.6772055137117314E-002
  -2.5114388961992602E-003   7.9394013965921467E-004   6.7058715187914480E-002
  -2.0638155154806565E-003   8.5404343616646283E-004   6.7578497352093425E-002
  -5.8468397167853077E-003   1.4111167298599403E-003   6.5571939948349575E-002
  -5.1614390111482718E-003   1.2559359973488005E-003   6.5421575676670937E-002
  -4.4760383055112585E-003   1.1825338239054711E-003   6.5513643941447597E-002
  -3.7906375998742314E-003   1.1909102095292966E-003   6.5848144742679360E-002
  -3.1052368942372098E-003   1.2810651542206064E-003   6.6425078080366323E-002
  -7.8829545016684960E-003   1.8814889735457863E-003   6.4180421850167590E-002
  -6.9504660480394290E-003   1.6745813300351187E-003   6.4086537002504329E-002
  -6.0179775944103758E-003   1.5767117653190943E-003   6.4244395114369912E-002
  -5.0854891407813158E-003   1.5878802793994201E-003   6.4653996185764173E-002
  -4.1530006871522557E-003   1.7080868722749720E-003   6.5315340216687390E-002
  -4.4302755908276481E-013   5.7953641885433171E-014   7.0016380119692134E-002
  -4.0539099854797200E-013   1.4582779428451431E-013   6.8674968151984261E-002
  -3.6775096856622724E-013   2.4807933485249123E-013   6.7479837764049255E-002
  -3.3011614275491041E-013   3.6444458562101545E-013   6.6430988955886616E-002
  -2.9247437804968968E-013   4.9538151358774485E-013   6.5528421727496733E-002
  -1.0287365508825815E-003   4.2702171811237477E-004   6.8775598031868779E-002
  -8.8594588360118437E-004   4.9985103532906860E-004   6.7453500646568798E-002
  -7.4315521631978902E-004   6.3097617072216394E-004   6.6270703015983617E-002
  -6.0036454903838500E-004   8.2039712429105016E-004   6.5227205140113223E-002
  -4.5757388175698271E-004   1.0681138960358938E-003   6.4323007018957989E-002
  -2.0638155154806565E-003   8.5404343616646283E-004   6.7578497352093425E-002
  -1.7852160060132308E-003   9.9970207051244819E-004   6.6334010367362889E-002
  -1.5066164965458267E-003   1.2619523411959988E-003   6.5221841312289586E-002
  -1.2280169870784083E-003   1.6407942482174268E-003   6.4241990186873335E-002
  -9.4941747761099690E-004   2.1362277915767391E-003   6.3394456991114401E-002
  -3.1052368942372098E-003   1.2810651542206064E-003   6.6425078080366323E-002
  -2.6978103676415371E-003   1.4995531056954808E-003   6.5316497314367214E-002
  -2.2903838410458788E-003   1.8929285116700695E-003   6.4333252652967354E-002
  -1.8829573144502130E-003   2.4611913721438068E-003   6.3475344096167119E-002
  -1.4755307878545473E-003   3.2043416871171959E-003   6.2742771643965856E-002
  -4.1530006871522557E-003   1.7080868722749720E-003   6.5315340216687390E-002
  -3.6237289684861104E-003   1.9994041408789576E-003   6.4400961487581343E-002
  -3.0944572498199305E-003   2.5239046821440014E-003   6.3604937038016673E-002
  -2.5651855311537609E-003   3.2815884960703742E-003   6.2927266867993686E-002
  -2.0359138124876053E-003   4.2724555826582078E-003   6.2367950977512243E-002
  -2.9247437804968968E-013   4.9538151358774485E-013   6.5528421727496733E-002
  -3.0308394682876383E-013   6.4936944710325406E-013   6.0793245894895209E-002
  -3.1370045450174189E-013   8.3627549329889916E-013   5.5938124130486933E-002
  -3.2432043162167190E-013   1.0556694407526379E-012   5.0963056434272402E-002
  -3.3492653095379410E-013   1.3065104553788842E-012   4.5868042806251008E-002
  -4.5757388175698271E-004   1.0681138960358938E-003   6.4323007018957989E-002
  -5.6315316563594967E-004   1.3939919635194697E-003   5.9616941506571486E-002
  -6.6873244951490274E-004   1.8178968043033317E-003   5.4819663358254944E-002
  -7.7431173339387576E-004   2.3398284183885065E-003   4.9931172574007976E-002
  -8.7989101727282276E-004   2.9597868057742449E-003   4.4951469153830637E-002
  -9.4941747761099690E-004   2.1362277915767391E-003   6.3394456991114401E-002
  -1.1318427494820711E-003   2.7879839263891815E-003   5.8815528572211284E-002
  -1.3142680213531332E-003   3.6357936077709152E-003   5.4174120813254678E-002
  -1.4966932932241909E-003   4.6796568357219473E-003   4.9470233714244097E-002
  -1.6791185650952833E-003   5.9195736102419794E-003   4.4703867275179165E-002
  -1.4755307878545473E-003   3.2043416871171959E-003   6.2742771643965856E-002
  -1.7060687518414492E-003   4.1819758892591985E-003   5.8389007091814882E-002
  -1.9366067158283653E-003   5.4536904112385681E-003   5.4001496495486086E-002
  -2.1671446798152746E-003   7.0194852530554193E-003   4.9580239854979932E-002
  -2.3976826438021695E-003   8.8793604147097138E-003   4.5125237170295374E-002
  -2.0359138124876053E-003   4.2724555826582078E-003   6.2367950977512243E-002
  -2.2858311727141159E-003   5.5759678521288825E-003   5.8337377065381557E-002
  -2.5357485329406126E-003   7.2715872147055272E-003   5.4301790404949257E-002
  -2.7856658931671233E-003   9.3593136703886623E-003   5.0261190996216037E-002
  -3.0355832533936200E-003   1.1839147219177448E-002   4.6215578839180704E-002
  -2.4291285891071747E-002   7.3992389494578203E-003   6.6135496290344209E-002
  -2.3673124611765135E-002   7.1680651814147178E-003   6.5018457954902797E-002
  -2.3054963332458541E-002   6.9429387957370969E-003   6.4240455704263399E-002
  -2.2436802053151926E-002   6.7238597924249993E-003   6.3801489538426015E-002
  -2.1818640773845328E-002   6.5108281714783556E-003   6.3701559457390644E-002
  -3.1322900737222818E-002   9.1918205472387160E-003   6.1615130259227990E-002
  -3.0389833686931045E-002   8.9639305957887050E-003   6.0797929916465793E-002
  -2.9456766636639268E-002   8.7189657751812338E-003   6.0271505030871919E-002
  -2.8523699586347519E-002   8.4569260854164725E-003   6.0035855602446384E-002
  -2.7590632536055745E-002   8.1778115264941054E-003   6.0090981631189117E-002
  -3.8025033533481939E-002   1.0984402145019667E-002   5.7109609170466341E-002
  -3.6825321339838693E-002   1.0759796010162692E-002   5.6569124568860360E-002
  -3.5625609146195454E-002   1.0494992754625371E-002   5.6271154796789055E-002
  -3.4425896952552180E-002   1.0189992378407807E-002   5.6215699854252427E-002
  -3.3226184758908921E-002   9.8447948815098274E-003   5.6402759741250405E-002
  -4.4397684279849137E-002   1.2776983742800563E-002   5.2618933024059317E-002
  -4.2979587570488059E-002   1.2555661424536610E-002   5.2332041912086569E-002
  -4.1561490861126996E-002   1.2271019734069452E-002   5.2239405002014981E-002
  -4.0143394151765911E-002   1.1923058671399183E-002   5.2341022293844380E-002
  -3.8725297442404820E-002   1.1511778236525619E-002   5.2636893787574635E-002
  -5.0440852976324391E-002   1.4569565340581514E-002   4.8143101820006640E-002
  -4.8852632378879157E-002   1.4351526838910722E-002   4.8086681946144461E-002
  -4.7264411781433979E-002   1.4047046713513672E-002   4.8176255646549537E-002
  -4.5676191183988732E-002   1.3656124964390608E-002   4.8411822921222009E-002
  -4.4087970586543512E-002   1.3178761591541299E-002   4.8793383770161791E-002
  -2.1818640773845328E-002   6.5108281714783556E-003   6.3701559457390644E-002
  -2.1009797502991062E-002   6.2904566083705760E-003   6.3086449832064184E-002
  -2.0200954232136793E-002   6.0493577785751262E-003   6.2734824032663755E-002
  -1.9392110961282516E-002   5.7875316820918815E-003   6.2646682059189385E-002
  -1.8583267690428257E-002   5.5049783189209944E-003   6.2822023911641156E-002
  -2.7590632536055745E-002   8.1778115264941054E-003   6.0090981631189117E-002
  -2.6531466170329497E-002   7.8833489336342516E-003   5.9581976581463011E-002
  -2.5472299804603242E-002   7.5752651420568778E-003   5.9310133895554895E-002
  -2.4413133438876990E-002   7.2535601517616406E-003   5.9275453573464532E-002
  -2.3353967073150735E-002   6.9182339627487655E-003   5.9477935615192268E-002
  -3.3226184758908921E-002   9.8447948815098274E-003   5.6402759741250405E-002
  -3.1943016760418858E-002   9.4762412588979550E-003   5.6006965335094763E-002
  -3.0659848761928791E-002   9.1011725055385184E-003   5.5822011830648999E-002
  -2.9376680763438728E-002   8.7195886214312887E-003   5.5847899227912834E-002
  -2.8093512764948671E-002   8.3314896065765642E-003   5.6084627526886463E-002
  -3.8725297442404820E-002   1.1511778236525619E-002   5.2636893787574635E-002
  -3.7244449273259164E-002   1.1069133584161645E-002   5.2361416092959620E-002
  -3.5763601104113481E-002   1.0627079869020103E-002   5.2270457837946108E-002
  -3.4282752934967818E-002   1.0185617091100965E-002   5.2364019022534222E-002
  -3.2801904765822128E-002   9.7447452504042659E-003   5.2642099646723728E-002
  -4.4087970586543512E-002   1.3178761591541299E-002   4.8793383770161791E-002
  -4.2435763708850410E-002   1.2662025909425362E-002   4.8645328855057346E-002
  -4.0783556831157280E-002   1.2152987232501800E-002   4.8655471917446347E-002
  -3.9131349953464137E-002   1.1651645560770724E-002   4.8823812957328599E-002
  -3.7479143075771035E-002   1.1158000894232190E-002   4.9150351974704298E-002
  -1.8583267690428257E-002   5.5049783189209944E-003   6.2822023911641156E-002
  -1.7761349842854806E-002   5.2128239075489580E-003   6.2478070225517990E-002
  -1.6939431995281341E-002   4.9221946664626676E-003   6.2350736140397961E-002
  -1.6117514147707891E-002   4.6330905956620434E-003   6.2440021656281333E-002
  -1.5295596300134433E-002   4.3455116951470751E-003   6.2745926773167704E-002
  -2.3353967073150735E-002   6.9182339627487655E-003   5.9477935615192268E-002
  -2.2320176947321326E-002   6.5738931795143174E-003   5.9158946887526404E-002
  -2.1286386821491962E-002   6.2251444065545281E-003   5.9047083115369214E-002
  -2.0252596695662584E-002   5.8719876438694529E-003   5.9142344298720700E-002
  -1.9218806569833193E-002   5.5144228914589255E-003   5.9444730437580862E-002
  -2.8093512764948671E-002   8.3314896065765642E-003   5.6084627526886463E-002
  -2.6857345006357947E-002   7.9349624514797878E-003   5.5784670597666994E-002
  -2.5621177247767260E-002   7.5280941466466036E-003   5.5682343978461453E-002
  -2.4385009489176566E-002   7.1108846920769162E-003   5.5777647669270056E-002
  -2.3148841730585852E-002   6.6833340877708314E-003   5.6070581670092656E-002
  -3.2801904765822128E-002   9.7447452504042659E-003   5.2642099646723728E-002
  -3.1372854019964709E-002   9.2960317234451750E-003   5.2355241355939552E-002
  -2.9943803274107242E-002   8.8310438867385439E-003   5.2256518729674677E-002
  -2.8514752528249823E-002   8.3497817402843517E-003   5.2345931767929385E-002
  -2.7085701782392356E-002   7.8522452840827095E-003   5.2623480470703518E-002
  -3.7479143075771035E-002   1.1158000894232190E-002   4.9150351974704298E-002
  -3.5866703988141471E-002   1.0657100995410562E-002   4.8870659162344288E-002
  -3.4254264900511901E-002   1.0133993626830595E-002   4.8769607369009149E-002
  -3.2641825812882330E-002   9.5886787884918306E-003   4.8847196594698744E-002
  -3.1029386725252767E-002   9.0211564803946431E-003   4.9103426839413211E-002
  -1.5295596300134433E-002   4.3455116951470751E-003   6.2745926773167704E-002
  -1.4401626568235161E-002   4.0518118965386929E-003   6.2515823870427256E-002
  -1.3507656836335896E-002   3.7443451314589926E-003   6.2504788742179629E-002
  -1.2613687104436635E-002   3.4231113999071555E-003   6.2712821388424878E-002
  -1.1719717372537360E-002   3.0881107018833065E-003   6.3139921809163058E-002
  -1.9218806569833193E-002   5.5144228914589255E-003   5.9444730437580862E-002
  -1.8109680043135786E-002   5.1494154221221888E-003   5.9191769458792204E-002
  -1.7000553516438401E-002   4.7739305086587497E-003   5.9150054295107085E-002
  -1.5891426989741005E-002   4.3879681510683548E-003   5.9319584946525311E-002
  -1.4782300463043609E-002   3.9915283493510145E-003   5.9700361413046965E-002
  -2.3148841730585852E-002   6.6833340877708314E-003   5.6070581670092656E-002
  -2.1832380368479815E-002   6.2470189477056293E-003   5.5798052137601153E-002
  -2.0515919006373770E-002   5.8035158858586178E-003   5.5728946460823478E-002
  -1.9199457644267712E-002   5.3528249022297206E-003   5.5863264639759852E-002
  -1.7882996282161688E-002   4.8949459968188891E-003   5.6201006674409970E-002
  -2.7085701782392356E-002   7.8522452840827095E-003   5.2623480470703518E-002
  -2.5569727544267166E-002   7.3446224732890419E-003   5.2334671906854077E-002
  -2.4053753306141949E-002   6.8331012630585414E-003   5.2241465239328995E-002
  -2.2537779068016781E-002   6.3176816533910586E-003   5.2343860468128348E-002
  -2.1021804829891539E-002   5.7983636442866804E-003   5.2641857593252163E-002
  -3.1029386725252767E-002   9.0211564803946431E-003   4.9103426839413211E-002
  -2.9321721570497894E-002   8.4422259988724546E-003   4.8801628766550864E-002
  -2.7614056415743007E-002   7.8626866402582568E-003   4.8687610630623296E-002
  -2.5906391260988128E-002   7.2825384045523446E-003   4.8761372431630770E-002
  -2.4198726106233248E-002   6.7017812917545827E-003   4.9022914169573051E-002
  -1.1719717372537360E-002   3.0881107018833065E-003   6.3139921809163058E-002
  -1.0760526654820142E-002   2.7562837079173619E-003   6.3030439361380197E-002
  -9.8013359371029278E-003   2.4445710885388772E-003   6.3167361885619999E-002
  -8.8421452193857015E-003   2.1529728437486781E-003   6.3550689381882491E-002
  -7.8829545016684960E-003   1.8814889735457863E-003   6.4180421850167590E-002
  -1.4782300463043609E-002   3.9915283493510145E-003   5.9700361413046965E-002
  -1.3586776587123019E-002   3.5957837620388400E-003   5.9558685546595491E-002
  -1.2391252711202436E-002   3.2119070476637201E-003   5.9643271024528044E-002
  -1.1195728835281880E-002   2.8398982062258771E-003   5.9954117846844734E-002
  -1.0000204959361290E-002   2.4797572377250887E-003   6.0491226013545285E-002
  -1.7882996282161688E-002   4.8949459968188891E-003   5.6201006674409970E-002
  -1.6471282875676327E-002   4.4352838161605401E-003   5.6018890887639117E-002
  -1.5059569469190973E-002   3.9792430067884660E-003   5.6042892817613835E-002
  -1.3647856062705611E-002   3.5268235687033016E-003   5.6273012464333992E-002
  -1.2236142656220254E-002   3.0780255019043357E-003   5.6709249827799513E-002
  -2.1021804829891539E-002   5.7983636442866804E-003   5.2641857593252163E-002
  -1.9414045520480018E-002   5.2747838702820182E-003   5.2411055384511407E-002
  -1.7806286211068528E-002   4.7465789659133714E-003   5.2366227264877580E-002
  -1.6198526901657035E-002   4.2137489311803913E-003   5.2507373234350535E-002
  -1.4590767592245516E-002   3.6762937660836659E-003   5.2834493292930620E-002
  -2.4198726106233248E-002   6.7017812917545827E-003   4.9022914169573051E-002
  -2.2415064521534175E-002   6.1142839244037739E-003   4.8735179037211918E-002
  -2.0631402936835117E-002   5.5139149250380548E-003   4.8613274366319070E-002
  -1.8847741352136016E-002   4.9006742936579806E-003   4.8657200156894315E-002
  -1.7064079767436985E-002   4.2745620302627740E-003   4.8866956408937900E-002
  -7.8829545016684960E-003   1.8814889735457863E-003   6.4180421850167590E-002
  -6.9504660480394290E-003   1.6745813300351187E-003   6.4086537002504329E-002
  -6.0179775944103758E-003   1.5767117653190943E-003   6.4244395114369912E-002
  -5.0854891407813158E-003   1.5878802793994201E-003   6.4653996185764173E-002
  -4.1530006871522557E-003   1.7080868722749720E-003   6.5315340216687390E-002
  -1.0000204959361290E-002   2.4797572377250887E-003   6.0491226013545285E-002
  -8.8156550036578019E-003   2.1814635186778730E-003   6.0389404821643844E-002
  -7.6311050479543341E-003   1.9949964255995267E-003   6.0539963674362346E-002
  -6.4465550922508698E-003   1.9203559584911323E-003   6.0942902571700722E-002
  -5.2620051365473812E-003   1.9575421173517737E-003   6.1598221513659346E-002
  -1.2236142656220254E-002   3.0780255019043357E-003   5.6709249827799513E-002
  -1.0798894113351261E-002   2.6883457073204331E-003   5.6602280838833702E-002
  -9.3616455704822396E-003   2.4132810858798759E-003   5.6748328979579155E-002
  -7.9243970276132586E-003   2.2528316375825183E-003   5.7147394250035566E-002
  -6.4871484847442255E-003   2.2069973624286865E-003   5.7799476650203269E-002
  -1.4590767592245516E-002   3.6762937660836659E-003   5.2834493292930620E-002
  -1.2900183377119793E-002   3.1952278959634234E-003   5.2725165054074222E-002
  -1.1209599161994113E-002   2.8315657461603222E-003   5.2869491030020400E-002
  -9.5190149468684093E-003   2.5853073166741784E-003   5.3267471220768609E-002
  -7.8284307317427089E-003   2.4564526075054327E-003   5.3919105626319248E-002
  -1.7064079767436985E-002   4.2745620302627740E-003   4.8866956408937900E-002
  -1.5119522794963466E-002   3.7021100846057475E-003   4.8758057467365390E-002
  -1.3174965822489920E-002   3.2498504064404632E-003   4.8903449825686007E-002
  -1.1230408850016395E-002   2.9177829957655679E-003   4.9303133483899919E-002
  -9.2858518775428556E-003   2.7059078525824010E-003   4.9957108442007514E-002
  -4.1530006871522557E-003   1.7080868722749720E-003   6.5315340216687390E-002
  -3.6237289684861104E-003   1.9994041408789576E-003   6.4400961487581343E-002
  -3.0944572498199305E-003   2.5239046821440014E-003   6.3604937038016673E-002
  -2.5651855311537609E-003   3.2815884960703742E-003   6.2927266867993686E-002
  -2.0359138124876053E-003   4.2724555826582078E-003   6.2367950977512243E-002
  -5.2620051365473812E-003   1.9575421173517737E-003   6.1598221513659346E-002
  -4.5882686394799858E-003   2.2137969533824187E-003   6.0873561385126507E-002
  -3.9145321424126200E-003   2.7963625177828133E-003   6.0319476533854610E-002
  -3.2407956453452133E-003   3.7052388105533740E-003   5.9935966959843573E-002
  -2.5670591482778587E-003   4.9404258316939620E-003   5.9723032663093312E-002
  -6.4871484847442255E-003   2.2069973624286865E-003   5.7799476650203269E-002
  -5.6167262115563842E-003   2.4281897658857132E-003   5.7357662577952773E-002
  -4.7463039383685412E-003   3.0688203534216391E-003   5.7138644780682743E-002
  -3.8758816651806990E-003   4.1288891250363773E-003   5.7142423258392368E-002
  -3.0054593919928291E-003   5.6083960807301048E-003   5.7368998011082445E-002
  -7.8284307317427089E-003   2.4564526075054327E-003   5.3919105626319248E-002
  -6.7091016847151842E-003   2.6425825783890355E-003   5.3853265066060155E-002
  -5.5897726376877045E-003   3.3412781890603468E-003   5.4062441778500267E-002
  -4.4704435906601815E-003   4.5525394395194898E-003   5.4546635763639682E-002
  -3.3511145436327001E-003   6.2763663297662753E-003   5.5305847021478276E-002
  -9.2858518775428556E-003   2.7059078525824010E-003   4.9957108442007514E-002
  -7.8653950589565036E-003   2.8569753908925799E-003   5.0360368849448389E-002
  -6.4449382403700961E-003   3.6137360246993322E-003   5.1090867527307737E-002
  -5.0244814217837094E-003   4.9761897540023942E-003   5.2148604475585669E-002
  -3.6040246031973366E-003   6.9443365788022238E-003   5.3533579694281963E-002
  -2.0359138124876053E-003   4.2724555826582078E-003   6.2367950977512243E-002
  -2.2858311727141159E-003   5.5759678521288825E-003   5.8337377065381557E-002
  -2.5357485329406126E-003   7.2715872147055272E-003   5.4301790404949257E-002
  -2.7856658931671233E-003   9.3593136703886623E-003   5.0261190996216037E-002
  -3.0355832533936200E-003   1.1839147219177448E-002   4.6215578839180704E-002
  -2.5670591482778587E-003   4.9404258316939620E-003   5.9723032663093312E-002
  -2.8395511589497484E-003   6.5653872407688274E-003   5.6190314511196382E-002
  -3.1120431696216727E-003   8.6435866973424147E-003   5.2617459806709788E-002
  -3.3845351802936127E-003   1.1175024201414634E-002   4.9004468549633723E-002
  -3.6570271909654867E-003   1.4159699752985144E-002   4.5351340739968604E-002
  -3.0054593919928291E-003   5.6083960807301048E-003   5.7368998011082445E-002
  -3.3356498573980601E-003   7.5548066294086058E-003   5.4395266573811440E-002
  -3.6658403228033466E-003   1.0015586179978872E-002   5.1346274779662901E-002
  -3.9960307882086227E-003   1.2990734732440497E-002   4.8222022628637388E-002
  -4.3262212536138642E-003   1.6480252286793062E-002   4.5022510120734216E-002
  -3.3511145436327001E-003   6.2763663297662753E-003   5.5305847021478276E-002
  -3.7741272680591651E-003   8.5442260180489116E-003   5.2952233253226420E-002
  -4.1971399924856179E-003   1.1387585662615211E-002   5.0488235323809069E-002
  -4.6201527169120842E-003   1.4806445263466082E-002   4.7913853233226722E-002
  -5.0431654413385357E-003   1.8800804820600980E-002   4.5229086981479510E-002
  -3.6040246031973366E-003   6.9443365788022238E-003   5.3533579694281963E-002
  -4.1549833909329259E-003   9.5336454066882181E-003   5.1861214549441592E-002
  -4.7059421786685290E-003   1.2759585145251884E-002   5.0043341439148459E-002
  -5.2569009664041322E-003   1.6622155794492194E-002   4.8079960363402063E-002
  -5.8078597541397214E-003   2.1121357354408676E-002   4.5971071322202128E-002
  -5.0440852976324391E-002   1.4569565340581514E-002   4.8143101820006640E-002
  -4.8852632378879157E-002   1.4351526838910722E-002   4.8086681946144461E-002
  -4.7264411781433979E-002   1.4047046713513672E-002   4.8176255646549537E-002
  -4.5676191183988732E-002   1.3656124964390608E-002   4.8411822921222009E-002
  -4.4087970586543512E-002   1.3178761591541299E-002   4.8793383770161791E-002
  -5.6404422251910058E-002   1.7321771632125560E-002   4.3967705689186343E-002
  -5.4658537345729591E-002   1.6668639317957479E-002   4.3722641652173017E-002
  -5.2912652439549207E-002   1.6041885248502835E-002   4.3646912658362735E-002
  -5.1166767533368795E-002   1.5441509423761553E-002   4.3740518707755582E-002
  -4.9420882627188356E-002   1.4867511843733860E-002   4.4003459800351558E-002
  -6.2538274735608496E-002   2.0073977923669606E-002   3.9300805811649270E-002
  -6.0611384051757033E-002   1.8985751797004236E-002   3.8979917479924076E-002
  -5.8684493367905571E-002   1.8036723783491984E-002   3.8851705660338090E-002
  -5.6757602684054151E-002   1.7226893883132640E-002   3.8916170352890876E-002
  -5.4830712000202717E-002   1.6556262095926366E-002   3.9173311557582607E-002
  -6.8842410427419620E-002   2.2826184215213680E-002   3.4142402187394831E-002
  -6.6711172496961388E-002   2.1302864276051131E-002   3.3858509429397700E-002
  -6.4579934566503142E-002   2.0031562318481154E-002   3.3790634652475338E-002
  -6.2448696636044881E-002   1.9012278342503713E-002   3.3938777856627730E-002
  -6.0317458705586677E-002   1.8245012348118844E-002   3.4302939041854941E-002
  -7.5316829327343571E-002   2.5578390506757698E-002   2.8492494816423519E-002
  -7.2957902681342723E-002   2.3619976755097971E-002   2.8358417500593980E-002
  -7.0598976035341848E-002   2.2026400853470324E-002   2.8463699634774908E-002
  -6.8240049389340987E-002   2.0797662801874707E-002   2.8808341218966443E-002
  -6.5881122743340126E-002   1.9933762600311378E-002   2.9392342253168502E-002
  -4.4087970586543512E-002   1.3178761591541299E-002   4.8793383770161791E-002
  -4.2435763708850410E-002   1.2662025909425362E-002   4.8645328855057346E-002
  -4.0783556831157280E-002   1.2152987232501800E-002   4.8655471917446347E-002
  -3.9131349953464137E-002   1.1651645560770724E-002   4.8823812957328599E-002
  -3.7479143075771035E-002   1.1158000894232190E-002   4.9150351974704298E-002
  -4.9420882627188356E-002   1.4867511843733860E-002   4.4003459800351558E-002
  -4.7601335028378974E-002   1.4306871341541849E-002   4.3791646754575808E-002
  -4.5781787429569551E-002   1.3746566750307970E-002   4.3756317173539297E-002
  -4.3962239830760169E-002   1.3186598070031912E-002   4.3897471057242031E-002
  -4.2142692231950739E-002   1.2626965300714277E-002   4.4215108405683823E-002
  -5.4830712000202717E-002   1.6556262095926366E-002   3.9173311557582607E-002
  -5.2825538193031207E-002   1.5951716773658434E-002   3.8890379286901117E-002
  -5.0820364385859691E-002   1.5340146268114085E-002   3.8802215968204573E-002
  -4.8815190578688189E-002   1.4721550579293377E-002   3.8908821601493157E-002
  -4.6810016771516666E-002   1.4095929707196336E-002   3.9210196186766827E-002
  -6.0317458705586677E-002   1.8245012348118844E-002   3.4302939041854941E-002
  -5.8108373202807179E-002   1.7596562205775025E-002   3.3941526452033181E-002
  -5.5899287700027674E-002   1.6933725785920228E-002   3.3793168301442300E-002
  -5.3690202197248203E-002   1.6256503088554732E-002   3.3857864590082491E-002
  -5.1481116694468677E-002   1.5564894113678465E-002   3.4135615317953449E-002
  -6.5881122743340126E-002   1.9933762600311378E-002   2.9392342253168502E-002
  -6.3449840057706847E-002   1.9241407637891506E-002   2.8945088249972162E-002
  -6.1018557372073526E-002   1.8527305303726357E-002   2.8729174173252492E-002
  -5.8587274686440212E-002   1.7791455597816055E-002   2.8744600023009645E-002
  -5.6155992000806898E-002   1.7033858520160483E-002   2.8991365799243607E-002
  -3.7479143075771035E-002   1.1158000894232190E-002   4.9150351974704298E-002
  -3.5866703988141471E-002   1.0657100995410562E-002   4.8870659162344288E-002
  -3.4254264900511901E-002   1.0133993626830595E-002   4.8769607369009149E-002
  -3.2641825812882330E-002   9.5886787884918306E-003   4.8847196594698744E-002
  -3.1029386725252767E-002   9.0211564803946431E-003   4.9103426839413211E-002
  -4.2142692231950739E-002   1.2626965300714277E-002   4.4215108405683823E-002
  -4.0353557650336956E-002   1.2061129723963948E-002   4.3912220187106193E-002
  -3.8564423068723180E-002   1.1482552621390321E-002   4.3784081937472158E-002
  -3.6775288487109370E-002   1.0891233992993441E-002   4.3830693656781813E-002
  -3.4986153905495573E-002   1.0287173838773589E-002   4.4052055345035035E-002
  -4.6810016771516666E-002   1.4095929707196336E-002   3.9210196186766827E-002
  -4.4848077745999845E-002   1.3465158452517251E-002   3.8893578505906870E-002
  -4.2886138720483018E-002   1.2831111615950103E-002   3.8747819743909423E-002
  -4.0924199694966204E-002   1.2193789197495052E-002   3.8772919900774375E-002
  -3.8962260669449376E-002   1.1553191197152174E-002   3.8968878976501711E-002
  -5.1481116694468677E-002   1.5564894113678465E-002   3.4135615317953449E-002
  -4.9350264275130069E-002   1.4869187181070484E-002   3.3814734118746512E-002
  -4.7219411855791385E-002   1.4179670610509856E-002   3.3660820788320771E-002
  -4.5088559436452742E-002   1.3496344401996773E-002   3.3673875326676317E-002
  -4.2957707017114093E-002   1.2819208555530828E-002   3.3853897733812977E-002
  -5.6155992000806898E-002   1.7033858520160483E-002   2.8991365799243607E-002
  -5.3860117237727601E-002   1.6273215909623773E-002   2.8675687025625007E-002
  -5.1564242474648331E-002   1.5528229605069666E-002   2.8523085070706250E-002
  -4.9268367711569033E-002   1.4798899606498231E-002   2.8533559934487696E-002
  -4.6972492948489764E-002   1.4085225913909594E-002   2.8707111616969150E-002
  -3.1029386725252767E-002   9.0211564803946431E-003   4.9103426839413211E-002
  -2.9321721570497894E-002   8.4422259988724546E-003   4.8801628766550864E-002
  -2.7614056415743007E-002   7.8626866402582568E-003   4.8687610630623296E-002
  -2.5906391260988128E-002   7.2825384045523446E-003   4.8761372431630770E-002
  -2.4198726106233248E-002   6.7017812917545827E-003   4.9022914169573051E-002
  -3.4986153905495573E-002   1.0287173838773589E-002   4.4052055345035035E-002
  -3.3097116163375628E-002   9.6727349780715566E-003   4.3720197956775730E-002
  -3.1208078421255711E-002   9.0502802302296487E-003   4.3563305806311764E-002
  -2.9319040679135724E-002   8.4198095952470360E-003   4.3581378893642969E-002
  -2.7430002937015779E-002   7.7813230731247351E-003   4.3774417218769124E-002
  -3.8962260669449376E-002   1.1553191197152174E-002   3.8968878976501711E-002
  -3.6904665039104077E-002   1.0903243957270881E-002   3.8599555262797028E-002
  -3.4847069408758743E-002   1.0237873820200812E-002   3.8392382087747860E-002
  -3.2789473778413424E-002   9.5570807859421143E-003   3.8347359451354146E-002
  -3.0731878148068173E-002   8.8608648544946100E-003   3.8464487353616017E-002
  -4.2957707017114093E-002   1.2819208555530828E-002   3.3853897733812977E-002
  -4.0744368197683144E-002   1.2133752936470149E-002   3.3439700684614507E-002
  -3.8531029378252278E-002   1.1425467410172255E-002   3.3174839474931904E-002
  -3.6317690558821308E-002   1.0694351976636887E-002   3.3059314104764967E-002
  -3.4104351739390401E-002   9.9404066358642906E-003   3.3093124574113772E-002
  -4.6972492948489764E-002   1.4085225913909594E-002   2.8707111616969150E-002
  -4.4616225639112966E-002   1.3364261915669196E-002   2.8240634222228445E-002
  -4.2259958329736114E-002   1.2613061000143394E-002   2.7910677967863562E-002
  -3.9903691020359289E-002   1.1831623167331919E-002   2.7717242853874835E-002
  -3.7547423710982519E-002   1.1019948417234526E-002   2.7660328880262375E-002
  -2.4198726106233248E-002   6.7017812917545827E-003   4.9022914169573051E-002
  -2.2415064521534175E-002   6.1142839244037739E-003   4.8735179037211918E-002
  -2.0631402936835117E-002   5.5139149250380548E-003   4.8613274366319070E-002
  -1.8847741352136016E-002   4.9006742936579806E-003   4.8657200156894315E-002
  -1.7064079767436985E-002   4.2745620302627740E-003   4.8866956408937900E-002
  -2.7430002937015779E-002   7.7813230731247351E-003   4.3774417218769124E-002
  -2.5485389250188999E-002   7.1387691490427674E-003   4.3404710072401154E-002
  -2.3540775563362204E-002   6.4960963081825418E-003   4.3191076668820327E-002
  -2.1596161876535448E-002   5.8533045505436559E-003   4.3133517008026631E-002
  -1.9651548189708573E-002   5.2103938761273172E-003   4.3232031090020162E-002
  -3.0731878148068173E-002   8.8608648544946100E-003   3.8464487353616017E-002
  -2.8636069077794740E-002   8.1632543736815111E-003   3.8025560908477529E-002
  -2.6540260007521264E-002   7.4782776913268068E-003   3.7732951487445182E-002
  -2.4444450937247789E-002   6.8059348074298864E-003   3.7586659090518865E-002
  -2.2348641866974342E-002   6.1462257219913607E-003   3.7586683717698827E-002
  -3.4104351739390401E-002   9.9404066358642906E-003   3.3093124574113772E-002
  -3.1867104004351381E-002   9.1877395983207127E-003   3.2597731545441086E-002
  -2.9629856269312298E-002   8.4604590744712382E-003   3.2238898822193496E-002
  -2.7392608534273267E-002   7.7585650643162835E-003   3.2016626404370939E-002
  -2.5155360799234201E-002   7.0820575678556541E-003   3.1930914291973443E-002
  -3.7547423710982519E-002   1.1019948417234526E-002   2.7660328880262375E-002
  -3.5178494029858925E-002   1.0212224822959359E-002   2.7121221983292088E-002
  -3.2809564348735332E-002   9.4426404576156142E-003   2.6708918673065463E-002
  -3.0440634667611724E-002   8.7111953212022503E-003   2.6423418949583249E-002
  -2.8071704986488172E-002   8.0178894137198364E-003   2.6264722812844754E-002
  -1.7064079767436985E-002   4.2745620302627740E-003   4.8866956408937900E-002
  -1.5119522794963466E-002   3.7021100846057475E-003   4.8758057467365390E-002
  -1.3174965822489920E-002   3.2498504064404632E-003   4.8903449825686007E-002
  -1.1230408850016395E-002   2.9177829957655679E-003   4.9303133483899919E-002
  -9.2858518775428556E-003   2.7059078525824010E-003   4.9957108442007514E-002
  -1.9651548189708573E-002   5.2103938761273172E-003   4.3232031090020162E-002
  -1.7490952734169986E-002   4.6046049218821383E-003   4.3072531388931523E-002
  -1.5330357278631336E-002   4.0731783247590359E-003   4.3090817354079741E-002
  -1.3169761823092718E-002   3.6161140847581694E-003   4.3286888985464927E-002
  -1.1009166367554099E-002   3.2334122018794487E-003   4.3660746283086582E-002
  -2.2348641866974342E-002   6.1462257219913607E-003   3.7586683717698827E-002
  -2.0048513562027213E-002   5.5070997591580850E-003   3.7330753346725226E-002
  -1.7748385257080068E-002   4.8965062430780387E-003   3.7176103008331920E-002
  -1.5448256952132916E-002   4.3144451737506563E-003   3.7122732702518722E-002
  -1.3148128647185793E-002   3.7609165511761633E-003   3.7170642429285861E-002
  -2.5155360799234201E-002   7.0820575678556541E-003   3.1930914291973443E-002
  -2.2792205278535142E-002   6.4095945964340317E-003   3.1532723340745937E-002
  -2.0429049757836003E-002   5.7198341613964934E-003   3.1159306788442181E-002
  -1.8065894237136903E-002   5.0127762627427564E-003   3.0810664635061810E-002
  -1.5702738716437861E-002   4.2884209004732665E-003   3.0486796880605335E-002
  -2.8071704986488172E-002   8.0178894137198364E-003   2.6264722812844754E-002
  -2.5722027883693765E-002   7.3120894337103670E-003   2.5678441370993843E-002
  -2.3372350780899290E-002   6.5431620797153089E-003   2.5040428694410533E-002
  -2.1022673678104849E-002   5.7111073517356128E-003   2.4350684783094129E-002
  -1.8672996575310408E-002   4.8159252497700367E-003   2.3609209637044604E-002
  -9.2858518775428556E-003   2.7059078525824010E-003   4.9957108442007514E-002
  -7.8653950589565036E-003   2.8569753908925799E-003   5.0360368849448389E-002
  -6.4449382403700961E-003   3.6137360246993322E-003   5.1090867527307737E-002
  -5.0244814217837094E-003   4.9761897540023942E-003   5.2148604475585669E-002
  -3.6040246031973366E-003   6.9443365788022238E-003   5.3533579694281963E-002
  -1.1009166367554099E-002   3.2334122018794487E-003   4.3660746283086582E-002
  -9.2431909573608972E-003   3.1626885220599199E-003   4.4244282794342116E-002
  -7.4772155471677648E-003   3.6415588912377950E-003   4.5191618218392959E-002
  -5.7112401369746012E-003   4.6700233094129212E-003   4.6502752555238752E-002
  -3.9452647267814306E-003   6.2480817765847574E-003   4.8177685804879467E-002
  -1.3148128647185793E-002   3.7609165511761633E-003   3.7170642429285861E-002
  -1.1000074003009258E-002   3.4684016532272044E-003   3.7878355997856911E-002
  -8.8520193588326607E-003   3.6693817577762300E-003   3.8986429121599581E-002
  -6.7039647146560650E-003   4.3638568648232193E-003   4.0494861800513926E-002
  -4.5559100704795283E-003   5.5518269743678461E-003   4.2403654034599891E-002
  -1.5702738716437861E-002   4.2884209004732665E-003   3.0486796880605335E-002
  -1.3136044195901288E-002   3.7741147843947942E-003   3.1262588459992482E-002
  -1.0569349675364822E-002   3.6972046243148454E-003   3.2475300236928052E-002
  -8.0026551548282726E-003   4.0576904202336318E-003   3.4124932211411663E-002
  -5.4359606342917807E-003   4.8555721721508793E-003   3.6211484383443737E-002
  -1.8672996575310408E-002   4.8159252497700367E-003   2.3609209637044604E-002
  -1.5651101536037326E-002   4.0798279155619399E-003   2.4396980180748540E-002
  -1.2629206496764217E-002   3.7250274908530723E-003   2.5658231564377576E-002
  -9.6073114574910939E-003   3.7515239756440305E-003   2.7392963787931268E-002
  -6.5854164182180264E-003   4.1593173699335795E-003   2.9601176851410060E-002
  -3.6040246031973366E-003   6.9443365788022238E-003   5.3533579694281963E-002
  -4.1549833909329259E-003   9.5336454066882181E-003   5.1861214549441592E-002
  -4.7059421786685290E-003   1.2759585145251884E-002   5.0043341439148459E-002
  -5.2569009664041322E-003   1.6622155794492194E-002   4.8079960363402063E-002
  -5.8078597541397214E-003   2.1121357354408676E-002   4.5971071322202128E-002
  -3.9452647267814306E-003   6.2480817765847574E-003   4.8177685804879467E-002
  -4.5378913438428176E-003   8.6858138785042560E-003   4.7242947641639499E-002
  -5.1305179609042115E-003   1.2293299200920843E-002   4.6370381785200976E-002
  -5.7231445779655638E-003   1.7070537743834387E-002   4.5559988235563953E-002
  -6.3157711950269368E-003   2.3017529507244339E-002   4.4811766992728153E-002
  -4.5559100704795283E-003   5.5518269743678461E-003   4.2403654034599891E-002
  -4.9825242446121382E-003   7.8379823503204604E-003   4.2739665162780299E-002
  -5.4091384187447723E-003   1.1827013256589913E-002   4.3345528870016581E-002
  -5.8357525928773440E-003   1.7518919693176357E-002   4.4221245156308764E-002
  -6.2623667670099609E-003   2.4913701660080001E-002   4.5366814021657542E-002
  -5.4359606342917807E-003   4.8555721721508793E-003   3.6211484383443737E-002
  -5.4888820932410508E-003   6.9901508221365816E-003   3.8351367112864139E-002
  -5.5418035521902081E-003   1.1360727312259039E-002   4.0968782693595260E-002
  -5.5947250111394488E-003   1.7967301642518772E-002   4.4063731125636961E-002
  -5.6476464700886929E-003   2.6809873812915663E-002   4.7636212408989465E-002
  -6.5854164182180264E-003   4.1593173699335795E-003   2.9601176851410060E-002
  -6.0569648897293160E-003   6.1423192939523696E-003   3.4078053491890969E-002
  -5.5285133612406334E-003   1.0894441367928137E-002   3.9240143255937332E-002
  -5.0000618327519092E-003   1.8415683591860903E-002   4.5087446143548565E-002
  -4.4716103042632405E-003   2.8706045965751326E-002   5.1619962154724863E-002
  -7.5316829327343571E-002   2.5578390506757698E-002   2.8492494816423519E-002
  -7.2957902681342723E-002   2.3619976755097971E-002   2.8358417500593980E-002
  -7.0598976035341848E-002   2.2026400853470324E-002   2.8463699634774908E-002
  -6.8240049389340987E-002   2.0797662801874707E-002   2.8808341218966443E-002
  -6.5881122743340126E-002   1.9933762600311378E-002   2.9392342253168502E-002
  -8.1508012624435355E-002   2.3214389029908744E-002   1.8936676769218286E-002
  -7.8985107372262248E-002   2.2895851783730270E-002   1.9585665075989689E-002
  -7.6462202120089182E-002   2.2455860792844340E-002   2.0323251145095200E-002
  -7.3939296867915921E-002   2.1894416057250482E-002   2.1149434976534598E-002
  -7.1416391615742883E-002   2.1211517576949057E-002   2.2064216570308021E-002
  -8.6962441507750246E-002   2.0850387553059735E-002   1.1263881024864336E-002
  -8.4426319337081279E-002   2.2171726812362846E-002   1.2209643359496841E-002
  -8.1890197166412382E-002   2.2885320732218259E-002   1.3093241768786970E-002
  -7.9354074995743470E-002   2.2991169312626309E-002   1.3914676252734542E-002
  -7.6817952825074531E-002   2.2489272553586653E-002   1.4673946811339739E-002
  -9.1680115977288035E-002   1.8486386076210809E-002   5.4741075833616704E-003
  -8.9281538575799901E-002   2.1447601840995173E-002   6.2303523511154403E-003
  -8.6882961174311629E-002   2.3314780671592310E-002   6.7736715058504086E-003
  -8.4484383772823371E-002   2.4087922568001942E-002   7.1040650475664626E-003
  -8.2085806371335168E-002   2.3767027530224180E-002   7.2215329762633819E-003
  -9.5661036033048985E-002   1.6122384599361772E-002   1.5673564447103994E-003
  -9.3550765088417975E-002   2.0723476869627611E-002   1.6477920508455868E-003
  -9.1440494143786966E-002   2.3744240610966305E-002   1.3645403562855263E-003
  -8.9330223199155845E-002   2.5184675823377675E-002   7.1760136103021788E-004
  -8.7219952254524835E-002   2.5044782506862040E-002  -2.9302493492083803E-004
  -6.5881122743340126E-002   1.9933762600311378E-002   2.9392342253168502E-002
  -6.3449840057706847E-002   1.9241407637891506E-002   2.8945088249972162E-002
  -6.1018557372073526E-002   1.8527305303726357E-002   2.8729174173252492E-002
  -5.8587274686440212E-002   1.7791455597816055E-002   2.8744600023009645E-002
  -5.6155992000806898E-002   1.7033858520160483E-002   2.8991365799243607E-002
  -7.1416391615742883E-002   2.1211517576949057E-002   2.2064216570308021E-002
  -6.8768598770227049E-002   2.0465339543027122E-002   2.1722414096449288E-002
  -6.6120805924711201E-002   1.9714056146571804E-002   2.1582292015878760E-002
  -6.3473013079195353E-002   1.8957667387583300E-002   2.1643850328596670E-002
  -6.0825220233679506E-002   1.8196173266061433E-002   2.1907089034602839E-002
  -7.6817952825074531E-002   2.2489272553586653E-002   1.4673946811339739E-002
  -7.3983309352864624E-002   2.1689271448162684E-002   1.4454237876030465E-002
  -7.1148665880654730E-002   2.0900806989417313E-002   1.4406549800821088E-002
  -6.8314022408444822E-002   2.0123879177350437E-002   1.4530882585711360E-002
  -6.5479378936234872E-002   1.9358488011962105E-002   1.4827236230701618E-002
  -8.2085806371335168E-002   2.3767027530224180E-002   7.2215329762633819E-003
  -7.9093971805619639E-002   2.2913203353298217E-002   7.1405595887155601E-003
  -7.6102137239904097E-002   2.2087557832262818E-002   7.2019475280790581E-003
  -7.3110302674188554E-002   2.1290090967117488E-002   7.4056967943538785E-003
  -7.0118468108473025E-002   2.0520802757862971E-002   7.7518073875402285E-003
  -8.7219952254524835E-002   2.5044782506862040E-002  -2.9302493492083803E-004
  -8.4100586128492139E-002   2.4137135258433917E-002  -2.1862076549583609E-004
  -8.0981220002459331E-002   2.3274308675108185E-002  -3.1514802347434867E-005
  -7.7861853876426551E-002   2.2456302756884934E-002   2.6829295452393195E-004
  -7.4742487750393827E-002   2.1683117503763838E-002   6.8080250511814988E-004
  -5.6155992000806898E-002   1.7033858520160483E-002   2.8991365799243607E-002
  -5.3860117237727601E-002   1.6273215909623773E-002   2.8675687025625007E-002
  -5.1564242474648331E-002   1.5528229605069666E-002   2.8523085070706250E-002
  -4.9268367711569033E-002   1.4798899606498231E-002   2.8533559934487696E-002
  -4.6972492948489764E-002   1.4085225913909594E-002   2.8707111616969150E-002
  -6.0825220233679506E-002   1.8196173266061433E-002   2.1907089034602839E-002
  -5.8363719982814130E-002   1.7433066596532321E-002   2.1617796746638440E-002
  -5.5902219731948713E-002   1.6671840193522511E-002   2.1496678615546216E-002
  -5.3440719481083282E-002   1.5912494057031570E-002   2.1543734641326404E-002
  -5.0979219230217865E-002   1.5155028187060104E-002   2.1758964823978710E-002
  -6.5479378936234872E-002   1.9358488011962105E-002   1.4827236230701618E-002
  -6.2847155859411141E-002   1.8592917283441063E-002   1.4550554388927966E-002
  -6.0214932782587424E-002   1.7815450781975467E-002   1.4447144042198726E-002
  -5.7582709705763700E-002   1.7026088507565242E-002   1.4517005190513757E-002
  -5.4950486628939976E-002   1.6224830460210338E-002   1.4760137833873282E-002
  -7.0118468108473025E-002   2.0520802757862971E-002   7.7518073875402285E-003
  -6.7310424867518745E-002   1.9752767970349625E-002   7.4739599524934544E-003
  -6.4502381626564506E-002   1.8959061370428201E-002   7.3744813506633339E-003
  -6.1694338385610267E-002   1.8139682958098636E-002   7.4533715820499034E-003
  -5.8886295144655987E-002   1.7294632733361043E-002   7.7106306466530813E-003
  -7.4742487750393827E-002   2.1683117503763838E-002   6.8080250511814988E-004
  -7.1753527007136886E-002   2.0912618657258186E-002   3.8801343733496640E-004
  -6.8764566263879889E-002   2.0102671958881296E-002   2.7869054094079027E-004
  -6.5775605520622948E-002   1.9253277408632037E-002   3.5283381593490676E-004
  -6.2786644777365952E-002   1.8364435006511304E-002   6.1044326231829427E-004
  -4.6972492948489764E-002   1.4085225913909594E-002   2.8707111616969150E-002
  -4.4616225639112966E-002   1.3364261915669196E-002   2.8240634222228445E-002
  -4.2259958329736114E-002   1.2613061000143394E-002   2.7910677967863562E-002
  -3.9903691020359289E-002   1.1831623167331919E-002   2.7717242853874835E-002
  -3.7547423710982519E-002   1.1019948417234526E-002   2.7660328880262375E-002
  -5.0979219230217865E-002   1.5155028187060104E-002   2.1758964823978710E-002
  -4.8479436212597177E-002   1.4394512562183687E-002   2.1315832533304657E-002
  -4.5979653194976378E-002   1.3626017160978998E-002   2.1023210518742785E-002
  -4.3479870177355599E-002   1.2849541983445900E-002   2.0881098780292456E-002
  -4.0980087159734890E-002   1.2065087029584365E-002   2.0889497317954142E-002
  -5.4950486628939976E-002   1.6224830460210338E-002   1.4760137833873282E-002
  -5.2293198767339524E-002   1.5424763208698067E-002   1.4362607788223555E-002
  -4.9635910905739031E-002   1.4638973321814866E-002   1.4129577154421494E-002
  -4.6978623044138537E-002   1.3867460799559934E-002   1.4061045932466952E-002
  -4.4321335182538085E-002   1.3110225641934148E-002   1.4157014122360340E-002
  -5.8886295144655987E-002   1.7294632733361043E-002   7.7106306466530813E-003
  -5.6057513303340030E-002   1.6455013855212336E-002   7.3809599869849862E-003
  -5.3228731462023983E-002   1.5651929482650102E-002   7.2297778749003984E-003
  -5.0399949620707984E-002   1.4885379615674219E-002   7.2570843103988234E-003
  -4.7571167779391986E-002   1.4155364254284070E-002   7.4628792934812171E-003
  -6.2786644777365952E-002   1.8364435006511304E-002   6.1044326231829427E-004
  -5.9772379820598687E-002   1.7485264501726494E-002   3.7088912958871401E-004
  -5.6758114863831310E-002   1.6664885643485949E-002   3.2381268017903087E-004
  -5.3743849907064017E-002   1.5903298431787796E-002   4.6921391408811380E-004
  -5.0729584950296669E-002   1.5200502866633991E-002   8.0709283131641385E-004
  -3.7547423710982519E-002   1.1019948417234526E-002   2.7660328880262375E-002
  -3.5178494029858925E-002   1.0212224822959359E-002   2.7121221983292088E-002
  -3.2809564348735332E-002   9.4426404576156142E-003   2.6708918673065463E-002
  -3.0440634667611724E-002   8.7111953212022503E-003   2.6423418949583249E-002
  -2.8071704986488172E-002   8.0178894137198364E-003   2.6264722812844754E-002
  -4.0980087159734890E-002   1.2065087029584365E-002   2.0889497317954142E-002
  -3.8494938328558909E-002   1.1282865886116211E-002   2.0456514723264374E-002
  -3.6009789497382871E-002   1.0513092139763522E-002   2.0129166841935581E-002
  -3.3524640666206924E-002   9.7557657905262378E-003   1.9907453673967485E-002
  -3.1039491835030852E-002   9.0108868384042307E-003   1.9791375219360308E-002
  -4.4321335182538085E-002   1.3110225641934148E-002   1.4157014122360340E-002
  -4.1741136074692847E-002   1.2353506949272897E-002   1.3804463998135966E-002
  -3.9160936966847609E-002   1.1583543821911430E-002   1.3536379713889185E-002
  -3.6580737859002302E-002   1.0800336259850336E-002   1.3352761269620164E-002
  -3.4000538751157126E-002   1.0003884263088902E-002   1.3253608665328737E-002
  -4.7571167779391986E-002   1.4155364254284070E-002   7.4628792934812171E-003
  -4.4917087268260672E-002   1.3424148012429499E-002   7.1650698079068452E-003
  -4.2263006757129400E-002   1.2653995504059670E-002   6.9305572889266157E-003
  -3.9608926245998093E-002   1.1844906729174046E-002   6.7593417365410524E-003
  -3.6954845734866813E-002   1.0996881687773102E-002   6.6514231507499577E-003
  -5.0729584950296669E-002   1.5200502866633991E-002   8.0709283131641385E-004
  -4.8022791909262508E-002   1.4494789075586545E-002   5.3833215257625966E-004
  -4.5315998868228291E-002   1.3724447186207522E-002   3.1169956704735213E-004
  -4.2609205827194102E-002   1.2889477198498214E-002   1.2719507472991332E-004
  -3.9902412786159913E-002   1.1989879112457746E-002  -1.5181324376167815E-005
  -2.8071704986488172E-002   8.0178894137198364E-003   2.6264722812844754E-002
  -2.5722027883693765E-002   7.3120894337103670E-003   2.5678441370993843E-002
  -2.3372350780899290E-002   6.5431620797153089E-003   2.5040428694410533E-002
  -2.1022673678104849E-002   5.7111073517356128E-003   2.4350684783094129E-002
  -1.8672996575310408E-002   4.8159252497700367E-003   2.3609209637044604E-002
  -3.1039491835030852E-002   9.0108868384042307E-003   1.9791375219360308E-002
  -2.8724007839530635E-002   8.2694676888466767E-003   1.9195044254379123E-002
  -2.6408523844030390E-002   7.5225207473024747E-003   1.8582058309542460E-002
  -2.4093039848530125E-002   6.7700460137709167E-003   1.7952417384850247E-002
  -2.1777555853029873E-002   6.0120434882532381E-003   1.7306121480302750E-002
  -3.4000538751157126E-002   1.0003884263088902E-002   1.3253608665328737E-002
  -3.1684171608073491E-002   9.2268459439832362E-003   1.2704827759215442E-002
  -2.9367804464989929E-002   8.5018794148889604E-003   1.2174468128123936E-002
  -2.7051437321906305E-002   7.8289846758069943E-003   1.1662529772054703E-002
  -2.4735070178822732E-002   7.2081617267369391E-003   1.1169012691007535E-002
  -3.6954845734866813E-002   1.0996881687773102E-002   6.6514231507499577E-003
  -3.4602519189322362E-002   1.0184224199119560E-002   6.2077918855028141E-003
  -3.2250192643777875E-002   9.4812380824762302E-003   5.8176581501549439E-003
  -2.9897866098233406E-002   8.8879233378430181E-003   5.4810219447072924E-003
  -2.7545539552688934E-002   8.4042799652201128E-003   5.1978832691588692E-003
  -3.9902412786159913E-002   1.1989879112457746E-002  -1.5181324376167815E-005
  -3.7479050583277052E-002   1.1141602454256216E-002  -2.9606336675841449E-004
  -3.5055688380394245E-002   1.0460596750062834E-002  -4.8837162436382586E-004
  -3.2632326177511412E-002   9.9468619998784868E-003  -5.9210609719180518E-004
  -3.0208963974628578E-002   9.6003982037036195E-003  -6.0726678524281041E-004
  -1.8672996575310408E-002   4.8159252497700367E-003   2.3609209637044604E-002
  -1.5651101536037326E-002   4.0798279155619399E-003   2.4396980180748540E-002
  -1.2629206496764217E-002   3.7250274908530723E-003   2.5658231564377576E-002
  -9.6073114574910939E-003   3.7515239756440305E-003   2.7392963787931268E-002
  -6.5854164182180264E-003   4.1593173699335795E-003   2.9601176851410060E-002
  -2.1777555853029873E-002   6.0120434882532381E-003   1.7306121480302750E-002
  -1.8551537943659852E-002   5.3433037344694512E-003   1.8254254128582337E-002
  -1.5325520034289858E-002   4.8586173161399571E-003   1.9137151677130981E-002
  -1.2099502124919830E-002   4.5579842332644643E-003   1.9954814125948489E-002
  -8.8734842155498428E-003   4.4414044858437363E-003   2.0707241475034999E-002
  -2.4735070178822732E-002   7.2081617267369391E-003   1.1169012691007535E-002
  -2.1843645339011772E-002   6.6067795533769069E-003   1.2080263869817726E-002
  -1.8952220499200693E-002   5.9922071414265365E-003   1.2387564009240931E-002
  -1.6060795659389709E-002   5.3644444908855712E-003   1.2090913109277290E-002
  -1.3169370819578655E-002   4.7234916017538375E-003   1.1190311169926609E-002
  -2.7545539552688934E-002   8.4042799652201128E-003   5.1978832691588692E-003
  -2.5527423722092900E-002   7.8702553722843904E-003   5.8750094044546092E-003
  -2.3509307891496724E-002   7.1257969667128801E-003   5.4094685607074325E-003
  -2.1491192060900586E-002   6.1709047485065636E-003   3.8012607379175715E-003
  -1.9473076230304521E-002   5.0055787176637445E-003   1.0503859360847176E-003
  -3.0208963974628578E-002   9.6003982037036195E-003  -6.0726678524281041E-004
  -2.9602873092903326E-002   9.1337311911919850E-003  -3.6150926750633250E-004
  -2.8996782211177963E-002   8.2593867919998898E-003  -1.7971346684692302E-003
  -2.8390691329452600E-002   6.9773650061269732E-003  -4.9141429881303447E-003
  -2.7784600447727348E-002   5.2876658335736515E-003  -9.7125342264905434E-003
  -6.5854164182180264E-003   4.1593173699335795E-003   2.9601176851410060E-002
  -6.0569648897293160E-003   6.1423192939523696E-003   3.4078053491890969E-002
  -5.5285133612406334E-003   1.0894441367928137E-002   3.9240143255937332E-002
  -5.0000618327519092E-003   1.8415683591860903E-002   4.5087446143548565E-002
  -4.4716103042632405E-003   2.8706045965751326E-002   5.1619962154724863E-002
  -8.8734842155498428E-003   4.4414044858437363E-003   2.0707241475034999E-002
  -7.5873835024353187E-003   5.6585403328897610E-003   2.5874984371597798E-002
  -6.3012827893207668E-003   9.3590540334145544E-003   3.1872812513847049E-002
  -5.0151820762061664E-003   1.5542945587418540E-002   3.8700725901782612E-002
  -3.7290813630916908E-003   2.4210214994901724E-002   4.6358724535404683E-002
  -1.3169370819578655E-002   4.7234916017538375E-003   1.1190311169926609E-002
  -1.0980748799717076E-002   5.1747613718274299E-003   1.6763178026092812E-002
  -8.7921267798555594E-003   7.8236666989009856E-003   2.3311002250066645E-002
  -6.6035047599939077E-003   1.2670207582976292E-002   3.0833783841848338E-002
  -4.4148827401323532E-003   1.9714384024052345E-002   3.9331522801437369E-002
  -1.9473076230304521E-002   5.0055787176637445E-003   1.0503859360847176E-003
  -1.6237060781574671E-002   4.6909824107647380E-003   6.7426344553762688E-003
  -1.3001045332844819E-002   6.2882793643884091E-003   1.3554712464596910E-002
  -9.7650298841148765E-003   9.7974695785339860E-003   2.1486619963746068E-002
  -6.5290144353851165E-003   1.5218553053203077E-002   3.0538356952824475E-002
  -2.7784600447727348E-002   5.2876658335736515E-003  -9.7125342264905434E-003
  -2.3356319448007978E-002   4.2072034497020461E-003  -4.1866463405519916E-003
  -1.8928038448288720E-002   4.7528920298741673E-003   2.6039431574367000E-003
  -1.4499757448569239E-002   6.9247315740915416E-003   1.0659234267476246E-002
  -1.0071476448850092E-002   1.0722722082353364E-002   1.9979226989564447E-002
 </DataArray>
 </PointData>
 </Piece>
 </UnstructuredGrid>
 </VTKFile>
