 <VTKFile type="UnstructuredGrid"  version="0.1"   >
 <UnstructuredGrid>
 <Piece  NumberOfPoints="           100 "  NumberOfCells="           64 ">
 <Points>
 <DataArray  type="Float64" NumberOfComponents="3"  format="ascii" >
   0.0000000000000000        0.0000000000000000        0.0000000000000000     
  0.12500000000000000        0.0000000000000000        0.0000000000000000     
  0.25000000000000000        0.0000000000000000        0.0000000000000000     
  0.37500000000000000        0.0000000000000000        0.0000000000000000     
  0.50000000000000000        0.0000000000000000        0.0000000000000000     
   0.0000000000000000       0.12500000000000000        0.0000000000000000     
  0.12500000000000000       0.12500000000000000        0.0000000000000000     
  0.25000000000000000       0.12500000000000000        0.0000000000000000     
  0.37500000000000000       0.12500000000000000        0.0000000000000000     
  0.50000000000000000       0.12500000000000000        0.0000000000000000     
   0.0000000000000000       0.25000000000000000        0.0000000000000000     
  0.12500000000000000       0.25000000000000000        0.0000000000000000     
  0.25000000000000000       0.25000000000000000        0.0000000000000000     
  0.37500000000000000       0.25000000000000000        0.0000000000000000     
  0.50000000000000000       0.25000000000000000        0.0000000000000000     
   0.0000000000000000       0.37500000000000000        0.0000000000000000     
  0.12500000000000000       0.37500000000000000        0.0000000000000000     
  0.25000000000000000       0.37500000000000000        0.0000000000000000     
  0.37500000000000000       0.37500000000000000        0.0000000000000000     
  0.50000000000000000       0.37500000000000000        0.0000000000000000     
   0.0000000000000000       0.50000000000000000        0.0000000000000000     
  0.12500000000000000       0.50000000000000000        0.0000000000000000     
  0.25000000000000000       0.50000000000000000        0.0000000000000000     
  0.37500000000000000       0.50000000000000000        0.0000000000000000     
  0.50000000000000000       0.50000000000000000        0.0000000000000000     
  0.50000000000000000        0.0000000000000000        0.0000000000000000     
  0.62500000000000000        0.0000000000000000        0.0000000000000000     
  0.75000000000000000        0.0000000000000000        0.0000000000000000     
  0.87500000000000000        0.0000000000000000        0.0000000000000000     
   1.0000000000000000        0.0000000000000000        0.0000000000000000     
  0.50000000000000000       0.12500000000000000        0.0000000000000000     
  0.62500000000000000       0.12500000000000000        0.0000000000000000     
  0.75000000000000000       0.12500000000000000        0.0000000000000000     
  0.87500000000000000       0.12500000000000000        0.0000000000000000     
   1.0000000000000000       0.12500000000000000        0.0000000000000000     
  0.50000000000000000       0.25000000000000000        0.0000000000000000     
  0.62500000000000000       0.25000000000000000        0.0000000000000000     
  0.75000000000000000       0.25000000000000000        0.0000000000000000     
  0.87500000000000000       0.25000000000000000        0.0000000000000000     
   1.0000000000000000       0.25000000000000000        0.0000000000000000     
  0.50000000000000000       0.37500000000000000        0.0000000000000000     
  0.62500000000000000       0.37500000000000000        0.0000000000000000     
  0.75000000000000000       0.37500000000000000        0.0000000000000000     
  0.87500000000000000       0.37500000000000000        0.0000000000000000     
   1.0000000000000000       0.37500000000000000        0.0000000000000000     
  0.50000000000000000       0.50000000000000000        0.0000000000000000     
  0.62500000000000000       0.50000000000000000        0.0000000000000000     
  0.75000000000000000       0.50000000000000000        0.0000000000000000     
  0.87500000000000000       0.50000000000000000        0.0000000000000000     
   1.0000000000000000       0.50000000000000000        0.0000000000000000     
   0.0000000000000000       0.50000000000000000        0.0000000000000000     
  0.12500000000000000       0.50000000000000000        0.0000000000000000     
  0.25000000000000000       0.50000000000000000        0.0000000000000000     
  0.37500000000000000       0.50000000000000000        0.0000000000000000     
  0.50000000000000000       0.50000000000000000        0.0000000000000000     
   0.0000000000000000       0.62500000000000000        0.0000000000000000     
  0.12500000000000000       0.62500000000000000        0.0000000000000000     
  0.25000000000000000       0.62500000000000000        0.0000000000000000     
  0.37500000000000000       0.62500000000000000        0.0000000000000000     
  0.50000000000000000       0.62500000000000000        0.0000000000000000     
   0.0000000000000000       0.75000000000000000        0.0000000000000000     
  0.12500000000000000       0.75000000000000000        0.0000000000000000     
  0.25000000000000000       0.75000000000000000        0.0000000000000000     
  0.37500000000000000       0.75000000000000000        0.0000000000000000     
  0.50000000000000000       0.75000000000000000        0.0000000000000000     
   0.0000000000000000       0.87500000000000000        0.0000000000000000     
  0.12500000000000000       0.87500000000000000        0.0000000000000000     
  0.25000000000000000       0.87500000000000000        0.0000000000000000     
  0.37500000000000000       0.87500000000000000        0.0000000000000000     
  0.50000000000000000       0.87500000000000000        0.0000000000000000     
   0.0000000000000000        1.0000000000000000        0.0000000000000000     
  0.12500000000000000        1.0000000000000000        0.0000000000000000     
  0.25000000000000000        1.0000000000000000        0.0000000000000000     
  0.37500000000000000        1.0000000000000000        0.0000000000000000     
  0.50000000000000000        1.0000000000000000        0.0000000000000000     
  0.50000000000000000       0.50000000000000000        0.0000000000000000     
  0.62500000000000000       0.50000000000000000        0.0000000000000000     
  0.75000000000000000       0.50000000000000000        0.0000000000000000     
  0.87500000000000000       0.50000000000000000        0.0000000000000000     
   1.0000000000000000       0.50000000000000000        0.0000000000000000     
  0.50000000000000000       0.62500000000000000        0.0000000000000000     
  0.62500000000000000       0.62500000000000000        0.0000000000000000     
  0.75000000000000000       0.62500000000000000        0.0000000000000000     
  0.87500000000000000       0.62500000000000000        0.0000000000000000     
   1.0000000000000000       0.62500000000000000        0.0000000000000000     
  0.50000000000000000       0.75000000000000000        0.0000000000000000     
  0.62500000000000000       0.75000000000000000        0.0000000000000000     
  0.75000000000000000       0.75000000000000000        0.0000000000000000     
  0.87500000000000000       0.75000000000000000        0.0000000000000000     
   1.0000000000000000       0.75000000000000000        0.0000000000000000     
  0.50000000000000000       0.87500000000000000        0.0000000000000000     
  0.62500000000000000       0.87500000000000000        0.0000000000000000     
  0.75000000000000000       0.87500000000000000        0.0000000000000000     
  0.87500000000000000       0.87500000000000000        0.0000000000000000     
   1.0000000000000000       0.87500000000000000        0.0000000000000000     
  0.50000000000000000        1.0000000000000000        0.0000000000000000     
  0.62500000000000000        1.0000000000000000        0.0000000000000000     
  0.75000000000000000        1.0000000000000000        0.0000000000000000     
  0.87500000000000000        1.0000000000000000        0.0000000000000000     
   1.0000000000000000        1.0000000000000000        0.0000000000000000     
 </DataArray>
 </Points>
 <Cells>
 <DataArray  type="Int32"  Name="connectivity"  format="ascii">
           0           1           6           5
           1           2           7           6
           2           3           8           7
           3           4           9           8
           5           6          11          10
           6           7          12          11
           7           8          13          12
           8           9          14          13
          10          11          16          15
          11          12          17          16
          12          13          18          17
          13          14          19          18
          15          16          21          20
          16          17          22          21
          17          18          23          22
          18          19          24          23
          25          26          31          30
          26          27          32          31
          27          28          33          32
          28          29          34          33
          30          31          36          35
          31          32          37          36
          32          33          38          37
          33          34          39          38
          35          36          41          40
          36          37          42          41
          37          38          43          42
          38          39          44          43
          40          41          46          45
          41          42          47          46
          42          43          48          47
          43          44          49          48
          50          51          56          55
          51          52          57          56
          52          53          58          57
          53          54          59          58
          55          56          61          60
          56          57          62          61
          57          58          63          62
          58          59          64          63
          60          61          66          65
          61          62          67          66
          62          63          68          67
          63          64          69          68
          65          66          71          70
          66          67          72          71
          67          68          73          72
          68          69          74          73
          75          76          81          80
          76          77          82          81
          77          78          83          82
          78          79          84          83
          80          81          86          85
          81          82          87          86
          82          83          88          87
          83          84          89          88
          85          86          91          90
          86          87          92          91
          87          88          93          92
          88          89          94          93
          90          91          96          95
          91          92          97          96
          92          93          98          97
          93          94          99          98
 </DataArray>
 <DataArray  type="Int32"  Name="offsets"  format="ascii"> 
           4
           8
          12
          16
          20
          24
          28
          32
          36
          40
          44
          48
          52
          56
          60
          64
          68
          72
          76
          80
          84
          88
          92
          96
         100
         104
         108
         112
         116
         120
         124
         128
         132
         136
         140
         144
         148
         152
         156
         160
         164
         168
         172
         176
         180
         184
         188
         192
         196
         200
         204
         208
         212
         216
         220
         224
         228
         232
         236
         240
         244
         248
         252
         256
 </DataArray>
 <DataArray  type="UInt8"  Name="types"  format="ascii">
 9
 9
 9
 9
 9
 9
 9
 9
 9
 9
 9
 9
 9
 9
 9
 9
 9
 9
 9
 9
 9
 9
 9
 9
 9
 9
 9
 9
 9
 9
 9
 9
 9
 9
 9
 9
 9
 9
 9
 9
 9
 9
 9
 9
 9
 9
 9
 9
 9
 9
 9
 9
 9
 9
 9
 9
 9
 9
 9
 9
 9
 9
 9
 9
 </DataArray>
 </Cells> 
 <PointData>
 <DataArray  type="Float64" Name="disp" NumberOfComponents="3" format="ascii">
   0.0000000000000000        0.0000000000000000        0.0000000000000000     
   1.9062561044330857E-002   1.1356129101168904E-002   0.0000000000000000     
   3.6190672665133178E-002   2.5499989608127070E-002   0.0000000000000000     
   5.1384334862406962E-002   4.2431581520874492E-002   0.0000000000000000     
   6.4643547636152210E-002   6.2150904839411186E-002   0.0000000000000000     
   0.0000000000000000        0.0000000000000000        0.0000000000000000     
   1.2669982085251918E-002   9.2230907489156931E-003   0.0000000000000000     
   2.4475051551785580E-002   2.2036809311403529E-002   0.0000000000000000     
   3.5415208399600981E-002   3.8441155687463507E-002   0.0000000000000000     
   4.5490452628698122E-002   5.8436129877095636E-002   0.0000000000000000     
   0.0000000000000000        0.0000000000000000        0.0000000000000000     
   7.3620289248371423E-003   7.6994919258776733E-003   0.0000000000000000     
   1.4538065736480872E-002   1.9563109099458135E-002   0.0000000000000000     
   2.1528110434931195E-002   3.5590851520741380E-002   0.0000000000000000     
   2.8332163020188109E-002   5.5782719189727416E-002   0.0000000000000000     
   0.0000000000000000        0.0000000000000000        0.0000000000000000     
   3.1387015630865243E-003   6.7853326320548449E-003   0.0000000000000000     
   6.3797152192190607E-003   1.8078888972290885E-002   0.0000000000000000     
   9.7230409683976091E-003   3.3880669020708118E-002   0.0000000000000000     
   1.3168678810622171E-002   5.4190672777306548E-002   0.0000000000000000     
   0.0000000000000000        0.0000000000000000        0.0000000000000000     
   6.4184768611141862E-017   6.4806128674472063E-003   0.0000000000000000     
   1.3921155894713877E-016   1.7584148929901778E-002   0.0000000000000000     
   2.2421300927000232E-016   3.3310608187363713E-002   0.0000000000000000     
   3.2005648131772091E-016   5.3659990639833018E-002   0.0000000000000000     
   6.4643547636152210E-002   6.2150904839411186E-002   0.0000000000000000     
   7.6193493167699217E-002   8.4444664058831956E-002   0.0000000000000000     
   8.6259353638378236E-002  0.10909956367423164        0.0000000000000000     
   9.4841129048189310E-002  0.13611560368561021        0.0000000000000000     
  0.10193881939713240       0.16549278409296772        0.0000000000000000     
   4.5490452628698122E-002   5.8436129877095636E-002   0.0000000000000000     
   5.4488519430643867E-002   8.1388715016381910E-002   0.0000000000000000     
   6.2197143997005086E-002  0.10666589424140438        0.0000000000000000     
   6.8616326327781793E-002  0.13426766755216304        0.0000000000000000     
   7.3746066422973960E-002  0.16419403494865786        0.0000000000000000     
   2.8332163020188109E-002   5.5782719189727416E-002   0.0000000000000000     
   3.4554612657009084E-002   7.9205894271774810E-002   0.0000000000000000     
   3.9799848510151607E-002  0.10492755893224212        0.0000000000000000     
   4.4067870579615684E-002  0.13294771317112933        0.0000000000000000     
   4.7358678865401294E-002  0.16326635698843650        0.0000000000000000     
   1.3168678810622171E-002   5.4190672777306548E-002   0.0000000000000000     
   1.6391772846794862E-002   7.7896201825010641E-002   0.0000000000000000     
   1.9067467177817800E-002  0.10388455774674484        0.0000000000000000     
   2.1195761803690975E-002  0.13215574054250911        0.0000000000000000     
   2.2776656724414406E-002  0.16270975021230355        0.0000000000000000     
   3.2005648131772091E-016   5.3659990639833018E-002   0.0000000000000000     
   1.2095359436248287E-015   7.7459637676089391E-002   0.0000000000000000     
   3.6652538643044963E-015  0.10353689068491251        0.0000000000000000     
   7.6925770441105268E-015  0.13189174966630238        0.0000000000000000     
   1.3291451272934296E-014  0.16252421462025904        0.0000000000000000     
   0.0000000000000000        0.0000000000000000        0.0000000000000000     
   6.4184768611141862E-017   6.4806128674472063E-003   0.0000000000000000     
   1.3921155894713877E-016   1.7584148929901778E-002   0.0000000000000000     
   2.2421300927000232E-016   3.3310608187363713E-002   0.0000000000000000     
   3.2005648131772091E-016   5.3659990639833018E-002   0.0000000000000000     
   0.0000000000000000        0.0000000000000000        0.0000000000000000     
  -3.1387015630864150E-003   6.7853326320547851E-003   0.0000000000000000     
  -6.3797152192188265E-003   1.8078888972290843E-002   0.0000000000000000     
  -9.7230409683972344E-003   3.3880669020708166E-002   0.0000000000000000     
  -1.3168678810621641E-002   5.4190672777306763E-002   0.0000000000000000     
   0.0000000000000000        0.0000000000000000        0.0000000000000000     
  -7.3620289248370920E-003   7.6994919258776082E-003   0.0000000000000000     
  -1.4538065736480773E-002   1.9563109099458100E-002   0.0000000000000000     
  -2.1528110434931046E-002   3.5590851520741477E-002   0.0000000000000000     
  -2.8332163020187911E-002   5.5782719189727728E-002   0.0000000000000000     
   0.0000000000000000        0.0000000000000000        0.0000000000000000     
  -1.2669982085251965E-002   9.2230907489156740E-003   0.0000000000000000     
  -2.4475051551785702E-002   2.2036809311403553E-002   0.0000000000000000     
  -3.5415208399601203E-002   3.8441155687463625E-002   0.0000000000000000     
  -4.5490452628698483E-002   5.8436129877095920E-002   0.0000000000000000     
   0.0000000000000000        0.0000000000000000        0.0000000000000000     
  -1.9062561044331038E-002   1.1356129101168984E-002   0.0000000000000000     
  -3.6190672665133608E-002   2.5499989608127199E-002   0.0000000000000000     
  -5.1384334862407718E-002   4.2431581520874645E-002   0.0000000000000000     
  -6.4643547636153376E-002   6.2150904839411318E-002   0.0000000000000000     
   3.2005648131772091E-016   5.3659990639833018E-002   0.0000000000000000     
   1.2095359436248287E-015   7.7459637676089391E-002   0.0000000000000000     
   3.6652538643044963E-015  0.10353689068491251        0.0000000000000000     
   7.6925770441105268E-015  0.13189174966630238        0.0000000000000000     
   1.3291451272934296E-014  0.16252421462025904        0.0000000000000000     
  -1.3168678810621641E-002   5.4190672777306763E-002   0.0000000000000000     
  -1.6391772846792666E-002   7.7896201825010947E-002   0.0000000000000000     
  -1.9067467177810916E-002  0.10388455774674502        0.0000000000000000     
  -2.1195761803676400E-002  0.13215574054250898        0.0000000000000000     
  -2.2776656724389114E-002  0.16270975021230283        0.0000000000000000     
  -2.8332163020187911E-002   5.5782719189727728E-002   0.0000000000000000     
  -3.4554612657007537E-002   7.9205894271775198E-002   0.0000000000000000     
  -3.9799848510146063E-002  0.10492755893224219        0.0000000000000000     
  -4.4067870579603506E-002  0.13294771317112869        0.0000000000000000     
  -4.7358678865379866E-002  0.16326635698843472        0.0000000000000000     
  -4.5490452628698483E-002   5.8436129877095920E-002   0.0000000000000000     
  -5.4488519430643402E-002   8.1388715016382146E-002   0.0000000000000000     
  -6.2197143997001769E-002  0.10666589424140401        0.0000000000000000     
  -6.8616326327773647E-002  0.13426766755216155        0.0000000000000000     
  -7.3746066422958972E-002  0.16419403494865475        0.0000000000000000     
  -6.4643547636153376E-002   6.2150904839411318E-002   0.0000000000000000     
  -7.6193493167700257E-002   8.4444664058831762E-002   0.0000000000000000     
  -8.6259353638378056E-002  0.10909956367423052        0.0000000000000000     
  -9.4841129048186784E-002  0.13611560368560757        0.0000000000000000     
 -0.10193881939712643       0.16549278409296292        0.0000000000000000     
 </DataArray>
 <DataArray  type="Float64" Name="stress" NumberOfComponents="3" format="ascii">
   10565161717.500723        3169548515.2502170        1839187088.9121735     
   9159037660.2241821        1577587401.9740674        1073557466.8896960     
   7898115590.6659880        469632914.42574215        541437682.61238503     
   6782395508.8261414       -154314947.39475822        242827736.08024135     
   5811877414.7046413       -294256183.48743629        177727627.29326442     
   6911176296.0585756        2073352888.8175726        1371281878.5470071     
   6165642303.0852423        972099768.85567713        954117894.63782918     
   5529009800.9006720        233851618.18965673        698349970.14420068     
   5001278789.5048618       -141391563.18049002        603978105.06612313     
   4582449268.8978167       -153629775.25475979        671002299.40359509     
   3932320869.3277435        1179696260.7983232        1037063871.1433131     
   3641337574.0015693        507339324.15386701        926014945.59625256     
   3422955272.5345740        76985700.373337150        904248301.13512528     
   3277173964.9267554       -111364610.54326725        971763937.75993049     
   3203993651.1781144       -57711608.595945835        1128561855.4706686     
   1628595437.3082290        488578631.19246870        836533066.70109165     
   1586123472.9731660        183306067.86863780        989248619.76496673     
   1579952005.5676956       -964839.02321654558        1159132675.5851572     
   1610081035.0918186       -64234089.483094215        1346185234.1616633     
   1676510561.5455337       -6501683.5109953880        1550406295.4944868     
   3.1110645195540100E-005   9.3331935586620304E-006   769689465.22034276     
   3.0024060161137044E-005  -1.1289046620587529E-005   1143818917.1439707     
   3.7023955330133565E-005  -4.6094080933098005E-006   1463003093.4942973     
   5.2293334497797552E-005   2.9114760053399754E-005   1727241994.2713234     
   7.6072390145418087E-005   9.1204516466631170E-005   1936535619.4750473     
   5811877414.7046413       -294256183.48743629        177727627.29326442     
   5148210484.5898352       -131943186.48137069        163167175.13438675     
   4477934237.4578247        8338753.8006744385        173686725.18574917     
   3801048673.3086090        126589637.35870719        209286277.44735026     
   3117553792.1421847        222809464.19271159        269965831.91919273     
   4582449268.8978167       -153629775.25475979        671002299.40359509     
   3991664289.8083057       -59805461.951224804        608389278.79556501     
   3395922322.9558864        17495558.809282541        592564376.08195233     
   2795223368.3405566        78273287.026755214        623527591.26275754     
   2189567425.9623194        122527722.70120633        701278924.33797753     
   3203993651.1781144       -57711608.595945835        1128561855.4706686     
   2748113810.7829762       -13769022.694214582        1019823983.8768344     
   2288929311.8792257        19158034.845472813        979582345.86159253     
   1826440154.4668610        41069564.023117185        1007836941.4249446     
   1360646338.5458851        51965564.838723719        1104587770.5668938     
   1676510561.5455337       -6501683.5109953880        1550406295.4944868     
   1417559047.5138459        6166131.2896517515        1397471290.3781908     
   1156955204.2278416        13326181.909244955        1334740634.5246665     
   894699031.68752170        14978468.347787619        1362214327.9339144     
   630790529.89288533        11122990.605274707        1479892370.6059322     
   7.6072390145418087E-005   9.1204516466631170E-005   1936535619.4750473     
   9.1623709535166653E-004   3.7900657886838772E-004   1741331198.2996376     
   1.7379727464875790E-003   6.0468457164530008E-004   1658039242.0711770     
   2.5382304717296495E-003   7.5981031219499206E-004   1686659750.7896650     
   3.3211528765215393E-003   8.5645776185369225E-004   1827192724.4551015     
   3.1110645195540100E-005   9.3331935586620304E-006   769689465.22034276     
   3.0024060161137044E-005  -1.1289046620587529E-005   1143818917.1439707     
   3.7023955330133565E-005  -4.6094080933098005E-006   1463003093.4942973     
   5.2293334497797552E-005   2.9114760053399754E-005   1727241994.2713234     
   7.6072390145418087E-005   9.1204516466631170E-005   1936535619.4750473     
  -1628595437.3081756       -488578631.19245267        836533066.70107388     
  -1586123472.9731090       -183306067.86863625        989248619.76495552     
  -1579952005.5676281        964839.02322894335        1159132675.5851510     
  -1610081035.0917325        64234089.483143449        1346185234.1616600     
  -1676510561.5454228        6501683.5111054182        1550406295.4944830     
  -3932320869.3277168       -1179696260.7983150        1037063871.1432922     
  -3641337574.0015402       -507339324.15384865        926014945.59623539     
  -3422955272.5345430       -76985700.373312354        904248301.13510680     
  -3277173964.9267249        111364610.54329419        971763937.75990689     
  -3203993651.1780858        57711608.595970273        1128561855.4706354     
  -6911176296.0585909       -2073352888.8175774        1371281878.5469980     
  -6165642303.0852633       -972099768.85564864        954117894.63780975     
  -5529009800.9007072       -233851618.18962884        698349970.14416504     
  -5001278789.5049229        141391563.18048358        603978105.06606364     
  -4582449268.8979139        153629775.25468564        671002299.40350533     
  -10565161717.500801       -3169548515.2502403        1839187088.9121912     
  -9159037660.2242775       -1577587401.9740357        1073557466.8896791     
  -7898115590.6661205       -469632914.42571974        541437682.61232555     
  -6782395508.8263292        154314947.39471102        242827736.08013016     
  -5811877414.7049046        294256183.48725319        177727627.29309291     
   7.6072390145418087E-005   9.1204516466631170E-005   1936535619.4750473     
   9.1623709535166653E-004   3.7900657886838772E-004   1741331198.2996376     
   1.7379727464875790E-003   6.0468457164530008E-004   1658039242.0711770     
   2.5382304717296495E-003   7.5981031219499206E-004   1686659750.7896650     
   3.3211528765215393E-003   8.5645776185369225E-004   1827192724.4551015     
  -1676510561.5454228        6501683.5111054182        1550406295.4944830     
  -1417559047.5121393       -6166131.2890464067        1397471290.3781085     
  -1156955204.2245717       -13326181.908251107        1334740634.5244586     
  -894699031.68271804       -14978468.346503079        1362214327.9335306     
  -630790529.88658261       -11122990.603811920        1479892370.6053319     
  -3203993651.1780858        57711608.595970273        1128561855.4706354     
  -2748113810.7815709        13769022.694614530        1019823983.8766507     
  -2288929311.8764687       -19158034.844779730        979582345.86116612     
  -1826440154.4627767       -41069564.022210360        1007836941.4241817     
  -1360646338.5404973       -51965564.837683558        1104587770.5656979     
  -4582449268.8979139        153629775.25468564        671002299.40350533     
  -3991664289.8073821        59805461.951359987        608389278.79526520     
  -3395922322.9539542       -17495558.808985472        592564376.08130050     
  -2795223368.3376365       -78273287.026361108        623527591.26161277     
  -2189567425.9584255       -122527722.70075917        701278924.33620143     
  -5811877414.7049046        294256183.48725319        177727627.29309291     
  -5148210484.5895653        131943186.48119473        163167175.13395157     
  -4477934237.4570265       -8338753.8008680344        173686725.18486241     
  -3801048673.3072906       -126589637.35894275        209286277.44582421     
  -3117553792.1403642       -222809464.19303811        269965831.91683948     
 </DataArray>
 <DataArray  type="Float64" Name="VM" NumberOfComponents="1" format="ascii">
   9916134061.0365162     
   8682462055.7443447     
   7731172886.8894997     
   6873734274.4332924     
   5972390474.5530663     
   6585976361.1406736     
   5974740695.8906565     
   5549301407.4980402     
   5180182273.3024712     
   4803870972.3075209     
   3929680760.5426626     
   3773837544.4978271     
   3729882834.2387395     
   3734997714.5045042     
   3778196548.4827909     
   2048096180.0671697     
   2279140457.3149362     
   2555100653.3968716     
   2852464390.8595705     
   3167476774.8577132     
   1333141259.8121519     
   1981152479.1517732     
   2533995689.5625634     
   2991670891.0445237     
   3354178083.5976520     
   5972390474.5530663     
   5223085493.7706270     
   4483873929.3369322     
   3756890312.1856141     
   3048411039.4476447     
   4803870972.3075209     
   4157655152.3997755     
   3539290688.6577291     
   2960906792.9542961     
   2452817203.6300602     
   3778196548.4827909     
   3272656538.4562273     
   2841559035.9051743     
   2511924590.3454332     
   2333172636.4881091     
   3167476774.8577132     
   2803488691.1595516     
   2582228266.5472674     
   2520752490.1058898     
   2638417787.6366730     
   3354178083.5976520     
   3016074108.2597680     
   2871808208.2102714     
   2921380383.4491606     
   3164790633.9764357     
   1333141259.8121519     
   1981152479.1517732     
   2533995689.5625634     
   2991670891.0445237     
   3354178083.5976520     
   2048096180.0671144     
   2279140457.3148847     
   2555100653.3968258     
   2852464390.8595314     
   3167476774.8576779     
   3929680760.5426250     
   3773837544.4977951     
   3729882834.2387090     
   3734997714.5044703     
   3778196548.4827476     
   6585976361.1406813     
   5974740695.8906775     
   5549301407.4980745     
   5180182273.3025064     
   4803870972.3075399     
   9916134061.0365906     
   8682462055.7444401     
   7731172886.8896284     
   6873734274.4334431     
   5972390474.5532150     
   3354178083.5976520     
   3016074108.2597680     
   2871808208.2102714     
   2921380383.4491606     
   3164790633.9764357     
   3167476774.8576779     
   2803488691.1587195     
   2582228266.5457058     
   2520752490.1037974     
   2638417787.6343379     
   3778196548.4827476     
   3272656538.4550419     
   2841559035.9027958     
   2511924590.3418937     
   2333172636.4836087     
   4803870972.3075399     
   4157655152.3988175     
   3539290688.6556935     
   2960906792.9510303     
   2452817203.6253352     
   5972390474.5532150     
   5223085493.7702255     
   4483873929.3359365     
   3756890312.1839361     
   3048411039.4450812     
 </DataArray>
 <DataArray  type="Float64" Name="strain" NumberOfComponents="3" format="ascii">
  0.16023828604876098        0.0000000000000000        7.9698107186194189E-002
  0.14476269066053271       -1.9502064934886456E-002   4.6520823565220158E-002
  0.12928709527230442       -3.1663362712900905E-002   2.3462299579870019E-002
  0.11381149988407616       -3.6483893334043352E-002   1.0522535230143792E-002
   9.8335904495847878E-002  -3.3963656798313813E-002   7.7015305160414577E-003
  0.10481950715688840        0.0000000000000000        5.9422214737036974E-002
   9.7900206207142321E-002  -1.4626548701164926E-002   4.1345108767639263E-002
   9.0980905257396244E-002  -2.3747522034675748E-002   3.0261832039582028E-002
   8.4061604307650153E-002  -2.7362920000532476E-002   2.6172384552865333E-002
   7.7142303357904077E-002  -2.5472742598735082E-002   2.9076766307489121E-002
   5.9640199851470781E-002   0.0000000000000000        4.4939434416210233E-002
   5.8152262945923489E-002  -9.7510324674433962E-003   4.0127314309170943E-002
   5.6664326040376217E-002  -1.5831681356450585E-002   3.9184093049188760E-002
   5.5176389134828925E-002  -1.8241946667021565E-002   4.2109770636263658E-002
   5.3688452229281633E-002  -1.6981828399156337E-002   4.8904347070395641E-002
   2.4700364132508139E-002   0.0000000000000000        3.6249766223713974E-002
   2.5518860876876243E-002  -4.8755162337218664E-003   4.2867440189815226E-002
   2.6337357621244343E-002  -7.9158406782254206E-003   5.0229082608690141E-002
   2.7155854365612447E-002  -9.1209733335106645E-003   5.8334693480338748E-002
   2.7974351109980540E-002  -8.4909141995775927E-003   6.7184272804761094E-002
   4.7184478546569153E-016   0.0000000000000000        3.3353210159548188E-002
   5.5684623578855508E-016  -3.3827107781547738E-016   4.9565486409572070E-002
   6.4011296263544182E-016  -2.6194324487249787E-016   6.3396800718086219E-002
   7.2598177469629377E-016   2.2377932840100812E-016   7.4847153085090684E-002
   8.1185058675714572E-016   1.1397133237167623E-015   8.3916543510585390E-002
   9.8335904495847878E-002  -3.3963656798313813E-002   7.7015305160414577E-003
   8.6463224008904119E-002  -2.7940105530972023E-002   7.0705775891567596E-003
   7.4590543521960373E-002  -2.2250691957277885E-002   7.5264247580491307E-003
   6.2717863035016613E-002  -1.6895416077231259E-002   9.0690720227185120E-003
   5.0845182548072854E-002  -1.1874277890832396E-002   1.1698519383165018E-002
   7.7142303357904077E-002  -2.5472742598735082E-002   2.9076766307489121E-002
   6.6826765473227898E-002  -2.0955079148228615E-002   2.6363535414474486E-002
   5.6511227588551698E-002  -1.6688018967958060E-002   2.5677789630217933E-002
   4.6195689703875498E-002  -1.2671562057923528E-002   2.7019528954719495E-002
   3.5880151819199291E-002  -8.9057084181248247E-003   3.0388753387979028E-002
   5.3688452229281633E-002  -1.6981828399156337E-002   4.8904347070395641E-002
   4.5870741959854008E-002  -1.3970052765485123E-002   4.4192372634662823E-002
   3.8053031690426398E-002  -1.1125345978638249E-002   4.2448568320669011E-002
   3.0235321420998766E-002  -8.4477080386156853E-003   4.3672934128414269E-002
   2.2417611151571135E-002  -5.9371389454173640E-003   4.7865470057898735E-002
   2.7974351109980540E-002  -8.4909141995775927E-003   6.7184272804761094E-002
   2.3595153468782507E-002  -6.9850263827417013E-003   6.0557089249721599E-002
   1.9215955827584466E-002  -5.5626729893184582E-003   5.7838760829402217E-002
   1.4836758186386424E-002  -4.2238540193078149E-003   5.9029287543802961E-002
   1.0457560545188382E-002  -2.9685694727098477E-003   6.4128669392923734E-002
   8.1185058675714572E-016   1.1397133237167623E-015   8.3916543510585390E-002
   1.3375585361519171E-014   1.7355908377147955E-015   7.5457685259650964E-002
   2.5942789583233150E-014   1.3882124616504399E-015   7.1848367156417667E-002
   3.8504789634519199E-014  -2.7647155398380363E-017   7.3088589200885484E-002
   5.1070259132757201E-014  -2.3314683517128287E-015   7.9178351393054403E-002
   4.7184478546569153E-016   0.0000000000000000        3.3353210159548188E-002
   5.5684623578855508E-016  -3.3827107781547738E-016   4.9565486409572070E-002
   6.4011296263544182E-016  -2.6194324487249787E-016   6.3396800718086219E-002
   7.2598177469629377E-016   2.2377932840100812E-016   7.4847153085090684E-002
   8.1185058675714572E-016   1.1397133237167623E-015   8.3916543510585390E-002
  -2.4700364132507330E-002   0.0000000000000000        3.6249766223713203E-002
  -2.5518860876875306E-002   4.8755162337216088E-003   4.2867440189814740E-002
  -2.6337357621243281E-002   7.9158406782252905E-003   5.0229082608689878E-002
  -2.7155854365611260E-002   9.1209733335110548E-003   5.8334693480338602E-002
  -2.7974351109979242E-002   8.4909141995788712E-003   6.7184272804760928E-002
  -5.9640199851470371E-002   0.0000000000000000        4.4939434416209331E-002
  -5.8152262945923093E-002   9.7510324674435558E-003   4.0127314309170201E-002
  -5.6664326040375822E-002   1.5831681356450841E-002   3.9184093049187962E-002
  -5.5176389134828557E-002   1.8241946667021863E-002   4.2109770636262631E-002
  -5.3688452229281279E-002   1.6981828399156601E-002   4.8904347070394205E-002
 -0.10481950715688863        0.0000000000000000        5.9422214737036586E-002
  -9.7900206207142806E-002   1.4626548701165504E-002   4.1345108767638424E-002
  -9.0980905257396966E-002   2.3747522034676387E-002   3.0261832039580484E-002
  -8.4061604307651139E-002   2.7362920000532677E-002   2.6172384552862759E-002
  -7.7142303357905326E-002   2.5472742598734333E-002   2.9076766307485229E-002
 -0.16023828604876214        0.0000000000000000        7.9698107186194952E-002
 -0.14476269066053443        1.9502064934887452E-002   4.6520823565219430E-002
 -0.12928709527230675        3.1663362712901946E-002   2.3462299579867441E-002
 -0.11381149988407904        3.6483893334043491E-002   1.0522535230138973E-002
  -9.8335904495851348E-002   3.3963656798312078E-002   7.7015305160340261E-003
   8.1185058675714572E-016   1.1397133237167623E-015   8.3916543510585390E-002
   1.3375585361519171E-014   1.7355908377147955E-015   7.5457685259650964E-002
   2.5942789583233150E-014   1.3882124616504399E-015   7.1848367156417667E-002
   3.8504789634519199E-014  -2.7647155398380363E-017   7.3088589200885484E-002
   5.1070259132757201E-014  -2.3314683517128287E-015   7.9178351393054403E-002
  -2.7974351109979242E-002   8.4909141995788712E-003   6.7184272804760928E-002
  -2.3595153468757089E-002   6.9850263827432564E-003   6.0557089249718032E-002
  -1.9215955827534940E-002   5.5626729893186733E-003   5.7838760829393210E-002
  -1.4836758186312785E-002   4.2238540193052058E-003   5.9029287543786328E-002
  -1.0457560545090651E-002   2.9685694727027145E-003   6.4128669392897714E-002
  -5.3688452229281279E-002   1.6981828399156601E-002   4.8904347070394205E-002
  -4.5870741959832588E-002   1.3970052765484763E-002   4.4192372634654864E-002
  -3.8053031690383911E-002   1.1125345978636014E-002   4.2448568320650533E-002
  -3.0235321420935223E-002   8.4477080386103770E-003   4.3672934128381205E-002
  -2.2417611151486536E-002   5.9371389454077605E-003   4.7865470057846915E-002
  -7.7142303357905326E-002   2.5472742598734333E-002   2.9076766307485229E-002
  -6.6826765473213159E-002   2.0955079148226242E-002   2.6363535414461493E-002
  -5.6511227588520979E-002   1.6688018967953348E-002   2.5677789630189688E-002
  -4.6195689703828799E-002   1.2671562057915496E-002   2.7019528954669886E-002
  -3.5880151819136626E-002   8.9057084181128066E-003   3.0388753387902062E-002
  -9.8335904495851348E-002   3.3963656798312078E-002   7.7015305160340261E-003
  -8.6463224008898734E-002   2.7940105530967738E-002   7.0705775891379014E-003
  -7.4590543521946107E-002   2.2250691957270665E-002   7.5264247580107049E-003
  -6.2717863034993465E-002   1.6895416077220740E-002   9.0690720226523826E-003
  -5.0845182548040879E-002   1.1874277890817853E-002   1.1698519383063044E-002
 </DataArray>
 </PointData>
 </Piece>
 <Piece  NumberOfPoints="           100 "  NumberOfCells="           64 ">
 <Points>
 <DataArray  type="Float64" NumberOfComponents="3"  format="ascii" >
  0.50000000000000000        0.0000000000000000        0.0000000000000000     
  0.62500000000000000        0.0000000000000000        0.0000000000000000     
  0.75000000000000000        0.0000000000000000        0.0000000000000000     
  0.87500000000000000        0.0000000000000000        0.0000000000000000     
   1.0000000000000000        0.0000000000000000        0.0000000000000000     
  0.50000000000000000       0.12500000000000000        0.0000000000000000     
  0.62500000000000000       0.12500000000000000        0.0000000000000000     
  0.75000000000000000       0.12500000000000000        0.0000000000000000     
  0.87500000000000000       0.12500000000000000        0.0000000000000000     
   1.0000000000000000       0.12500000000000000        0.0000000000000000     
  0.50000000000000000       0.25000000000000000        0.0000000000000000     
  0.62500000000000000       0.25000000000000000        0.0000000000000000     
  0.75000000000000000       0.25000000000000000        0.0000000000000000     
  0.87500000000000000       0.25000000000000000        0.0000000000000000     
   1.0000000000000000       0.25000000000000000        0.0000000000000000     
  0.50000000000000000       0.37500000000000000        0.0000000000000000     
  0.62500000000000000       0.37500000000000000        0.0000000000000000     
  0.75000000000000000       0.37500000000000000        0.0000000000000000     
  0.87500000000000000       0.37500000000000000        0.0000000000000000     
   1.0000000000000000       0.37500000000000000        0.0000000000000000     
  0.50000000000000000       0.50000000000000000        0.0000000000000000     
  0.62500000000000000       0.50000000000000000        0.0000000000000000     
  0.75000000000000000       0.50000000000000000        0.0000000000000000     
  0.87500000000000000       0.50000000000000000        0.0000000000000000     
   1.0000000000000000       0.50000000000000000        0.0000000000000000     
   1.0000000000000000        0.0000000000000000        0.0000000000000000     
   1.1250000000000000        0.0000000000000000        0.0000000000000000     
   1.2500000000000000        0.0000000000000000        0.0000000000000000     
   1.3750000000000000        0.0000000000000000        0.0000000000000000     
   1.5000000000000000        0.0000000000000000        0.0000000000000000     
   1.0000000000000000       0.12500000000000000        0.0000000000000000     
   1.1250000000000000       0.12500000000000000        0.0000000000000000     
   1.2500000000000000       0.12500000000000000        0.0000000000000000     
   1.3750000000000000       0.12500000000000000        0.0000000000000000     
   1.5000000000000000       0.12500000000000000        0.0000000000000000     
   1.0000000000000000       0.25000000000000000        0.0000000000000000     
   1.1250000000000000       0.25000000000000000        0.0000000000000000     
   1.2500000000000000       0.25000000000000000        0.0000000000000000     
   1.3750000000000000       0.25000000000000000        0.0000000000000000     
   1.5000000000000000       0.25000000000000000        0.0000000000000000     
   1.0000000000000000       0.37500000000000000        0.0000000000000000     
   1.1250000000000000       0.37500000000000000        0.0000000000000000     
   1.2500000000000000       0.37500000000000000        0.0000000000000000     
   1.3750000000000000       0.37500000000000000        0.0000000000000000     
   1.5000000000000000       0.37500000000000000        0.0000000000000000     
   1.0000000000000000       0.50000000000000000        0.0000000000000000     
   1.1250000000000000       0.50000000000000000        0.0000000000000000     
   1.2500000000000000       0.50000000000000000        0.0000000000000000     
   1.3750000000000000       0.50000000000000000        0.0000000000000000     
   1.5000000000000000       0.50000000000000000        0.0000000000000000     
  0.50000000000000000       0.50000000000000000        0.0000000000000000     
  0.62500000000000000       0.50000000000000000        0.0000000000000000     
  0.75000000000000000       0.50000000000000000        0.0000000000000000     
  0.87500000000000000       0.50000000000000000        0.0000000000000000     
   1.0000000000000000       0.50000000000000000        0.0000000000000000     
  0.50000000000000000       0.62500000000000000        0.0000000000000000     
  0.62500000000000000       0.62500000000000000        0.0000000000000000     
  0.75000000000000000       0.62500000000000000        0.0000000000000000     
  0.87500000000000000       0.62500000000000000        0.0000000000000000     
   1.0000000000000000       0.62500000000000000        0.0000000000000000     
  0.50000000000000000       0.75000000000000000        0.0000000000000000     
  0.62500000000000000       0.75000000000000000        0.0000000000000000     
  0.75000000000000000       0.75000000000000000        0.0000000000000000     
  0.87500000000000000       0.75000000000000000        0.0000000000000000     
   1.0000000000000000       0.75000000000000000        0.0000000000000000     
  0.50000000000000000       0.87500000000000000        0.0000000000000000     
  0.62500000000000000       0.87500000000000000        0.0000000000000000     
  0.75000000000000000       0.87500000000000000        0.0000000000000000     
  0.87500000000000000       0.87500000000000000        0.0000000000000000     
   1.0000000000000000       0.87500000000000000        0.0000000000000000     
  0.50000000000000000        1.0000000000000000        0.0000000000000000     
  0.62500000000000000        1.0000000000000000        0.0000000000000000     
  0.75000000000000000        1.0000000000000000        0.0000000000000000     
  0.87500000000000000        1.0000000000000000        0.0000000000000000     
   1.0000000000000000        1.0000000000000000        0.0000000000000000     
   1.0000000000000000       0.50000000000000000        0.0000000000000000     
   1.1250000000000000       0.50000000000000000        0.0000000000000000     
   1.2500000000000000       0.50000000000000000        0.0000000000000000     
   1.3750000000000000       0.50000000000000000        0.0000000000000000     
   1.5000000000000000       0.50000000000000000        0.0000000000000000     
   1.0000000000000000       0.62500000000000000        0.0000000000000000     
   1.1250000000000000       0.62500000000000000        0.0000000000000000     
   1.2500000000000000       0.62500000000000000        0.0000000000000000     
   1.3750000000000000       0.62500000000000000        0.0000000000000000     
   1.5000000000000000       0.62500000000000000        0.0000000000000000     
   1.0000000000000000       0.75000000000000000        0.0000000000000000     
   1.1250000000000000       0.75000000000000000        0.0000000000000000     
   1.2500000000000000       0.75000000000000000        0.0000000000000000     
   1.3750000000000000       0.75000000000000000        0.0000000000000000     
   1.5000000000000000       0.75000000000000000        0.0000000000000000     
   1.0000000000000000       0.87500000000000000        0.0000000000000000     
   1.1250000000000000       0.87500000000000000        0.0000000000000000     
   1.2500000000000000       0.87500000000000000        0.0000000000000000     
   1.3750000000000000       0.87500000000000000        0.0000000000000000     
   1.5000000000000000       0.87500000000000000        0.0000000000000000     
   1.0000000000000000        1.0000000000000000        0.0000000000000000     
   1.1250000000000000        1.0000000000000000        0.0000000000000000     
   1.2500000000000000        1.0000000000000000        0.0000000000000000     
   1.3750000000000000        1.0000000000000000        0.0000000000000000     
   1.5000000000000000        1.0000000000000000        0.0000000000000000     
 </DataArray>
 </Points>
 <Cells>
 <DataArray  type="Int32"  Name="connectivity"  format="ascii">
           0           1           6           5
           1           2           7           6
           2           3           8           7
           3           4           9           8
           5           6          11          10
           6           7          12          11
           7           8          13          12
           8           9          14          13
          10          11          16          15
          11          12          17          16
          12          13          18          17
          13          14          19          18
          15          16          21          20
          16          17          22          21
          17          18          23          22
          18          19          24          23
          25          26          31          30
          26          27          32          31
          27          28          33          32
          28          29          34          33
          30          31          36          35
          31          32          37          36
          32          33          38          37
          33          34          39          38
          35          36          41          40
          36          37          42          41
          37          38          43          42
          38          39          44          43
          40          41          46          45
          41          42          47          46
          42          43          48          47
          43          44          49          48
          50          51          56          55
          51          52          57          56
          52          53          58          57
          53          54          59          58
          55          56          61          60
          56          57          62          61
          57          58          63          62
          58          59          64          63
          60          61          66          65
          61          62          67          66
          62          63          68          67
          63          64          69          68
          65          66          71          70
          66          67          72          71
          67          68          73          72
          68          69          74          73
          75          76          81          80
          76          77          82          81
          77          78          83          82
          78          79          84          83
          80          81          86          85
          81          82          87          86
          82          83          88          87
          83          84          89          88
          85          86          91          90
          86          87          92          91
          87          88          93          92
          88          89          94          93
          90          91          96          95
          91          92          97          96
          92          93          98          97
          93          94          99          98
 </DataArray>
 <DataArray  type="Int32"  Name="offsets"  format="ascii"> 
           4
           8
          12
          16
          20
          24
          28
          32
          36
          40
          44
          48
          52
          56
          60
          64
          68
          72
          76
          80
          84
          88
          92
          96
         100
         104
         108
         112
         116
         120
         124
         128
         132
         136
         140
         144
         148
         152
         156
         160
         164
         168
         172
         176
         180
         184
         188
         192
         196
         200
         204
         208
         212
         216
         220
         224
         228
         232
         236
         240
         244
         248
         252
         256
 </DataArray>
 <DataArray  type="UInt8"  Name="types"  format="ascii">
 9
 9
 9
 9
 9
 9
 9
 9
 9
 9
 9
 9
 9
 9
 9
 9
 9
 9
 9
 9
 9
 9
 9
 9
 9
 9
 9
 9
 9
 9
 9
 9
 9
 9
 9
 9
 9
 9
 9
 9
 9
 9
 9
 9
 9
 9
 9
 9
 9
 9
 9
 9
 9
 9
 9
 9
 9
 9
 9
 9
 9
 9
 9
 9
 </DataArray>
 </Cells> 
 <PointData>
 <DataArray  type="Float64" Name="disp" NumberOfComponents="3" format="ascii">
   6.4643547636161564E-002   6.2150904839415516E-002   0.0000000000000000     
   7.6193493167705448E-002   8.4444664058833274E-002   0.0000000000000000     
   8.6259353638381581E-002  0.10909956367423071        0.0000000000000000     
   9.4841129048189948E-002  0.13611560368560777        0.0000000000000000     
  0.10193881939713058       0.16549278409296453        0.0000000000000000     
   4.5490452628707670E-002   5.8436129877101263E-002   0.0000000000000000     
   5.4488519430649286E-002   8.1388715016384283E-002   0.0000000000000000     
   6.2197143997006377E-002  0.10666589424140438        0.0000000000000000     
   6.8616326327778948E-002  0.13426766755216149        0.0000000000000000     
   7.3746066422967008E-002  0.16419403494865570        0.0000000000000000     
   2.8332163020197816E-002   5.5782719189732780E-002   0.0000000000000000     
   3.4554612657013928E-002   7.9205894271777294E-002   0.0000000000000000     
   3.9799848510151441E-002  0.10492755893224252        0.0000000000000000     
   4.4067870579610355E-002  0.13294771317112847        0.0000000000000000     
   4.7358678865390677E-002  0.16326635698843514        0.0000000000000000     
   1.3168678810631980E-002   5.4190672777310073E-002   0.0000000000000000     
   1.6391772846799373E-002   7.7896201825012334E-002   0.0000000000000000     
   1.9067467177816766E-002  0.10388455774674522        0.0000000000000000     
   2.1195761803684186E-002  0.13215574054250875        0.0000000000000000     
   2.2776656724401611E-002  0.16270975021230291        0.0000000000000000     
   1.0174153186603974E-014   5.3659990639833122E-002   0.0000000000000000     
   5.6205040621648550E-015   7.7459637676089363E-002   0.0000000000000000     
   2.3718006725292895E-015  0.10353689068491242        0.0000000000000000     
   4.2901879965251410E-016  0.13189174966630227        0.0000000000000000     
  -2.0816681711721685E-016  0.16252421462025898        0.0000000000000000     
  0.10193881939713058       0.16549278409296453        0.0000000000000000     
  0.10758227955077626       0.19675737584356245        0.0000000000000000     
  0.11180136437469985       0.22943564988466303        0.0000000000000000     
  0.11459607386890130       0.26352760621626631        0.0000000000000000     
  0.11596640803338065       0.29903324483837224        0.0000000000000000     
   7.3746066422967008E-002  0.16419403494865570        0.0000000000000000     
   7.7721011082087843E-002  0.19581450796901728        0.0000000000000000     
   8.0675807104658756E-002  0.22849859815137677        0.0000000000000000     
   8.2610454490679774E-002  0.26224630549573402        0.0000000000000000     
   8.3524953240150870E-002  0.29705763000208912        0.0000000000000000     
   4.7358678865390677E-002  0.16326635698843514        0.0000000000000000     
   4.9836875000728954E-002  0.19514103091577079        0.0000000000000000     
   5.1667060618861747E-002  0.22782927548474366        0.0000000000000000     
   5.2849235719789056E-002  0.26133109069535376        0.0000000000000000     
   5.3383400303510867E-002  0.29564647654760112        0.0000000000000000     
   2.2776656724401611E-002  0.16270975021230291        0.0000000000000000     
   2.3929871306699619E-002  0.19473694468382283        0.0000000000000000     
   2.4775124917308794E-002  0.22742768188476370        0.0000000000000000     
   2.5312417556229139E-002  0.26078196181512553        0.0000000000000000     
   2.5541749223460641E-002  0.29479978447490829        0.0000000000000000     
  -2.0816681711721685E-016  0.16252421462025898        0.0000000000000000     
  -1.7347234759768071E-016  0.19460224927317352        0.0000000000000000     
  -8.7169854667834556E-017  0.22729381735143692        0.0000000000000000     
   3.1983964088322381E-017  0.26059891885504927        0.0000000000000000     
   1.9428902930940239E-016  0.29451755378401051        0.0000000000000000     
   1.0174153186603974E-014   5.3659990639833122E-002   0.0000000000000000     
   5.6205040621648550E-015   7.7459637676089363E-002   0.0000000000000000     
   2.3718006725292895E-015  0.10353689068491242        0.0000000000000000     
   4.2901879965251410E-016  0.13189174966630227        0.0000000000000000     
  -2.0816681711721685E-016  0.16252421462025898        0.0000000000000000     
  -1.3168678810611794E-002   5.4190672777303439E-002   0.0000000000000000     
  -1.6391772846788107E-002   7.7896201825009184E-002   0.0000000000000000     
  -1.9067467177811888E-002  0.10388455774674443        0.0000000000000000     
  -2.1195761803683134E-002  0.13215574054250911        0.0000000000000000     
  -2.2776656724401829E-002  0.16270975021230330        0.0000000000000000     
  -2.8332163020178120E-002   5.5782719189722517E-002   0.0000000000000000     
  -3.4554612657002617E-002   7.9205894271772631E-002   0.0000000000000000     
  -3.9799848510146139E-002  0.10492755893224158        0.0000000000000000     
  -4.4067870579608724E-002  0.13294771317112936        0.0000000000000000     
  -4.7358678865390337E-002  0.16326635698843595        0.0000000000000000     
  -4.5490452628688796E-002   5.8436129877090341E-002   0.0000000000000000     
  -5.4488519430637879E-002   8.1388715016379662E-002   0.0000000000000000     
  -6.2197143997000388E-002  0.10666589424140388        0.0000000000000000     
  -6.8616326327776339E-002  0.13426766755216299        0.0000000000000000     
  -7.3746066422965703E-002  0.16419403494865686        0.0000000000000000     
  -6.4643547636143828E-002   6.2150904839406940E-002   0.0000000000000000     
  -7.6193493167693901E-002   8.4444664058830332E-002   0.0000000000000000     
  -8.6259353638374628E-002  0.10909956367423132        0.0000000000000000     
  -9.4841129048185979E-002  0.13611560368560990        0.0000000000000000     
 -0.10193881939712797       0.16549278409296608        0.0000000000000000     
  -2.0816681711721685E-016  0.16252421462025898        0.0000000000000000     
  -1.7347234759768071E-016  0.19460224927317352        0.0000000000000000     
  -8.7169854667834556E-017  0.22729381735143692        0.0000000000000000     
   3.1983964088322381E-017  0.26059891885504927        0.0000000000000000     
   1.9428902930940239E-016  0.29451755378401051        0.0000000000000000     
  -2.2776656724401829E-002  0.16270975021230330        0.0000000000000000     
  -2.3929871306699806E-002  0.19473694468382280        0.0000000000000000     
  -2.4775124917308863E-002  0.22742768188476342        0.0000000000000000     
  -2.5312417556229004E-002  0.26078196181512514        0.0000000000000000     
  -2.5541749223460215E-002  0.29479978447490790        0.0000000000000000     
  -4.7358678865390337E-002  0.16326635698843595        0.0000000000000000     
  -4.9836875000728684E-002  0.19514103091577076        0.0000000000000000     
  -5.1667060618861477E-002  0.22782927548474310        0.0000000000000000     
  -5.2849235719788674E-002  0.26133109069535304        0.0000000000000000     
  -5.3383400303510332E-002  0.29564647654760062        0.0000000000000000     
  -7.3746066422965703E-002  0.16419403494865686        0.0000000000000000     
  -7.7721011082086816E-002  0.19581450796901739        0.0000000000000000     
  -8.0675807104657909E-002  0.22849859815137619        0.0000000000000000     
  -8.2610454490679039E-002  0.26224630549573325        0.0000000000000000     
  -8.3524953240150149E-002  0.29705763000208851        0.0000000000000000     
 -0.10193881939712797       0.16549278409296608        0.0000000000000000     
 -0.10758227955077418       0.19675737584356268        0.0000000000000000     
 -0.11180136437469820       0.22943564988466247        0.0000000000000000     
 -0.11459607386890003       0.26352760621626542        0.0000000000000000     
 -0.11596640803337967       0.29903324483837168        0.0000000000000000     
 </DataArray>
 <DataArray  type="Float64" Name="stress" NumberOfComponents="3" format="ascii">
   5811877414.7032719       -294256183.48684454        177727627.29268122     
   5148210484.5884914       -131943186.48104882        163167175.13372862     
   4477934237.4565344        8338753.8008399010        173686725.18496895     
   3801048673.3074088        126589637.35882640        209286277.44640407     
   3117553792.1411076        222809464.19289637        269965831.91803789     
   4582449268.8957138       -153629775.25514245        671002299.40294492     
   3991664289.8062167       -59805461.951566935        608389278.79491532     
   3395922322.9538140        17495558.808984280        592564376.08126712     
   2795223368.3385081        78273287.026523590        623527591.26200330     
   2189567425.9602938        122527722.70104170        701278924.33712602     
   3203993651.1754179       -57711608.597262025        1128561855.4700904     
   2748113810.7803173       -13769022.695174217        1019823983.8762925     
   2288929311.8765774        19158034.844779849        979582345.86106896     
   1826440154.4641964        41069564.022597313        1007836941.4244175     
   1360646338.5431776        51965564.838288665        1104587770.5663342     
   1676510561.5423827       -6501683.5132033825        1550406295.4941156     
   1417559047.5107877        6166131.2881286740        1397471290.3778632     
   1156955204.2248197        13326181.908214331        1334740634.5243702     
   894699031.68447804        14978468.347055972        1362214327.9336390     
   630790529.88976026        11122990.604645699        1479892370.6056671     
  -3.3887727788730225E-003  -2.9650732418790562E-003   1936535619.4750218     
  -2.3693043863844635E-003  -1.6554523319932690E-003   1741331198.2996235     
  -1.4573507236157858E-003  -7.0490774389747666E-004   1658039242.0711751     
  -6.5312910757387007E-004  -1.1485775700500504E-004   1686659750.7896752     
   4.2456880502148841E-005   1.1515513817231534E-004   1827192724.4551210     
   3117553792.1411076        222809464.19289637        269965831.91803789     
   2430595254.4490409        211948199.44138813        207064289.26081055     
   1680328235.1184158       -9941337.4386435747        221751235.23485738     
   866752734.14923322       -442859146.44719720        314026669.84018457     
  -10131248.458502531       -1086805227.5842717        483890593.07679075     
   2189567425.9602938        122527722.70104170        701278924.33712602     
   1699737284.4011250        121998402.65034044        605460798.70834816     
   1162425781.6130428       -36802121.496739924        581307117.31187391     
   577632917.59604931       -353873849.74019039        628817880.14770377     
  -54641307.649861008       -829216782.08001900        747993087.21583855     
   1360646338.5431776        51965564.838288665        1104587770.5663342     
   1051018751.9769843        56690437.146423161        994318035.77725863     
   709736924.59151971       -44098826.609678209        949788700.82151008     
   336800856.38678658       -250402226.43000752        970999765.69909465     
  -67789452.637216210       -562219762.31457198        1057951230.4100075     
   630790529.88976026        11122990.604645699        1479892370.6056671     
   484439657.17661786        16024302.929640979        1373636000.4675407     
   322261664.05384737       -31831452.777456135        1327195985.7637699     
   144256550.52145180       -132444276.51663950        1340572326.4943554     
  -49575683.420575857       -285814168.28792292        1413765022.6592982     
   4.2456880502148841E-005   1.1515513817231534E-004   1827192724.4551210     
   2.4797014258798139E-005  -1.1712242897144507E-005   1743414692.7791941     
   2.2806847985259914E-005  -8.4959511953114664E-005   1713528972.1386514     
   3.7658749744969041E-005  -1.0241349892678900E-004   1737535562.5334918     
   6.6247373886973632E-005  -7.3384521902421061E-005   1815434463.9637132     
  -3.3887727788730225E-003  -2.9650732418790562E-003   1936535619.4750218     
  -2.3693043863844635E-003  -1.6554523319932690E-003   1741331198.2996235     
  -1.4573507236157858E-003  -7.0490774389747666E-004   1658039242.0711751     
  -6.5312910757387007E-004  -1.1485775700500504E-004   1686659750.7896752     
   4.2456880502148841E-005   1.1515513817231534E-004   1827192724.4551210     
  -1676510561.5485759        6501683.5088821650        1550406295.4948061     
  -1417559047.5151939       -6166131.2905717492        1397471290.3784077     
  -1156955204.2275872       -13326181.909275711        1334740634.5247476     
  -894699031.68575573       -14978468.347230136        1362214327.9338231     
  -630790529.88969898       -11122990.604434550        1479892370.6056356     
  -3203993651.1807995        57711608.594618320        1128561855.4711750     
  -2748113810.7842321        13769022.693646550        1019823983.8771663     
  -2288929311.8791046       -19158034.845462918        979582345.86168194     
  -1826440154.4654195       -41069564.022710323        1007836941.4247241     
  -1360646338.5431774       -51965564.838100016        1104587770.5662911     
  -4582449268.9000607        153629775.25424266        671002299.40413153     
  -3991664289.8094826        59805461.951002836        608389278.79589808     
  -3395922322.9560084       -17495558.809262037        592564376.08198059     
  -2795223368.3396463       -78273287.026558757        623527591.26237643     
  -2189567425.9603920       -122527722.70088220        701278924.33708715     
  -5811877414.7063580        294256183.48775697        177727627.29367146     
  -5148210484.5909443        131943186.48149467        163167175.13460517     
  -4477934237.4583015       -8338753.8006815910        173686725.18564147     
  -3801048673.3084383       -126589637.35878229        209286277.44677997     
  -3117553792.1413474       -222809464.19279695        269965831.91802281     
   4.2456880502148841E-005   1.1515513817231534E-004   1827192724.4551210     
   2.4797014258798139E-005  -1.1712242897144507E-005   1743414692.7791941     
   2.2806847985259914E-005  -8.4959511953114664E-005   1713528972.1386514     
   3.7658749744969041E-005  -1.0241349892678900E-004   1737535562.5334918     
   6.6247373886973632E-005  -7.3384521902421061E-005   1815434463.9637132     
  -630790529.88969898       -11122990.604434550        1479892370.6056356     
  -484439657.17657727       -16024302.929634005        1373636000.4675281     
  -322261664.05380297        31831452.777344450        1327195985.7637761     
  -144256550.52137738        132444276.51649526        1340572326.4943812     
   49575683.420707531        285814168.28783584        1413765022.6593447     
  -1360646338.5431774       -51965564.838100016        1104587770.5662911     
  -1051018751.9769920       -56690437.146394730        994318035.77724707     
  -709736924.59151721        44098826.609609067        949788700.82153273     
  -336800856.38675213        250402226.42991257        970999765.69914889     
   67789452.637307242        562219762.31453264        1057951230.4100952     
  -2189567425.9603920       -122527722.70088220        701278924.33708715     
  -1699737284.4012213       -121998402.65030742        605460798.70834911     
  -1162425781.6131217        36802121.496699035        581307117.31191516     
  -577632917.59609020        353873849.74014711        628817880.14778543     
   54641307.649869621        829216782.08001816        747993087.21595860     
  -3117553792.1413474       -222809464.19279695        269965831.91802281     
  -2430595254.4492636       -211948199.44135737        207064289.26083651     
  -1680328235.1186130        9941337.4386355877        221751235.23492849     
  -866752734.14940047        442859146.44716799        314026669.84029740     
   10131248.458388329        1086805227.5842907        483890593.07694381     
 </DataArray>
 <DataArray  type="Float64" Name="VM" NumberOfComponents="1" format="ascii">
   5972390474.5513306     
   5223085493.7690563     
   4483873929.3354721     
   3756890312.1842060     
   3048411039.4461946     
   4803870972.3054037     
   4157655152.3976388     
   3539290688.6555433     
   2960906792.9520164     
   2452817203.6276374     
   3778196548.4805441     
   3272656538.4538889     
   2841559035.9027824     
   2511924590.3430638     
   2333172636.4858832     
   3167476774.8560863     
   2803488691.1579003     
   2582228266.5456872     
   2520752490.1044979     
   2638417787.6355586     
   3354178083.5976076     
   3016074108.2597437     
   2871808208.2102680     
   2921380383.4491787     
   3164790633.9764695     
   3048411039.4461946     
   2359275715.5759988     
   1728533294.1264935     
   1275567383.5144751     
   1368461862.5733776     
   2452817203.6276374     
   1948428481.8612239     
   1552134569.7662761     
   1359974798.4750288     
   1524387624.7381470     
   2333172636.4858832     
   2003565965.7191935     
   1800906855.6806769     
   1757553245.6030607     
   1907971781.4619069     
   2638417787.6355586     
   2426479618.1409469     
   2323676275.2862945     
   2334279306.5321960     
   2462960144.2859597     
   3164790633.9764695     
   3019682826.5556493     
   2967919239.9854193     
   3009499874.2657781     
   3144424729.3967214     
   3354178083.5976076     
   3016074108.2597437     
   2871808208.2102680     
   2921380383.4491787     
   3164790633.9764695     
   3167476774.8592319     
   2803488691.1603255     
   2582228266.5472732     
   2520752490.1052165     
   2638417787.6355157     
   3778196548.4849591     
   3272656538.4573536     
   2841559035.9051733     
   2511924590.3442731     
   2333172636.4858727     
   4803870972.3096590     
   4157655152.4009509     
   3539290688.6578703     
   2960906792.9532952     
   2452817203.6277523     
   5972390474.5549870     
   5223085493.7718191     
   4483873929.3373919     
   3756890312.1853137     
   3048411039.4464703     
   3164790633.9764695     
   3019682826.5556493     
   2967919239.9854193     
   3009499874.2657781     
   3144424729.3967214     
   2638417787.6355157     
   2426479618.1409178     
   2323676275.2862892     
   2334279306.5322208     
   2462960144.2860255     
   2333172636.4858727     
   2003565965.7191868     
   1800906855.6806965     
   1757553245.6031187     
   1907971781.4620318     
   2452817203.6277523     
   1948428481.8613181     
   1552134569.7663660     
   1359974798.4751441     
   1524387624.7383213     
   3048411039.4464703     
   2359275715.5762382     
   1728533294.1267092     
   1275567383.5146811     
   1368461862.5735996     
 </DataArray>
 <DataArray  type="Float64" Name="strain" NumberOfComponents="3" format="ascii">
   9.8335904495822080E-002  -3.3963656798297104E-002   7.7015305160161862E-003
   8.6463224008880096E-002  -2.7940105530959936E-002   7.0705775891282407E-003
   7.4590543521938030E-002  -2.2250691957268670E-002   7.5264247580153210E-003
   6.2717863034996019E-002  -1.6895416077223273E-002   9.0690720226775101E-003
   5.0845182548053980E-002  -1.1874277890823931E-002   1.1698519383114975E-002
   7.7142303357870950E-002  -2.5472742598730946E-002   2.9076766307460949E-002
   6.6826765473194785E-002  -2.0955079148223865E-002   2.6363535414446332E-002
   5.6511227588518648E-002  -1.6688018967952668E-002   2.5677789630188241E-002
   4.6195689703842524E-002  -1.2671562057917149E-002   2.7019528954686810E-002
   3.5880151819166359E-002  -8.9057084181174417E-003   3.0388753387942127E-002
   5.3688452229243275E-002  -1.6981828399164789E-002   4.8904347070370585E-002
   4.5870741959814491E-002  -1.3970052765487823E-002   4.4192372634639342E-002
   3.8053031690385722E-002  -1.1125345978636555E-002   4.2448568320646321E-002
   3.0235321420956952E-002  -8.4477080386110258E-003   4.3672934128391426E-002
   2.2417611151528183E-002  -5.9371389454110773E-003   4.7865470057874483E-002
   2.7974351109939066E-002  -8.4909141995986384E-003   6.7184272804745010E-002
   2.3595153468739152E-002  -6.9850263827517939E-003   6.0557089249707409E-002
   1.9215955827539256E-002  -5.5626729893205260E-003   5.7838760829389380E-002
   1.4836758186339354E-002  -4.2238540193047912E-003   5.9029287543791026E-002
   1.0457560545139442E-002  -2.9685694727047060E-003   6.4128669392912244E-002
  -4.1654180105155092E-014  -3.2474023470285829E-014   8.3916543510584279E-002
  -3.1211144779774713E-014  -1.5744350267965501E-014   7.5457685259650353E-002
  -2.0764640007442381E-014  -4.4617087802123478E-015   7.1848367156417584E-002
  -1.0311196341206141E-014   1.3513495877859327E-015   7.3088589200885928E-002
   1.3183898417423734E-016   1.7069679003611782E-015   7.9178351393055249E-002
   5.0845182548053980E-002  -1.1874277890823931E-002   1.1698519383114975E-002
   3.9450179910277078E-002  -8.6205062815554040E-003   8.9727858679684580E-003
   2.8055177272500148E-002  -8.5673301329028048E-003   9.6092201935104871E-003
   1.6660174634723204E-002  -1.1714749444866118E-002   1.3607822359741333E-002
   5.2651719969463162E-003  -1.8062764217445348E-002   2.0968592366660932E-002
   3.5880151819166359E-002  -8.9057084181174417E-003   3.0388753387942127E-002
   2.7718962726767049E-002  -6.4653797111666189E-003   2.6236634610695087E-002
   1.9557773634367746E-002  -6.4254975996775460E-003   2.5189975083514539E-002
   1.1396584541968440E-002  -8.7860620836500876E-003   2.7248774806400495E-002
   3.2353954495690784E-003  -1.3547073163084344E-002   3.2413033779353007E-002
   2.2417611151528183E-002  -5.9371389454110773E-003   4.7865470057874483E-002
   1.7233527013884288E-002  -4.3102531407778685E-003   4.3087114883681207E-002
   1.2049442876240386E-002  -4.2836650664522351E-003   4.1157510368932101E-002
   6.8653587385964811E-003  -5.8573747224340581E-003   4.2076656513627436E-002
   1.6812746009525897E-003  -9.0313821087234514E-003   4.5844553317766989E-002
   1.0457560545139442E-002  -2.9685694727047060E-003   6.4128669392912244E-002
   7.9938727716287600E-003  -2.1551265703890730E-003   5.9524226686926765E-002
   5.5301849981180696E-003  -2.1418325332268392E-003   5.7511826049763362E-002
   3.0664972246073939E-003  -2.9286873612179173E-003   5.8091467481422070E-002
   6.0280945109668360E-004  -4.5156910543625028E-003   6.1263150981902922E-002
   1.3183898417423734E-016   1.7069679003611782E-015   7.9178351393055249E-002
   4.7184478546569153E-016  -3.1918911957973251E-016   7.5547970020431746E-002
   8.0491169285323849E-016  -1.5300261058115439E-015   7.4252922126008231E-002
   1.1397133237167623E-015  -1.8951853975046618E-015   7.5293207709784649E-002
   1.4710455076283324E-015  -1.5543122344752192E-015   7.8668826771760902E-002
  -4.1654180105155092E-014  -3.2474023470285829E-014   8.3916543510584279E-002
  -3.1211144779774713E-014  -1.5744350267965501E-014   7.5457685259650353E-002
  -2.0764640007442381E-014  -4.4617087802123478E-015   7.1848367156417584E-002
  -1.0311196341206141E-014   1.3513495877859327E-015   7.3088589200885928E-002
   1.3183898417423734E-016   1.7069679003611782E-015   7.9178351393055249E-002
  -2.7974351110020675E-002   8.4909141995575810E-003   6.7184272804774930E-002
  -2.3595153468800374E-002   6.9850263827331074E-003   6.0557089249731001E-002
  -1.9215955827580077E-002   5.5626729893166749E-003   5.7838760829405728E-002
  -1.4836758186359779E-002   4.2238540193082763E-003   5.9029287543799006E-002
  -1.0457560545139476E-002   2.9685694727079187E-003   6.4128669392910884E-002
  -5.3688452229319748E-002   1.6981828399147636E-002   4.8904347070417582E-002
  -4.5870741959872098E-002   1.3970052765481935E-002   4.4192372634677207E-002
  -3.8053031690424427E-002   1.1125345978637808E-002   4.2448568320672883E-002
  -3.0235321420976773E-002   8.4477080386152585E-003   4.3672934128404714E-002
  -2.2417611151529123E-002   5.9371389454142207E-003   4.7865470057872617E-002
  -7.7142303357938896E-002   2.5472742598737684E-002   2.9076766307512367E-002
  -6.6826765473246383E-002   2.0955079148230790E-002   2.6363535414488916E-002
  -5.6511227588553835E-002   1.6688018967959010E-002   2.5677789630219161E-002
  -4.6195689703861308E-002   1.2671562057922253E-002   2.7019528954702977E-002
  -3.5880151819168787E-002   8.9057084181205885E-003   3.0388753387940441E-002
  -9.8335904495878090E-002   3.3963656798327746E-002   7.7015305160590963E-003
  -8.6463224008923201E-002   2.7940105530979628E-002   7.0705775891662243E-003
  -7.4590543521968283E-002   2.2250691957280147E-002   7.5264247580444643E-003
  -6.2717863035013394E-002   1.6895416077229154E-002   9.0690720226937992E-003
  -5.0845182548058476E-002   1.1874277890826790E-002   1.1698519383114322E-002
   1.3183898417423734E-016   1.7069679003611782E-015   7.9178351393055249E-002
   4.7184478546569153E-016  -3.1918911957973251E-016   7.5547970020431746E-002
   8.0491169285323849E-016  -1.5300261058115439E-015   7.4252922126008231E-002
   1.1397133237167623E-015  -1.8951853975046618E-015   7.5293207709784649E-002
   1.4710455076283324E-015  -1.5543122344752192E-015   7.8668826771760902E-002
  -1.0457560545139476E-002   2.9685694727079187E-003   6.4128669392910884E-002
  -7.9938727716281181E-003   2.1551265703889863E-003   5.9524226686926217E-002
  -5.5301849981167720E-003   2.1418325332247558E-003   5.7511826049763633E-002
  -3.0664972246054328E-003   2.9286873612151413E-003   5.8091467481423187E-002
  -6.0280945109405376E-004   4.5156910543603934E-003   6.1263150981904935E-002
  -2.2417611151529123E-002   5.9371389454142207E-003   4.7865470057872617E-002
  -1.7233527013884562E-002   4.3102531407783820E-003   4.3087114883680708E-002
  -1.2049442876239999E-002   4.2836650664510711E-003   4.1157510368933087E-002
  -6.8653587385954316E-003   5.8573747224323035E-003   4.2076656513629788E-002
  -1.6812746009508758E-003   9.0313821087223412E-003   4.5844553317770792E-002
  -3.5880151819168787E-002   8.9057084181205885E-003   3.0388753387940441E-002
  -2.7718962726768819E-002   6.4653797111676493E-003   2.6236634610695128E-002
  -1.9557773634368860E-002   6.4254975996772606E-003   2.5189975083516322E-002
  -1.1396584541968905E-002   8.7860620836495689E-003   2.7248774806404034E-002
  -3.2353954495689310E-003   1.3547073163084289E-002   3.2413033779358204E-002
  -5.0845182548058476E-002   1.1874277890826790E-002   1.1698519383114322E-002
  -3.9450179910280936E-002   8.6205062815570277E-003   8.9727858679695821E-003
  -2.8055177272503395E-002   8.5673301329036583E-003   9.6092201935135679E-003
  -1.6660174634725848E-002   1.1714749444866470E-002   1.3607822359746221E-002
  -5.2651719969483146E-003   1.8062764217446237E-002   2.0968592366667566E-002
 </DataArray>
 </PointData>
 </Piece>
 </UnstructuredGrid>
 </VTKFile>
