 <VTKFile type="UnstructuredGrid"  version="0.1"   >
 <UnstructuredGrid>
 <Piece  NumberOfPoints="          1600 "  NumberOfCells="         1024 ">
 <Points>
 <DataArray  type="Float64" NumberOfComponents="3"  format="ascii" >
   0.0000000000000000        0.0000000000000000        0.0000000000000000     
   3.1250000000000000E-002   0.0000000000000000        0.0000000000000000     
   6.2500000000000000E-002   0.0000000000000000        0.0000000000000000     
   9.3750000000000000E-002   0.0000000000000000        0.0000000000000000     
  0.12500000000000000        0.0000000000000000        0.0000000000000000     
   0.0000000000000000        3.1250000000000000E-002   0.0000000000000000     
   3.1250000000000000E-002   3.1250000000000000E-002   0.0000000000000000     
   6.2500000000000000E-002   3.1250000000000000E-002   0.0000000000000000     
   9.3750000000000000E-002   3.1250000000000000E-002   0.0000000000000000     
  0.12500000000000000        3.1250000000000000E-002   0.0000000000000000     
   0.0000000000000000        6.2500000000000000E-002   0.0000000000000000     
   3.1250000000000000E-002   6.2500000000000000E-002   0.0000000000000000     
   6.2500000000000000E-002   6.2500000000000000E-002   0.0000000000000000     
   9.3750000000000000E-002   6.2500000000000000E-002   0.0000000000000000     
  0.12500000000000000        6.2500000000000000E-002   0.0000000000000000     
   0.0000000000000000        9.3750000000000000E-002   0.0000000000000000     
   3.1250000000000000E-002   9.3750000000000000E-002   0.0000000000000000     
   6.2500000000000000E-002   9.3750000000000000E-002   0.0000000000000000     
   9.3750000000000000E-002   9.3750000000000000E-002   0.0000000000000000     
  0.12500000000000000        9.3750000000000000E-002   0.0000000000000000     
   0.0000000000000000       0.12500000000000000        0.0000000000000000     
   3.1250000000000000E-002  0.12500000000000000        0.0000000000000000     
   6.2500000000000000E-002  0.12500000000000000        0.0000000000000000     
   9.3750000000000000E-002  0.12500000000000000        0.0000000000000000     
  0.12500000000000000       0.12500000000000000        0.0000000000000000     
  0.12500000000000000        0.0000000000000000        0.0000000000000000     
  0.15625000000000000        0.0000000000000000        0.0000000000000000     
  0.18750000000000000        0.0000000000000000        0.0000000000000000     
  0.21875000000000000        0.0000000000000000        0.0000000000000000     
  0.25000000000000000        0.0000000000000000        0.0000000000000000     
  0.12500000000000000        3.1250000000000000E-002   0.0000000000000000     
  0.15625000000000000        3.1250000000000000E-002   0.0000000000000000     
  0.18750000000000000        3.1250000000000000E-002   0.0000000000000000     
  0.21875000000000000        3.1250000000000000E-002   0.0000000000000000     
  0.25000000000000000        3.1250000000000000E-002   0.0000000000000000     
  0.12500000000000000        6.2500000000000000E-002   0.0000000000000000     
  0.15625000000000000        6.2500000000000000E-002   0.0000000000000000     
  0.18750000000000000        6.2500000000000000E-002   0.0000000000000000     
  0.21875000000000000        6.2500000000000000E-002   0.0000000000000000     
  0.25000000000000000        6.2500000000000000E-002   0.0000000000000000     
  0.12500000000000000        9.3750000000000000E-002   0.0000000000000000     
  0.15625000000000000        9.3750000000000000E-002   0.0000000000000000     
  0.18750000000000000        9.3750000000000000E-002   0.0000000000000000     
  0.21875000000000000        9.3750000000000000E-002   0.0000000000000000     
  0.25000000000000000        9.3750000000000000E-002   0.0000000000000000     
  0.12500000000000000       0.12500000000000000        0.0000000000000000     
  0.15625000000000000       0.12500000000000000        0.0000000000000000     
  0.18750000000000000       0.12500000000000000        0.0000000000000000     
  0.21875000000000000       0.12500000000000000        0.0000000000000000     
  0.25000000000000000       0.12500000000000000        0.0000000000000000     
  0.25000000000000000        0.0000000000000000        0.0000000000000000     
  0.28125000000000000        0.0000000000000000        0.0000000000000000     
  0.31250000000000000        0.0000000000000000        0.0000000000000000     
  0.34375000000000000        0.0000000000000000        0.0000000000000000     
  0.37500000000000000        0.0000000000000000        0.0000000000000000     
  0.25000000000000000        3.1250000000000000E-002   0.0000000000000000     
  0.28125000000000000        3.1250000000000000E-002   0.0000000000000000     
  0.31250000000000000        3.1250000000000000E-002   0.0000000000000000     
  0.34375000000000000        3.1250000000000000E-002   0.0000000000000000     
  0.37500000000000000        3.1250000000000000E-002   0.0000000000000000     
  0.25000000000000000        6.2500000000000000E-002   0.0000000000000000     
  0.28125000000000000        6.2500000000000000E-002   0.0000000000000000     
  0.31250000000000000        6.2500000000000000E-002   0.0000000000000000     
  0.34375000000000000        6.2500000000000000E-002   0.0000000000000000     
  0.37500000000000000        6.2500000000000000E-002   0.0000000000000000     
  0.25000000000000000        9.3750000000000000E-002   0.0000000000000000     
  0.28125000000000000        9.3750000000000000E-002   0.0000000000000000     
  0.31250000000000000        9.3750000000000000E-002   0.0000000000000000     
  0.34375000000000000        9.3750000000000000E-002   0.0000000000000000     
  0.37500000000000000        9.3750000000000000E-002   0.0000000000000000     
  0.25000000000000000       0.12500000000000000        0.0000000000000000     
  0.28125000000000000       0.12500000000000000        0.0000000000000000     
  0.31250000000000000       0.12500000000000000        0.0000000000000000     
  0.34375000000000000       0.12500000000000000        0.0000000000000000     
  0.37500000000000000       0.12500000000000000        0.0000000000000000     
  0.37500000000000000        0.0000000000000000        0.0000000000000000     
  0.40625000000000000        0.0000000000000000        0.0000000000000000     
  0.43750000000000000        0.0000000000000000        0.0000000000000000     
  0.46875000000000000        0.0000000000000000        0.0000000000000000     
  0.50000000000000000        0.0000000000000000        0.0000000000000000     
  0.37500000000000000        3.1250000000000000E-002   0.0000000000000000     
  0.40625000000000000        3.1250000000000000E-002   0.0000000000000000     
  0.43750000000000000        3.1250000000000000E-002   0.0000000000000000     
  0.46875000000000000        3.1250000000000000E-002   0.0000000000000000     
  0.50000000000000000        3.1250000000000000E-002   0.0000000000000000     
  0.37500000000000000        6.2500000000000000E-002   0.0000000000000000     
  0.40625000000000000        6.2500000000000000E-002   0.0000000000000000     
  0.43750000000000000        6.2500000000000000E-002   0.0000000000000000     
  0.46875000000000000        6.2500000000000000E-002   0.0000000000000000     
  0.50000000000000000        6.2500000000000000E-002   0.0000000000000000     
  0.37500000000000000        9.3750000000000000E-002   0.0000000000000000     
  0.40625000000000000        9.3750000000000000E-002   0.0000000000000000     
  0.43750000000000000        9.3750000000000000E-002   0.0000000000000000     
  0.46875000000000000        9.3750000000000000E-002   0.0000000000000000     
  0.50000000000000000        9.3750000000000000E-002   0.0000000000000000     
  0.37500000000000000       0.12500000000000000        0.0000000000000000     
  0.40625000000000000       0.12500000000000000        0.0000000000000000     
  0.43750000000000000       0.12500000000000000        0.0000000000000000     
  0.46875000000000000       0.12500000000000000        0.0000000000000000     
  0.50000000000000000       0.12500000000000000        0.0000000000000000     
  0.50000000000000000        0.0000000000000000        0.0000000000000000     
  0.53125000000000000        0.0000000000000000        0.0000000000000000     
  0.56250000000000000        0.0000000000000000        0.0000000000000000     
  0.59375000000000000        0.0000000000000000        0.0000000000000000     
  0.62500000000000000        0.0000000000000000        0.0000000000000000     
  0.50000000000000000        3.1250000000000000E-002   0.0000000000000000     
  0.53125000000000000        3.1250000000000000E-002   0.0000000000000000     
  0.56250000000000000        3.1250000000000000E-002   0.0000000000000000     
  0.59375000000000000        3.1250000000000000E-002   0.0000000000000000     
  0.62500000000000000        3.1250000000000000E-002   0.0000000000000000     
  0.50000000000000000        6.2500000000000000E-002   0.0000000000000000     
  0.53125000000000000        6.2500000000000000E-002   0.0000000000000000     
  0.56250000000000000        6.2500000000000000E-002   0.0000000000000000     
  0.59375000000000000        6.2500000000000000E-002   0.0000000000000000     
  0.62500000000000000        6.2500000000000000E-002   0.0000000000000000     
  0.50000000000000000        9.3750000000000000E-002   0.0000000000000000     
  0.53125000000000000        9.3750000000000000E-002   0.0000000000000000     
  0.56250000000000000        9.3750000000000000E-002   0.0000000000000000     
  0.59375000000000000        9.3750000000000000E-002   0.0000000000000000     
  0.62500000000000000        9.3750000000000000E-002   0.0000000000000000     
  0.50000000000000000       0.12500000000000000        0.0000000000000000     
  0.53125000000000000       0.12500000000000000        0.0000000000000000     
  0.56250000000000000       0.12500000000000000        0.0000000000000000     
  0.59375000000000000       0.12500000000000000        0.0000000000000000     
  0.62500000000000000       0.12500000000000000        0.0000000000000000     
  0.62500000000000000        0.0000000000000000        0.0000000000000000     
  0.65625000000000000        0.0000000000000000        0.0000000000000000     
  0.68750000000000000        0.0000000000000000        0.0000000000000000     
  0.71875000000000000        0.0000000000000000        0.0000000000000000     
  0.75000000000000000        0.0000000000000000        0.0000000000000000     
  0.62500000000000000        3.1250000000000000E-002   0.0000000000000000     
  0.65625000000000000        3.1250000000000000E-002   0.0000000000000000     
  0.68750000000000000        3.1250000000000000E-002   0.0000000000000000     
  0.71875000000000000        3.1250000000000000E-002   0.0000000000000000     
  0.75000000000000000        3.1250000000000000E-002   0.0000000000000000     
  0.62500000000000000        6.2500000000000000E-002   0.0000000000000000     
  0.65625000000000000        6.2500000000000000E-002   0.0000000000000000     
  0.68750000000000000        6.2500000000000000E-002   0.0000000000000000     
  0.71875000000000000        6.2500000000000000E-002   0.0000000000000000     
  0.75000000000000000        6.2500000000000000E-002   0.0000000000000000     
  0.62500000000000000        9.3750000000000000E-002   0.0000000000000000     
  0.65625000000000000        9.3750000000000000E-002   0.0000000000000000     
  0.68750000000000000        9.3750000000000000E-002   0.0000000000000000     
  0.71875000000000000        9.3750000000000000E-002   0.0000000000000000     
  0.75000000000000000        9.3750000000000000E-002   0.0000000000000000     
  0.62500000000000000       0.12500000000000000        0.0000000000000000     
  0.65625000000000000       0.12500000000000000        0.0000000000000000     
  0.68750000000000000       0.12500000000000000        0.0000000000000000     
  0.71875000000000000       0.12500000000000000        0.0000000000000000     
  0.75000000000000000       0.12500000000000000        0.0000000000000000     
  0.75000000000000000        0.0000000000000000        0.0000000000000000     
  0.78125000000000000        0.0000000000000000        0.0000000000000000     
  0.81250000000000000        0.0000000000000000        0.0000000000000000     
  0.84375000000000000        0.0000000000000000        0.0000000000000000     
  0.87500000000000000        0.0000000000000000        0.0000000000000000     
  0.75000000000000000        3.1250000000000000E-002   0.0000000000000000     
  0.78125000000000000        3.1250000000000000E-002   0.0000000000000000     
  0.81250000000000000        3.1250000000000000E-002   0.0000000000000000     
  0.84375000000000000        3.1250000000000000E-002   0.0000000000000000     
  0.87500000000000000        3.1250000000000000E-002   0.0000000000000000     
  0.75000000000000000        6.2500000000000000E-002   0.0000000000000000     
  0.78125000000000000        6.2500000000000000E-002   0.0000000000000000     
  0.81250000000000000        6.2500000000000000E-002   0.0000000000000000     
  0.84375000000000000        6.2500000000000000E-002   0.0000000000000000     
  0.87500000000000000        6.2500000000000000E-002   0.0000000000000000     
  0.75000000000000000        9.3750000000000000E-002   0.0000000000000000     
  0.78125000000000000        9.3750000000000000E-002   0.0000000000000000     
  0.81250000000000000        9.3750000000000000E-002   0.0000000000000000     
  0.84375000000000000        9.3750000000000000E-002   0.0000000000000000     
  0.87500000000000000        9.3750000000000000E-002   0.0000000000000000     
  0.75000000000000000       0.12500000000000000        0.0000000000000000     
  0.78125000000000000       0.12500000000000000        0.0000000000000000     
  0.81250000000000000       0.12500000000000000        0.0000000000000000     
  0.84375000000000000       0.12500000000000000        0.0000000000000000     
  0.87500000000000000       0.12500000000000000        0.0000000000000000     
  0.87500000000000000        0.0000000000000000        0.0000000000000000     
  0.90625000000000000        0.0000000000000000        0.0000000000000000     
  0.93750000000000000        0.0000000000000000        0.0000000000000000     
  0.96875000000000000        0.0000000000000000        0.0000000000000000     
   1.0000000000000000        0.0000000000000000        0.0000000000000000     
  0.87500000000000000        3.1250000000000000E-002   0.0000000000000000     
  0.90625000000000000        3.1250000000000000E-002   0.0000000000000000     
  0.93750000000000000        3.1250000000000000E-002   0.0000000000000000     
  0.96875000000000000        3.1250000000000000E-002   0.0000000000000000     
   1.0000000000000000        3.1250000000000000E-002   0.0000000000000000     
  0.87500000000000000        6.2500000000000000E-002   0.0000000000000000     
  0.90625000000000000        6.2500000000000000E-002   0.0000000000000000     
  0.93750000000000000        6.2500000000000000E-002   0.0000000000000000     
  0.96875000000000000        6.2500000000000000E-002   0.0000000000000000     
   1.0000000000000000        6.2500000000000000E-002   0.0000000000000000     
  0.87500000000000000        9.3750000000000000E-002   0.0000000000000000     
  0.90625000000000000        9.3750000000000000E-002   0.0000000000000000     
  0.93750000000000000        9.3750000000000000E-002   0.0000000000000000     
  0.96875000000000000        9.3750000000000000E-002   0.0000000000000000     
   1.0000000000000000        9.3750000000000000E-002   0.0000000000000000     
  0.87500000000000000       0.12500000000000000        0.0000000000000000     
  0.90625000000000000       0.12500000000000000        0.0000000000000000     
  0.93750000000000000       0.12500000000000000        0.0000000000000000     
  0.96875000000000000       0.12500000000000000        0.0000000000000000     
   1.0000000000000000       0.12500000000000000        0.0000000000000000     
   0.0000000000000000       0.12500000000000000        0.0000000000000000     
   3.1250000000000000E-002  0.12500000000000000        0.0000000000000000     
   6.2500000000000000E-002  0.12500000000000000        0.0000000000000000     
   9.3750000000000000E-002  0.12500000000000000        0.0000000000000000     
  0.12500000000000000       0.12500000000000000        0.0000000000000000     
   0.0000000000000000       0.15625000000000000        0.0000000000000000     
   3.1250000000000000E-002  0.15625000000000000        0.0000000000000000     
   6.2500000000000000E-002  0.15625000000000000        0.0000000000000000     
   9.3750000000000000E-002  0.15625000000000000        0.0000000000000000     
  0.12500000000000000       0.15625000000000000        0.0000000000000000     
   0.0000000000000000       0.18750000000000000        0.0000000000000000     
   3.1250000000000000E-002  0.18750000000000000        0.0000000000000000     
   6.2500000000000000E-002  0.18750000000000000        0.0000000000000000     
   9.3750000000000000E-002  0.18750000000000000        0.0000000000000000     
  0.12500000000000000       0.18750000000000000        0.0000000000000000     
   0.0000000000000000       0.21875000000000000        0.0000000000000000     
   3.1250000000000000E-002  0.21875000000000000        0.0000000000000000     
   6.2500000000000000E-002  0.21875000000000000        0.0000000000000000     
   9.3750000000000000E-002  0.21875000000000000        0.0000000000000000     
  0.12500000000000000       0.21875000000000000        0.0000000000000000     
   0.0000000000000000       0.25000000000000000        0.0000000000000000     
   3.1250000000000000E-002  0.25000000000000000        0.0000000000000000     
   6.2500000000000000E-002  0.25000000000000000        0.0000000000000000     
   9.3750000000000000E-002  0.25000000000000000        0.0000000000000000     
  0.12500000000000000       0.25000000000000000        0.0000000000000000     
  0.12500000000000000       0.12500000000000000        0.0000000000000000     
  0.15625000000000000       0.12500000000000000        0.0000000000000000     
  0.18750000000000000       0.12500000000000000        0.0000000000000000     
  0.21875000000000000       0.12500000000000000        0.0000000000000000     
  0.25000000000000000       0.12500000000000000        0.0000000000000000     
  0.12500000000000000       0.15625000000000000        0.0000000000000000     
  0.15625000000000000       0.15625000000000000        0.0000000000000000     
  0.18750000000000000       0.15625000000000000        0.0000000000000000     
  0.21875000000000000       0.15625000000000000        0.0000000000000000     
  0.25000000000000000       0.15625000000000000        0.0000000000000000     
  0.12500000000000000       0.18750000000000000        0.0000000000000000     
  0.15625000000000000       0.18750000000000000        0.0000000000000000     
  0.18750000000000000       0.18750000000000000        0.0000000000000000     
  0.21875000000000000       0.18750000000000000        0.0000000000000000     
  0.25000000000000000       0.18750000000000000        0.0000000000000000     
  0.12500000000000000       0.21875000000000000        0.0000000000000000     
  0.15625000000000000       0.21875000000000000        0.0000000000000000     
  0.18750000000000000       0.21875000000000000        0.0000000000000000     
  0.21875000000000000       0.21875000000000000        0.0000000000000000     
  0.25000000000000000       0.21875000000000000        0.0000000000000000     
  0.12500000000000000       0.25000000000000000        0.0000000000000000     
  0.15625000000000000       0.25000000000000000        0.0000000000000000     
  0.18750000000000000       0.25000000000000000        0.0000000000000000     
  0.21875000000000000       0.25000000000000000        0.0000000000000000     
  0.25000000000000000       0.25000000000000000        0.0000000000000000     
  0.25000000000000000       0.12500000000000000        0.0000000000000000     
  0.28125000000000000       0.12500000000000000        0.0000000000000000     
  0.31250000000000000       0.12500000000000000        0.0000000000000000     
  0.34375000000000000       0.12500000000000000        0.0000000000000000     
  0.37500000000000000       0.12500000000000000        0.0000000000000000     
  0.25000000000000000       0.15625000000000000        0.0000000000000000     
  0.28125000000000000       0.15625000000000000        0.0000000000000000     
  0.31250000000000000       0.15625000000000000        0.0000000000000000     
  0.34375000000000000       0.15625000000000000        0.0000000000000000     
  0.37500000000000000       0.15625000000000000        0.0000000000000000     
  0.25000000000000000       0.18750000000000000        0.0000000000000000     
  0.28125000000000000       0.18750000000000000        0.0000000000000000     
  0.31250000000000000       0.18750000000000000        0.0000000000000000     
  0.34375000000000000       0.18750000000000000        0.0000000000000000     
  0.37500000000000000       0.18750000000000000        0.0000000000000000     
  0.25000000000000000       0.21875000000000000        0.0000000000000000     
  0.28125000000000000       0.21875000000000000        0.0000000000000000     
  0.31250000000000000       0.21875000000000000        0.0000000000000000     
  0.34375000000000000       0.21875000000000000        0.0000000000000000     
  0.37500000000000000       0.21875000000000000        0.0000000000000000     
  0.25000000000000000       0.25000000000000000        0.0000000000000000     
  0.28125000000000000       0.25000000000000000        0.0000000000000000     
  0.31250000000000000       0.25000000000000000        0.0000000000000000     
  0.34375000000000000       0.25000000000000000        0.0000000000000000     
  0.37500000000000000       0.25000000000000000        0.0000000000000000     
  0.37500000000000000       0.12500000000000000        0.0000000000000000     
  0.40625000000000000       0.12500000000000000        0.0000000000000000     
  0.43750000000000000       0.12500000000000000        0.0000000000000000     
  0.46875000000000000       0.12500000000000000        0.0000000000000000     
  0.50000000000000000       0.12500000000000000        0.0000000000000000     
  0.37500000000000000       0.15625000000000000        0.0000000000000000     
  0.40625000000000000       0.15625000000000000        0.0000000000000000     
  0.43750000000000000       0.15625000000000000        0.0000000000000000     
  0.46875000000000000       0.15625000000000000        0.0000000000000000     
  0.50000000000000000       0.15625000000000000        0.0000000000000000     
  0.37500000000000000       0.18750000000000000        0.0000000000000000     
  0.40625000000000000       0.18750000000000000        0.0000000000000000     
  0.43750000000000000       0.18750000000000000        0.0000000000000000     
  0.46875000000000000       0.18750000000000000        0.0000000000000000     
  0.50000000000000000       0.18750000000000000        0.0000000000000000     
  0.37500000000000000       0.21875000000000000        0.0000000000000000     
  0.40625000000000000       0.21875000000000000        0.0000000000000000     
  0.43750000000000000       0.21875000000000000        0.0000000000000000     
  0.46875000000000000       0.21875000000000000        0.0000000000000000     
  0.50000000000000000       0.21875000000000000        0.0000000000000000     
  0.37500000000000000       0.25000000000000000        0.0000000000000000     
  0.40625000000000000       0.25000000000000000        0.0000000000000000     
  0.43750000000000000       0.25000000000000000        0.0000000000000000     
  0.46875000000000000       0.25000000000000000        0.0000000000000000     
  0.50000000000000000       0.25000000000000000        0.0000000000000000     
  0.50000000000000000       0.12500000000000000        0.0000000000000000     
  0.53125000000000000       0.12500000000000000        0.0000000000000000     
  0.56250000000000000       0.12500000000000000        0.0000000000000000     
  0.59375000000000000       0.12500000000000000        0.0000000000000000     
  0.62500000000000000       0.12500000000000000        0.0000000000000000     
  0.50000000000000000       0.15625000000000000        0.0000000000000000     
  0.53125000000000000       0.15625000000000000        0.0000000000000000     
  0.56250000000000000       0.15625000000000000        0.0000000000000000     
  0.59375000000000000       0.15625000000000000        0.0000000000000000     
  0.62500000000000000       0.15625000000000000        0.0000000000000000     
  0.50000000000000000       0.18750000000000000        0.0000000000000000     
  0.53125000000000000       0.18750000000000000        0.0000000000000000     
  0.56250000000000000       0.18750000000000000        0.0000000000000000     
  0.59375000000000000       0.18750000000000000        0.0000000000000000     
  0.62500000000000000       0.18750000000000000        0.0000000000000000     
  0.50000000000000000       0.21875000000000000        0.0000000000000000     
  0.53125000000000000       0.21875000000000000        0.0000000000000000     
  0.56250000000000000       0.21875000000000000        0.0000000000000000     
  0.59375000000000000       0.21875000000000000        0.0000000000000000     
  0.62500000000000000       0.21875000000000000        0.0000000000000000     
  0.50000000000000000       0.25000000000000000        0.0000000000000000     
  0.53125000000000000       0.25000000000000000        0.0000000000000000     
  0.56250000000000000       0.25000000000000000        0.0000000000000000     
  0.59375000000000000       0.25000000000000000        0.0000000000000000     
  0.62500000000000000       0.25000000000000000        0.0000000000000000     
  0.62500000000000000       0.12500000000000000        0.0000000000000000     
  0.65625000000000000       0.12500000000000000        0.0000000000000000     
  0.68750000000000000       0.12500000000000000        0.0000000000000000     
  0.71875000000000000       0.12500000000000000        0.0000000000000000     
  0.75000000000000000       0.12500000000000000        0.0000000000000000     
  0.62500000000000000       0.15625000000000000        0.0000000000000000     
  0.65625000000000000       0.15625000000000000        0.0000000000000000     
  0.68750000000000000       0.15625000000000000        0.0000000000000000     
  0.71875000000000000       0.15625000000000000        0.0000000000000000     
  0.75000000000000000       0.15625000000000000        0.0000000000000000     
  0.62500000000000000       0.18750000000000000        0.0000000000000000     
  0.65625000000000000       0.18750000000000000        0.0000000000000000     
  0.68750000000000000       0.18750000000000000        0.0000000000000000     
  0.71875000000000000       0.18750000000000000        0.0000000000000000     
  0.75000000000000000       0.18750000000000000        0.0000000000000000     
  0.62500000000000000       0.21875000000000000        0.0000000000000000     
  0.65625000000000000       0.21875000000000000        0.0000000000000000     
  0.68750000000000000       0.21875000000000000        0.0000000000000000     
  0.71875000000000000       0.21875000000000000        0.0000000000000000     
  0.75000000000000000       0.21875000000000000        0.0000000000000000     
  0.62500000000000000       0.25000000000000000        0.0000000000000000     
  0.65625000000000000       0.25000000000000000        0.0000000000000000     
  0.68750000000000000       0.25000000000000000        0.0000000000000000     
  0.71875000000000000       0.25000000000000000        0.0000000000000000     
  0.75000000000000000       0.25000000000000000        0.0000000000000000     
  0.75000000000000000       0.12500000000000000        0.0000000000000000     
  0.78125000000000000       0.12500000000000000        0.0000000000000000     
  0.81250000000000000       0.12500000000000000        0.0000000000000000     
  0.84375000000000000       0.12500000000000000        0.0000000000000000     
  0.87500000000000000       0.12500000000000000        0.0000000000000000     
  0.75000000000000000       0.15625000000000000        0.0000000000000000     
  0.78125000000000000       0.15625000000000000        0.0000000000000000     
  0.81250000000000000       0.15625000000000000        0.0000000000000000     
  0.84375000000000000       0.15625000000000000        0.0000000000000000     
  0.87500000000000000       0.15625000000000000        0.0000000000000000     
  0.75000000000000000       0.18750000000000000        0.0000000000000000     
  0.78125000000000000       0.18750000000000000        0.0000000000000000     
  0.81250000000000000       0.18750000000000000        0.0000000000000000     
  0.84375000000000000       0.18750000000000000        0.0000000000000000     
  0.87500000000000000       0.18750000000000000        0.0000000000000000     
  0.75000000000000000       0.21875000000000000        0.0000000000000000     
  0.78125000000000000       0.21875000000000000        0.0000000000000000     
  0.81250000000000000       0.21875000000000000        0.0000000000000000     
  0.84375000000000000       0.21875000000000000        0.0000000000000000     
  0.87500000000000000       0.21875000000000000        0.0000000000000000     
  0.75000000000000000       0.25000000000000000        0.0000000000000000     
  0.78125000000000000       0.25000000000000000        0.0000000000000000     
  0.81250000000000000       0.25000000000000000        0.0000000000000000     
  0.84375000000000000       0.25000000000000000        0.0000000000000000     
  0.87500000000000000       0.25000000000000000        0.0000000000000000     
  0.87500000000000000       0.12500000000000000        0.0000000000000000     
  0.90625000000000000       0.12500000000000000        0.0000000000000000     
  0.93750000000000000       0.12500000000000000        0.0000000000000000     
  0.96875000000000000       0.12500000000000000        0.0000000000000000     
   1.0000000000000000       0.12500000000000000        0.0000000000000000     
  0.87500000000000000       0.15625000000000000        0.0000000000000000     
  0.90625000000000000       0.15625000000000000        0.0000000000000000     
  0.93750000000000000       0.15625000000000000        0.0000000000000000     
  0.96875000000000000       0.15625000000000000        0.0000000000000000     
   1.0000000000000000       0.15625000000000000        0.0000000000000000     
  0.87500000000000000       0.18750000000000000        0.0000000000000000     
  0.90625000000000000       0.18750000000000000        0.0000000000000000     
  0.93750000000000000       0.18750000000000000        0.0000000000000000     
  0.96875000000000000       0.18750000000000000        0.0000000000000000     
   1.0000000000000000       0.18750000000000000        0.0000000000000000     
  0.87500000000000000       0.21875000000000000        0.0000000000000000     
  0.90625000000000000       0.21875000000000000        0.0000000000000000     
  0.93750000000000000       0.21875000000000000        0.0000000000000000     
  0.96875000000000000       0.21875000000000000        0.0000000000000000     
   1.0000000000000000       0.21875000000000000        0.0000000000000000     
  0.87500000000000000       0.25000000000000000        0.0000000000000000     
  0.90625000000000000       0.25000000000000000        0.0000000000000000     
  0.93750000000000000       0.25000000000000000        0.0000000000000000     
  0.96875000000000000       0.25000000000000000        0.0000000000000000     
   1.0000000000000000       0.25000000000000000        0.0000000000000000     
   0.0000000000000000       0.25000000000000000        0.0000000000000000     
   3.1250000000000000E-002  0.25000000000000000        0.0000000000000000     
   6.2500000000000000E-002  0.25000000000000000        0.0000000000000000     
   9.3750000000000000E-002  0.25000000000000000        0.0000000000000000     
  0.12500000000000000       0.25000000000000000        0.0000000000000000     
   0.0000000000000000       0.28125000000000000        0.0000000000000000     
   3.1250000000000000E-002  0.28125000000000000        0.0000000000000000     
   6.2500000000000000E-002  0.28125000000000000        0.0000000000000000     
   9.3750000000000000E-002  0.28125000000000000        0.0000000000000000     
  0.12500000000000000       0.28125000000000000        0.0000000000000000     
   0.0000000000000000       0.31250000000000000        0.0000000000000000     
   3.1250000000000000E-002  0.31250000000000000        0.0000000000000000     
   6.2500000000000000E-002  0.31250000000000000        0.0000000000000000     
   9.3750000000000000E-002  0.31250000000000000        0.0000000000000000     
  0.12500000000000000       0.31250000000000000        0.0000000000000000     
   0.0000000000000000       0.34375000000000000        0.0000000000000000     
   3.1250000000000000E-002  0.34375000000000000        0.0000000000000000     
   6.2500000000000000E-002  0.34375000000000000        0.0000000000000000     
   9.3750000000000000E-002  0.34375000000000000        0.0000000000000000     
  0.12500000000000000       0.34375000000000000        0.0000000000000000     
   0.0000000000000000       0.37500000000000000        0.0000000000000000     
   3.1250000000000000E-002  0.37500000000000000        0.0000000000000000     
   6.2500000000000000E-002  0.37500000000000000        0.0000000000000000     
   9.3750000000000000E-002  0.37500000000000000        0.0000000000000000     
  0.12500000000000000       0.37500000000000000        0.0000000000000000     
  0.12500000000000000       0.25000000000000000        0.0000000000000000     
  0.15625000000000000       0.25000000000000000        0.0000000000000000     
  0.18750000000000000       0.25000000000000000        0.0000000000000000     
  0.21875000000000000       0.25000000000000000        0.0000000000000000     
  0.25000000000000000       0.25000000000000000        0.0000000000000000     
  0.12500000000000000       0.28125000000000000        0.0000000000000000     
  0.15625000000000000       0.28125000000000000        0.0000000000000000     
  0.18750000000000000       0.28125000000000000        0.0000000000000000     
  0.21875000000000000       0.28125000000000000        0.0000000000000000     
  0.25000000000000000       0.28125000000000000        0.0000000000000000     
  0.12500000000000000       0.31250000000000000        0.0000000000000000     
  0.15625000000000000       0.31250000000000000        0.0000000000000000     
  0.18750000000000000       0.31250000000000000        0.0000000000000000     
  0.21875000000000000       0.31250000000000000        0.0000000000000000     
  0.25000000000000000       0.31250000000000000        0.0000000000000000     
  0.12500000000000000       0.34375000000000000        0.0000000000000000     
  0.15625000000000000       0.34375000000000000        0.0000000000000000     
  0.18750000000000000       0.34375000000000000        0.0000000000000000     
  0.21875000000000000       0.34375000000000000        0.0000000000000000     
  0.25000000000000000       0.34375000000000000        0.0000000000000000     
  0.12500000000000000       0.37500000000000000        0.0000000000000000     
  0.15625000000000000       0.37500000000000000        0.0000000000000000     
  0.18750000000000000       0.37500000000000000        0.0000000000000000     
  0.21875000000000000       0.37500000000000000        0.0000000000000000     
  0.25000000000000000       0.37500000000000000        0.0000000000000000     
  0.25000000000000000       0.25000000000000000        0.0000000000000000     
  0.28125000000000000       0.25000000000000000        0.0000000000000000     
  0.31250000000000000       0.25000000000000000        0.0000000000000000     
  0.34375000000000000       0.25000000000000000        0.0000000000000000     
  0.37500000000000000       0.25000000000000000        0.0000000000000000     
  0.25000000000000000       0.28125000000000000        0.0000000000000000     
  0.28125000000000000       0.28125000000000000        0.0000000000000000     
  0.31250000000000000       0.28125000000000000        0.0000000000000000     
  0.34375000000000000       0.28125000000000000        0.0000000000000000     
  0.37500000000000000       0.28125000000000000        0.0000000000000000     
  0.25000000000000000       0.31250000000000000        0.0000000000000000     
  0.28125000000000000       0.31250000000000000        0.0000000000000000     
  0.31250000000000000       0.31250000000000000        0.0000000000000000     
  0.34375000000000000       0.31250000000000000        0.0000000000000000     
  0.37500000000000000       0.31250000000000000        0.0000000000000000     
  0.25000000000000000       0.34375000000000000        0.0000000000000000     
  0.28125000000000000       0.34375000000000000        0.0000000000000000     
  0.31250000000000000       0.34375000000000000        0.0000000000000000     
  0.34375000000000000       0.34375000000000000        0.0000000000000000     
  0.37500000000000000       0.34375000000000000        0.0000000000000000     
  0.25000000000000000       0.37500000000000000        0.0000000000000000     
  0.28125000000000000       0.37500000000000000        0.0000000000000000     
  0.31250000000000000       0.37500000000000000        0.0000000000000000     
  0.34375000000000000       0.37500000000000000        0.0000000000000000     
  0.37500000000000000       0.37500000000000000        0.0000000000000000     
  0.37500000000000000       0.25000000000000000        0.0000000000000000     
  0.40625000000000000       0.25000000000000000        0.0000000000000000     
  0.43750000000000000       0.25000000000000000        0.0000000000000000     
  0.46875000000000000       0.25000000000000000        0.0000000000000000     
  0.50000000000000000       0.25000000000000000        0.0000000000000000     
  0.37500000000000000       0.28125000000000000        0.0000000000000000     
  0.40625000000000000       0.28125000000000000        0.0000000000000000     
  0.43750000000000000       0.28125000000000000        0.0000000000000000     
  0.46875000000000000       0.28125000000000000        0.0000000000000000     
  0.50000000000000000       0.28125000000000000        0.0000000000000000     
  0.37500000000000000       0.31250000000000000        0.0000000000000000     
  0.40625000000000000       0.31250000000000000        0.0000000000000000     
  0.43750000000000000       0.31250000000000000        0.0000000000000000     
  0.46875000000000000       0.31250000000000000        0.0000000000000000     
  0.50000000000000000       0.31250000000000000        0.0000000000000000     
  0.37500000000000000       0.34375000000000000        0.0000000000000000     
  0.40625000000000000       0.34375000000000000        0.0000000000000000     
  0.43750000000000000       0.34375000000000000        0.0000000000000000     
  0.46875000000000000       0.34375000000000000        0.0000000000000000     
  0.50000000000000000       0.34375000000000000        0.0000000000000000     
  0.37500000000000000       0.37500000000000000        0.0000000000000000     
  0.40625000000000000       0.37500000000000000        0.0000000000000000     
  0.43750000000000000       0.37500000000000000        0.0000000000000000     
  0.46875000000000000       0.37500000000000000        0.0000000000000000     
  0.50000000000000000       0.37500000000000000        0.0000000000000000     
  0.50000000000000000       0.25000000000000000        0.0000000000000000     
  0.53125000000000000       0.25000000000000000        0.0000000000000000     
  0.56250000000000000       0.25000000000000000        0.0000000000000000     
  0.59375000000000000       0.25000000000000000        0.0000000000000000     
  0.62500000000000000       0.25000000000000000        0.0000000000000000     
  0.50000000000000000       0.28125000000000000        0.0000000000000000     
  0.53125000000000000       0.28125000000000000        0.0000000000000000     
  0.56250000000000000       0.28125000000000000        0.0000000000000000     
  0.59375000000000000       0.28125000000000000        0.0000000000000000     
  0.62500000000000000       0.28125000000000000        0.0000000000000000     
  0.50000000000000000       0.31250000000000000        0.0000000000000000     
  0.53125000000000000       0.31250000000000000        0.0000000000000000     
  0.56250000000000000       0.31250000000000000        0.0000000000000000     
  0.59375000000000000       0.31250000000000000        0.0000000000000000     
  0.62500000000000000       0.31250000000000000        0.0000000000000000     
  0.50000000000000000       0.34375000000000000        0.0000000000000000     
  0.53125000000000000       0.34375000000000000        0.0000000000000000     
  0.56250000000000000       0.34375000000000000        0.0000000000000000     
  0.59375000000000000       0.34375000000000000        0.0000000000000000     
  0.62500000000000000       0.34375000000000000        0.0000000000000000     
  0.50000000000000000       0.37500000000000000        0.0000000000000000     
  0.53125000000000000       0.37500000000000000        0.0000000000000000     
  0.56250000000000000       0.37500000000000000        0.0000000000000000     
  0.59375000000000000       0.37500000000000000        0.0000000000000000     
  0.62500000000000000       0.37500000000000000        0.0000000000000000     
  0.62500000000000000       0.25000000000000000        0.0000000000000000     
  0.65625000000000000       0.25000000000000000        0.0000000000000000     
  0.68750000000000000       0.25000000000000000        0.0000000000000000     
  0.71875000000000000       0.25000000000000000        0.0000000000000000     
  0.75000000000000000       0.25000000000000000        0.0000000000000000     
  0.62500000000000000       0.28125000000000000        0.0000000000000000     
  0.65625000000000000       0.28125000000000000        0.0000000000000000     
  0.68750000000000000       0.28125000000000000        0.0000000000000000     
  0.71875000000000000       0.28125000000000000        0.0000000000000000     
  0.75000000000000000       0.28125000000000000        0.0000000000000000     
  0.62500000000000000       0.31250000000000000        0.0000000000000000     
  0.65625000000000000       0.31250000000000000        0.0000000000000000     
  0.68750000000000000       0.31250000000000000        0.0000000000000000     
  0.71875000000000000       0.31250000000000000        0.0000000000000000     
  0.75000000000000000       0.31250000000000000        0.0000000000000000     
  0.62500000000000000       0.34375000000000000        0.0000000000000000     
  0.65625000000000000       0.34375000000000000        0.0000000000000000     
  0.68750000000000000       0.34375000000000000        0.0000000000000000     
  0.71875000000000000       0.34375000000000000        0.0000000000000000     
  0.75000000000000000       0.34375000000000000        0.0000000000000000     
  0.62500000000000000       0.37500000000000000        0.0000000000000000     
  0.65625000000000000       0.37500000000000000        0.0000000000000000     
  0.68750000000000000       0.37500000000000000        0.0000000000000000     
  0.71875000000000000       0.37500000000000000        0.0000000000000000     
  0.75000000000000000       0.37500000000000000        0.0000000000000000     
  0.75000000000000000       0.25000000000000000        0.0000000000000000     
  0.78125000000000000       0.25000000000000000        0.0000000000000000     
  0.81250000000000000       0.25000000000000000        0.0000000000000000     
  0.84375000000000000       0.25000000000000000        0.0000000000000000     
  0.87500000000000000       0.25000000000000000        0.0000000000000000     
  0.75000000000000000       0.28125000000000000        0.0000000000000000     
  0.78125000000000000       0.28125000000000000        0.0000000000000000     
  0.81250000000000000       0.28125000000000000        0.0000000000000000     
  0.84375000000000000       0.28125000000000000        0.0000000000000000     
  0.87500000000000000       0.28125000000000000        0.0000000000000000     
  0.75000000000000000       0.31250000000000000        0.0000000000000000     
  0.78125000000000000       0.31250000000000000        0.0000000000000000     
  0.81250000000000000       0.31250000000000000        0.0000000000000000     
  0.84375000000000000       0.31250000000000000        0.0000000000000000     
  0.87500000000000000       0.31250000000000000        0.0000000000000000     
  0.75000000000000000       0.34375000000000000        0.0000000000000000     
  0.78125000000000000       0.34375000000000000        0.0000000000000000     
  0.81250000000000000       0.34375000000000000        0.0000000000000000     
  0.84375000000000000       0.34375000000000000        0.0000000000000000     
  0.87500000000000000       0.34375000000000000        0.0000000000000000     
  0.75000000000000000       0.37500000000000000        0.0000000000000000     
  0.78125000000000000       0.37500000000000000        0.0000000000000000     
  0.81250000000000000       0.37500000000000000        0.0000000000000000     
  0.84375000000000000       0.37500000000000000        0.0000000000000000     
  0.87500000000000000       0.37500000000000000        0.0000000000000000     
  0.87500000000000000       0.25000000000000000        0.0000000000000000     
  0.90625000000000000       0.25000000000000000        0.0000000000000000     
  0.93750000000000000       0.25000000000000000        0.0000000000000000     
  0.96875000000000000       0.25000000000000000        0.0000000000000000     
   1.0000000000000000       0.25000000000000000        0.0000000000000000     
  0.87500000000000000       0.28125000000000000        0.0000000000000000     
  0.90625000000000000       0.28125000000000000        0.0000000000000000     
  0.93750000000000000       0.28125000000000000        0.0000000000000000     
  0.96875000000000000       0.28125000000000000        0.0000000000000000     
   1.0000000000000000       0.28125000000000000        0.0000000000000000     
  0.87500000000000000       0.31250000000000000        0.0000000000000000     
  0.90625000000000000       0.31250000000000000        0.0000000000000000     
  0.93750000000000000       0.31250000000000000        0.0000000000000000     
  0.96875000000000000       0.31250000000000000        0.0000000000000000     
   1.0000000000000000       0.31250000000000000        0.0000000000000000     
  0.87500000000000000       0.34375000000000000        0.0000000000000000     
  0.90625000000000000       0.34375000000000000        0.0000000000000000     
  0.93750000000000000       0.34375000000000000        0.0000000000000000     
  0.96875000000000000       0.34375000000000000        0.0000000000000000     
   1.0000000000000000       0.34375000000000000        0.0000000000000000     
  0.87500000000000000       0.37500000000000000        0.0000000000000000     
  0.90625000000000000       0.37500000000000000        0.0000000000000000     
  0.93750000000000000       0.37500000000000000        0.0000000000000000     
  0.96875000000000000       0.37500000000000000        0.0000000000000000     
   1.0000000000000000       0.37500000000000000        0.0000000000000000     
   0.0000000000000000       0.37500000000000000        0.0000000000000000     
   3.1250000000000000E-002  0.37500000000000000        0.0000000000000000     
   6.2500000000000000E-002  0.37500000000000000        0.0000000000000000     
   9.3750000000000000E-002  0.37500000000000000        0.0000000000000000     
  0.12500000000000000       0.37500000000000000        0.0000000000000000     
   0.0000000000000000       0.40625000000000000        0.0000000000000000     
   3.1250000000000000E-002  0.40625000000000000        0.0000000000000000     
   6.2500000000000000E-002  0.40625000000000000        0.0000000000000000     
   9.3750000000000000E-002  0.40625000000000000        0.0000000000000000     
  0.12500000000000000       0.40625000000000000        0.0000000000000000     
   0.0000000000000000       0.43750000000000000        0.0000000000000000     
   3.1250000000000000E-002  0.43750000000000000        0.0000000000000000     
   6.2500000000000000E-002  0.43750000000000000        0.0000000000000000     
   9.3750000000000000E-002  0.43750000000000000        0.0000000000000000     
  0.12500000000000000       0.43750000000000000        0.0000000000000000     
   0.0000000000000000       0.46875000000000000        0.0000000000000000     
   3.1250000000000000E-002  0.46875000000000000        0.0000000000000000     
   6.2500000000000000E-002  0.46875000000000000        0.0000000000000000     
   9.3750000000000000E-002  0.46875000000000000        0.0000000000000000     
  0.12500000000000000       0.46875000000000000        0.0000000000000000     
   0.0000000000000000       0.50000000000000000        0.0000000000000000     
   3.1250000000000000E-002  0.50000000000000000        0.0000000000000000     
   6.2500000000000000E-002  0.50000000000000000        0.0000000000000000     
   9.3750000000000000E-002  0.50000000000000000        0.0000000000000000     
  0.12500000000000000       0.50000000000000000        0.0000000000000000     
  0.12500000000000000       0.37500000000000000        0.0000000000000000     
  0.15625000000000000       0.37500000000000000        0.0000000000000000     
  0.18750000000000000       0.37500000000000000        0.0000000000000000     
  0.21875000000000000       0.37500000000000000        0.0000000000000000     
  0.25000000000000000       0.37500000000000000        0.0000000000000000     
  0.12500000000000000       0.40625000000000000        0.0000000000000000     
  0.15625000000000000       0.40625000000000000        0.0000000000000000     
  0.18750000000000000       0.40625000000000000        0.0000000000000000     
  0.21875000000000000       0.40625000000000000        0.0000000000000000     
  0.25000000000000000       0.40625000000000000        0.0000000000000000     
  0.12500000000000000       0.43750000000000000        0.0000000000000000     
  0.15625000000000000       0.43750000000000000        0.0000000000000000     
  0.18750000000000000       0.43750000000000000        0.0000000000000000     
  0.21875000000000000       0.43750000000000000        0.0000000000000000     
  0.25000000000000000       0.43750000000000000        0.0000000000000000     
  0.12500000000000000       0.46875000000000000        0.0000000000000000     
  0.15625000000000000       0.46875000000000000        0.0000000000000000     
  0.18750000000000000       0.46875000000000000        0.0000000000000000     
  0.21875000000000000       0.46875000000000000        0.0000000000000000     
  0.25000000000000000       0.46875000000000000        0.0000000000000000     
  0.12500000000000000       0.50000000000000000        0.0000000000000000     
  0.15625000000000000       0.50000000000000000        0.0000000000000000     
  0.18750000000000000       0.50000000000000000        0.0000000000000000     
  0.21875000000000000       0.50000000000000000        0.0000000000000000     
  0.25000000000000000       0.50000000000000000        0.0000000000000000     
  0.25000000000000000       0.37500000000000000        0.0000000000000000     
  0.28125000000000000       0.37500000000000000        0.0000000000000000     
  0.31250000000000000       0.37500000000000000        0.0000000000000000     
  0.34375000000000000       0.37500000000000000        0.0000000000000000     
  0.37500000000000000       0.37500000000000000        0.0000000000000000     
  0.25000000000000000       0.40625000000000000        0.0000000000000000     
  0.28125000000000000       0.40625000000000000        0.0000000000000000     
  0.31250000000000000       0.40625000000000000        0.0000000000000000     
  0.34375000000000000       0.40625000000000000        0.0000000000000000     
  0.37500000000000000       0.40625000000000000        0.0000000000000000     
  0.25000000000000000       0.43750000000000000        0.0000000000000000     
  0.28125000000000000       0.43750000000000000        0.0000000000000000     
  0.31250000000000000       0.43750000000000000        0.0000000000000000     
  0.34375000000000000       0.43750000000000000        0.0000000000000000     
  0.37500000000000000       0.43750000000000000        0.0000000000000000     
  0.25000000000000000       0.46875000000000000        0.0000000000000000     
  0.28125000000000000       0.46875000000000000        0.0000000000000000     
  0.31250000000000000       0.46875000000000000        0.0000000000000000     
  0.34375000000000000       0.46875000000000000        0.0000000000000000     
  0.37500000000000000       0.46875000000000000        0.0000000000000000     
  0.25000000000000000       0.50000000000000000        0.0000000000000000     
  0.28125000000000000       0.50000000000000000        0.0000000000000000     
  0.31250000000000000       0.50000000000000000        0.0000000000000000     
  0.34375000000000000       0.50000000000000000        0.0000000000000000     
  0.37500000000000000       0.50000000000000000        0.0000000000000000     
  0.37500000000000000       0.37500000000000000        0.0000000000000000     
  0.40625000000000000       0.37500000000000000        0.0000000000000000     
  0.43750000000000000       0.37500000000000000        0.0000000000000000     
  0.46875000000000000       0.37500000000000000        0.0000000000000000     
  0.50000000000000000       0.37500000000000000        0.0000000000000000     
  0.37500000000000000       0.40625000000000000        0.0000000000000000     
  0.40625000000000000       0.40625000000000000        0.0000000000000000     
  0.43750000000000000       0.40625000000000000        0.0000000000000000     
  0.46875000000000000       0.40625000000000000        0.0000000000000000     
  0.50000000000000000       0.40625000000000000        0.0000000000000000     
  0.37500000000000000       0.43750000000000000        0.0000000000000000     
  0.40625000000000000       0.43750000000000000        0.0000000000000000     
  0.43750000000000000       0.43750000000000000        0.0000000000000000     
  0.46875000000000000       0.43750000000000000        0.0000000000000000     
  0.50000000000000000       0.43750000000000000        0.0000000000000000     
  0.37500000000000000       0.46875000000000000        0.0000000000000000     
  0.40625000000000000       0.46875000000000000        0.0000000000000000     
  0.43750000000000000       0.46875000000000000        0.0000000000000000     
  0.46875000000000000       0.46875000000000000        0.0000000000000000     
  0.50000000000000000       0.46875000000000000        0.0000000000000000     
  0.37500000000000000       0.50000000000000000        0.0000000000000000     
  0.40625000000000000       0.50000000000000000        0.0000000000000000     
  0.43750000000000000       0.50000000000000000        0.0000000000000000     
  0.46875000000000000       0.50000000000000000        0.0000000000000000     
  0.50000000000000000       0.50000000000000000        0.0000000000000000     
  0.50000000000000000       0.37500000000000000        0.0000000000000000     
  0.53125000000000000       0.37500000000000000        0.0000000000000000     
  0.56250000000000000       0.37500000000000000        0.0000000000000000     
  0.59375000000000000       0.37500000000000000        0.0000000000000000     
  0.62500000000000000       0.37500000000000000        0.0000000000000000     
  0.50000000000000000       0.40625000000000000        0.0000000000000000     
  0.53125000000000000       0.40625000000000000        0.0000000000000000     
  0.56250000000000000       0.40625000000000000        0.0000000000000000     
  0.59375000000000000       0.40625000000000000        0.0000000000000000     
  0.62500000000000000       0.40625000000000000        0.0000000000000000     
  0.50000000000000000       0.43750000000000000        0.0000000000000000     
  0.53125000000000000       0.43750000000000000        0.0000000000000000     
  0.56250000000000000       0.43750000000000000        0.0000000000000000     
  0.59375000000000000       0.43750000000000000        0.0000000000000000     
  0.62500000000000000       0.43750000000000000        0.0000000000000000     
  0.50000000000000000       0.46875000000000000        0.0000000000000000     
  0.53125000000000000       0.46875000000000000        0.0000000000000000     
  0.56250000000000000       0.46875000000000000        0.0000000000000000     
  0.59375000000000000       0.46875000000000000        0.0000000000000000     
  0.62500000000000000       0.46875000000000000        0.0000000000000000     
  0.50000000000000000       0.50000000000000000        0.0000000000000000     
  0.53125000000000000       0.50000000000000000        0.0000000000000000     
  0.56250000000000000       0.50000000000000000        0.0000000000000000     
  0.59375000000000000       0.50000000000000000        0.0000000000000000     
  0.62500000000000000       0.50000000000000000        0.0000000000000000     
  0.62500000000000000       0.37500000000000000        0.0000000000000000     
  0.65625000000000000       0.37500000000000000        0.0000000000000000     
  0.68750000000000000       0.37500000000000000        0.0000000000000000     
  0.71875000000000000       0.37500000000000000        0.0000000000000000     
  0.75000000000000000       0.37500000000000000        0.0000000000000000     
  0.62500000000000000       0.40625000000000000        0.0000000000000000     
  0.65625000000000000       0.40625000000000000        0.0000000000000000     
  0.68750000000000000       0.40625000000000000        0.0000000000000000     
  0.71875000000000000       0.40625000000000000        0.0000000000000000     
  0.75000000000000000       0.40625000000000000        0.0000000000000000     
  0.62500000000000000       0.43750000000000000        0.0000000000000000     
  0.65625000000000000       0.43750000000000000        0.0000000000000000     
  0.68750000000000000       0.43750000000000000        0.0000000000000000     
  0.71875000000000000       0.43750000000000000        0.0000000000000000     
  0.75000000000000000       0.43750000000000000        0.0000000000000000     
  0.62500000000000000       0.46875000000000000        0.0000000000000000     
  0.65625000000000000       0.46875000000000000        0.0000000000000000     
  0.68750000000000000       0.46875000000000000        0.0000000000000000     
  0.71875000000000000       0.46875000000000000        0.0000000000000000     
  0.75000000000000000       0.46875000000000000        0.0000000000000000     
  0.62500000000000000       0.50000000000000000        0.0000000000000000     
  0.65625000000000000       0.50000000000000000        0.0000000000000000     
  0.68750000000000000       0.50000000000000000        0.0000000000000000     
  0.71875000000000000       0.50000000000000000        0.0000000000000000     
  0.75000000000000000       0.50000000000000000        0.0000000000000000     
  0.75000000000000000       0.37500000000000000        0.0000000000000000     
  0.78125000000000000       0.37500000000000000        0.0000000000000000     
  0.81250000000000000       0.37500000000000000        0.0000000000000000     
  0.84375000000000000       0.37500000000000000        0.0000000000000000     
  0.87500000000000000       0.37500000000000000        0.0000000000000000     
  0.75000000000000000       0.40625000000000000        0.0000000000000000     
  0.78125000000000000       0.40625000000000000        0.0000000000000000     
  0.81250000000000000       0.40625000000000000        0.0000000000000000     
  0.84375000000000000       0.40625000000000000        0.0000000000000000     
  0.87500000000000000       0.40625000000000000        0.0000000000000000     
  0.75000000000000000       0.43750000000000000        0.0000000000000000     
  0.78125000000000000       0.43750000000000000        0.0000000000000000     
  0.81250000000000000       0.43750000000000000        0.0000000000000000     
  0.84375000000000000       0.43750000000000000        0.0000000000000000     
  0.87500000000000000       0.43750000000000000        0.0000000000000000     
  0.75000000000000000       0.46875000000000000        0.0000000000000000     
  0.78125000000000000       0.46875000000000000        0.0000000000000000     
  0.81250000000000000       0.46875000000000000        0.0000000000000000     
  0.84375000000000000       0.46875000000000000        0.0000000000000000     
  0.87500000000000000       0.46875000000000000        0.0000000000000000     
  0.75000000000000000       0.50000000000000000        0.0000000000000000     
  0.78125000000000000       0.50000000000000000        0.0000000000000000     
  0.81250000000000000       0.50000000000000000        0.0000000000000000     
  0.84375000000000000       0.50000000000000000        0.0000000000000000     
  0.87500000000000000       0.50000000000000000        0.0000000000000000     
  0.87500000000000000       0.37500000000000000        0.0000000000000000     
  0.90625000000000000       0.37500000000000000        0.0000000000000000     
  0.93750000000000000       0.37500000000000000        0.0000000000000000     
  0.96875000000000000       0.37500000000000000        0.0000000000000000     
   1.0000000000000000       0.37500000000000000        0.0000000000000000     
  0.87500000000000000       0.40625000000000000        0.0000000000000000     
  0.90625000000000000       0.40625000000000000        0.0000000000000000     
  0.93750000000000000       0.40625000000000000        0.0000000000000000     
  0.96875000000000000       0.40625000000000000        0.0000000000000000     
   1.0000000000000000       0.40625000000000000        0.0000000000000000     
  0.87500000000000000       0.43750000000000000        0.0000000000000000     
  0.90625000000000000       0.43750000000000000        0.0000000000000000     
  0.93750000000000000       0.43750000000000000        0.0000000000000000     
  0.96875000000000000       0.43750000000000000        0.0000000000000000     
   1.0000000000000000       0.43750000000000000        0.0000000000000000     
  0.87500000000000000       0.46875000000000000        0.0000000000000000     
  0.90625000000000000       0.46875000000000000        0.0000000000000000     
  0.93750000000000000       0.46875000000000000        0.0000000000000000     
  0.96875000000000000       0.46875000000000000        0.0000000000000000     
   1.0000000000000000       0.46875000000000000        0.0000000000000000     
  0.87500000000000000       0.50000000000000000        0.0000000000000000     
  0.90625000000000000       0.50000000000000000        0.0000000000000000     
  0.93750000000000000       0.50000000000000000        0.0000000000000000     
  0.96875000000000000       0.50000000000000000        0.0000000000000000     
   1.0000000000000000       0.50000000000000000        0.0000000000000000     
   0.0000000000000000       0.50000000000000000        0.0000000000000000     
   3.1250000000000000E-002  0.50000000000000000        0.0000000000000000     
   6.2500000000000000E-002  0.50000000000000000        0.0000000000000000     
   9.3750000000000000E-002  0.50000000000000000        0.0000000000000000     
  0.12500000000000000       0.50000000000000000        0.0000000000000000     
   0.0000000000000000       0.53125000000000000        0.0000000000000000     
   3.1250000000000000E-002  0.53125000000000000        0.0000000000000000     
   6.2500000000000000E-002  0.53125000000000000        0.0000000000000000     
   9.3750000000000000E-002  0.53125000000000000        0.0000000000000000     
  0.12500000000000000       0.53125000000000000        0.0000000000000000     
   0.0000000000000000       0.56250000000000000        0.0000000000000000     
   3.1250000000000000E-002  0.56250000000000000        0.0000000000000000     
   6.2500000000000000E-002  0.56250000000000000        0.0000000000000000     
   9.3750000000000000E-002  0.56250000000000000        0.0000000000000000     
  0.12500000000000000       0.56250000000000000        0.0000000000000000     
   0.0000000000000000       0.59375000000000000        0.0000000000000000     
   3.1250000000000000E-002  0.59375000000000000        0.0000000000000000     
   6.2500000000000000E-002  0.59375000000000000        0.0000000000000000     
   9.3750000000000000E-002  0.59375000000000000        0.0000000000000000     
  0.12500000000000000       0.59375000000000000        0.0000000000000000     
   0.0000000000000000       0.62500000000000000        0.0000000000000000     
   3.1250000000000000E-002  0.62500000000000000        0.0000000000000000     
   6.2500000000000000E-002  0.62500000000000000        0.0000000000000000     
   9.3750000000000000E-002  0.62500000000000000        0.0000000000000000     
  0.12500000000000000       0.62500000000000000        0.0000000000000000     
  0.12500000000000000       0.50000000000000000        0.0000000000000000     
  0.15625000000000000       0.50000000000000000        0.0000000000000000     
  0.18750000000000000       0.50000000000000000        0.0000000000000000     
  0.21875000000000000       0.50000000000000000        0.0000000000000000     
  0.25000000000000000       0.50000000000000000        0.0000000000000000     
  0.12500000000000000       0.53125000000000000        0.0000000000000000     
  0.15625000000000000       0.53125000000000000        0.0000000000000000     
  0.18750000000000000       0.53125000000000000        0.0000000000000000     
  0.21875000000000000       0.53125000000000000        0.0000000000000000     
  0.25000000000000000       0.53125000000000000        0.0000000000000000     
  0.12500000000000000       0.56250000000000000        0.0000000000000000     
  0.15625000000000000       0.56250000000000000        0.0000000000000000     
  0.18750000000000000       0.56250000000000000        0.0000000000000000     
  0.21875000000000000       0.56250000000000000        0.0000000000000000     
  0.25000000000000000       0.56250000000000000        0.0000000000000000     
  0.12500000000000000       0.59375000000000000        0.0000000000000000     
  0.15625000000000000       0.59375000000000000        0.0000000000000000     
  0.18750000000000000       0.59375000000000000        0.0000000000000000     
  0.21875000000000000       0.59375000000000000        0.0000000000000000     
  0.25000000000000000       0.59375000000000000        0.0000000000000000     
  0.12500000000000000       0.62500000000000000        0.0000000000000000     
  0.15625000000000000       0.62500000000000000        0.0000000000000000     
  0.18750000000000000       0.62500000000000000        0.0000000000000000     
  0.21875000000000000       0.62500000000000000        0.0000000000000000     
  0.25000000000000000       0.62500000000000000        0.0000000000000000     
  0.25000000000000000       0.50000000000000000        0.0000000000000000     
  0.28125000000000000       0.50000000000000000        0.0000000000000000     
  0.31250000000000000       0.50000000000000000        0.0000000000000000     
  0.34375000000000000       0.50000000000000000        0.0000000000000000     
  0.37500000000000000       0.50000000000000000        0.0000000000000000     
  0.25000000000000000       0.53125000000000000        0.0000000000000000     
  0.28125000000000000       0.53125000000000000        0.0000000000000000     
  0.31250000000000000       0.53125000000000000        0.0000000000000000     
  0.34375000000000000       0.53125000000000000        0.0000000000000000     
  0.37500000000000000       0.53125000000000000        0.0000000000000000     
  0.25000000000000000       0.56250000000000000        0.0000000000000000     
  0.28125000000000000       0.56250000000000000        0.0000000000000000     
  0.31250000000000000       0.56250000000000000        0.0000000000000000     
  0.34375000000000000       0.56250000000000000        0.0000000000000000     
  0.37500000000000000       0.56250000000000000        0.0000000000000000     
  0.25000000000000000       0.59375000000000000        0.0000000000000000     
  0.28125000000000000       0.59375000000000000        0.0000000000000000     
  0.31250000000000000       0.59375000000000000        0.0000000000000000     
  0.34375000000000000       0.59375000000000000        0.0000000000000000     
  0.37500000000000000       0.59375000000000000        0.0000000000000000     
  0.25000000000000000       0.62500000000000000        0.0000000000000000     
  0.28125000000000000       0.62500000000000000        0.0000000000000000     
  0.31250000000000000       0.62500000000000000        0.0000000000000000     
  0.34375000000000000       0.62500000000000000        0.0000000000000000     
  0.37500000000000000       0.62500000000000000        0.0000000000000000     
  0.37500000000000000       0.50000000000000000        0.0000000000000000     
  0.40625000000000000       0.50000000000000000        0.0000000000000000     
  0.43750000000000000       0.50000000000000000        0.0000000000000000     
  0.46875000000000000       0.50000000000000000        0.0000000000000000     
  0.50000000000000000       0.50000000000000000        0.0000000000000000     
  0.37500000000000000       0.53125000000000000        0.0000000000000000     
  0.40625000000000000       0.53125000000000000        0.0000000000000000     
  0.43750000000000000       0.53125000000000000        0.0000000000000000     
  0.46875000000000000       0.53125000000000000        0.0000000000000000     
  0.50000000000000000       0.53125000000000000        0.0000000000000000     
  0.37500000000000000       0.56250000000000000        0.0000000000000000     
  0.40625000000000000       0.56250000000000000        0.0000000000000000     
  0.43750000000000000       0.56250000000000000        0.0000000000000000     
  0.46875000000000000       0.56250000000000000        0.0000000000000000     
  0.50000000000000000       0.56250000000000000        0.0000000000000000     
  0.37500000000000000       0.59375000000000000        0.0000000000000000     
  0.40625000000000000       0.59375000000000000        0.0000000000000000     
  0.43750000000000000       0.59375000000000000        0.0000000000000000     
  0.46875000000000000       0.59375000000000000        0.0000000000000000     
  0.50000000000000000       0.59375000000000000        0.0000000000000000     
  0.37500000000000000       0.62500000000000000        0.0000000000000000     
  0.40625000000000000       0.62500000000000000        0.0000000000000000     
  0.43750000000000000       0.62500000000000000        0.0000000000000000     
  0.46875000000000000       0.62500000000000000        0.0000000000000000     
  0.50000000000000000       0.62500000000000000        0.0000000000000000     
  0.50000000000000000       0.50000000000000000        0.0000000000000000     
  0.53125000000000000       0.50000000000000000        0.0000000000000000     
  0.56250000000000000       0.50000000000000000        0.0000000000000000     
  0.59375000000000000       0.50000000000000000        0.0000000000000000     
  0.62500000000000000       0.50000000000000000        0.0000000000000000     
  0.50000000000000000       0.53125000000000000        0.0000000000000000     
  0.53125000000000000       0.53125000000000000        0.0000000000000000     
  0.56250000000000000       0.53125000000000000        0.0000000000000000     
  0.59375000000000000       0.53125000000000000        0.0000000000000000     
  0.62500000000000000       0.53125000000000000        0.0000000000000000     
  0.50000000000000000       0.56250000000000000        0.0000000000000000     
  0.53125000000000000       0.56250000000000000        0.0000000000000000     
  0.56250000000000000       0.56250000000000000        0.0000000000000000     
  0.59375000000000000       0.56250000000000000        0.0000000000000000     
  0.62500000000000000       0.56250000000000000        0.0000000000000000     
  0.50000000000000000       0.59375000000000000        0.0000000000000000     
  0.53125000000000000       0.59375000000000000        0.0000000000000000     
  0.56250000000000000       0.59375000000000000        0.0000000000000000     
  0.59375000000000000       0.59375000000000000        0.0000000000000000     
  0.62500000000000000       0.59375000000000000        0.0000000000000000     
  0.50000000000000000       0.62500000000000000        0.0000000000000000     
  0.53125000000000000       0.62500000000000000        0.0000000000000000     
  0.56250000000000000       0.62500000000000000        0.0000000000000000     
  0.59375000000000000       0.62500000000000000        0.0000000000000000     
  0.62500000000000000       0.62500000000000000        0.0000000000000000     
  0.62500000000000000       0.50000000000000000        0.0000000000000000     
  0.65625000000000000       0.50000000000000000        0.0000000000000000     
  0.68750000000000000       0.50000000000000000        0.0000000000000000     
  0.71875000000000000       0.50000000000000000        0.0000000000000000     
  0.75000000000000000       0.50000000000000000        0.0000000000000000     
  0.62500000000000000       0.53125000000000000        0.0000000000000000     
  0.65625000000000000       0.53125000000000000        0.0000000000000000     
  0.68750000000000000       0.53125000000000000        0.0000000000000000     
  0.71875000000000000       0.53125000000000000        0.0000000000000000     
  0.75000000000000000       0.53125000000000000        0.0000000000000000     
  0.62500000000000000       0.56250000000000000        0.0000000000000000     
  0.65625000000000000       0.56250000000000000        0.0000000000000000     
  0.68750000000000000       0.56250000000000000        0.0000000000000000     
  0.71875000000000000       0.56250000000000000        0.0000000000000000     
  0.75000000000000000       0.56250000000000000        0.0000000000000000     
  0.62500000000000000       0.59375000000000000        0.0000000000000000     
  0.65625000000000000       0.59375000000000000        0.0000000000000000     
  0.68750000000000000       0.59375000000000000        0.0000000000000000     
  0.71875000000000000       0.59375000000000000        0.0000000000000000     
  0.75000000000000000       0.59375000000000000        0.0000000000000000     
  0.62500000000000000       0.62500000000000000        0.0000000000000000     
  0.65625000000000000       0.62500000000000000        0.0000000000000000     
  0.68750000000000000       0.62500000000000000        0.0000000000000000     
  0.71875000000000000       0.62500000000000000        0.0000000000000000     
  0.75000000000000000       0.62500000000000000        0.0000000000000000     
  0.75000000000000000       0.50000000000000000        0.0000000000000000     
  0.78125000000000000       0.50000000000000000        0.0000000000000000     
  0.81250000000000000       0.50000000000000000        0.0000000000000000     
  0.84375000000000000       0.50000000000000000        0.0000000000000000     
  0.87500000000000000       0.50000000000000000        0.0000000000000000     
  0.75000000000000000       0.53125000000000000        0.0000000000000000     
  0.78125000000000000       0.53125000000000000        0.0000000000000000     
  0.81250000000000000       0.53125000000000000        0.0000000000000000     
  0.84375000000000000       0.53125000000000000        0.0000000000000000     
  0.87500000000000000       0.53125000000000000        0.0000000000000000     
  0.75000000000000000       0.56250000000000000        0.0000000000000000     
  0.78125000000000000       0.56250000000000000        0.0000000000000000     
  0.81250000000000000       0.56250000000000000        0.0000000000000000     
  0.84375000000000000       0.56250000000000000        0.0000000000000000     
  0.87500000000000000       0.56250000000000000        0.0000000000000000     
  0.75000000000000000       0.59375000000000000        0.0000000000000000     
  0.78125000000000000       0.59375000000000000        0.0000000000000000     
  0.81250000000000000       0.59375000000000000        0.0000000000000000     
  0.84375000000000000       0.59375000000000000        0.0000000000000000     
  0.87500000000000000       0.59375000000000000        0.0000000000000000     
  0.75000000000000000       0.62500000000000000        0.0000000000000000     
  0.78125000000000000       0.62500000000000000        0.0000000000000000     
  0.81250000000000000       0.62500000000000000        0.0000000000000000     
  0.84375000000000000       0.62500000000000000        0.0000000000000000     
  0.87500000000000000       0.62500000000000000        0.0000000000000000     
  0.87500000000000000       0.50000000000000000        0.0000000000000000     
  0.90625000000000000       0.50000000000000000        0.0000000000000000     
  0.93750000000000000       0.50000000000000000        0.0000000000000000     
  0.96875000000000000       0.50000000000000000        0.0000000000000000     
   1.0000000000000000       0.50000000000000000        0.0000000000000000     
  0.87500000000000000       0.53125000000000000        0.0000000000000000     
  0.90625000000000000       0.53125000000000000        0.0000000000000000     
  0.93750000000000000       0.53125000000000000        0.0000000000000000     
  0.96875000000000000       0.53125000000000000        0.0000000000000000     
   1.0000000000000000       0.53125000000000000        0.0000000000000000     
  0.87500000000000000       0.56250000000000000        0.0000000000000000     
  0.90625000000000000       0.56250000000000000        0.0000000000000000     
  0.93750000000000000       0.56250000000000000        0.0000000000000000     
  0.96875000000000000       0.56250000000000000        0.0000000000000000     
   1.0000000000000000       0.56250000000000000        0.0000000000000000     
  0.87500000000000000       0.59375000000000000        0.0000000000000000     
  0.90625000000000000       0.59375000000000000        0.0000000000000000     
  0.93750000000000000       0.59375000000000000        0.0000000000000000     
  0.96875000000000000       0.59375000000000000        0.0000000000000000     
   1.0000000000000000       0.59375000000000000        0.0000000000000000     
  0.87500000000000000       0.62500000000000000        0.0000000000000000     
  0.90625000000000000       0.62500000000000000        0.0000000000000000     
  0.93750000000000000       0.62500000000000000        0.0000000000000000     
  0.96875000000000000       0.62500000000000000        0.0000000000000000     
   1.0000000000000000       0.62500000000000000        0.0000000000000000     
   0.0000000000000000       0.62500000000000000        0.0000000000000000     
   3.1250000000000000E-002  0.62500000000000000        0.0000000000000000     
   6.2500000000000000E-002  0.62500000000000000        0.0000000000000000     
   9.3750000000000000E-002  0.62500000000000000        0.0000000000000000     
  0.12500000000000000       0.62500000000000000        0.0000000000000000     
   0.0000000000000000       0.65625000000000000        0.0000000000000000     
   3.1250000000000000E-002  0.65625000000000000        0.0000000000000000     
   6.2500000000000000E-002  0.65625000000000000        0.0000000000000000     
   9.3750000000000000E-002  0.65625000000000000        0.0000000000000000     
  0.12500000000000000       0.65625000000000000        0.0000000000000000     
   0.0000000000000000       0.68750000000000000        0.0000000000000000     
   3.1250000000000000E-002  0.68750000000000000        0.0000000000000000     
   6.2500000000000000E-002  0.68750000000000000        0.0000000000000000     
   9.3750000000000000E-002  0.68750000000000000        0.0000000000000000     
  0.12500000000000000       0.68750000000000000        0.0000000000000000     
   0.0000000000000000       0.71875000000000000        0.0000000000000000     
   3.1250000000000000E-002  0.71875000000000000        0.0000000000000000     
   6.2500000000000000E-002  0.71875000000000000        0.0000000000000000     
   9.3750000000000000E-002  0.71875000000000000        0.0000000000000000     
  0.12500000000000000       0.71875000000000000        0.0000000000000000     
   0.0000000000000000       0.75000000000000000        0.0000000000000000     
   3.1250000000000000E-002  0.75000000000000000        0.0000000000000000     
   6.2500000000000000E-002  0.75000000000000000        0.0000000000000000     
   9.3750000000000000E-002  0.75000000000000000        0.0000000000000000     
  0.12500000000000000       0.75000000000000000        0.0000000000000000     
  0.12500000000000000       0.62500000000000000        0.0000000000000000     
  0.15625000000000000       0.62500000000000000        0.0000000000000000     
  0.18750000000000000       0.62500000000000000        0.0000000000000000     
  0.21875000000000000       0.62500000000000000        0.0000000000000000     
  0.25000000000000000       0.62500000000000000        0.0000000000000000     
  0.12500000000000000       0.65625000000000000        0.0000000000000000     
  0.15625000000000000       0.65625000000000000        0.0000000000000000     
  0.18750000000000000       0.65625000000000000        0.0000000000000000     
  0.21875000000000000       0.65625000000000000        0.0000000000000000     
  0.25000000000000000       0.65625000000000000        0.0000000000000000     
  0.12500000000000000       0.68750000000000000        0.0000000000000000     
  0.15625000000000000       0.68750000000000000        0.0000000000000000     
  0.18750000000000000       0.68750000000000000        0.0000000000000000     
  0.21875000000000000       0.68750000000000000        0.0000000000000000     
  0.25000000000000000       0.68750000000000000        0.0000000000000000     
  0.12500000000000000       0.71875000000000000        0.0000000000000000     
  0.15625000000000000       0.71875000000000000        0.0000000000000000     
  0.18750000000000000       0.71875000000000000        0.0000000000000000     
  0.21875000000000000       0.71875000000000000        0.0000000000000000     
  0.25000000000000000       0.71875000000000000        0.0000000000000000     
  0.12500000000000000       0.75000000000000000        0.0000000000000000     
  0.15625000000000000       0.75000000000000000        0.0000000000000000     
  0.18750000000000000       0.75000000000000000        0.0000000000000000     
  0.21875000000000000       0.75000000000000000        0.0000000000000000     
  0.25000000000000000       0.75000000000000000        0.0000000000000000     
  0.25000000000000000       0.62500000000000000        0.0000000000000000     
  0.28125000000000000       0.62500000000000000        0.0000000000000000     
  0.31250000000000000       0.62500000000000000        0.0000000000000000     
  0.34375000000000000       0.62500000000000000        0.0000000000000000     
  0.37500000000000000       0.62500000000000000        0.0000000000000000     
  0.25000000000000000       0.65625000000000000        0.0000000000000000     
  0.28125000000000000       0.65625000000000000        0.0000000000000000     
  0.31250000000000000       0.65625000000000000        0.0000000000000000     
  0.34375000000000000       0.65625000000000000        0.0000000000000000     
  0.37500000000000000       0.65625000000000000        0.0000000000000000     
  0.25000000000000000       0.68750000000000000        0.0000000000000000     
  0.28125000000000000       0.68750000000000000        0.0000000000000000     
  0.31250000000000000       0.68750000000000000        0.0000000000000000     
  0.34375000000000000       0.68750000000000000        0.0000000000000000     
  0.37500000000000000       0.68750000000000000        0.0000000000000000     
  0.25000000000000000       0.71875000000000000        0.0000000000000000     
  0.28125000000000000       0.71875000000000000        0.0000000000000000     
  0.31250000000000000       0.71875000000000000        0.0000000000000000     
  0.34375000000000000       0.71875000000000000        0.0000000000000000     
  0.37500000000000000       0.71875000000000000        0.0000000000000000     
  0.25000000000000000       0.75000000000000000        0.0000000000000000     
  0.28125000000000000       0.75000000000000000        0.0000000000000000     
  0.31250000000000000       0.75000000000000000        0.0000000000000000     
  0.34375000000000000       0.75000000000000000        0.0000000000000000     
  0.37500000000000000       0.75000000000000000        0.0000000000000000     
  0.37500000000000000       0.62500000000000000        0.0000000000000000     
  0.40625000000000000       0.62500000000000000        0.0000000000000000     
  0.43750000000000000       0.62500000000000000        0.0000000000000000     
  0.46875000000000000       0.62500000000000000        0.0000000000000000     
  0.50000000000000000       0.62500000000000000        0.0000000000000000     
  0.37500000000000000       0.65625000000000000        0.0000000000000000     
  0.40625000000000000       0.65625000000000000        0.0000000000000000     
  0.43750000000000000       0.65625000000000000        0.0000000000000000     
  0.46875000000000000       0.65625000000000000        0.0000000000000000     
  0.50000000000000000       0.65625000000000000        0.0000000000000000     
  0.37500000000000000       0.68750000000000000        0.0000000000000000     
  0.40625000000000000       0.68750000000000000        0.0000000000000000     
  0.43750000000000000       0.68750000000000000        0.0000000000000000     
  0.46875000000000000       0.68750000000000000        0.0000000000000000     
  0.50000000000000000       0.68750000000000000        0.0000000000000000     
  0.37500000000000000       0.71875000000000000        0.0000000000000000     
  0.40625000000000000       0.71875000000000000        0.0000000000000000     
  0.43750000000000000       0.71875000000000000        0.0000000000000000     
  0.46875000000000000       0.71875000000000000        0.0000000000000000     
  0.50000000000000000       0.71875000000000000        0.0000000000000000     
  0.37500000000000000       0.75000000000000000        0.0000000000000000     
  0.40625000000000000       0.75000000000000000        0.0000000000000000     
  0.43750000000000000       0.75000000000000000        0.0000000000000000     
  0.46875000000000000       0.75000000000000000        0.0000000000000000     
  0.50000000000000000       0.75000000000000000        0.0000000000000000     
  0.50000000000000000       0.62500000000000000        0.0000000000000000     
  0.53125000000000000       0.62500000000000000        0.0000000000000000     
  0.56250000000000000       0.62500000000000000        0.0000000000000000     
  0.59375000000000000       0.62500000000000000        0.0000000000000000     
  0.62500000000000000       0.62500000000000000        0.0000000000000000     
  0.50000000000000000       0.65625000000000000        0.0000000000000000     
  0.53125000000000000       0.65625000000000000        0.0000000000000000     
  0.56250000000000000       0.65625000000000000        0.0000000000000000     
  0.59375000000000000       0.65625000000000000        0.0000000000000000     
  0.62500000000000000       0.65625000000000000        0.0000000000000000     
  0.50000000000000000       0.68750000000000000        0.0000000000000000     
  0.53125000000000000       0.68750000000000000        0.0000000000000000     
  0.56250000000000000       0.68750000000000000        0.0000000000000000     
  0.59375000000000000       0.68750000000000000        0.0000000000000000     
  0.62500000000000000       0.68750000000000000        0.0000000000000000     
  0.50000000000000000       0.71875000000000000        0.0000000000000000     
  0.53125000000000000       0.71875000000000000        0.0000000000000000     
  0.56250000000000000       0.71875000000000000        0.0000000000000000     
  0.59375000000000000       0.71875000000000000        0.0000000000000000     
  0.62500000000000000       0.71875000000000000        0.0000000000000000     
  0.50000000000000000       0.75000000000000000        0.0000000000000000     
  0.53125000000000000       0.75000000000000000        0.0000000000000000     
  0.56250000000000000       0.75000000000000000        0.0000000000000000     
  0.59375000000000000       0.75000000000000000        0.0000000000000000     
  0.62500000000000000       0.75000000000000000        0.0000000000000000     
  0.62500000000000000       0.62500000000000000        0.0000000000000000     
  0.65625000000000000       0.62500000000000000        0.0000000000000000     
  0.68750000000000000       0.62500000000000000        0.0000000000000000     
  0.71875000000000000       0.62500000000000000        0.0000000000000000     
  0.75000000000000000       0.62500000000000000        0.0000000000000000     
  0.62500000000000000       0.65625000000000000        0.0000000000000000     
  0.65625000000000000       0.65625000000000000        0.0000000000000000     
  0.68750000000000000       0.65625000000000000        0.0000000000000000     
  0.71875000000000000       0.65625000000000000        0.0000000000000000     
  0.75000000000000000       0.65625000000000000        0.0000000000000000     
  0.62500000000000000       0.68750000000000000        0.0000000000000000     
  0.65625000000000000       0.68750000000000000        0.0000000000000000     
  0.68750000000000000       0.68750000000000000        0.0000000000000000     
  0.71875000000000000       0.68750000000000000        0.0000000000000000     
  0.75000000000000000       0.68750000000000000        0.0000000000000000     
  0.62500000000000000       0.71875000000000000        0.0000000000000000     
  0.65625000000000000       0.71875000000000000        0.0000000000000000     
  0.68750000000000000       0.71875000000000000        0.0000000000000000     
  0.71875000000000000       0.71875000000000000        0.0000000000000000     
  0.75000000000000000       0.71875000000000000        0.0000000000000000     
  0.62500000000000000       0.75000000000000000        0.0000000000000000     
  0.65625000000000000       0.75000000000000000        0.0000000000000000     
  0.68750000000000000       0.75000000000000000        0.0000000000000000     
  0.71875000000000000       0.75000000000000000        0.0000000000000000     
  0.75000000000000000       0.75000000000000000        0.0000000000000000     
  0.75000000000000000       0.62500000000000000        0.0000000000000000     
  0.78125000000000000       0.62500000000000000        0.0000000000000000     
  0.81250000000000000       0.62500000000000000        0.0000000000000000     
  0.84375000000000000       0.62500000000000000        0.0000000000000000     
  0.87500000000000000       0.62500000000000000        0.0000000000000000     
  0.75000000000000000       0.65625000000000000        0.0000000000000000     
  0.78125000000000000       0.65625000000000000        0.0000000000000000     
  0.81250000000000000       0.65625000000000000        0.0000000000000000     
  0.84375000000000000       0.65625000000000000        0.0000000000000000     
  0.87500000000000000       0.65625000000000000        0.0000000000000000     
  0.75000000000000000       0.68750000000000000        0.0000000000000000     
  0.78125000000000000       0.68750000000000000        0.0000000000000000     
  0.81250000000000000       0.68750000000000000        0.0000000000000000     
  0.84375000000000000       0.68750000000000000        0.0000000000000000     
  0.87500000000000000       0.68750000000000000        0.0000000000000000     
  0.75000000000000000       0.71875000000000000        0.0000000000000000     
  0.78125000000000000       0.71875000000000000        0.0000000000000000     
  0.81250000000000000       0.71875000000000000        0.0000000000000000     
  0.84375000000000000       0.71875000000000000        0.0000000000000000     
  0.87500000000000000       0.71875000000000000        0.0000000000000000     
  0.75000000000000000       0.75000000000000000        0.0000000000000000     
  0.78125000000000000       0.75000000000000000        0.0000000000000000     
  0.81250000000000000       0.75000000000000000        0.0000000000000000     
  0.84375000000000000       0.75000000000000000        0.0000000000000000     
  0.87500000000000000       0.75000000000000000        0.0000000000000000     
  0.87500000000000000       0.62500000000000000        0.0000000000000000     
  0.90625000000000000       0.62500000000000000        0.0000000000000000     
  0.93750000000000000       0.62500000000000000        0.0000000000000000     
  0.96875000000000000       0.62500000000000000        0.0000000000000000     
   1.0000000000000000       0.62500000000000000        0.0000000000000000     
  0.87500000000000000       0.65625000000000000        0.0000000000000000     
  0.90625000000000000       0.65625000000000000        0.0000000000000000     
  0.93750000000000000       0.65625000000000000        0.0000000000000000     
  0.96875000000000000       0.65625000000000000        0.0000000000000000     
   1.0000000000000000       0.65625000000000000        0.0000000000000000     
  0.87500000000000000       0.68750000000000000        0.0000000000000000     
  0.90625000000000000       0.68750000000000000        0.0000000000000000     
  0.93750000000000000       0.68750000000000000        0.0000000000000000     
  0.96875000000000000       0.68750000000000000        0.0000000000000000     
   1.0000000000000000       0.68750000000000000        0.0000000000000000     
  0.87500000000000000       0.71875000000000000        0.0000000000000000     
  0.90625000000000000       0.71875000000000000        0.0000000000000000     
  0.93750000000000000       0.71875000000000000        0.0000000000000000     
  0.96875000000000000       0.71875000000000000        0.0000000000000000     
   1.0000000000000000       0.71875000000000000        0.0000000000000000     
  0.87500000000000000       0.75000000000000000        0.0000000000000000     
  0.90625000000000000       0.75000000000000000        0.0000000000000000     
  0.93750000000000000       0.75000000000000000        0.0000000000000000     
  0.96875000000000000       0.75000000000000000        0.0000000000000000     
   1.0000000000000000       0.75000000000000000        0.0000000000000000     
   0.0000000000000000       0.75000000000000000        0.0000000000000000     
   3.1250000000000000E-002  0.75000000000000000        0.0000000000000000     
   6.2500000000000000E-002  0.75000000000000000        0.0000000000000000     
   9.3750000000000000E-002  0.75000000000000000        0.0000000000000000     
  0.12500000000000000       0.75000000000000000        0.0000000000000000     
   0.0000000000000000       0.78125000000000000        0.0000000000000000     
   3.1250000000000000E-002  0.78125000000000000        0.0000000000000000     
   6.2500000000000000E-002  0.78125000000000000        0.0000000000000000     
   9.3750000000000000E-002  0.78125000000000000        0.0000000000000000     
  0.12500000000000000       0.78125000000000000        0.0000000000000000     
   0.0000000000000000       0.81250000000000000        0.0000000000000000     
   3.1250000000000000E-002  0.81250000000000000        0.0000000000000000     
   6.2500000000000000E-002  0.81250000000000000        0.0000000000000000     
   9.3750000000000000E-002  0.81250000000000000        0.0000000000000000     
  0.12500000000000000       0.81250000000000000        0.0000000000000000     
   0.0000000000000000       0.84375000000000000        0.0000000000000000     
   3.1250000000000000E-002  0.84375000000000000        0.0000000000000000     
   6.2500000000000000E-002  0.84375000000000000        0.0000000000000000     
   9.3750000000000000E-002  0.84375000000000000        0.0000000000000000     
  0.12500000000000000       0.84375000000000000        0.0000000000000000     
   0.0000000000000000       0.87500000000000000        0.0000000000000000     
   3.1250000000000000E-002  0.87500000000000000        0.0000000000000000     
   6.2500000000000000E-002  0.87500000000000000        0.0000000000000000     
   9.3750000000000000E-002  0.87500000000000000        0.0000000000000000     
  0.12500000000000000       0.87500000000000000        0.0000000000000000     
  0.12500000000000000       0.75000000000000000        0.0000000000000000     
  0.15625000000000000       0.75000000000000000        0.0000000000000000     
  0.18750000000000000       0.75000000000000000        0.0000000000000000     
  0.21875000000000000       0.75000000000000000        0.0000000000000000     
  0.25000000000000000       0.75000000000000000        0.0000000000000000     
  0.12500000000000000       0.78125000000000000        0.0000000000000000     
  0.15625000000000000       0.78125000000000000        0.0000000000000000     
  0.18750000000000000       0.78125000000000000        0.0000000000000000     
  0.21875000000000000       0.78125000000000000        0.0000000000000000     
  0.25000000000000000       0.78125000000000000        0.0000000000000000     
  0.12500000000000000       0.81250000000000000        0.0000000000000000     
  0.15625000000000000       0.81250000000000000        0.0000000000000000     
  0.18750000000000000       0.81250000000000000        0.0000000000000000     
  0.21875000000000000       0.81250000000000000        0.0000000000000000     
  0.25000000000000000       0.81250000000000000        0.0000000000000000     
  0.12500000000000000       0.84375000000000000        0.0000000000000000     
  0.15625000000000000       0.84375000000000000        0.0000000000000000     
  0.18750000000000000       0.84375000000000000        0.0000000000000000     
  0.21875000000000000       0.84375000000000000        0.0000000000000000     
  0.25000000000000000       0.84375000000000000        0.0000000000000000     
  0.12500000000000000       0.87500000000000000        0.0000000000000000     
  0.15625000000000000       0.87500000000000000        0.0000000000000000     
  0.18750000000000000       0.87500000000000000        0.0000000000000000     
  0.21875000000000000       0.87500000000000000        0.0000000000000000     
  0.25000000000000000       0.87500000000000000        0.0000000000000000     
  0.25000000000000000       0.75000000000000000        0.0000000000000000     
  0.28125000000000000       0.75000000000000000        0.0000000000000000     
  0.31250000000000000       0.75000000000000000        0.0000000000000000     
  0.34375000000000000       0.75000000000000000        0.0000000000000000     
  0.37500000000000000       0.75000000000000000        0.0000000000000000     
  0.25000000000000000       0.78125000000000000        0.0000000000000000     
  0.28125000000000000       0.78125000000000000        0.0000000000000000     
  0.31250000000000000       0.78125000000000000        0.0000000000000000     
  0.34375000000000000       0.78125000000000000        0.0000000000000000     
  0.37500000000000000       0.78125000000000000        0.0000000000000000     
  0.25000000000000000       0.81250000000000000        0.0000000000000000     
  0.28125000000000000       0.81250000000000000        0.0000000000000000     
  0.31250000000000000       0.81250000000000000        0.0000000000000000     
  0.34375000000000000       0.81250000000000000        0.0000000000000000     
  0.37500000000000000       0.81250000000000000        0.0000000000000000     
  0.25000000000000000       0.84375000000000000        0.0000000000000000     
  0.28125000000000000       0.84375000000000000        0.0000000000000000     
  0.31250000000000000       0.84375000000000000        0.0000000000000000     
  0.34375000000000000       0.84375000000000000        0.0000000000000000     
  0.37500000000000000       0.84375000000000000        0.0000000000000000     
  0.25000000000000000       0.87500000000000000        0.0000000000000000     
  0.28125000000000000       0.87500000000000000        0.0000000000000000     
  0.31250000000000000       0.87500000000000000        0.0000000000000000     
  0.34375000000000000       0.87500000000000000        0.0000000000000000     
  0.37500000000000000       0.87500000000000000        0.0000000000000000     
  0.37500000000000000       0.75000000000000000        0.0000000000000000     
  0.40625000000000000       0.75000000000000000        0.0000000000000000     
  0.43750000000000000       0.75000000000000000        0.0000000000000000     
  0.46875000000000000       0.75000000000000000        0.0000000000000000     
  0.50000000000000000       0.75000000000000000        0.0000000000000000     
  0.37500000000000000       0.78125000000000000        0.0000000000000000     
  0.40625000000000000       0.78125000000000000        0.0000000000000000     
  0.43750000000000000       0.78125000000000000        0.0000000000000000     
  0.46875000000000000       0.78125000000000000        0.0000000000000000     
  0.50000000000000000       0.78125000000000000        0.0000000000000000     
  0.37500000000000000       0.81250000000000000        0.0000000000000000     
  0.40625000000000000       0.81250000000000000        0.0000000000000000     
  0.43750000000000000       0.81250000000000000        0.0000000000000000     
  0.46875000000000000       0.81250000000000000        0.0000000000000000     
  0.50000000000000000       0.81250000000000000        0.0000000000000000     
  0.37500000000000000       0.84375000000000000        0.0000000000000000     
  0.40625000000000000       0.84375000000000000        0.0000000000000000     
  0.43750000000000000       0.84375000000000000        0.0000000000000000     
  0.46875000000000000       0.84375000000000000        0.0000000000000000     
  0.50000000000000000       0.84375000000000000        0.0000000000000000     
  0.37500000000000000       0.87500000000000000        0.0000000000000000     
  0.40625000000000000       0.87500000000000000        0.0000000000000000     
  0.43750000000000000       0.87500000000000000        0.0000000000000000     
  0.46875000000000000       0.87500000000000000        0.0000000000000000     
  0.50000000000000000       0.87500000000000000        0.0000000000000000     
  0.50000000000000000       0.75000000000000000        0.0000000000000000     
  0.53125000000000000       0.75000000000000000        0.0000000000000000     
  0.56250000000000000       0.75000000000000000        0.0000000000000000     
  0.59375000000000000       0.75000000000000000        0.0000000000000000     
  0.62500000000000000       0.75000000000000000        0.0000000000000000     
  0.50000000000000000       0.78125000000000000        0.0000000000000000     
  0.53125000000000000       0.78125000000000000        0.0000000000000000     
  0.56250000000000000       0.78125000000000000        0.0000000000000000     
  0.59375000000000000       0.78125000000000000        0.0000000000000000     
  0.62500000000000000       0.78125000000000000        0.0000000000000000     
  0.50000000000000000       0.81250000000000000        0.0000000000000000     
  0.53125000000000000       0.81250000000000000        0.0000000000000000     
  0.56250000000000000       0.81250000000000000        0.0000000000000000     
  0.59375000000000000       0.81250000000000000        0.0000000000000000     
  0.62500000000000000       0.81250000000000000        0.0000000000000000     
  0.50000000000000000       0.84375000000000000        0.0000000000000000     
  0.53125000000000000       0.84375000000000000        0.0000000000000000     
  0.56250000000000000       0.84375000000000000        0.0000000000000000     
  0.59375000000000000       0.84375000000000000        0.0000000000000000     
  0.62500000000000000       0.84375000000000000        0.0000000000000000     
  0.50000000000000000       0.87500000000000000        0.0000000000000000     
  0.53125000000000000       0.87500000000000000        0.0000000000000000     
  0.56250000000000000       0.87500000000000000        0.0000000000000000     
  0.59375000000000000       0.87500000000000000        0.0000000000000000     
  0.62500000000000000       0.87500000000000000        0.0000000000000000     
  0.62500000000000000       0.75000000000000000        0.0000000000000000     
  0.65625000000000000       0.75000000000000000        0.0000000000000000     
  0.68750000000000000       0.75000000000000000        0.0000000000000000     
  0.71875000000000000       0.75000000000000000        0.0000000000000000     
  0.75000000000000000       0.75000000000000000        0.0000000000000000     
  0.62500000000000000       0.78125000000000000        0.0000000000000000     
  0.65625000000000000       0.78125000000000000        0.0000000000000000     
  0.68750000000000000       0.78125000000000000        0.0000000000000000     
  0.71875000000000000       0.78125000000000000        0.0000000000000000     
  0.75000000000000000       0.78125000000000000        0.0000000000000000     
  0.62500000000000000       0.81250000000000000        0.0000000000000000     
  0.65625000000000000       0.81250000000000000        0.0000000000000000     
  0.68750000000000000       0.81250000000000000        0.0000000000000000     
  0.71875000000000000       0.81250000000000000        0.0000000000000000     
  0.75000000000000000       0.81250000000000000        0.0000000000000000     
  0.62500000000000000       0.84375000000000000        0.0000000000000000     
  0.65625000000000000       0.84375000000000000        0.0000000000000000     
  0.68750000000000000       0.84375000000000000        0.0000000000000000     
  0.71875000000000000       0.84375000000000000        0.0000000000000000     
  0.75000000000000000       0.84375000000000000        0.0000000000000000     
  0.62500000000000000       0.87500000000000000        0.0000000000000000     
  0.65625000000000000       0.87500000000000000        0.0000000000000000     
  0.68750000000000000       0.87500000000000000        0.0000000000000000     
  0.71875000000000000       0.87500000000000000        0.0000000000000000     
  0.75000000000000000       0.87500000000000000        0.0000000000000000     
  0.75000000000000000       0.75000000000000000        0.0000000000000000     
  0.78125000000000000       0.75000000000000000        0.0000000000000000     
  0.81250000000000000       0.75000000000000000        0.0000000000000000     
  0.84375000000000000       0.75000000000000000        0.0000000000000000     
  0.87500000000000000       0.75000000000000000        0.0000000000000000     
  0.75000000000000000       0.78125000000000000        0.0000000000000000     
  0.78125000000000000       0.78125000000000000        0.0000000000000000     
  0.81250000000000000       0.78125000000000000        0.0000000000000000     
  0.84375000000000000       0.78125000000000000        0.0000000000000000     
  0.87500000000000000       0.78125000000000000        0.0000000000000000     
  0.75000000000000000       0.81250000000000000        0.0000000000000000     
  0.78125000000000000       0.81250000000000000        0.0000000000000000     
  0.81250000000000000       0.81250000000000000        0.0000000000000000     
  0.84375000000000000       0.81250000000000000        0.0000000000000000     
  0.87500000000000000       0.81250000000000000        0.0000000000000000     
  0.75000000000000000       0.84375000000000000        0.0000000000000000     
  0.78125000000000000       0.84375000000000000        0.0000000000000000     
  0.81250000000000000       0.84375000000000000        0.0000000000000000     
  0.84375000000000000       0.84375000000000000        0.0000000000000000     
  0.87500000000000000       0.84375000000000000        0.0000000000000000     
  0.75000000000000000       0.87500000000000000        0.0000000000000000     
  0.78125000000000000       0.87500000000000000        0.0000000000000000     
  0.81250000000000000       0.87500000000000000        0.0000000000000000     
  0.84375000000000000       0.87500000000000000        0.0000000000000000     
  0.87500000000000000       0.87500000000000000        0.0000000000000000     
  0.87500000000000000       0.75000000000000000        0.0000000000000000     
  0.90625000000000000       0.75000000000000000        0.0000000000000000     
  0.93750000000000000       0.75000000000000000        0.0000000000000000     
  0.96875000000000000       0.75000000000000000        0.0000000000000000     
   1.0000000000000000       0.75000000000000000        0.0000000000000000     
  0.87500000000000000       0.78125000000000000        0.0000000000000000     
  0.90625000000000000       0.78125000000000000        0.0000000000000000     
  0.93750000000000000       0.78125000000000000        0.0000000000000000     
  0.96875000000000000       0.78125000000000000        0.0000000000000000     
   1.0000000000000000       0.78125000000000000        0.0000000000000000     
  0.87500000000000000       0.81250000000000000        0.0000000000000000     
  0.90625000000000000       0.81250000000000000        0.0000000000000000     
  0.93750000000000000       0.81250000000000000        0.0000000000000000     
  0.96875000000000000       0.81250000000000000        0.0000000000000000     
   1.0000000000000000       0.81250000000000000        0.0000000000000000     
  0.87500000000000000       0.84375000000000000        0.0000000000000000     
  0.90625000000000000       0.84375000000000000        0.0000000000000000     
  0.93750000000000000       0.84375000000000000        0.0000000000000000     
  0.96875000000000000       0.84375000000000000        0.0000000000000000     
   1.0000000000000000       0.84375000000000000        0.0000000000000000     
  0.87500000000000000       0.87500000000000000        0.0000000000000000     
  0.90625000000000000       0.87500000000000000        0.0000000000000000     
  0.93750000000000000       0.87500000000000000        0.0000000000000000     
  0.96875000000000000       0.87500000000000000        0.0000000000000000     
   1.0000000000000000       0.87500000000000000        0.0000000000000000     
   0.0000000000000000       0.87500000000000000        0.0000000000000000     
   3.1250000000000000E-002  0.87500000000000000        0.0000000000000000     
   6.2500000000000000E-002  0.87500000000000000        0.0000000000000000     
   9.3750000000000000E-002  0.87500000000000000        0.0000000000000000     
  0.12500000000000000       0.87500000000000000        0.0000000000000000     
   0.0000000000000000       0.90625000000000000        0.0000000000000000     
   3.1250000000000000E-002  0.90625000000000000        0.0000000000000000     
   6.2500000000000000E-002  0.90625000000000000        0.0000000000000000     
   9.3750000000000000E-002  0.90625000000000000        0.0000000000000000     
  0.12500000000000000       0.90625000000000000        0.0000000000000000     
   0.0000000000000000       0.93750000000000000        0.0000000000000000     
   3.1250000000000000E-002  0.93750000000000000        0.0000000000000000     
   6.2500000000000000E-002  0.93750000000000000        0.0000000000000000     
   9.3750000000000000E-002  0.93750000000000000        0.0000000000000000     
  0.12500000000000000       0.93750000000000000        0.0000000000000000     
   0.0000000000000000       0.96875000000000000        0.0000000000000000     
   3.1250000000000000E-002  0.96875000000000000        0.0000000000000000     
   6.2500000000000000E-002  0.96875000000000000        0.0000000000000000     
   9.3750000000000000E-002  0.96875000000000000        0.0000000000000000     
  0.12500000000000000       0.96875000000000000        0.0000000000000000     
   0.0000000000000000        1.0000000000000000        0.0000000000000000     
   3.1250000000000000E-002   1.0000000000000000        0.0000000000000000     
   6.2500000000000000E-002   1.0000000000000000        0.0000000000000000     
   9.3750000000000000E-002   1.0000000000000000        0.0000000000000000     
  0.12500000000000000        1.0000000000000000        0.0000000000000000     
  0.12500000000000000       0.87500000000000000        0.0000000000000000     
  0.15625000000000000       0.87500000000000000        0.0000000000000000     
  0.18750000000000000       0.87500000000000000        0.0000000000000000     
  0.21875000000000000       0.87500000000000000        0.0000000000000000     
  0.25000000000000000       0.87500000000000000        0.0000000000000000     
  0.12500000000000000       0.90625000000000000        0.0000000000000000     
  0.15625000000000000       0.90625000000000000        0.0000000000000000     
  0.18750000000000000       0.90625000000000000        0.0000000000000000     
  0.21875000000000000       0.90625000000000000        0.0000000000000000     
  0.25000000000000000       0.90625000000000000        0.0000000000000000     
  0.12500000000000000       0.93750000000000000        0.0000000000000000     
  0.15625000000000000       0.93750000000000000        0.0000000000000000     
  0.18750000000000000       0.93750000000000000        0.0000000000000000     
  0.21875000000000000       0.93750000000000000        0.0000000000000000     
  0.25000000000000000       0.93750000000000000        0.0000000000000000     
  0.12500000000000000       0.96875000000000000        0.0000000000000000     
  0.15625000000000000       0.96875000000000000        0.0000000000000000     
  0.18750000000000000       0.96875000000000000        0.0000000000000000     
  0.21875000000000000       0.96875000000000000        0.0000000000000000     
  0.25000000000000000       0.96875000000000000        0.0000000000000000     
  0.12500000000000000        1.0000000000000000        0.0000000000000000     
  0.15625000000000000        1.0000000000000000        0.0000000000000000     
  0.18750000000000000        1.0000000000000000        0.0000000000000000     
  0.21875000000000000        1.0000000000000000        0.0000000000000000     
  0.25000000000000000        1.0000000000000000        0.0000000000000000     
  0.25000000000000000       0.87500000000000000        0.0000000000000000     
  0.28125000000000000       0.87500000000000000        0.0000000000000000     
  0.31250000000000000       0.87500000000000000        0.0000000000000000     
  0.34375000000000000       0.87500000000000000        0.0000000000000000     
  0.37500000000000000       0.87500000000000000        0.0000000000000000     
  0.25000000000000000       0.90625000000000000        0.0000000000000000     
  0.28125000000000000       0.90625000000000000        0.0000000000000000     
  0.31250000000000000       0.90625000000000000        0.0000000000000000     
  0.34375000000000000       0.90625000000000000        0.0000000000000000     
  0.37500000000000000       0.90625000000000000        0.0000000000000000     
  0.25000000000000000       0.93750000000000000        0.0000000000000000     
  0.28125000000000000       0.93750000000000000        0.0000000000000000     
  0.31250000000000000       0.93750000000000000        0.0000000000000000     
  0.34375000000000000       0.93750000000000000        0.0000000000000000     
  0.37500000000000000       0.93750000000000000        0.0000000000000000     
  0.25000000000000000       0.96875000000000000        0.0000000000000000     
  0.28125000000000000       0.96875000000000000        0.0000000000000000     
  0.31250000000000000       0.96875000000000000        0.0000000000000000     
  0.34375000000000000       0.96875000000000000        0.0000000000000000     
  0.37500000000000000       0.96875000000000000        0.0000000000000000     
  0.25000000000000000        1.0000000000000000        0.0000000000000000     
  0.28125000000000000        1.0000000000000000        0.0000000000000000     
  0.31250000000000000        1.0000000000000000        0.0000000000000000     
  0.34375000000000000        1.0000000000000000        0.0000000000000000     
  0.37500000000000000        1.0000000000000000        0.0000000000000000     
  0.37500000000000000       0.87500000000000000        0.0000000000000000     
  0.40625000000000000       0.87500000000000000        0.0000000000000000     
  0.43750000000000000       0.87500000000000000        0.0000000000000000     
  0.46875000000000000       0.87500000000000000        0.0000000000000000     
  0.50000000000000000       0.87500000000000000        0.0000000000000000     
  0.37500000000000000       0.90625000000000000        0.0000000000000000     
  0.40625000000000000       0.90625000000000000        0.0000000000000000     
  0.43750000000000000       0.90625000000000000        0.0000000000000000     
  0.46875000000000000       0.90625000000000000        0.0000000000000000     
  0.50000000000000000       0.90625000000000000        0.0000000000000000     
  0.37500000000000000       0.93750000000000000        0.0000000000000000     
  0.40625000000000000       0.93750000000000000        0.0000000000000000     
  0.43750000000000000       0.93750000000000000        0.0000000000000000     
  0.46875000000000000       0.93750000000000000        0.0000000000000000     
  0.50000000000000000       0.93750000000000000        0.0000000000000000     
  0.37500000000000000       0.96875000000000000        0.0000000000000000     
  0.40625000000000000       0.96875000000000000        0.0000000000000000     
  0.43750000000000000       0.96875000000000000        0.0000000000000000     
  0.46875000000000000       0.96875000000000000        0.0000000000000000     
  0.50000000000000000       0.96875000000000000        0.0000000000000000     
  0.37500000000000000        1.0000000000000000        0.0000000000000000     
  0.40625000000000000        1.0000000000000000        0.0000000000000000     
  0.43750000000000000        1.0000000000000000        0.0000000000000000     
  0.46875000000000000        1.0000000000000000        0.0000000000000000     
  0.50000000000000000        1.0000000000000000        0.0000000000000000     
  0.50000000000000000       0.87500000000000000        0.0000000000000000     
  0.53125000000000000       0.87500000000000000        0.0000000000000000     
  0.56250000000000000       0.87500000000000000        0.0000000000000000     
  0.59375000000000000       0.87500000000000000        0.0000000000000000     
  0.62500000000000000       0.87500000000000000        0.0000000000000000     
  0.50000000000000000       0.90625000000000000        0.0000000000000000     
  0.53125000000000000       0.90625000000000000        0.0000000000000000     
  0.56250000000000000       0.90625000000000000        0.0000000000000000     
  0.59375000000000000       0.90625000000000000        0.0000000000000000     
  0.62500000000000000       0.90625000000000000        0.0000000000000000     
  0.50000000000000000       0.93750000000000000        0.0000000000000000     
  0.53125000000000000       0.93750000000000000        0.0000000000000000     
  0.56250000000000000       0.93750000000000000        0.0000000000000000     
  0.59375000000000000       0.93750000000000000        0.0000000000000000     
  0.62500000000000000       0.93750000000000000        0.0000000000000000     
  0.50000000000000000       0.96875000000000000        0.0000000000000000     
  0.53125000000000000       0.96875000000000000        0.0000000000000000     
  0.56250000000000000       0.96875000000000000        0.0000000000000000     
  0.59375000000000000       0.96875000000000000        0.0000000000000000     
  0.62500000000000000       0.96875000000000000        0.0000000000000000     
  0.50000000000000000        1.0000000000000000        0.0000000000000000     
  0.53125000000000000        1.0000000000000000        0.0000000000000000     
  0.56250000000000000        1.0000000000000000        0.0000000000000000     
  0.59375000000000000        1.0000000000000000        0.0000000000000000     
  0.62500000000000000        1.0000000000000000        0.0000000000000000     
  0.62500000000000000       0.87500000000000000        0.0000000000000000     
  0.65625000000000000       0.87500000000000000        0.0000000000000000     
  0.68750000000000000       0.87500000000000000        0.0000000000000000     
  0.71875000000000000       0.87500000000000000        0.0000000000000000     
  0.75000000000000000       0.87500000000000000        0.0000000000000000     
  0.62500000000000000       0.90625000000000000        0.0000000000000000     
  0.65625000000000000       0.90625000000000000        0.0000000000000000     
  0.68750000000000000       0.90625000000000000        0.0000000000000000     
  0.71875000000000000       0.90625000000000000        0.0000000000000000     
  0.75000000000000000       0.90625000000000000        0.0000000000000000     
  0.62500000000000000       0.93750000000000000        0.0000000000000000     
  0.65625000000000000       0.93750000000000000        0.0000000000000000     
  0.68750000000000000       0.93750000000000000        0.0000000000000000     
  0.71875000000000000       0.93750000000000000        0.0000000000000000     
  0.75000000000000000       0.93750000000000000        0.0000000000000000     
  0.62500000000000000       0.96875000000000000        0.0000000000000000     
  0.65625000000000000       0.96875000000000000        0.0000000000000000     
  0.68750000000000000       0.96875000000000000        0.0000000000000000     
  0.71875000000000000       0.96875000000000000        0.0000000000000000     
  0.75000000000000000       0.96875000000000000        0.0000000000000000     
  0.62500000000000000        1.0000000000000000        0.0000000000000000     
  0.65625000000000000        1.0000000000000000        0.0000000000000000     
  0.68750000000000000        1.0000000000000000        0.0000000000000000     
  0.71875000000000000        1.0000000000000000        0.0000000000000000     
  0.75000000000000000        1.0000000000000000        0.0000000000000000     
  0.75000000000000000       0.87500000000000000        0.0000000000000000     
  0.78125000000000000       0.87500000000000000        0.0000000000000000     
  0.81250000000000000       0.87500000000000000        0.0000000000000000     
  0.84375000000000000       0.87500000000000000        0.0000000000000000     
  0.87500000000000000       0.87500000000000000        0.0000000000000000     
  0.75000000000000000       0.90625000000000000        0.0000000000000000     
  0.78125000000000000       0.90625000000000000        0.0000000000000000     
  0.81250000000000000       0.90625000000000000        0.0000000000000000     
  0.84375000000000000       0.90625000000000000        0.0000000000000000     
  0.87500000000000000       0.90625000000000000        0.0000000000000000     
  0.75000000000000000       0.93750000000000000        0.0000000000000000     
  0.78125000000000000       0.93750000000000000        0.0000000000000000     
  0.81250000000000000       0.93750000000000000        0.0000000000000000     
  0.84375000000000000       0.93750000000000000        0.0000000000000000     
  0.87500000000000000       0.93750000000000000        0.0000000000000000     
  0.75000000000000000       0.96875000000000000        0.0000000000000000     
  0.78125000000000000       0.96875000000000000        0.0000000000000000     
  0.81250000000000000       0.96875000000000000        0.0000000000000000     
  0.84375000000000000       0.96875000000000000        0.0000000000000000     
  0.87500000000000000       0.96875000000000000        0.0000000000000000     
  0.75000000000000000        1.0000000000000000        0.0000000000000000     
  0.78125000000000000        1.0000000000000000        0.0000000000000000     
  0.81250000000000000        1.0000000000000000        0.0000000000000000     
  0.84375000000000000        1.0000000000000000        0.0000000000000000     
  0.87500000000000000        1.0000000000000000        0.0000000000000000     
  0.87500000000000000       0.87500000000000000        0.0000000000000000     
  0.90625000000000000       0.87500000000000000        0.0000000000000000     
  0.93750000000000000       0.87500000000000000        0.0000000000000000     
  0.96875000000000000       0.87500000000000000        0.0000000000000000     
   1.0000000000000000       0.87500000000000000        0.0000000000000000     
  0.87500000000000000       0.90625000000000000        0.0000000000000000     
  0.90625000000000000       0.90625000000000000        0.0000000000000000     
  0.93750000000000000       0.90625000000000000        0.0000000000000000     
  0.96875000000000000       0.90625000000000000        0.0000000000000000     
   1.0000000000000000       0.90625000000000000        0.0000000000000000     
  0.87500000000000000       0.93750000000000000        0.0000000000000000     
  0.90625000000000000       0.93750000000000000        0.0000000000000000     
  0.93750000000000000       0.93750000000000000        0.0000000000000000     
  0.96875000000000000       0.93750000000000000        0.0000000000000000     
   1.0000000000000000       0.93750000000000000        0.0000000000000000     
  0.87500000000000000       0.96875000000000000        0.0000000000000000     
  0.90625000000000000       0.96875000000000000        0.0000000000000000     
  0.93750000000000000       0.96875000000000000        0.0000000000000000     
  0.96875000000000000       0.96875000000000000        0.0000000000000000     
   1.0000000000000000       0.96875000000000000        0.0000000000000000     
  0.87500000000000000        1.0000000000000000        0.0000000000000000     
  0.90625000000000000        1.0000000000000000        0.0000000000000000     
  0.93750000000000000        1.0000000000000000        0.0000000000000000     
  0.96875000000000000        1.0000000000000000        0.0000000000000000     
   1.0000000000000000        1.0000000000000000        0.0000000000000000     
 </DataArray>
 </Points>
 <Cells>
 <DataArray  type="Int32"  Name="connectivity"  format="ascii">
           0           1           6           5
           1           2           7           6
           2           3           8           7
           3           4           9           8
           5           6          11          10
           6           7          12          11
           7           8          13          12
           8           9          14          13
          10          11          16          15
          11          12          17          16
          12          13          18          17
          13          14          19          18
          15          16          21          20
          16          17          22          21
          17          18          23          22
          18          19          24          23
          25          26          31          30
          26          27          32          31
          27          28          33          32
          28          29          34          33
          30          31          36          35
          31          32          37          36
          32          33          38          37
          33          34          39          38
          35          36          41          40
          36          37          42          41
          37          38          43          42
          38          39          44          43
          40          41          46          45
          41          42          47          46
          42          43          48          47
          43          44          49          48
          50          51          56          55
          51          52          57          56
          52          53          58          57
          53          54          59          58
          55          56          61          60
          56          57          62          61
          57          58          63          62
          58          59          64          63
          60          61          66          65
          61          62          67          66
          62          63          68          67
          63          64          69          68
          65          66          71          70
          66          67          72          71
          67          68          73          72
          68          69          74          73
          75          76          81          80
          76          77          82          81
          77          78          83          82
          78          79          84          83
          80          81          86          85
          81          82          87          86
          82          83          88          87
          83          84          89          88
          85          86          91          90
          86          87          92          91
          87          88          93          92
          88          89          94          93
          90          91          96          95
          91          92          97          96
          92          93          98          97
          93          94          99          98
         100         101         106         105
         101         102         107         106
         102         103         108         107
         103         104         109         108
         105         106         111         110
         106         107         112         111
         107         108         113         112
         108         109         114         113
         110         111         116         115
         111         112         117         116
         112         113         118         117
         113         114         119         118
         115         116         121         120
         116         117         122         121
         117         118         123         122
         118         119         124         123
         125         126         131         130
         126         127         132         131
         127         128         133         132
         128         129         134         133
         130         131         136         135
         131         132         137         136
         132         133         138         137
         133         134         139         138
         135         136         141         140
         136         137         142         141
         137         138         143         142
         138         139         144         143
         140         141         146         145
         141         142         147         146
         142         143         148         147
         143         144         149         148
         150         151         156         155
         151         152         157         156
         152         153         158         157
         153         154         159         158
         155         156         161         160
         156         157         162         161
         157         158         163         162
         158         159         164         163
         160         161         166         165
         161         162         167         166
         162         163         168         167
         163         164         169         168
         165         166         171         170
         166         167         172         171
         167         168         173         172
         168         169         174         173
         175         176         181         180
         176         177         182         181
         177         178         183         182
         178         179         184         183
         180         181         186         185
         181         182         187         186
         182         183         188         187
         183         184         189         188
         185         186         191         190
         186         187         192         191
         187         188         193         192
         188         189         194         193
         190         191         196         195
         191         192         197         196
         192         193         198         197
         193         194         199         198
         200         201         206         205
         201         202         207         206
         202         203         208         207
         203         204         209         208
         205         206         211         210
         206         207         212         211
         207         208         213         212
         208         209         214         213
         210         211         216         215
         211         212         217         216
         212         213         218         217
         213         214         219         218
         215         216         221         220
         216         217         222         221
         217         218         223         222
         218         219         224         223
         225         226         231         230
         226         227         232         231
         227         228         233         232
         228         229         234         233
         230         231         236         235
         231         232         237         236
         232         233         238         237
         233         234         239         238
         235         236         241         240
         236         237         242         241
         237         238         243         242
         238         239         244         243
         240         241         246         245
         241         242         247         246
         242         243         248         247
         243         244         249         248
         250         251         256         255
         251         252         257         256
         252         253         258         257
         253         254         259         258
         255         256         261         260
         256         257         262         261
         257         258         263         262
         258         259         264         263
         260         261         266         265
         261         262         267         266
         262         263         268         267
         263         264         269         268
         265         266         271         270
         266         267         272         271
         267         268         273         272
         268         269         274         273
         275         276         281         280
         276         277         282         281
         277         278         283         282
         278         279         284         283
         280         281         286         285
         281         282         287         286
         282         283         288         287
         283         284         289         288
         285         286         291         290
         286         287         292         291
         287         288         293         292
         288         289         294         293
         290         291         296         295
         291         292         297         296
         292         293         298         297
         293         294         299         298
         300         301         306         305
         301         302         307         306
         302         303         308         307
         303         304         309         308
         305         306         311         310
         306         307         312         311
         307         308         313         312
         308         309         314         313
         310         311         316         315
         311         312         317         316
         312         313         318         317
         313         314         319         318
         315         316         321         320
         316         317         322         321
         317         318         323         322
         318         319         324         323
         325         326         331         330
         326         327         332         331
         327         328         333         332
         328         329         334         333
         330         331         336         335
         331         332         337         336
         332         333         338         337
         333         334         339         338
         335         336         341         340
         336         337         342         341
         337         338         343         342
         338         339         344         343
         340         341         346         345
         341         342         347         346
         342         343         348         347
         343         344         349         348
         350         351         356         355
         351         352         357         356
         352         353         358         357
         353         354         359         358
         355         356         361         360
         356         357         362         361
         357         358         363         362
         358         359         364         363
         360         361         366         365
         361         362         367         366
         362         363         368         367
         363         364         369         368
         365         366         371         370
         366         367         372         371
         367         368         373         372
         368         369         374         373
         375         376         381         380
         376         377         382         381
         377         378         383         382
         378         379         384         383
         380         381         386         385
         381         382         387         386
         382         383         388         387
         383         384         389         388
         385         386         391         390
         386         387         392         391
         387         388         393         392
         388         389         394         393
         390         391         396         395
         391         392         397         396
         392         393         398         397
         393         394         399         398
         400         401         406         405
         401         402         407         406
         402         403         408         407
         403         404         409         408
         405         406         411         410
         406         407         412         411
         407         408         413         412
         408         409         414         413
         410         411         416         415
         411         412         417         416
         412         413         418         417
         413         414         419         418
         415         416         421         420
         416         417         422         421
         417         418         423         422
         418         419         424         423
         425         426         431         430
         426         427         432         431
         427         428         433         432
         428         429         434         433
         430         431         436         435
         431         432         437         436
         432         433         438         437
         433         434         439         438
         435         436         441         440
         436         437         442         441
         437         438         443         442
         438         439         444         443
         440         441         446         445
         441         442         447         446
         442         443         448         447
         443         444         449         448
         450         451         456         455
         451         452         457         456
         452         453         458         457
         453         454         459         458
         455         456         461         460
         456         457         462         461
         457         458         463         462
         458         459         464         463
         460         461         466         465
         461         462         467         466
         462         463         468         467
         463         464         469         468
         465         466         471         470
         466         467         472         471
         467         468         473         472
         468         469         474         473
         475         476         481         480
         476         477         482         481
         477         478         483         482
         478         479         484         483
         480         481         486         485
         481         482         487         486
         482         483         488         487
         483         484         489         488
         485         486         491         490
         486         487         492         491
         487         488         493         492
         488         489         494         493
         490         491         496         495
         491         492         497         496
         492         493         498         497
         493         494         499         498
         500         501         506         505
         501         502         507         506
         502         503         508         507
         503         504         509         508
         505         506         511         510
         506         507         512         511
         507         508         513         512
         508         509         514         513
         510         511         516         515
         511         512         517         516
         512         513         518         517
         513         514         519         518
         515         516         521         520
         516         517         522         521
         517         518         523         522
         518         519         524         523
         525         526         531         530
         526         527         532         531
         527         528         533         532
         528         529         534         533
         530         531         536         535
         531         532         537         536
         532         533         538         537
         533         534         539         538
         535         536         541         540
         536         537         542         541
         537         538         543         542
         538         539         544         543
         540         541         546         545
         541         542         547         546
         542         543         548         547
         543         544         549         548
         550         551         556         555
         551         552         557         556
         552         553         558         557
         553         554         559         558
         555         556         561         560
         556         557         562         561
         557         558         563         562
         558         559         564         563
         560         561         566         565
         561         562         567         566
         562         563         568         567
         563         564         569         568
         565         566         571         570
         566         567         572         571
         567         568         573         572
         568         569         574         573
         575         576         581         580
         576         577         582         581
         577         578         583         582
         578         579         584         583
         580         581         586         585
         581         582         587         586
         582         583         588         587
         583         584         589         588
         585         586         591         590
         586         587         592         591
         587         588         593         592
         588         589         594         593
         590         591         596         595
         591         592         597         596
         592         593         598         597
         593         594         599         598
         600         601         606         605
         601         602         607         606
         602         603         608         607
         603         604         609         608
         605         606         611         610
         606         607         612         611
         607         608         613         612
         608         609         614         613
         610         611         616         615
         611         612         617         616
         612         613         618         617
         613         614         619         618
         615         616         621         620
         616         617         622         621
         617         618         623         622
         618         619         624         623
         625         626         631         630
         626         627         632         631
         627         628         633         632
         628         629         634         633
         630         631         636         635
         631         632         637         636
         632         633         638         637
         633         634         639         638
         635         636         641         640
         636         637         642         641
         637         638         643         642
         638         639         644         643
         640         641         646         645
         641         642         647         646
         642         643         648         647
         643         644         649         648
         650         651         656         655
         651         652         657         656
         652         653         658         657
         653         654         659         658
         655         656         661         660
         656         657         662         661
         657         658         663         662
         658         659         664         663
         660         661         666         665
         661         662         667         666
         662         663         668         667
         663         664         669         668
         665         666         671         670
         666         667         672         671
         667         668         673         672
         668         669         674         673
         675         676         681         680
         676         677         682         681
         677         678         683         682
         678         679         684         683
         680         681         686         685
         681         682         687         686
         682         683         688         687
         683         684         689         688
         685         686         691         690
         686         687         692         691
         687         688         693         692
         688         689         694         693
         690         691         696         695
         691         692         697         696
         692         693         698         697
         693         694         699         698
         700         701         706         705
         701         702         707         706
         702         703         708         707
         703         704         709         708
         705         706         711         710
         706         707         712         711
         707         708         713         712
         708         709         714         713
         710         711         716         715
         711         712         717         716
         712         713         718         717
         713         714         719         718
         715         716         721         720
         716         717         722         721
         717         718         723         722
         718         719         724         723
         725         726         731         730
         726         727         732         731
         727         728         733         732
         728         729         734         733
         730         731         736         735
         731         732         737         736
         732         733         738         737
         733         734         739         738
         735         736         741         740
         736         737         742         741
         737         738         743         742
         738         739         744         743
         740         741         746         745
         741         742         747         746
         742         743         748         747
         743         744         749         748
         750         751         756         755
         751         752         757         756
         752         753         758         757
         753         754         759         758
         755         756         761         760
         756         757         762         761
         757         758         763         762
         758         759         764         763
         760         761         766         765
         761         762         767         766
         762         763         768         767
         763         764         769         768
         765         766         771         770
         766         767         772         771
         767         768         773         772
         768         769         774         773
         775         776         781         780
         776         777         782         781
         777         778         783         782
         778         779         784         783
         780         781         786         785
         781         782         787         786
         782         783         788         787
         783         784         789         788
         785         786         791         790
         786         787         792         791
         787         788         793         792
         788         789         794         793
         790         791         796         795
         791         792         797         796
         792         793         798         797
         793         794         799         798
         800         801         806         805
         801         802         807         806
         802         803         808         807
         803         804         809         808
         805         806         811         810
         806         807         812         811
         807         808         813         812
         808         809         814         813
         810         811         816         815
         811         812         817         816
         812         813         818         817
         813         814         819         818
         815         816         821         820
         816         817         822         821
         817         818         823         822
         818         819         824         823
         825         826         831         830
         826         827         832         831
         827         828         833         832
         828         829         834         833
         830         831         836         835
         831         832         837         836
         832         833         838         837
         833         834         839         838
         835         836         841         840
         836         837         842         841
         837         838         843         842
         838         839         844         843
         840         841         846         845
         841         842         847         846
         842         843         848         847
         843         844         849         848
         850         851         856         855
         851         852         857         856
         852         853         858         857
         853         854         859         858
         855         856         861         860
         856         857         862         861
         857         858         863         862
         858         859         864         863
         860         861         866         865
         861         862         867         866
         862         863         868         867
         863         864         869         868
         865         866         871         870
         866         867         872         871
         867         868         873         872
         868         869         874         873
         875         876         881         880
         876         877         882         881
         877         878         883         882
         878         879         884         883
         880         881         886         885
         881         882         887         886
         882         883         888         887
         883         884         889         888
         885         886         891         890
         886         887         892         891
         887         888         893         892
         888         889         894         893
         890         891         896         895
         891         892         897         896
         892         893         898         897
         893         894         899         898
         900         901         906         905
         901         902         907         906
         902         903         908         907
         903         904         909         908
         905         906         911         910
         906         907         912         911
         907         908         913         912
         908         909         914         913
         910         911         916         915
         911         912         917         916
         912         913         918         917
         913         914         919         918
         915         916         921         920
         916         917         922         921
         917         918         923         922
         918         919         924         923
         925         926         931         930
         926         927         932         931
         927         928         933         932
         928         929         934         933
         930         931         936         935
         931         932         937         936
         932         933         938         937
         933         934         939         938
         935         936         941         940
         936         937         942         941
         937         938         943         942
         938         939         944         943
         940         941         946         945
         941         942         947         946
         942         943         948         947
         943         944         949         948
         950         951         956         955
         951         952         957         956
         952         953         958         957
         953         954         959         958
         955         956         961         960
         956         957         962         961
         957         958         963         962
         958         959         964         963
         960         961         966         965
         961         962         967         966
         962         963         968         967
         963         964         969         968
         965         966         971         970
         966         967         972         971
         967         968         973         972
         968         969         974         973
         975         976         981         980
         976         977         982         981
         977         978         983         982
         978         979         984         983
         980         981         986         985
         981         982         987         986
         982         983         988         987
         983         984         989         988
         985         986         991         990
         986         987         992         991
         987         988         993         992
         988         989         994         993
         990         991         996         995
         991         992         997         996
         992         993         998         997
         993         994         999         998
        1000        1001        1006        1005
        1001        1002        1007        1006
        1002        1003        1008        1007
        1003        1004        1009        1008
        1005        1006        1011        1010
        1006        1007        1012        1011
        1007        1008        1013        1012
        1008        1009        1014        1013
        1010        1011        1016        1015
        1011        1012        1017        1016
        1012        1013        1018        1017
        1013        1014        1019        1018
        1015        1016        1021        1020
        1016        1017        1022        1021
        1017        1018        1023        1022
        1018        1019        1024        1023
        1025        1026        1031        1030
        1026        1027        1032        1031
        1027        1028        1033        1032
        1028        1029        1034        1033
        1030        1031        1036        1035
        1031        1032        1037        1036
        1032        1033        1038        1037
        1033        1034        1039        1038
        1035        1036        1041        1040
        1036        1037        1042        1041
        1037        1038        1043        1042
        1038        1039        1044        1043
        1040        1041        1046        1045
        1041        1042        1047        1046
        1042        1043        1048        1047
        1043        1044        1049        1048
        1050        1051        1056        1055
        1051        1052        1057        1056
        1052        1053        1058        1057
        1053        1054        1059        1058
        1055        1056        1061        1060
        1056        1057        1062        1061
        1057        1058        1063        1062
        1058        1059        1064        1063
        1060        1061        1066        1065
        1061        1062        1067        1066
        1062        1063        1068        1067
        1063        1064        1069        1068
        1065        1066        1071        1070
        1066        1067        1072        1071
        1067        1068        1073        1072
        1068        1069        1074        1073
        1075        1076        1081        1080
        1076        1077        1082        1081
        1077        1078        1083        1082
        1078        1079        1084        1083
        1080        1081        1086        1085
        1081        1082        1087        1086
        1082        1083        1088        1087
        1083        1084        1089        1088
        1085        1086        1091        1090
        1086        1087        1092        1091
        1087        1088        1093        1092
        1088        1089        1094        1093
        1090        1091        1096        1095
        1091        1092        1097        1096
        1092        1093        1098        1097
        1093        1094        1099        1098
        1100        1101        1106        1105
        1101        1102        1107        1106
        1102        1103        1108        1107
        1103        1104        1109        1108
        1105        1106        1111        1110
        1106        1107        1112        1111
        1107        1108        1113        1112
        1108        1109        1114        1113
        1110        1111        1116        1115
        1111        1112        1117        1116
        1112        1113        1118        1117
        1113        1114        1119        1118
        1115        1116        1121        1120
        1116        1117        1122        1121
        1117        1118        1123        1122
        1118        1119        1124        1123
        1125        1126        1131        1130
        1126        1127        1132        1131
        1127        1128        1133        1132
        1128        1129        1134        1133
        1130        1131        1136        1135
        1131        1132        1137        1136
        1132        1133        1138        1137
        1133        1134        1139        1138
        1135        1136        1141        1140
        1136        1137        1142        1141
        1137        1138        1143        1142
        1138        1139        1144        1143
        1140        1141        1146        1145
        1141        1142        1147        1146
        1142        1143        1148        1147
        1143        1144        1149        1148
        1150        1151        1156        1155
        1151        1152        1157        1156
        1152        1153        1158        1157
        1153        1154        1159        1158
        1155        1156        1161        1160
        1156        1157        1162        1161
        1157        1158        1163        1162
        1158        1159        1164        1163
        1160        1161        1166        1165
        1161        1162        1167        1166
        1162        1163        1168        1167
        1163        1164        1169        1168
        1165        1166        1171        1170
        1166        1167        1172        1171
        1167        1168        1173        1172
        1168        1169        1174        1173
        1175        1176        1181        1180
        1176        1177        1182        1181
        1177        1178        1183        1182
        1178        1179        1184        1183
        1180        1181        1186        1185
        1181        1182        1187        1186
        1182        1183        1188        1187
        1183        1184        1189        1188
        1185        1186        1191        1190
        1186        1187        1192        1191
        1187        1188        1193        1192
        1188        1189        1194        1193
        1190        1191        1196        1195
        1191        1192        1197        1196
        1192        1193        1198        1197
        1193        1194        1199        1198
        1200        1201        1206        1205
        1201        1202        1207        1206
        1202        1203        1208        1207
        1203        1204        1209        1208
        1205        1206        1211        1210
        1206        1207        1212        1211
        1207        1208        1213        1212
        1208        1209        1214        1213
        1210        1211        1216        1215
        1211        1212        1217        1216
        1212        1213        1218        1217
        1213        1214        1219        1218
        1215        1216        1221        1220
        1216        1217        1222        1221
        1217        1218        1223        1222
        1218        1219        1224        1223
        1225        1226        1231        1230
        1226        1227        1232        1231
        1227        1228        1233        1232
        1228        1229        1234        1233
        1230        1231        1236        1235
        1231        1232        1237        1236
        1232        1233        1238        1237
        1233        1234        1239        1238
        1235        1236        1241        1240
        1236        1237        1242        1241
        1237        1238        1243        1242
        1238        1239        1244        1243
        1240        1241        1246        1245
        1241        1242        1247        1246
        1242        1243        1248        1247
        1243        1244        1249        1248
        1250        1251        1256        1255
        1251        1252        1257        1256
        1252        1253        1258        1257
        1253        1254        1259        1258
        1255        1256        1261        1260
        1256        1257        1262        1261
        1257        1258        1263        1262
        1258        1259        1264        1263
        1260        1261        1266        1265
        1261        1262        1267        1266
        1262        1263        1268        1267
        1263        1264        1269        1268
        1265        1266        1271        1270
        1266        1267        1272        1271
        1267        1268        1273        1272
        1268        1269        1274        1273
        1275        1276        1281        1280
        1276        1277        1282        1281
        1277        1278        1283        1282
        1278        1279        1284        1283
        1280        1281        1286        1285
        1281        1282        1287        1286
        1282        1283        1288        1287
        1283        1284        1289        1288
        1285        1286        1291        1290
        1286        1287        1292        1291
        1287        1288        1293        1292
        1288        1289        1294        1293
        1290        1291        1296        1295
        1291        1292        1297        1296
        1292        1293        1298        1297
        1293        1294        1299        1298
        1300        1301        1306        1305
        1301        1302        1307        1306
        1302        1303        1308        1307
        1303        1304        1309        1308
        1305        1306        1311        1310
        1306        1307        1312        1311
        1307        1308        1313        1312
        1308        1309        1314        1313
        1310        1311        1316        1315
        1311        1312        1317        1316
        1312        1313        1318        1317
        1313        1314        1319        1318
        1315        1316        1321        1320
        1316        1317        1322        1321
        1317        1318        1323        1322
        1318        1319        1324        1323
        1325        1326        1331        1330
        1326        1327        1332        1331
        1327        1328        1333        1332
        1328        1329        1334        1333
        1330        1331        1336        1335
        1331        1332        1337        1336
        1332        1333        1338        1337
        1333        1334        1339        1338
        1335        1336        1341        1340
        1336        1337        1342        1341
        1337        1338        1343        1342
        1338        1339        1344        1343
        1340        1341        1346        1345
        1341        1342        1347        1346
        1342        1343        1348        1347
        1343        1344        1349        1348
        1350        1351        1356        1355
        1351        1352        1357        1356
        1352        1353        1358        1357
        1353        1354        1359        1358
        1355        1356        1361        1360
        1356        1357        1362        1361
        1357        1358        1363        1362
        1358        1359        1364        1363
        1360        1361        1366        1365
        1361        1362        1367        1366
        1362        1363        1368        1367
        1363        1364        1369        1368
        1365        1366        1371        1370
        1366        1367        1372        1371
        1367        1368        1373        1372
        1368        1369        1374        1373
        1375        1376        1381        1380
        1376        1377        1382        1381
        1377        1378        1383        1382
        1378        1379        1384        1383
        1380        1381        1386        1385
        1381        1382        1387        1386
        1382        1383        1388        1387
        1383        1384        1389        1388
        1385        1386        1391        1390
        1386        1387        1392        1391
        1387        1388        1393        1392
        1388        1389        1394        1393
        1390        1391        1396        1395
        1391        1392        1397        1396
        1392        1393        1398        1397
        1393        1394        1399        1398
        1400        1401        1406        1405
        1401        1402        1407        1406
        1402        1403        1408        1407
        1403        1404        1409        1408
        1405        1406        1411        1410
        1406        1407        1412        1411
        1407        1408        1413        1412
        1408        1409        1414        1413
        1410        1411        1416        1415
        1411        1412        1417        1416
        1412        1413        1418        1417
        1413        1414        1419        1418
        1415        1416        1421        1420
        1416        1417        1422        1421
        1417        1418        1423        1422
        1418        1419        1424        1423
        1425        1426        1431        1430
        1426        1427        1432        1431
        1427        1428        1433        1432
        1428        1429        1434        1433
        1430        1431        1436        1435
        1431        1432        1437        1436
        1432        1433        1438        1437
        1433        1434        1439        1438
        1435        1436        1441        1440
        1436        1437        1442        1441
        1437        1438        1443        1442
        1438        1439        1444        1443
        1440        1441        1446        1445
        1441        1442        1447        1446
        1442        1443        1448        1447
        1443        1444        1449        1448
        1450        1451        1456        1455
        1451        1452        1457        1456
        1452        1453        1458        1457
        1453        1454        1459        1458
        1455        1456        1461        1460
        1456        1457        1462        1461
        1457        1458        1463        1462
        1458        1459        1464        1463
        1460        1461        1466        1465
        1461        1462        1467        1466
        1462        1463        1468        1467
        1463        1464        1469        1468
        1465        1466        1471        1470
        1466        1467        1472        1471
        1467        1468        1473        1472
        1468        1469        1474        1473
        1475        1476        1481        1480
        1476        1477        1482        1481
        1477        1478        1483        1482
        1478        1479        1484        1483
        1480        1481        1486        1485
        1481        1482        1487        1486
        1482        1483        1488        1487
        1483        1484        1489        1488
        1485        1486        1491        1490
        1486        1487        1492        1491
        1487        1488        1493        1492
        1488        1489        1494        1493
        1490        1491        1496        1495
        1491        1492        1497        1496
        1492        1493        1498        1497
        1493        1494        1499        1498
        1500        1501        1506        1505
        1501        1502        1507        1506
        1502        1503        1508        1507
        1503        1504        1509        1508
        1505        1506        1511        1510
        1506        1507        1512        1511
        1507        1508        1513        1512
        1508        1509        1514        1513
        1510        1511        1516        1515
        1511        1512        1517        1516
        1512        1513        1518        1517
        1513        1514        1519        1518
        1515        1516        1521        1520
        1516        1517        1522        1521
        1517        1518        1523        1522
        1518        1519        1524        1523
        1525        1526        1531        1530
        1526        1527        1532        1531
        1527        1528        1533        1532
        1528        1529        1534        1533
        1530        1531        1536        1535
        1531        1532        1537        1536
        1532        1533        1538        1537
        1533        1534        1539        1538
        1535        1536        1541        1540
        1536        1537        1542        1541
        1537        1538        1543        1542
        1538        1539        1544        1543
        1540        1541        1546        1545
        1541        1542        1547        1546
        1542        1543        1548        1547
        1543        1544        1549        1548
        1550        1551        1556        1555
        1551        1552        1557        1556
        1552        1553        1558        1557
        1553        1554        1559        1558
        1555        1556        1561        1560
        1556        1557        1562        1561
        1557        1558        1563        1562
        1558        1559        1564        1563
        1560        1561        1566        1565
        1561        1562        1567        1566
        1562        1563        1568        1567
        1563        1564        1569        1568
        1565        1566        1571        1570
        1566        1567        1572        1571
        1567        1568        1573        1572
        1568        1569        1574        1573
        1575        1576        1581        1580
        1576        1577        1582        1581
        1577        1578        1583        1582
        1578        1579        1584        1583
        1580        1581        1586        1585
        1581        1582        1587        1586
        1582        1583        1588        1587
        1583        1584        1589        1588
        1585        1586        1591        1590
        1586        1587        1592        1591
        1587        1588        1593        1592
        1588        1589        1594        1593
        1590        1591        1596        1595
        1591        1592        1597        1596
        1592        1593        1598        1597
        1593        1594        1599        1598
 </DataArray>
 <DataArray  type="Int32"  Name="offsets"  format="ascii"> 
           4
           8
          12
          16
          20
          24
          28
          32
          36
          40
          44
          48
          52
          56
          60
          64
          68
          72
          76
          80
          84
          88
          92
          96
         100
         104
         108
         112
         116
         120
         124
         128
         132
         136
         140
         144
         148
         152
         156
         160
         164
         168
         172
         176
         180
         184
         188
         192
         196
         200
         204
         208
         212
         216
         220
         224
         228
         232
         236
         240
         244
         248
         252
         256
         260
         264
         268
         272
         276
         280
         284
         288
         292
         296
         300
         304
         308
         312
         316
         320
         324
         328
         332
         336
         340
         344
         348
         352
         356
         360
         364
         368
         372
         376
         380
         384
         388
         392
         396
         400
         404
         408
         412
         416
         420
         424
         428
         432
         436
         440
         444
         448
         452
         456
         460
         464
         468
         472
         476
         480
         484
         488
         492
         496
         500
         504
         508
         512
         516
         520
         524
         528
         532
         536
         540
         544
         548
         552
         556
         560
         564
         568
         572
         576
         580
         584
         588
         592
         596
         600
         604
         608
         612
         616
         620
         624
         628
         632
         636
         640
         644
         648
         652
         656
         660
         664
         668
         672
         676
         680
         684
         688
         692
         696
         700
         704
         708
         712
         716
         720
         724
         728
         732
         736
         740
         744
         748
         752
         756
         760
         764
         768
         772
         776
         780
         784
         788
         792
         796
         800
         804
         808
         812
         816
         820
         824
         828
         832
         836
         840
         844
         848
         852
         856
         860
         864
         868
         872
         876
         880
         884
         888
         892
         896
         900
         904
         908
         912
         916
         920
         924
         928
         932
         936
         940
         944
         948
         952
         956
         960
         964
         968
         972
         976
         980
         984
         988
         992
         996
        1000
        1004
        1008
        1012
        1016
        1020
        1024
        1028
        1032
        1036
        1040
        1044
        1048
        1052
        1056
        1060
        1064
        1068
        1072
        1076
        1080
        1084
        1088
        1092
        1096
        1100
        1104
        1108
        1112
        1116
        1120
        1124
        1128
        1132
        1136
        1140
        1144
        1148
        1152
        1156
        1160
        1164
        1168
        1172
        1176
        1180
        1184
        1188
        1192
        1196
        1200
        1204
        1208
        1212
        1216
        1220
        1224
        1228
        1232
        1236
        1240
        1244
        1248
        1252
        1256
        1260
        1264
        1268
        1272
        1276
        1280
        1284
        1288
        1292
        1296
        1300
        1304
        1308
        1312
        1316
        1320
        1324
        1328
        1332
        1336
        1340
        1344
        1348
        1352
        1356
        1360
        1364
        1368
        1372
        1376
        1380
        1384
        1388
        1392
        1396
        1400
        1404
        1408
        1412
        1416
        1420
        1424
        1428
        1432
        1436
        1440
        1444
        1448
        1452
        1456
        1460
        1464
        1468
        1472
        1476
        1480
        1484
        1488
        1492
        1496
        1500
        1504
        1508
        1512
        1516
        1520
        1524
        1528
        1532
        1536
        1540
        1544
        1548
        1552
        1556
        1560
        1564
        1568
        1572
        1576
        1580
        1584
        1588
        1592
        1596
        1600
        1604
        1608
        1612
        1616
        1620
        1624
        1628
        1632
        1636
        1640
        1644
        1648
        1652
        1656
        1660
        1664
        1668
        1672
        1676
        1680
        1684
        1688
        1692
        1696
        1700
        1704
        1708
        1712
        1716
        1720
        1724
        1728
        1732
        1736
        1740
        1744
        1748
        1752
        1756
        1760
        1764
        1768
        1772
        1776
        1780
        1784
        1788
        1792
        1796
        1800
        1804
        1808
        1812
        1816
        1820
        1824
        1828
        1832
        1836
        1840
        1844
        1848
        1852
        1856
        1860
        1864
        1868
        1872
        1876
        1880
        1884
        1888
        1892
        1896
        1900
        1904
        1908
        1912
        1916
        1920
        1924
        1928
        1932
        1936
        1940
        1944
        1948
        1952
        1956
        1960
        1964
        1968
        1972
        1976
        1980
        1984
        1988
        1992
        1996
        2000
        2004
        2008
        2012
        2016
        2020
        2024
        2028
        2032
        2036
        2040
        2044
        2048
        2052
        2056
        2060
        2064
        2068
        2072
        2076
        2080
        2084
        2088
        2092
        2096
        2100
        2104
        2108
        2112
        2116
        2120
        2124
        2128
        2132
        2136
        2140
        2144
        2148
        2152
        2156
        2160
        2164
        2168
        2172
        2176
        2180
        2184
        2188
        2192
        2196
        2200
        2204
        2208
        2212
        2216
        2220
        2224
        2228
        2232
        2236
        2240
        2244
        2248
        2252
        2256
        2260
        2264
        2268
        2272
        2276
        2280
        2284
        2288
        2292
        2296
        2300
        2304
        2308
        2312
        2316
        2320
        2324
        2328
        2332
        2336
        2340
        2344
        2348
        2352
        2356
        2360
        2364
        2368
        2372
        2376
        2380
        2384
        2388
        2392
        2396
        2400
        2404
        2408
        2412
        2416
        2420
        2424
        2428
        2432
        2436
        2440
        2444
        2448
        2452
        2456
        2460
        2464
        2468
        2472
        2476
        2480
        2484
        2488
        2492
        2496
        2500
        2504
        2508
        2512
        2516
        2520
        2524
        2528
        2532
        2536
        2540
        2544
        2548
        2552
        2556
        2560
        2564
        2568
        2572
        2576
        2580
        2584
        2588
        2592
        2596
        2600
        2604
        2608
        2612
        2616
        2620
        2624
        2628
        2632
        2636
        2640
        2644
        2648
        2652
        2656
        2660
        2664
        2668
        2672
        2676
        2680
        2684
        2688
        2692
        2696
        2700
        2704
        2708
        2712
        2716
        2720
        2724
        2728
        2732
        2736
        2740
        2744
        2748
        2752
        2756
        2760
        2764
        2768
        2772
        2776
        2780
        2784
        2788
        2792
        2796
        2800
        2804
        2808
        2812
        2816
        2820
        2824
        2828
        2832
        2836
        2840
        2844
        2848
        2852
        2856
        2860
        2864
        2868
        2872
        2876
        2880
        2884
        2888
        2892
        2896
        2900
        2904
        2908
        2912
        2916
        2920
        2924
        2928
        2932
        2936
        2940
        2944
        2948
        2952
        2956
        2960
        2964
        2968
        2972
        2976
        2980
        2984
        2988
        2992
        2996
        3000
        3004
        3008
        3012
        3016
        3020
        3024
        3028
        3032
        3036
        3040
        3044
        3048
        3052
        3056
        3060
        3064
        3068
        3072
        3076
        3080
        3084
        3088
        3092
        3096
        3100
        3104
        3108
        3112
        3116
        3120
        3124
        3128
        3132
        3136
        3140
        3144
        3148
        3152
        3156
        3160
        3164
        3168
        3172
        3176
        3180
        3184
        3188
        3192
        3196
        3200
        3204
        3208
        3212
        3216
        3220
        3224
        3228
        3232
        3236
        3240
        3244
        3248
        3252
        3256
        3260
        3264
        3268
        3272
        3276
        3280
        3284
        3288
        3292
        3296
        3300
        3304
        3308
        3312
        3316
        3320
        3324
        3328
        3332
        3336
        3340
        3344
        3348
        3352
        3356
        3360
        3364
        3368
        3372
        3376
        3380
        3384
        3388
        3392
        3396
        3400
        3404
        3408
        3412
        3416
        3420
        3424
        3428
        3432
        3436
        3440
        3444
        3448
        3452
        3456
        3460
        3464
        3468
        3472
        3476
        3480
        3484
        3488
        3492
        3496
        3500
        3504
        3508
        3512
        3516
        3520
        3524
        3528
        3532
        3536
        3540
        3544
        3548
        3552
        3556
        3560
        3564
        3568
        3572
        3576
        3580
        3584
        3588
        3592
        3596
        3600
        3604
        3608
        3612
        3616
        3620
        3624
        3628
        3632
        3636
        3640
        3644
        3648
        3652
        3656
        3660
        3664
        3668
        3672
        3676
        3680
        3684
        3688
        3692
        3696
        3700
        3704
        3708
        3712
        3716
        3720
        3724
        3728
        3732
        3736
        3740
        3744
        3748
        3752
        3756
        3760
        3764
        3768
        3772
        3776
        3780
        3784
        3788
        3792
        3796
        3800
        3804
        3808
        3812
        3816
        3820
        3824
        3828
        3832
        3836
        3840
        3844
        3848
        3852
        3856
        3860
        3864
        3868
        3872
        3876
        3880
        3884
        3888
        3892
        3896
        3900
        3904
        3908
        3912
        3916
        3920
        3924
        3928
        3932
        3936
        3940
        3944
        3948
        3952
        3956
        3960
        3964
        3968
        3972
        3976
        3980
        3984
        3988
        3992
        3996
        4000
        4004
        4008
        4012
        4016
        4020
        4024
        4028
        4032
        4036
        4040
        4044
        4048
        4052
        4056
        4060
        4064
        4068
        4072
        4076
        4080
        4084
        4088
        4092
        4096
 </DataArray>
 <DataArray  type="UInt8"  Name="types"  format="ascii">
 9
 9
 9
 9
 9
 9
 9
 9
 9
 9
 9
 9
 9
 9
 9
 9
 9
 9
 9
 9
 9
 9
 9
 9
 9
 9
 9
 9
 9
 9
 9
 9
 9
 9
 9
 9
 9
 9
 9
 9
 9
 9
 9
 9
 9
 9
 9
 9
 9
 9
 9
 9
 9
 9
 9
 9
 9
 9
 9
 9
 9
 9
 9
 9
 9
 9
 9
 9
 9
 9
 9
 9
 9
 9
 9
 9
 9
 9
 9
 9
 9
 9
 9
 9
 9
 9
 9
 9
 9
 9
 9
 9
 9
 9
 9
 9
 9
 9
 9
 9
 9
 9
 9
 9
 9
 9
 9
 9
 9
 9
 9
 9
 9
 9
 9
 9
 9
 9
 9
 9
 9
 9
 9
 9
 9
 9
 9
 9
 9
 9
 9
 9
 9
 9
 9
 9
 9
 9
 9
 9
 9
 9
 9
 9
 9
 9
 9
 9
 9
 9
 9
 9
 9
 9
 9
 9
 9
 9
 9
 9
 9
 9
 9
 9
 9
 9
 9
 9
 9
 9
 9
 9
 9
 9
 9
 9
 9
 9
 9
 9
 9
 9
 9
 9
 9
 9
 9
 9
 9
 9
 9
 9
 9
 9
 9
 9
 9
 9
 9
 9
 9
 9
 9
 9
 9
 9
 9
 9
 9
 9
 9
 9
 9
 9
 9
 9
 9
 9
 9
 9
 9
 9
 9
 9
 9
 9
 9
 9
 9
 9
 9
 9
 9
 9
 9
 9
 9
 9
 9
 9
 9
 9
 9
 9
 9
 9
 9
 9
 9
 9
 9
 9
 9
 9
 9
 9
 9
 9
 9
 9
 9
 9
 9
 9
 9
 9
 9
 9
 9
 9
 9
 9
 9
 9
 9
 9
 9
 9
 9
 9
 9
 9
 9
 9
 9
 9
 9
 9
 9
 9
 9
 9
 9
 9
 9
 9
 9
 9
 9
 9
 9
 9
 9
 9
 9
 9
 9
 9
 9
 9
 9
 9
 9
 9
 9
 9
 9
 9
 9
 9
 9
 9
 9
 9
 9
 9
 9
 9
 9
 9
 9
 9
 9
 9
 9
 9
 9
 9
 9
 9
 9
 9
 9
 9
 9
 9
 9
 9
 9
 9
 9
 9
 9
 9
 9
 9
 9
 9
 9
 9
 9
 9
 9
 9
 9
 9
 9
 9
 9
 9
 9
 9
 9
 9
 9
 9
 9
 9
 9
 9
 9
 9
 9
 9
 9
 9
 9
 9
 9
 9
 9
 9
 9
 9
 9
 9
 9
 9
 9
 9
 9
 9
 9
 9
 9
 9
 9
 9
 9
 9
 9
 9
 9
 9
 9
 9
 9
 9
 9
 9
 9
 9
 9
 9
 9
 9
 9
 9
 9
 9
 9
 9
 9
 9
 9
 9
 9
 9
 9
 9
 9
 9
 9
 9
 9
 9
 9
 9
 9
 9
 9
 9
 9
 9
 9
 9
 9
 9
 9
 9
 9
 9
 9
 9
 9
 9
 9
 9
 9
 9
 9
 9
 9
 9
 9
 9
 9
 9
 9
 9
 9
 9
 9
 9
 9
 9
 9
 9
 9
 9
 9
 9
 9
 9
 9
 9
 9
 9
 9
 9
 9
 9
 9
 9
 9
 9
 9
 9
 9
 9
 9
 9
 9
 9
 9
 9
 9
 9
 9
 9
 9
 9
 9
 9
 9
 9
 9
 9
 9
 9
 9
 9
 9
 9
 9
 9
 9
 9
 9
 9
 9
 9
 9
 9
 9
 9
 9
 9
 9
 9
 9
 9
 9
 9
 9
 9
 9
 9
 9
 9
 9
 9
 9
 9
 9
 9
 9
 9
 9
 9
 9
 9
 9
 9
 9
 9
 9
 9
 9
 9
 9
 9
 9
 9
 9
 9
 9
 9
 9
 9
 9
 9
 9
 9
 9
 9
 9
 9
 9
 9
 9
 9
 9
 9
 9
 9
 9
 9
 9
 9
 9
 9
 9
 9
 9
 9
 9
 9
 9
 9
 9
 9
 9
 9
 9
 9
 9
 9
 9
 9
 9
 9
 9
 9
 9
 9
 9
 9
 9
 9
 9
 9
 9
 9
 9
 9
 9
 9
 9
 9
 9
 9
 9
 9
 9
 9
 9
 9
 9
 9
 9
 9
 9
 9
 9
 9
 9
 9
 9
 9
 9
 9
 9
 9
 9
 9
 9
 9
 9
 9
 9
 9
 9
 9
 9
 9
 9
 9
 9
 9
 9
 9
 9
 9
 9
 9
 9
 9
 9
 9
 9
 9
 9
 9
 9
 9
 9
 9
 9
 9
 9
 9
 9
 9
 9
 9
 9
 9
 9
 9
 9
 9
 9
 9
 9
 9
 9
 9
 9
 9
 9
 9
 9
 9
 9
 9
 9
 9
 9
 9
 9
 9
 9
 9
 9
 9
 9
 9
 9
 9
 9
 9
 9
 9
 9
 9
 9
 9
 9
 9
 9
 9
 9
 9
 9
 9
 9
 9
 9
 9
 9
 9
 9
 9
 9
 9
 9
 9
 9
 9
 9
 9
 9
 9
 9
 9
 9
 9
 9
 9
 9
 9
 9
 9
 9
 9
 9
 9
 9
 9
 9
 9
 9
 9
 9
 9
 9
 9
 9
 9
 9
 9
 9
 9
 9
 9
 9
 9
 9
 9
 9
 9
 9
 9
 9
 9
 9
 9
 9
 9
 9
 9
 9
 9
 9
 9
 9
 9
 9
 9
 9
 9
 9
 9
 9
 9
 9
 9
 9
 9
 9
 9
 9
 9
 9
 9
 9
 9
 9
 9
 9
 9
 9
 9
 9
 9
 9
 9
 9
 9
 9
 9
 9
 9
 9
 9
 9
 9
 9
 9
 9
 9
 9
 9
 9
 9
 9
 9
 9
 9
 9
 9
 9
 9
 9
 9
 9
 9
 9
 9
 9
 9
 9
 9
 9
 9
 9
 9
 9
 9
 9
 9
 9
 9
 9
 9
 9
 9
 9
 9
 9
 9
 9
 9
 9
 9
 9
 9
 9
 9
 9
 9
 9
 9
 9
 9
 9
 9
 9
 9
 9
 9
 9
 9
 9
 9
 9
 9
 9
 9
 9
 9
 9
 9
 9
 9
 9
 9
 9
 9
 9
 9
 9
 9
 9
 9
 9
 9
 9
 9
 9
 9
 9
 9
 9
 9
 9
 9
 9
 9
 9
 9
 9
 9
 9
 9
 9
 9
 9
 9
 9
 9
 9
 9
 9
 9
 9
 9
 9
 9
 9
 9
 9
 9
 9
 9
 9
 9
 9
 9
 9
 9
 9
 9
 9
 9
 9
 9
 9
 9
 9
 9
 9
 9
 </DataArray>
 </Cells> 
 <PointData>
 <DataArray  type="Float64" Name="disp" NumberOfComponents="3" format="ascii">
   0.0000000000000000        0.0000000000000000        0.0000000000000000     
   6.0944999694342479E-003   3.7873845095304989E-003   0.0000000000000000     
   1.1664154889854358E-002   7.3181647150421629E-003   0.0000000000000000     
   1.6708964761260332E-002   1.0592340616534995E-002   0.0000000000000000     
   2.1228929583652162E-002   1.3609912214008993E-002   0.0000000000000000     
   0.0000000000000000        0.0000000000000000        0.0000000000000000     
   4.8909982521059660E-003   3.0194093465582919E-003   0.0000000000000000     
   9.5738578842158202E-003   6.0550493539362794E-003   0.0000000000000000     
   1.4048578896329562E-002   9.1069200221339606E-003   0.0000000000000000     
   1.8315161288447197E-002   1.2175021351151335E-002   0.0000000000000000     
   0.0000000000000000        0.0000000000000000        0.0000000000000000     
   3.9541769795874001E-003   2.4226410201072259E-003   0.0000000000000000     
   7.9119612273932955E-003   5.0576887358380869E-003   0.0000000000000000     
   1.1873352743417684E-002   7.9051431471925827E-003   0.0000000000000000     
   1.5838351527660565E-002   1.0965004254170714E-002   0.0000000000000000     
   0.0000000000000000        0.0000000000000000        0.0000000000000000     
   3.2840361518785520E-003   1.9970795301772998E-003   0.0000000000000000     
   6.6784649193867831E-003   4.3260828607475871E-003   0.0000000000000000     
   1.0183286302524691E-002   6.9870099917108616E-003   0.0000000000000000     
   1.3798500301292278E-002   9.9798609230671229E-003   0.0000000000000000     
   0.0000000000000000        0.0000000000000000        0.0000000000000000     
   2.8805757689794216E-003   1.7427248767685139E-003   0.0000000000000000     
   5.8733689601962839E-003   3.8602317286647800E-003   0.0000000000000000     
   8.9783795736505852E-003   6.3525205556887983E-003   0.0000000000000000     
   1.2195607609342329E-002   9.2195913578405671E-003   0.0000000000000000     
   2.1228929583652162E-002   1.3609912214008993E-002   0.0000000000000000     
   2.5436682891335223E-002   1.6600082641789575E-002   0.0000000000000000     
   2.9544858218614869E-002   1.9792055034202161E-002   0.0000000000000000     
   3.3553455565491108E-002   2.3185829391246752E-002   0.0000000000000000     
   3.7462474931963939E-002   2.6781405712923347E-002   0.0000000000000000     
   1.8315161288447197E-002   1.2175021351151335E-002   0.0000000000000000     
   2.2412196909578620E-002   1.5326744555145440E-002   0.0000000000000000     
   2.6378277608733739E-002   1.8629480848273299E-002   0.0000000000000000     
   3.0213403385912559E-002   2.2083230230534916E-002   0.0000000000000000     
   3.3917574241115078E-002   2.5687992701930291E-002   0.0000000000000000     
   1.5838351527660565E-002   1.0965004254170714E-002   0.0000000000000000     
   1.9735799885867242E-002   1.4195466135598793E-002   0.0000000000000000     
   2.3494540123783009E-002   1.7554722870303130E-002   0.0000000000000000     
   2.7114572241407869E-002   2.1042774458283727E-002   0.0000000000000000     
   3.0595896238741822E-002   2.4659620899540581E-002   0.0000000000000000     
   1.3798500301292278E-002   9.9798609230671229E-003   0.0000000000000000     
   1.7407491820201092E-002   1.3206247383149636E-002   0.0000000000000000     
   2.0893645763762680E-002   1.6567781100291657E-002   0.0000000000000000     
   2.4256962131977040E-002   2.0064462074493184E-002   0.0000000000000000     
   2.7497440924844185E-002   2.3696290305754222E-002   0.0000000000000000     
   1.2195607609342329E-002   9.2195913578405671E-003   0.0000000000000000     
   1.5427272712580164E-002   1.2359088297797969E-002   0.0000000000000000     
   1.8575594528672749E-002   1.5668655538238874E-002   0.0000000000000000     
   2.1640573057620089E-002   1.9148293079163287E-002   0.0000000000000000     
   2.4622208299422167E-002   2.2798000920571205E-002   0.0000000000000000     
   3.7462474931963939E-002   2.6781405712923347E-002   0.0000000000000000     
   4.1281762378769390E-002   3.0577162546650417E-002   0.0000000000000000     
   4.5021163966643456E-002   3.4571478439846440E-002   0.0000000000000000     
   4.8680679695586176E-002   3.8764353392511407E-002   0.0000000000000000     
   5.2260309565597525E-002   4.3155787404645318E-002   0.0000000000000000     
   3.3917574241115078E-002   2.5687992701930291E-002   0.0000000000000000     
   3.7516136435151323E-002   2.9474281459477843E-002   0.0000000000000000     
   4.1034436228831343E-002   3.3472609700195992E-002   0.0000000000000000     
   4.4472473622155125E-002   3.7682977424084725E-002   0.0000000000000000     
   4.7830248615122681E-002   4.2105384631144070E-002   0.0000000000000000     
   3.0595896238741822E-002   2.4659620899540581E-002   0.0000000000000000     
   3.3967649986807798E-002   2.8450758244403667E-002   0.0000000000000000     
   3.7258971356628742E-002   3.2461682543202940E-002   0.0000000000000000     
   4.0469860348204656E-002   3.6692393795938416E-002   0.0000000000000000     
   4.3600316961535539E-002   4.1142892002610072E-002   0.0000000000000000     
   2.7497440924844185E-002   2.3696290305754222E-002   0.0000000000000000     
   3.0636303033738824E-002   2.7506592901427887E-002   0.0000000000000000     
   3.3694769350035694E-002   3.1538696968867297E-002   0.0000000000000000     
   3.6672839873734764E-002   3.5792602508072452E-002   0.0000000000000000     
   3.9570514604836078E-002   4.0268309519043345E-002   0.0000000000000000     
   2.4622208299422167E-002   2.2798000920571205E-002   0.0000000000000000     
   2.7522095575944393E-002   2.6641785430550499E-002   0.0000000000000000     
   3.0341830209052161E-002   3.0703652977189043E-002   0.0000000000000000     
   3.3081412198745469E-002   3.4983603560486833E-002   0.0000000000000000     
   3.5740841545024306E-002   3.9481637180443875E-002   0.0000000000000000     
   5.2260309565597525E-002   4.3155787404645318E-002   0.0000000000000000     
   5.5757334178063833E-002   4.7759774017750140E-002   0.0000000000000000     
   5.9169034134371433E-002   5.2590306773327829E-002   0.0000000000000000     
   6.2495409434520310E-002   5.7647385671378400E-002   0.0000000000000000     
   6.5736460078510472E-002   6.2931010711901825E-002   0.0000000000000000     
   4.7830248615122681E-002   4.2105384631144070E-002   0.0000000000000000     
   5.1109885256721395E-002   4.6743214779993429E-002   0.0000000000000000     
   5.4313507595938657E-002   5.1599851329252273E-002   0.0000000000000000     
   5.7441115632774438E-002   5.6675294278920582E-002   0.0000000000000000     
   6.0492709367228781E-002   6.1969543628998355E-002   0.0000000000000000     
   4.3600316961535539E-002   4.1142892002610072E-002   0.0000000000000000     
   4.6654337716821370E-002   4.5809726957153775E-002   0.0000000000000000     
   4.9635919134262158E-002   5.0689448453505315E-002   0.0000000000000000     
   5.2545061213857894E-002   5.5782056491664733E-002   0.0000000000000000     
   5.5381763955608579E-002   6.1087551071632010E-002   0.0000000000000000     
   3.9570514604836078E-002   4.0268309519043345E-002   0.0000000000000000     
   4.2390691558363752E-002   4.4959310549231135E-002   0.0000000000000000     
   4.5136268749341950E-002   4.9859098146086980E-002   0.0000000000000000     
   4.7807246177770664E-002   5.4967672309610867E-002   0.0000000000000000     
   5.0403623843649881E-002   6.0285033039802788E-002   0.0000000000000000     
   3.5740841545024306E-002   3.9481637180443875E-002   0.0000000000000000     
   3.8318946781348541E-002   4.4191965556225551E-002   0.0000000000000000     
   4.0814556441178020E-002   4.9108800406997243E-002   0.0000000000000000     
   4.3227670524512728E-002   5.4232141732758962E-002   0.0000000000000000     
   4.5558289031352693E-002   5.9561989533510697E-002   0.0000000000000000     
   6.5736460078510472E-002   6.2931010711901825E-002   0.0000000000000000     
   6.8897389929817768E-002   6.8409420437353555E-002   0.0000000000000000     
   7.1983402851918010E-002   7.4050853390188992E-002   0.0000000000000000     
   7.4994498844811228E-002   7.9855309570408164E-002   0.0000000000000000     
   7.7930677908497392E-002   8.5822788978011016E-002   0.0000000000000000     
   6.0492709367228781E-002   6.1969543628998355E-002   0.0000000000000000     
   6.3471143636386687E-002   6.7458425550030829E-002   0.0000000000000000     
   6.6379273277333228E-002   7.3117766212563259E-002   0.0000000000000000     
   6.9217098290068405E-002   7.8947565616595605E-002   0.0000000000000000     
   7.1984618674592188E-002   8.4947823762127922E-002   0.0000000000000000     
   5.5381763955608579E-002   6.1087551071632010E-002   0.0000000000000000     
   5.8149970031568333E-002   6.6587696214085168E-002   0.0000000000000000     
   6.0853622113791257E-002   7.2264255939702218E-002   0.0000000000000000     
   6.3492720202277378E-002   7.8117230248483174E-002   0.0000000000000000     
   6.6067264297026668E-002   8.4146619140428050E-002   0.0000000000000000     
   5.0403623843649881E-002   6.0285033039802788E-002   0.0000000000000000     
   5.2933869115362679E-002   6.5797232429516531E-002   0.0000000000000000     
   5.5406449361292104E-002   7.1490322571605910E-002   0.0000000000000000     
   5.7821364581438155E-002   7.7364303466070830E-002   0.0000000000000000     
   6.0178614775800825E-002   8.3419175112911401E-002   0.0000000000000000     
   4.5558289031352693E-002   5.9561989533510697E-002   0.0000000000000000     
   4.7822840887769752E-002   6.5087034196324958E-002   0.0000000000000000     
   5.0037755019835761E-002   7.0795966108274266E-002   0.0000000000000000     
   5.2203031427550742E-002   7.6688785269358628E-002   0.0000000000000000     
   5.4318670110914673E-002   8.2765491679578002E-002   0.0000000000000000     
   7.7930677908497392E-002   8.5822788978011016E-002   0.0000000000000000     
   8.0775907265090652E-002   9.1953894782918100E-002   0.0000000000000000     
   8.3514154136705168E-002   9.8249230155049813E-002   0.0000000000000000     
   8.6145418523340941E-002  0.10470879509440620        0.0000000000000000     
   8.8669700424997944E-002  0.11133258960098724        0.0000000000000000     
   7.1984618674592188E-002   8.4947823762127922E-002   0.0000000000000000     
   7.4662389846471056E-002   9.1114332428599926E-002   0.0000000000000000     
   7.7230967221271485E-002   9.7442883395451471E-002   0.0000000000000000     
   7.9690350798993448E-002  0.10393347666268252        0.0000000000000000     
   8.2040540579636972E-002  0.11058611223029308        0.0000000000000000     
   6.6067264297026668E-002   8.4146619140428050E-002   0.0000000000000000     
   6.8555466749143520E-002   9.0344663123375829E-002   0.0000000000000000     
   7.0935539909732309E-002   9.6703602705165578E-002   0.0000000000000000     
   7.3207483778793006E-002  0.10322343788579730        0.0000000000000000     
   7.5371298356325639E-002  0.10990416866527095        0.0000000000000000     
   6.0178614775800825E-002   8.3419175112911401E-002   0.0000000000000000     
   6.2455137973108019E-002   8.9644886867245768E-002   0.0000000000000000     
   6.4627872202087600E-002   9.6031388084192149E-002   0.0000000000000000     
   6.6696817462739574E-002  0.10257867876375051        0.0000000000000000     
   6.8661973755063943E-002  0.10928675890592089        0.0000000000000000     
   5.4318670110914673E-002   8.2765491679578002E-002   0.0000000000000000     
   5.6361403518364571E-002   8.9015003660209743E-002   0.0000000000000000     
   5.8307964098337405E-002   9.5426239532531126E-002   0.0000000000000000     
   6.0158351850833180E-002  0.10199919929654218        0.0000000000000000     
   6.1912566775851899E-002  0.10873388295224287        0.0000000000000000     
   8.8669700424997944E-002  0.11133258960098724        0.0000000000000000     
   9.1099144695858267E-002  0.11812872984264869        0.0000000000000000     
   9.3445896190103933E-002  0.12510533198724622        0.0000000000000000     
   9.5709954907734957E-002  0.13226239603477988        0.0000000000000000     
   9.7891320848751323E-002  0.13959992198524962        0.0000000000000000     
   8.2040540579636972E-002  0.11058611223029308        0.0000000000000000     
   8.4303192034915597E-002  0.11740567587281084        0.0000000000000000     
   8.6499960636542847E-002  0.12439705336476353        0.0000000000000000     
   8.8630846384518763E-002  0.13156024470615116        0.0000000000000000     
   9.0695849278843332E-002  0.13889524989697372        0.0000000000000000     
   7.5371298356325639E-002  0.10990416866527095        0.0000000000000000     
   7.7450061187666203E-002  0.11674684815673758        0.0000000000000000     
   7.9466849818150664E-002  0.12375252947334821        0.0000000000000000     
   8.1421664247779080E-002  0.13092121261510278        0.0000000000000000     
   8.3314504476551379E-002  0.13825289758200138        0.0000000000000000     
   6.8661973755063943E-002  0.10928675890592089        0.0000000000000000     
   7.0539752154110083E-002  0.11615224669442892        0.0000000000000000     
   7.2346563734927413E-002  0.12317176031300021        0.0000000000000000     
   7.4082408497515836E-002  0.13034529976163478        0.0000000000000000     
   7.5747286441875478E-002  0.13767286504033266        0.0000000000000000     
   6.1912566775851899E-002  0.10873388295224287        0.0000000000000000     
   6.3572264934247280E-002  0.11562187148588481        0.0000000000000000     
   6.5139102386873024E-002  0.12265474588371958        0.0000000000000000     
   6.6613079133729144E-002  0.12983250614574718        0.0000000000000000     
   6.7994195174815614E-002  0.13715515227196756        0.0000000000000000     
   9.7891320848751323E-002  0.13959992198524962        0.0000000000000000     
   9.9877932257203622E-002  0.14697425868103214        0.0000000000000000     
  0.10155772737714246       0.15424175496450418        0.0000000000000000     
  0.10293070620856780       0.16140241083566567        0.0000000000000000     
  0.10399686875147966       0.16845622629451670        0.0000000000000000     
   9.0695849278843332E-002  0.13889524989697372        0.0000000000000000     
   9.2633139754441277E-002  0.14632438936443454        0.0000000000000000     
   9.4380888246237277E-002  0.15376998353573709        0.0000000000000000     
   9.5939094754231333E-002  0.16123203241088144        0.0000000000000000     
   9.7307759278423500E-002  0.16871053598986743        0.0000000000000000     
   8.3314504476551379E-002  0.13825289758200138        0.0000000000000000     
   8.5114353998588202E-002  0.14571020322316156        0.0000000000000000     
   8.6790196308010062E-002  0.15325574838770101        0.0000000000000000     
   8.8342031404817001E-002  0.16088953307561973        0.0000000000000000     
   8.9769859289008977E-002  0.16861155728691771        0.0000000000000000     
   7.5747286441875478E-002  0.13767286504033266        0.0000000000000000     
   7.7321574989644426E-002  0.14513170025721323        0.0000000000000000     
   7.8785651562460854E-002  0.15269904952039587        0.0000000000000000     
   8.0139516160324747E-002  0.16037491282988056        0.0000000000000000     
   8.1383168783236107E-002  0.16815929018566747        0.0000000000000000     
   6.7994195174815614E-002  0.13715515227196756        0.0000000000000000     
   6.9254802727609935E-002  0.14458888046658946        0.0000000000000000     
   7.0367254009589597E-002  0.15209988693382165        0.0000000000000000     
   7.1331549020754587E-002  0.15968817167366409        0.0000000000000000     
   7.2147687761104903E-002  0.16735373468611675        0.0000000000000000     
   0.0000000000000000        0.0000000000000000        0.0000000000000000     
   2.8805757689794216E-003   1.7427248767685139E-003   0.0000000000000000     
   5.8733689601962839E-003   3.8602317286647800E-003   0.0000000000000000     
   8.9783795736505852E-003   6.3525205556887983E-003   0.0000000000000000     
   1.2195607609342329E-002   9.2195913578405671E-003   0.0000000000000000     
   0.0000000000000000        0.0000000000000000        0.0000000000000000     
   2.6103180875681753E-003   1.5870302876608898E-003   0.0000000000000000     
   5.2893614681607934E-003   3.5529189487774381E-003   0.0000000000000000     
   8.0371301417778568E-003   5.8976659833496455E-003   0.0000000000000000     
   1.0853624108419360E-002   8.6212713913775118E-003   0.0000000000000000     
   0.0000000000000000        0.0000000000000000        0.0000000000000000     
   2.3397853643229794E-003   1.4574489906344476E-003   0.0000000000000000     
   4.7191305616193086E-003   3.2969281302733335E-003   0.0000000000000000     
   7.1380355918889892E-003   5.5184374189166576E-003   0.0000000000000000     
   9.5965004551320180E-003   8.1219768565644213E-003   0.0000000000000000     
   0.0000000000000000        0.0000000000000000        0.0000000000000000     
   2.0689775992438339E-003   1.3539809856891881E-003   0.0000000000000000     
   4.1626762405718287E-003   3.0922592731524663E-003   0.0000000000000000     
   6.2810959239839852E-003   5.2148348623898355E-003   0.0000000000000000     
   8.4242366494803045E-003   7.7217077534012949E-003   0.0000000000000000     
   0.0000000000000000        0.0000000000000000        0.0000000000000000     
   1.7978947923307387E-003   1.2766262728251107E-003   0.0000000000000000     
   3.6199985050183541E-003   2.9389123774148374E-003   0.0000000000000000     
   5.4663111380628456E-003   4.9868583137691793E-003   0.0000000000000000     
   7.3368326914642146E-003   7.4204640818881368E-003   0.0000000000000000     
   1.2195607609342329E-002   9.2195913578405671E-003   0.0000000000000000     
   1.5427272712580164E-002   1.2359088297797969E-002   0.0000000000000000     
   1.8575594528672749E-002   1.5668655538238874E-002   0.0000000000000000     
   2.1640573057620089E-002   1.9148293079163287E-002   0.0000000000000000     
   2.4622208299422167E-002   2.2798000920571205E-002   0.0000000000000000     
   1.0853624108419360E-002   8.6212713913775118E-003   0.0000000000000000     
   1.3684908870134580E-002   1.1641279039214851E-002   0.0000000000000000     
   1.6477049928972778E-002   1.4875232793215483E-002   0.0000000000000000     
   1.9230047284933955E-002   1.8323132653379405E-002   0.0000000000000000     
   2.1943900938018113E-002   2.1984978619706622E-002   0.0000000000000000     
   9.5965004551320180E-003   8.1219768565644213E-003   0.0000000000000000     
   1.2070166599994447E-002   1.1040109767071354E-002   0.0000000000000000     
   1.4534675475122312E-002   1.4205399474292182E-002   0.0000000000000000     
   1.6990027080515623E-002   1.7617845978226916E-002   0.0000000000000000     
   1.9436221416174369E-002   2.1277449278875551E-002   0.0000000000000000     
   8.4242366494803045E-003   7.7217077534012949E-003   0.0000000000000000     
   1.0583045902159766E-002   1.0555580481367467E-002   0.0000000000000000     
   1.2748471167121361E-002   1.3659155581468975E-002   0.0000000000000000     
   1.4920512444365085E-002   1.7032433053705814E-002   0.0000000000000000     
   1.7099169733890935E-002   2.0675412898077998E-002   0.0000000000000000     
   7.3368326914642146E-003   7.4204640818881368E-003   0.0000000000000000     
   9.2235467766305437E-003   1.0187691182103201E-002   0.0000000000000000     
   1.1118437004969922E-002   1.3236501114745856E-002   0.0000000000000000     
   1.3021503376482346E-002   1.6566893879816108E-002   0.0000000000000000     
   1.4932745891167814E-002   2.0178869477313954E-002   0.0000000000000000     
   2.4622208299422167E-002   2.2798000920571205E-002   0.0000000000000000     
   2.7522095575944393E-002   2.6641785430550499E-002   0.0000000000000000     
   3.0341830209052161E-002   3.0703652977189043E-002   0.0000000000000000     
   3.3081412198745469E-002   3.4983603560486833E-002   0.0000000000000000     
   3.5740841545024306E-002   3.9481637180443875E-002   0.0000000000000000     
   2.1943900938018113E-002   2.1984978619706622E-002   0.0000000000000000     
   2.4599360689242282E-002   2.5860643799161427E-002   0.0000000000000000     
   2.7177176339623493E-002   2.9950001298708132E-002   0.0000000000000000     
   2.9677347889161747E-002   3.4253051118346728E-002   0.0000000000000000     
   3.2099875337857041E-002   3.8769793258077237E-002   0.0000000000000000     
   1.9436221416174369E-002   2.1277449278875551E-002   0.0000000000000000     
   2.1842431449450268E-002   2.5167475974650574E-002   0.0000000000000000     
   2.4177830147695013E-002   2.9271192663964489E-002   0.0000000000000000     
   2.6442417510908624E-002   3.3588599346817294E-002   0.0000000000000000     
   2.8636193539091089E-002   3.8119696023208971E-002   0.0000000000000000     
   1.7099169733890935E-002   2.0675412898077998E-002   0.0000000000000000     
   1.9251307856568343E-002   2.4562281957017946E-002   0.0000000000000000     
   2.1343791633266732E-002   2.8667227072958119E-002   0.0000000000000000     
   2.3376621063986094E-002   3.2990248245898510E-002   0.0000000000000000     
   2.5349796148726435E-002   3.7531345475839112E-002   0.0000000000000000     
   1.4932745891167814E-002   2.0178869477313954E-002   0.0000000000000000     
   1.6825989910596514E-002   2.4045061746263544E-002   0.0000000000000000     
   1.8675060796338627E-002   2.8138104525689021E-002   0.0000000000000000     
   2.0479958548394159E-002   3.2457997815590375E-002   0.0000000000000000     
   2.2240683166763104E-002   3.7004741615967632E-002   0.0000000000000000     
   3.5740841545024306E-002   3.9481637180443875E-002   0.0000000000000000     
   3.8318946781348541E-002   4.4191965556225551E-002   0.0000000000000000     
   4.0814556441178020E-002   4.9108800406997243E-002   0.0000000000000000     
   4.3227670524512728E-002   5.4232141732758962E-002   0.0000000000000000     
   4.5558289031352693E-002   5.9561989533510697E-002   0.0000000000000000     
   3.2099875337857041E-002   3.8769793258077237E-002   0.0000000000000000     
   3.4439424747296131E-002   4.3496058091748384E-002   0.0000000000000000     
   3.6690662179065768E-002   4.8427675993208970E-002   0.0000000000000000     
   3.8853587633165952E-002   5.3564646962458995E-002   0.0000000000000000     
   4.0928201109596676E-002   5.8906970999498438E-002   0.0000000000000000     
   2.8636193539091089E-002   3.8119696023208971E-002   0.0000000000000000     
   3.0752446817726903E-002   4.2859954269411041E-002   0.0000000000000000     
   3.2784465932300576E-002   4.7804845661695031E-002   0.0000000000000000     
   3.4732250882812114E-002   5.2954370200060920E-002   0.0000000000000000     
   3.6595801669261498E-002   5.8308527884508694E-002   0.0000000000000000     
   2.5349796148726435E-002   3.7531345475839112E-002   0.0000000000000000     
   2.7258012992640860E-002   4.2283654089213543E-002   0.0000000000000000     
   2.9095967700882453E-002   4.7240309412455411E-002   0.0000000000000000     
   3.0863660273451221E-002   5.2401311445564723E-002   0.0000000000000000     
   3.2561090710347164E-002   5.7766660188541465E-002   0.0000000000000000     
   2.2240683166763104E-002   3.7004741615967632E-002   0.0000000000000000     
   2.3956123272037999E-002   4.1767157551155856E-002   0.0000000000000000     
   2.5625167484811397E-002   4.6734067245490112E-002   0.0000000000000000     
   2.7247815805083279E-002   5.1905470698970418E-002   0.0000000000000000     
   2.8824068232853661E-002   5.7281367911596770E-002   0.0000000000000000     
   4.5558289031352693E-002   5.9561989533510697E-002   0.0000000000000000     
   4.7822840887769752E-002   6.5087034196324958E-002   0.0000000000000000     
   5.0037755019835761E-002   7.0795966108274266E-002   0.0000000000000000     
   5.2203031427550742E-002   7.6688785269358628E-002   0.0000000000000000     
   5.4318670110914673E-002   8.2765491679578002E-002   0.0000000000000000     
   4.0928201109596676E-002   5.8906970999498438E-002   0.0000000000000000     
   4.2937621698879408E-002   6.4445127338000133E-002   0.0000000000000000     
   4.4904968491535587E-002   7.0169595211636918E-002   0.0000000000000000     
   4.6830241487565219E-002   7.6080374620408758E-002   0.0000000000000000     
   4.8713440686968305E-002   8.2177465564315683E-002   0.0000000000000000     
   3.6595801669261498E-002   5.8308527884508694E-002   0.0000000000000000     
   3.8398947898781503E-002   6.3859537678031722E-002   0.0000000000000000     
   4.0165519178504888E-002   6.9599618543623329E-002   0.0000000000000000     
   4.1895515508431666E-002   7.5528770481283494E-002   0.0000000000000000     
   4.3588936888561823E-002   8.1646993491012274E-002   0.0000000000000000     
   3.2561090710347164E-002   5.7766660188541465E-002   0.0000000000000000     
   3.4206819487476066E-002   6.3330265216419726E-002   0.0000000000000000     
   3.5819407080743708E-002   6.9086036104233514E-002   0.0000000000000000     
   3.7398853490150076E-002   7.5033972851982864E-002   0.0000000000000000     
   3.8945158715695212E-002   8.1174075459667761E-002   0.0000000000000000     
   2.8824068232853661E-002   5.7281367911596770E-002   0.0000000000000000     
   3.0361236464963068E-002   6.2857309953164131E-002   0.0000000000000000     
   3.1866632198252004E-002   6.8628847893467501E-002   0.0000000000000000     
   3.3340255432720477E-002   7.4595981732506839E-002   0.0000000000000000     
   3.4782106168368500E-002   8.0758711470282171E-002   0.0000000000000000     
   5.4318670110914673E-002   8.2765491679578002E-002   0.0000000000000000     
   5.6361403518364571E-002   8.9015003660209743E-002   0.0000000000000000     
   5.8307964098337405E-002   9.5426239532531126E-002   0.0000000000000000     
   6.0158351850833180E-002  0.10199919929654218        0.0000000000000000     
   6.1912566775851899E-002  0.10873388295224287        0.0000000000000000     
   4.8713440686968305E-002   8.2177465564315683E-002   0.0000000000000000     
   5.0531823285892778E-002   8.8449188377182186E-002   0.0000000000000000     
   5.2262646480486563E-002   9.4883863392832793E-002   0.0000000000000000     
   5.3905910270749653E-002  0.10148149061126745        0.0000000000000000     
   5.5461614656682069E-002  0.10824207003248619        0.0000000000000000     
   4.3588936888561823E-002   8.1646993491012274E-002   0.0000000000000000     
   4.5223957176672276E-002   8.7941615893077557E-002   0.0000000000000000     
   4.6778750230539963E-002   9.4399966007747318E-002   0.0000000000000000     
   4.8253316050164877E-002  0.10102204383502152        0.0000000000000000     
   4.9647654635547017E-002  0.10780784937490016        0.0000000000000000     
   3.8945158715695212E-002   8.1174075459667761E-002   0.0000000000000000     
   4.0437805190703058E-002   8.7492286207895842E-002   0.0000000000000000     
   4.1856275348497597E-002   9.3974547377274689E-002   0.0000000000000000     
   4.3200569189078823E-002  0.10062085896780434        0.0000000000000000     
   4.4470686712446750E-002  0.10743122097948477        0.0000000000000000     
   3.4782106168368500E-002   8.0758711470282171E-002   0.0000000000000000     
   3.6173367327985137E-002   8.7101199321637027E-002   0.0000000000000000     
   3.7495221834359480E-002   9.3607607501414947E-002   0.0000000000000000     
   3.8747669687491521E-002  0.10027793600961592        0.0000000000000000     
   3.9930710887381267E-002  0.10711218484623999        0.0000000000000000     
   6.1912566775851899E-002  0.10873388295224287        0.0000000000000000     
   6.3572264934247280E-002  0.11562187148588481        0.0000000000000000     
   6.5139102386873024E-002  0.12265474588371958        0.0000000000000000     
   6.6613079133729144E-002  0.12983250614574718        0.0000000000000000     
   6.7994195174815614E-002  0.13715515227196756        0.0000000000000000     
   5.5461614656682069E-002  0.10824207003248619        0.0000000000000000     
   5.6917638464141870E-002  0.11515274373675367        0.0000000000000000     
   5.8261860518987130E-002  0.12220065380433452        0.0000000000000000     
   5.9494280821217854E-002  0.12938580023522872        0.0000000000000000     
   6.0614899370834044E-002  0.13670818302943624        0.0000000000000000     
   4.9647654635547017E-002  0.10780784937490016        0.0000000000000000     
   5.0945911679857958E-002  0.11474188465268391        0.0000000000000000     
   5.2132232876269280E-002  0.12180865169367328        0.0000000000000000     
   5.3206618224780976E-002  0.12900815049786829        0.0000000000000000     
   5.4169067725393046E-002  0.13634038106526900        0.0000000000000000     
   4.4470686712446750E-002  0.10743122097948477        0.0000000000000000     
   4.5657084581395564E-002  0.11438929423367546        0.0000000000000000     
   4.6750219458719475E-002  0.12147873955173584        0.0000000000000000     
   4.7750091344418495E-002  0.12869955693366594        0.0000000000000000     
   4.8656700238492598E-002  0.13605174637946571        0.0000000000000000     
   3.9930710887381267E-002  0.10711218484623999        0.0000000000000000     
   4.1051157168754682E-002  0.11409497247972833        0.0000000000000000     
   4.2115820266337721E-002  0.12121091737852220        0.0000000000000000     
   4.3124700180130406E-002  0.12846001954262160        0.0000000000000000     
   4.4077796910132708E-002  0.13584227897202650        0.0000000000000000     
   6.7994195174815614E-002  0.13715515227196756        0.0000000000000000     
   6.9254802727609935E-002  0.14458888046658946        0.0000000000000000     
   7.0367254009589597E-002  0.15209988693382165        0.0000000000000000     
   7.1331549020754587E-002  0.15968817167366409        0.0000000000000000     
   7.2147687761104903E-002  0.16735373468611675        0.0000000000000000     
   6.0614899370834044E-002  0.13670818302943624        0.0000000000000000     
   6.1581747840763396E-002  0.14411680287305353        0.0000000000000000     
   6.2352857903933599E-002  0.15156066045217687        0.0000000000000000     
   6.2928229560344634E-002  0.15903975576680632        0.0000000000000000     
   6.3307862809996521E-002  0.16655408881694181        0.0000000000000000     
   5.4169067725393046E-002  0.13634038106526900        0.0000000000000000     
   5.4970120957383427E-002  0.14375052649836845        0.0000000000000000     
   5.5560317500030078E-002  0.15118376989966001        0.0000000000000000     
   5.5939657353332992E-002  0.15864011126914349        0.0000000000000000     
   5.6108140517292161E-002  0.16611955060681896        0.0000000000000000     
   4.8656700238492598E-002  0.13605174637946571        0.0000000000000000     
   4.9419922077470042E-002  0.14349005134253437        0.0000000000000000     
   4.9989632797879061E-002  0.15096921527627102        0.0000000000000000     
   5.0365832399719646E-002  0.15848923818067565        0.0000000000000000     
   5.0548520882991825E-002  0.16605012005574823        0.0000000000000000     
   4.4077796910132708E-002  0.13584227897202650        0.0000000000000000     
   4.4931151201023228E-002  0.14333537740555119        0.0000000000000000     
   4.5640803797480520E-002  0.15091699658200994        0.0000000000000000     
   4.6206754699504617E-002  0.15858713650140271        0.0000000000000000     
   4.6629003907095498E-002  0.16634579716372955        0.0000000000000000     
   0.0000000000000000        0.0000000000000000        0.0000000000000000     
   1.7978947923307387E-003   1.2766262728251107E-003   0.0000000000000000     
   3.6199985050183541E-003   2.9389123774148374E-003   0.0000000000000000     
   5.4663111380628456E-003   4.9868583137691793E-003   0.0000000000000000     
   7.3368326914642146E-003   7.4204640818881368E-003   0.0000000000000000     
   0.0000000000000000        0.0000000000000000        0.0000000000000000     
   1.5346946731539998E-003   1.2181129755801424E-003   0.0000000000000000     
   3.0982319070729080E-003   2.8221062900974530E-003   0.0000000000000000     
   4.6906117017567247E-003   4.8119799435519320E-003   0.0000000000000000     
   6.3118340572054501E-003   7.1877339359435778E-003   0.0000000000000000     
   0.0000000000000000        0.0000000000000000        0.0000000000000000     
   1.2875349712839225E-003   1.1711692174922097E-003   0.0000000000000000     
   2.6045109988495152E-003   2.7270598582373219E-003   0.0000000000000000     
   3.9509280826967776E-003   4.6676719222353375E-003   0.0000000000000000     
   5.3267862228257102E-003   6.9930054094862531E-003   0.0000000000000000     
   0.0000000000000000        0.0000000000000000        0.0000000000000000     
   1.0564156867205066E-003   1.1357949985613129E-003   0.0000000000000000     
   2.1388357803481754E-003   2.6537730818344441E-003   0.0000000000000000     
   3.2472602808830044E-003   4.5539342498193943E-003   0.0000000000000000     
   4.3816891883249956E-003   6.8362785025161618E-003   0.0000000000000000     
   0.0000000000000000        0.0000000000000000        0.0000000000000000     
   8.4133681946375210E-004   1.1119903187874517E-003   0.0000000000000000     
   1.7012062515688871E-003   2.6022459608888195E-003   0.0000000000000000     
   2.5796082963154047E-003   4.4707669263041039E-003   0.0000000000000000     
   3.4765429537033051E-003   6.7175532150333048E-003   0.0000000000000000     
   7.3368326914642146E-003   7.4204640818881368E-003   0.0000000000000000     
   9.2235467766305437E-003   1.0187691182103201E-002   0.0000000000000000     
   1.1118437004969922E-002   1.3236501114745856E-002   0.0000000000000000     
   1.3021503376482346E-002   1.6566893879816108E-002   0.0000000000000000     
   1.4932745891167814E-002   2.0178869477313954E-002   0.0000000000000000     
   6.3118340572054501E-003   7.1877339359435778E-003   0.0000000000000000     
   7.9493035179664506E-003   9.9003946669219429E-003   0.0000000000000000     
   9.5904246285870905E-003   1.2900988536136568E-002   0.0000000000000000     
   1.1235197389067371E-002   1.6189515543587458E-002   0.0000000000000000     
   1.2883621799407295E-002   1.9765975689274615E-002   0.0000000000000000     
   5.3267862228257102E-003   6.9930054094862531E-003   0.0000000000000000     
   6.7179504207271592E-003   9.6576437334670862E-003   0.0000000000000000     
   8.1102856778919683E-003   1.2616170307654849E-002   0.0000000000000000     
   9.5037919943201411E-003   1.5868585132049536E-002   0.0000000000000000     
   1.0898469370011673E-002   1.9414888206651160E-002   0.0000000000000000     
   4.3816891883249956E-003   6.8362785025161618E-003   0.0000000000000000     
   5.5294874849126721E-003   9.4594383817386343E-003   0.0000000000000000     
   6.6780201528845546E-003   1.2382046429300695E-002   0.0000000000000000     
   7.8272871922406458E-003   1.5604102645202346E-002   0.0000000000000000     
   8.9772886029809481E-003   1.9125607029443586E-002   0.0000000000000000     
   3.4765429537033051E-003   6.7175532150333048E-003   0.0000000000000000     
   4.3839147105229877E-003   9.3057786117365839E-003   0.0000000000000000     
   5.2936280535648503E-003   1.2198616901074110E-002   0.0000000000000000     
   6.2056829828288935E-003   1.5396068083045880E-002   0.0000000000000000     
   7.1200794983151171E-003   1.8898132157651893E-002   0.0000000000000000     
   1.4932745891167814E-002   2.0178869477313954E-002   0.0000000000000000     
   1.6825989910596514E-002   2.4045061746263544E-002   0.0000000000000000     
   1.8675060796338627E-002   2.8138104525689021E-002   0.0000000000000000     
   2.0479958548394159E-002   3.2457997815590375E-002   0.0000000000000000     
   2.2240683166763104E-002   3.7004741615967632E-002   0.0000000000000000     
   1.2883621799407295E-002   1.9765975689274615E-002   0.0000000000000000     
   1.4519501892480786E-002   2.3604725305096004E-002   0.0000000000000000     
   1.6126641701161775E-002   2.7680120722949619E-002   0.0000000000000000     
   1.7705041225450257E-002   3.1992161942835447E-002   0.0000000000000000     
   1.9254700465346237E-002   3.6540848964753486E-002   0.0000000000000000     
   1.0898469370011673E-002   1.9414888206651160E-002   0.0000000000000000     
   1.2284868083167168E-002   2.3230182596223996E-002   0.0000000000000000     
   1.3653538411987218E-002   2.7289571365532353E-002   0.0000000000000000     
   1.5004480356471832E-002   3.1593054514576224E-002   0.0000000000000000     
   1.6337693916621002E-002   3.6140632043355603E-002   0.0000000000000000     
   8.9772886029809481E-003   1.9125607029443586E-002   0.0000000000000000     
   1.0122088482655653E-002   2.2921433619647508E-002   0.0000000000000000     
   1.1255750928814963E-002   2.6966456453437215E-002   0.0000000000000000     
   1.2378275941458879E-002   3.1260675530812708E-002   0.0000000000000000     
   1.3489663520587399E-002   3.5804090851773981E-002   0.0000000000000000     
   7.1200794983151171E-003   1.8898132157651893E-002   0.0000000000000000     
   8.0311630909462479E-003   2.2678478375366545E-002   0.0000000000000000     
   8.9332792516450092E-003   2.6710775986664218E-002   0.0000000000000000     
   9.8264279804114018E-003   3.0995024991544915E-002   0.0000000000000000     
   1.0710609277245427E-002   3.5531225390008629E-002   0.0000000000000000     
   2.2240683166763104E-002   3.7004741615967632E-002   0.0000000000000000     
   2.3956123272037999E-002   4.1767157551155856E-002   0.0000000000000000     
   2.5625167484811397E-002   4.6734067245490112E-002   0.0000000000000000     
   2.7247815805083279E-002   5.1905470698970418E-002   0.0000000000000000     
   2.8824068232853661E-002   5.7281367911596770E-002   0.0000000000000000     
   1.9254700465346237E-002   3.6540848964753486E-002   0.0000000000000000     
   2.0778561608206847E-002   4.1310485181508851E-002   0.0000000000000000     
   2.2279566841389226E-002   4.6285373985906639E-002   0.0000000000000000     
   2.3757716164893382E-002   5.1465515377946865E-002   0.0000000000000000     
   2.5213009578719310E-002   5.6850909357629507E-002   0.0000000000000000     
   1.6337693916621002E-002   3.6140632043355603E-002   0.0000000000000000     
   1.7657111953435924E-002   4.0913657506543397E-002   0.0000000000000000     
   1.8966667327917793E-002   4.5893484458812493E-002   0.0000000000000000     
   2.0266360040066621E-002   5.1080112900162893E-002   0.0000000000000000     
   2.1556190089882386E-002   5.6473542830594602E-002   0.0000000000000000     
   1.3489663520587399E-002   3.5804090851773981E-002   0.0000000000000000     
   1.4591774307725233E-002   4.0576674526259481E-002   0.0000000000000000     
   1.5686468944397097E-002   4.5558398664207668E-002   0.0000000000000000     
   1.6773747430602989E-002   5.0749263265618530E-002   0.0000000000000000     
   1.7853609766342909E-002   5.6149268330492046E-002   0.0000000000000000     
   1.0710609277245427E-002   3.5531225390008629E-002   0.0000000000000000     
   1.1582548671074774E-002   4.0299536240657130E-002   0.0000000000000000     
   1.2438971690827128E-002   4.5280116602092177E-002   0.0000000000000000     
   1.3279878336502491E-002   5.0472966474313742E-002   0.0000000000000000     
   1.4105268608100864E-002   5.5878085857321860E-002   0.0000000000000000     
   2.8824068232853661E-002   5.7281367911596770E-002   0.0000000000000000     
   3.0361236464963068E-002   6.2857309953164131E-002   0.0000000000000000     
   3.1866632198252004E-002   6.8628847893467501E-002   0.0000000000000000     
   3.3340255432720477E-002   7.4595981732506839E-002   0.0000000000000000     
   3.4782106168368500E-002   8.0758711470282171E-002   0.0000000000000000     
   2.5213009578719310E-002   5.6850909357629507E-002   0.0000000000000000     
   2.6641607356399477E-002   6.2438237201520662E-002   0.0000000000000000     
   2.8039669771466356E-002   6.8224180186186409E-002   0.0000000000000000     
   2.9407196823919950E-002   7.4208738311626762E-002   0.0000000000000000     
   3.0744188513760262E-002   8.0391911577841701E-002   0.0000000000000000     
   2.1556190089882386E-002   5.6473542830594602E-002   0.0000000000000000     
   2.2827340686942237E-002   6.2070612274744995E-002   0.0000000000000000     
   2.4070995040823311E-002   6.7868159257251440E-002   0.0000000000000000     
   2.5287153151525590E-002   7.3866183778113978E-002   0.0000000000000000     
   2.6475815019049095E-002   8.0064685837332547E-002   0.0000000000000000     
   1.7853609766342909E-002   5.6149268330492046E-002   0.0000000000000000     
   1.8918436456591362E-002   6.1754435172837123E-002   0.0000000000000000     
   1.9960608006322864E-002   6.7560785106662594E-002   0.0000000000000000     
   2.0980124415537413E-002   7.3568318131968485E-002   0.0000000000000000     
   2.1976985684235010E-002   7.9777034248754750E-002   0.0000000000000000     
   1.4105268608100864E-002   5.5878085857321860E-002   0.0000000000000000     
   1.4914894665346842E-002   6.1489705895797046E-002   0.0000000000000000     
   1.5708508667965023E-002   6.7302057734419843E-002   0.0000000000000000     
   1.6486110615955413E-002   7.3315141373190271E-002   0.0000000000000000     
   1.7247700509318002E-002   7.9528956812108281E-002   0.0000000000000000     
   3.4782106168368500E-002   8.0758711470282171E-002   0.0000000000000000     
   3.6173367327985137E-002   8.7101199321637027E-002   0.0000000000000000     
   3.7495221834359480E-002   9.3607607501414947E-002   0.0000000000000000     
   3.8747669687491521E-002  0.10027793600961592        0.0000000000000000     
   3.9930710887381267E-002  0.10711218484623999        0.0000000000000000     
   3.0744188513760262E-002   8.0391911577841701E-002   0.0000000000000000     
   3.2033903438203642E-002   8.6756230538053869E-002   0.0000000000000000     
   3.3259600194466471E-002   9.3284225745485963E-002   0.0000000000000000     
   3.4421278782548734E-002   9.9975897200137956E-002   0.0000000000000000     
   3.5518939202450431E-002  0.10683124490200985        0.0000000000000000     
   2.6475815019049095E-002   8.0064685837332547E-002   0.0000000000000000     
   2.7622673371043745E-002   8.6445255160899126E-002   0.0000000000000000     
   2.8713420935159460E-002   9.2989481474805624E-002   0.0000000000000000     
   2.9748057711396252E-002   9.9697364779052014E-002   0.0000000000000000     
   3.0726583699754111E-002  0.10656890507363830        0.0000000000000000     
   2.1976985684235010E-002   7.9777034248754750E-002   0.0000000000000000     
   2.2939677126505433E-002   8.6168273190172798E-002   0.0000000000000000     
   2.3856684056438451E-002   9.2723374689373902E-002   0.0000000000000000     
   2.4728006474034080E-002   9.9442338746358133E-002   0.0000000000000000     
   2.5553644379292306E-002  0.10632516536112542        0.0000000000000000     
   1.7247700509318002E-002   7.9528956812108281E-002   0.0000000000000000     
   1.7984914704588708E-002   8.5925284625874843E-002   0.0000000000000000     
   1.8689389558303446E-002   9.2485905389190839E-002   0.0000000000000000     
   1.9361125070462212E-002   9.9210819102056272E-002   0.0000000000000000     
   2.0000121241065014E-002  0.10610002576447114        0.0000000000000000     
   3.9930710887381267E-002  0.10711218484623999        0.0000000000000000     
   4.1051157168754682E-002  0.11409497247972833        0.0000000000000000     
   4.2115820266337721E-002  0.12121091737852220        0.0000000000000000     
   4.3124700180130406E-002  0.12846001954262160        0.0000000000000000     
   4.4077796910132708E-002  0.13584227897202650        0.0000000000000000     
   3.5518939202450431E-002  0.10683124490200985        0.0000000000000000     
   3.6575336396722141E-002  0.11383662052773456        0.0000000000000000     
   3.7613225307914444E-002  0.12097837575394500        0.0000000000000000     
   3.8632605936027346E-002  0.12825651058064119        0.0000000000000000     
   3.9633478281060827E-002  0.13567102500782308        0.0000000000000000     
   3.0726583699754111E-002  0.10656890507363830        0.0000000000000000     
   3.1676829220084801E-002  0.11359193951458607        0.0000000000000000     
   3.2626624592240083E-002  0.12075430525791683        0.0000000000000000     
   3.3575969816219943E-002  0.12805600230363059        0.0000000000000000     
   3.4524864892024401E-002  0.13549703065172727        0.0000000000000000     
   2.5553644379292306E-002  0.10632516536112542        0.0000000000000000     
   2.6355635638842641E-002  0.11336092944028292        0.0000000000000000     
   2.7156018119314611E-002  0.12053870589043768        0.0000000000000000     
   2.7954791820708206E-002  0.12785849471158975        0.0000000000000000     
   2.8751956743023433E-002  0.13532029590373912        0.0000000000000000     
   2.0000121241065014E-002  0.10610002576447114        0.0000000000000000     
   2.0611755652995681E-002  0.11314359030482507        0.0000000000000000     
   2.1201405889138054E-002  0.12033157765150759        0.0000000000000000     
   2.1769071949492132E-002  0.12766398780451876        0.0000000000000000     
   2.2314753834057916E-002  0.13514082076385855        0.0000000000000000     
   4.4077796910132708E-002  0.13584227897202650        0.0000000000000000     
   4.4931151201023228E-002  0.14333537740555119        0.0000000000000000     
   4.5640803797480520E-002  0.15091699658200994        0.0000000000000000     
   4.6206754699504617E-002  0.15858713650140271        0.0000000000000000     
   4.6629003907095498E-002  0.16634579716372955        0.0000000000000000     
   3.9633478281060827E-002  0.13567102500782308        0.0000000000000000     
   4.0580684653359025E-002  0.14322371734145975        0.0000000000000000     
   4.1439067363266080E-002  0.15091638588752021        0.0000000000000000     
   4.2208626410781970E-002  0.15874903064600443        0.0000000000000000     
   4.2889361795906709E-002  0.16672165161691244        0.0000000000000000     
   3.4524864892024401E-002  0.13549703065172727        0.0000000000000000     
   3.5445398759793502E-002  0.14309228380430095        0.0000000000000000     
   3.6309660359667296E-002  0.15085665526344533        0.0000000000000000     
   3.7117649691645792E-002  0.15879014502916045        0.0000000000000000     
   3.7869366755728995E-002  0.16689275310144641        0.0000000000000000     
   2.8751956743023433E-002  0.13532029590373912        0.0000000000000000     
   2.9525293520326640E-002  0.14294107679407461        0.0000000000000000     
   3.0252582786684201E-002  0.15073780470978518        0.0000000000000000     
   3.0933824542096099E-002  0.15871047965087076        0.0000000000000000     
   3.1569018786562354E-002  0.16685910161733136        0.0000000000000000     
   2.2314753834057916E-002  0.13514082076385855        0.0000000000000000     
   2.2820368934958448E-002  0.14277009631078097        0.0000000000000000     
   2.3267834644316768E-002  0.15055983422653987        0.0000000000000000     
   2.3657150962132875E-002  0.15851003451113538        0.0000000000000000     
   2.3988317888406770E-002  0.16662069716456740        0.0000000000000000     
   0.0000000000000000        0.0000000000000000        0.0000000000000000     
   8.4133681946375210E-004   1.1119903187874517E-003   0.0000000000000000     
   1.7012062515688871E-003   2.6022459608888195E-003   0.0000000000000000     
   2.5796082963154047E-003   4.4707669263041039E-003   0.0000000000000000     
   3.4765429537033051E-003   6.7175532150333048E-003   0.0000000000000000     
   0.0000000000000000        0.0000000000000000        0.0000000000000000     
   6.3345927429465541E-004   1.0962228973665218E-003   0.0000000000000000     
   1.2771758479070518E-003   2.5666795793239353E-003   0.0000000000000000     
   1.9311497208371899E-003   4.4113700458722413E-003   0.0000000000000000     
   2.5953808930850681E-003   6.6302942970114399E-003   0.0000000000000000     
   0.0000000000000000        0.0000000000000000        0.0000000000000000     
   4.2394395599421275E-004   1.0849604534944189E-003   0.0000000000000000     
   8.5229800475806930E-004   2.5412750210632796E-003   0.0000000000000000     
   1.2850621462915696E-003   4.3689437027065806E-003   0.0000000000000000     
   1.7222363805947140E-003   6.5679664984243241E-003   0.0000000000000000     
   0.0000000000000000        0.0000000000000000        0.0000000000000000     
   2.1279086456242423E-004   1.0782029871711425E-003   0.0000000000000000     
   4.2657272212193924E-004   2.5260322861068501E-003   0.0000000000000000     
   6.4134557267854486E-004   4.3434878968071234E-003   0.0000000000000000     
   8.5710941623224138E-004   6.5305698192719619E-003   0.0000000000000000     
   0.0000000000000000        0.0000000000000000        0.0000000000000000     
  -7.1020663308662968E-016   1.0759504983966933E-003   0.0000000000000000     
  -1.3383391617161067E-015   2.5209513744546492E-003   0.0000000000000000     
  -1.8846144263229281E-015   4.3350026281738672E-003   0.0000000000000000     
  -2.3488969016355332E-015   6.5181042595543479E-003   0.0000000000000000     
   3.4765429537033051E-003   6.7175532150333048E-003   0.0000000000000000     
   4.3839147105229877E-003   9.3057786117365839E-003   0.0000000000000000     
   5.2936280535648503E-003   1.2198616901074110E-002   0.0000000000000000     
   6.2056829828288935E-003   1.5396068083045880E-002   0.0000000000000000     
   7.1200794983151171E-003   1.8898132157651893E-002   0.0000000000000000     
   2.5953808930850681E-003   6.6302942970114399E-003   0.0000000000000000     
   3.2668242708571694E-003   9.1908150049900376E-003   0.0000000000000000     
   3.9424347603599736E-003   1.2060294842056545E-002   0.0000000000000000     
   4.6222123615934814E-003   1.5238733808210966E-002   0.0000000000000000     
   5.3061570745576922E-003   1.8726131903453295E-002   0.0000000000000000     
   1.7222363805947140E-003   6.5679664984243241E-003   0.0000000000000000     
   2.1638083392142805E-003   9.1086981430280878E-003   0.0000000000000000     
   2.6097656536970470E-003   1.1961493371329453E-002   0.0000000000000000     
   3.0601083240430144E-003   1.5126352183328418E-002   0.0000000000000000     
   3.5148363502521822E-003   1.8603274579024984E-002   0.0000000000000000     
   8.5710941623224138E-004   6.5305698192719619E-003   0.0000000000000000     
   1.0748669155943196E-003   9.0594280258507378E-003   0.0000000000000000     
   1.2956207335760694E-003   1.1902212488892833E-002   0.0000000000000000     
   1.5193708701774916E-003   1.5058923208398240E-002   0.0000000000000000     
   1.7461173253985863E-003   1.8529560184366963E-002   0.0000000000000000     
  -2.3488969016355332E-015   6.5181042595543479E-003   0.0000000000000000     
  -2.7129719911561656E-015   9.0430046534579877E-003   0.0000000000000000     
  -2.9587267423407393E-015   1.1882452194746682E-002   0.0000000000000000     
  -3.0859493969524407E-015   1.5036446883420432E-002   0.0000000000000000     
  -3.0950719417943695E-015   1.8504988719479237E-002   0.0000000000000000     
   7.1200794983151171E-003   1.8898132157651893E-002   0.0000000000000000     
   8.0311630909462479E-003   2.2678478375366545E-002   0.0000000000000000     
   8.9332792516450092E-003   2.6710775986664218E-002   0.0000000000000000     
   9.8264279804114018E-003   3.0995024991544915E-002   0.0000000000000000     
   1.0710609277245427E-002   3.5531225390008629E-002   0.0000000000000000     
   5.3061570745576922E-003   1.8726131903453295E-002   0.0000000000000000     
   5.9879666822807423E-003   2.2494677294499475E-002   0.0000000000000000     
   6.6613389677907670E-003   2.6516558148065451E-002   0.0000000000000000     
   7.3262739310877671E-003   3.0791774464151225E-002   0.0000000000000000     
   7.9827715721717419E-003   3.5320326242756786E-002   0.0000000000000000     
   3.5148363502521822E-003   1.8603274579024984E-002   0.0000000000000000     
   3.9683740309009339E-003   2.2363390808164681E-002   0.0000000000000000     
   4.4151456645656548E-003   2.6377831120493026E-002   0.0000000000000000     
   4.8551512512463426E-003   3.0646595516010035E-002   0.0000000000000000     
   5.2883907909430008E-003   3.5169683994715699E-002   0.0000000000000000     
   1.7461173253985863E-003   1.8529560184366963E-002   0.0000000000000000     
   1.9723851368068221E-003   2.2284618916362155E-002   0.0000000000000000     
   2.1946993419696696E-003   2.6294594903946946E-002   0.0000000000000000     
   2.4130599408871294E-003   3.0559488147121349E-002   0.0000000000000000     
   2.6274669335591993E-003   3.5079298645885361E-002   0.0000000000000000     
  -3.0950719417943695E-015   1.8504988719479237E-002   0.0000000000000000     
  -1.5931808823588245E-015   2.2258361619091900E-002   0.0000000000000000     
   2.8141280538490632E-015   2.6266849498427204E-002   0.0000000000000000     
   1.0125140472144051E-014   3.0530452357485166E-002   0.0000000000000000     
   2.0340283277131554E-014   3.5049170196265779E-002   0.0000000000000000     
   1.0710609277245427E-002   3.5531225390008629E-002   0.0000000000000000     
   1.1582548671074774E-002   4.0299536240657130E-002   0.0000000000000000     
   1.2438971690827128E-002   4.5280116602092177E-002   0.0000000000000000     
   1.3279878336502491E-002   5.0472966474313742E-002   0.0000000000000000     
   1.4105268608100864E-002   5.5878085857321860E-002   0.0000000000000000     
   7.9827715721717419E-003   3.5320326242756786E-002   0.0000000000000000     
   8.6227621550444573E-003   4.0083222294676028E-002   0.0000000000000000     
   9.2381759437076775E-003   4.5061471430702819E-002   0.0000000000000000     
   9.8290129381613973E-003   5.0255073650837159E-002   0.0000000000000000     
   1.0395273138405627E-002   5.5664028955079041E-002   0.0000000000000000     
   5.2883907909430008E-003   3.5169683994715699E-002   0.0000000000000000     
   5.7057418711942047E-003   3.9928712333255879E-002   0.0000000000000000     
   6.0980820795385332E-003   4.4905296308276423E-002   0.0000000000000000     
   6.4654114159759845E-003   5.0099435919777335E-002   0.0000000000000000     
   6.8077298805065628E-003   5.5511131167758611E-002   0.0000000000000000     
   2.6274669335591993E-003   3.5079298645885361E-002   0.0000000000000000     
   2.8314878195240113E-003   3.9836006356396676E-002   0.0000000000000000     
   3.0186900983196945E-003   4.4811591234812986E-002   0.0000000000000000     
   3.1890737699462484E-003   5.0006053281134270E-002   0.0000000000000000     
   3.3426388344036731E-003   5.5419392495360570E-002   0.0000000000000000     
   2.0340283277131554E-014   3.5049170196265779E-002   0.0000000000000000     
   3.3879908427347782E-014   3.9805104364098433E-002   0.0000000000000000     
   5.1162904208396087E-014   4.4780356210312504E-002   0.0000000000000000     
   7.2188525231282885E-014   4.9974925734907999E-002   0.0000000000000000     
   9.6957381359730199E-014   5.5388812937884918E-002   0.0000000000000000     
   1.4105268608100864E-002   5.5878085857321860E-002   0.0000000000000000     
   1.4914894665346842E-002   6.1489705895797046E-002   0.0000000000000000     
   1.5708508667965023E-002   6.7302057734419843E-002   0.0000000000000000     
   1.6486110615955413E-002   7.3315141373190271E-002   0.0000000000000000     
   1.7247700509318002E-002   7.9528956812108281E-002   0.0000000000000000     
   1.0395273138405627E-002   5.5664028955079041E-002   0.0000000000000000     
   1.0944568320001348E-002   6.1280576201765524E-002   0.0000000000000000     
   1.1484510258509559E-002   6.7096954249233662E-002   0.0000000000000000     
   1.2015098953930256E-002   7.3113163097483447E-002   0.0000000000000000     
   1.2536334406263439E-002   7.9329202746514865E-002   0.0000000000000000     
   6.8077298805065628E-003   5.5511131167758611E-002   0.0000000000000000     
   7.1353104273475512E-003   6.1131197848883309E-002   0.0000000000000000     
   7.4584260107162367E-003   6.6950451759814469E-002   0.0000000000000000     
   7.7770766306126194E-003   7.2968892900552099E-002   0.0000000000000000     
   8.0912622870366983E-003   7.9186521271096169E-002   0.0000000000000000     
   3.3426388344036731E-003   5.5419392495360570E-002   0.0000000000000000     
   3.4871209873854505E-003   6.1041570837150401E-002   0.0000000000000000     
   3.6302559245850602E-003   6.6862550266162279E-002   0.0000000000000000     
   3.7720436460025025E-003   7.2882330782396226E-002   0.0000000000000000     
   3.9124841516377786E-003   7.9100912385852207E-002   0.0000000000000000     
   9.6957381359730199E-014   5.5388812937884918E-002   0.0000000000000000     
   1.1504599356504386E-013   6.1011695166566779E-002   0.0000000000000000     
   1.1602882283440197E-013   6.6833249768277078E-002   0.0000000000000000     
   9.9906872054814078E-014   7.2853476743015816E-002   0.0000000000000000     
   6.6679517810031008E-014   7.9072376090783006E-002   0.0000000000000000     
   1.7247700509318002E-002   7.9528956812108281E-002   0.0000000000000000     
   1.7984914704588708E-002   8.5925284625874843E-002   0.0000000000000000     
   1.8689389558303446E-002   9.2485905389190839E-002   0.0000000000000000     
   1.9361125070462212E-002   9.9210819102056272E-002   0.0000000000000000     
   2.0000121241065014E-002  0.10610002576447114        0.0000000000000000     
   1.2536334406263439E-002   7.9329202746514865E-002   0.0000000000000000     
   1.3042873402598317E-002   8.5727541747430192E-002   0.0000000000000000     
   1.3529372730024100E-002   9.2290648651331686E-002   0.0000000000000000     
   1.3995832388540781E-002   9.9018523458219390E-002   0.0000000000000000     
   1.4442252378148369E-002  0.10591116616809323        0.0000000000000000     
   8.0912622870366983E-003   7.9186521271096169E-002   0.0000000000000000     
   8.3980405178390068E-003   8.5586296834263734E-002   0.0000000000000000     
   8.6944688608700787E-003   9.2151179552871790E-002   0.0000000000000000     
   8.9805473161299106E-003   9.8881169426920337E-002   0.0000000000000000     
   9.2562758836185061E-003  0.10577626645640936        0.0000000000000000     
   3.9124841516377786E-003   7.9100912385852207E-002   0.0000000000000000     
   4.0504160503107749E-003   8.5501549886375469E-002   0.0000000000000000     
   4.1846779508413808E-003   9.2067498093811109E-002   0.0000000000000000     
   4.3152698532295955E-003   9.8798757008159141E-002   0.0000000000000000     
   4.4421917574754208E-003  0.10569532662941961        0.0000000000000000     
   6.6679517810031008E-014   7.9072376090783006E-002   0.0000000000000000     
   1.3621482414238884E-014   8.5473300903765370E-002   0.0000000000000000     
  -6.1990939725226069E-014   9.2039604274149631E-002   0.0000000000000000     
  -1.6016012030061616E-013   9.8771286201935815E-002   0.0000000000000000     
  -2.8088469050668863E-013  0.10566834668712390        0.0000000000000000     
   2.0000121241065014E-002  0.10610002576447114        0.0000000000000000     
   2.0611755652995681E-002  0.11314359030482507        0.0000000000000000     
   2.1201405889138054E-002  0.12033157765150759        0.0000000000000000     
   2.1769071949492132E-002  0.12766398780451876        0.0000000000000000     
   2.2314753834057916E-002  0.13514082076385855        0.0000000000000000     
   1.4442252378148369E-002  0.10591116616809323        0.0000000000000000     
   1.4857103533545021E-002  0.11295939959705106        0.0000000000000000     
   1.5228856689428902E-002  0.12015404656119080        0.0000000000000000     
   1.5557511845800008E-002  0.12749510706051237        0.0000000000000000     
   1.5843069002658340E-002  0.13498258109501582        0.0000000000000000     
   9.2562758836185061E-003  0.10577626645640936        0.0000000000000000     
   9.5035935514917805E-003  0.11282783480579958        0.0000000000000000     
   9.7044393079056511E-003  0.12002723863955160        0.0000000000000000     
   9.8588131528601197E-003  0.12737447795766541        0.0000000000000000     
   9.9667150863551861E-003  0.13486955276014106        0.0000000000000000     
   4.4421917574754208E-003  0.10569532662941961        0.0000000000000000     
   4.5512257068359568E-003  0.11274889593107051        0.0000000000000000     
   4.6281537445683084E-003  0.11995115388658997        0.0000000000000000     
   4.6729758706724718E-003  0.12730210049597787        0.0000000000000000     
   4.6856920851484499E-003  0.13480173575923438        0.0000000000000000     
  -2.8088469050668863E-013  0.10566834668712390        0.0000000000000000     
  -4.2244788396594846E-013  0.11272258297286393        0.0000000000000000     
  -5.8313250062003164E-013  0.11992579230230589        0.0000000000000000     
  -7.6293767310720018E-013  0.12727797467544980        0.0000000000000000     
  -9.6186513615093006E-013  0.13477913009229564        0.0000000000000000     
   2.2314753834057916E-002  0.13514082076385855        0.0000000000000000     
   2.2820368934958448E-002  0.14277009631078097        0.0000000000000000     
   2.3267834644316768E-002  0.15055983422653987        0.0000000000000000     
   2.3657150962132875E-002  0.15851003451113538        0.0000000000000000     
   2.3988317888406770E-002  0.16662069716456740        0.0000000000000000     
   1.5843069002658340E-002  0.13498258109501582        0.0000000000000000     
   1.6071095182709078E-002  0.14261183749343423        0.0000000000000000     
   1.6227157408657385E-002  0.15037824508450082        0.0000000000000000     
   1.6311255680503272E-002  0.15828180386821555        0.0000000000000000     
   1.6323389998246732E-002  0.16632251384457838        0.0000000000000000     
   9.9667150863551861E-003  0.13486955276014106        0.0000000000000000     
   1.0017942442598678E-002  0.14249879548104896        0.0000000000000000     
   1.0002292555798429E-002  0.15024853855445944        0.0000000000000000     
   9.9197654259544389E-003  0.15811878198037252        0.0000000000000000     
   9.7703610530667090E-003  0.16610952575878823        0.0000000000000000     
   4.6856920851484499E-003  0.13480173575923438        0.0000000000000000     
   4.6609107146272540E-003  0.14243097027362508        0.0000000000000000     
   4.5932400857398963E-003  0.15017071463641576        0.0000000000000000     
   4.4826801984863759E-003  0.15802096884760639        0.0000000000000000     
   4.3292310528666956E-003  0.16598173290719700        0.0000000000000000     
  -9.6186513615093006E-013  0.13477913009229564        0.0000000000000000     
  -1.2051974002114108E-012  0.14240836187116257        0.0000000000000000     
  -1.5182135063018798E-012  0.15014477333036974        0.0000000000000000     
  -1.9009163817682029E-012  0.15798836446991707        0.0000000000000000     
  -2.3533046171475558E-012  0.16593913528980464        0.0000000000000000     
   0.0000000000000000        0.0000000000000000        0.0000000000000000     
  -7.1020663308662968E-016   1.0759504983966933E-003   0.0000000000000000     
  -1.3383391617161067E-015   2.5209513744546492E-003   0.0000000000000000     
  -1.8846144263229281E-015   4.3350026281738672E-003   0.0000000000000000     
  -2.3488969016355332E-015   6.5181042595543479E-003   0.0000000000000000     
   0.0000000000000000        0.0000000000000000        0.0000000000000000     
  -2.1279086456383873E-004   1.0782029871711414E-003   0.0000000000000000     
  -4.2657272212462839E-004   2.5260322861068033E-003   0.0000000000000000     
  -6.4134557268236928E-004   4.3434878968069846E-003   0.0000000000000000     
  -8.5710941623706109E-004   6.5305698192716860E-003   0.0000000000000000     
   0.0000000000000000        0.0000000000000000        0.0000000000000000     
  -4.2394395599560969E-004   1.0849604534945586E-003   0.0000000000000000     
  -8.5229800476079596E-004   2.5412750210634413E-003   0.0000000000000000     
  -1.2850621462955592E-003   4.3689437027066482E-003   0.0000000000000000     
  -1.7222363805998991E-003   6.5679664984241784E-003   0.0000000000000000     
   0.0000000000000000        0.0000000000000000        0.0000000000000000     
  -6.3345927429602302E-004   1.0962228973669446E-003   0.0000000000000000     
  -1.2771758479098410E-003   2.5666795793245632E-003   0.0000000000000000     
  -1.9311497208414541E-003   4.4113700458728563E-003   0.0000000000000000     
  -2.5953808930908630E-003   6.6302942970118232E-003   0.0000000000000000     
   0.0000000000000000        0.0000000000000000        0.0000000000000000     
  -8.4133681946507841E-004   1.1119903187882993E-003   0.0000000000000000     
  -1.7012062515717634E-003   2.6022459608901695E-003   0.0000000000000000     
  -2.5796082963200546E-003   4.4707669263056096E-003   0.0000000000000000     
  -3.4765429537099530E-003   6.7175532150346214E-003   0.0000000000000000     
  -2.3488969016355332E-015   6.5181042595543479E-003   0.0000000000000000     
  -2.7129719911561656E-015   9.0430046534579877E-003   0.0000000000000000     
  -2.9587267423407393E-015   1.1882452194746682E-002   0.0000000000000000     
  -3.0859493969524407E-015   1.5036446883420432E-002   0.0000000000000000     
  -3.0950719417943695E-015   1.8504988719479237E-002   0.0000000000000000     
  -8.5710941623706109E-004   6.5305698192716860E-003   0.0000000000000000     
  -1.0748669155999596E-003   9.0594280258500942E-003   0.0000000000000000     
  -1.2956207335823211E-003   1.1902212488891391E-002   0.0000000000000000     
  -1.5193708701841458E-003   1.5058923208395584E-002   0.0000000000000000     
  -1.7461173254054332E-003   1.8529560184362664E-002   0.0000000000000000     
  -1.7222363805998991E-003   6.5679664984241784E-003   0.0000000000000000     
  -2.1638083392205641E-003   9.1086981430273193E-003   0.0000000000000000     
  -2.6097656537043029E-003   1.1961493371327354E-002   0.0000000000000000     
  -3.0601083240511143E-003   1.5126352183324285E-002   0.0000000000000000     
  -3.5148363502609994E-003   1.8603274579018104E-002   0.0000000000000000     
  -2.5953808930908630E-003   6.6302942970118232E-003   0.0000000000000000     
  -3.2668242708645259E-003   9.1908150049896612E-003   0.0000000000000000     
  -3.9424347603689023E-003   1.2060294842054562E-002   0.0000000000000000     
  -4.6222123616039912E-003   1.5238733808206532E-002   0.0000000000000000     
  -5.3061570745697954E-003   1.8726131903445561E-002   0.0000000000000000     
  -3.4765429537099530E-003   6.7175532150346214E-003   0.0000000000000000     
  -4.3839147105318452E-003   9.3057786117371182E-003   0.0000000000000000     
  -5.2936280535761200E-003   1.2198616901073021E-002   0.0000000000000000     
  -6.2056829828427773E-003   1.5396068083042325E-002   0.0000000000000000     
  -7.1200794983318173E-003   1.8898132157645034E-002   0.0000000000000000     
  -3.0950719417943695E-015   1.8504988719479237E-002   0.0000000000000000     
  -1.5931808823588245E-015   2.2258361619091900E-002   0.0000000000000000     
   2.8141280538490632E-015   2.6266849498427204E-002   0.0000000000000000     
   1.0125140472144051E-014   3.0530452357485166E-002   0.0000000000000000     
   2.0340283277131554E-014   3.5049170196265779E-002   0.0000000000000000     
  -1.7461173254054332E-003   1.8529560184362664E-002   0.0000000000000000     
  -1.9723851368110509E-003   2.2284618916355185E-002   0.0000000000000000     
  -2.1946993419658654E-003   2.6294594903935674E-002   0.0000000000000000     
  -2.4130599408698776E-003   3.0559488147104154E-002   0.0000000000000000     
  -2.6274669335230863E-003   3.5079298645860610E-002   0.0000000000000000     
  -3.5148363502609994E-003   1.8603274579018104E-002   0.0000000000000000     
  -3.9683740309082900E-003   2.2363390808153274E-002   0.0000000000000000     
  -4.4151456645673201E-003   2.6377831120474236E-002   0.0000000000000000     
  -4.8551512512380853E-003   3.0646595515980986E-002   0.0000000000000000     
  -5.2883907909205899E-003   3.5169683994673538E-002   0.0000000000000000     
  -5.3061570745697954E-003   1.8726131903445561E-002   0.0000000000000000     
  -5.9879666822933121E-003   2.2494677294486173E-002   0.0000000000000000     
  -6.6613389678015483E-003   2.6516558148042869E-002   0.0000000000000000     
  -7.3262739310945004E-003   3.0791774464115663E-002   0.0000000000000000     
  -7.9827715721721721E-003   3.5320326242704550E-002   0.0000000000000000     
  -7.1200794983318173E-003   1.8898132157645034E-002   0.0000000000000000     
  -8.0311630909661157E-003   2.2678478375353875E-002   0.0000000000000000     
  -8.9332792516685511E-003   2.6710775986641594E-002   0.0000000000000000     
  -9.8264279804391227E-003   3.0995024991508184E-002   0.0000000000000000     
  -1.0710609277277830E-002   3.5531225389953645E-002   0.0000000000000000     
   2.0340283277131554E-014   3.5049170196265779E-002   0.0000000000000000     
   3.3879908427347782E-014   3.9805104364098433E-002   0.0000000000000000     
   5.1162904208396087E-014   4.4780356210312504E-002   0.0000000000000000     
   7.2188525231282885E-014   4.9974925734907999E-002   0.0000000000000000     
   9.6957381359730199E-014   5.5388812937884918E-002   0.0000000000000000     
  -2.6274669335230863E-003   3.5079298645860610E-002   0.0000000000000000     
  -2.8314878194628194E-003   3.9836006356365423E-002   0.0000000000000000     
  -3.0186900982264045E-003   4.4811591234778951E-002   0.0000000000000000     
  -3.1890737698138409E-003   5.0006053281101193E-002   0.0000000000000000     
  -3.3426388342251276E-003   5.5419392495332169E-002   0.0000000000000000     
  -5.2883907909205899E-003   3.5169683994673538E-002   0.0000000000000000     
  -5.7057418711527171E-003   3.9928712333201943E-002   0.0000000000000000     
  -6.0980820794723466E-003   4.4905296308216304E-002   0.0000000000000000     
  -6.4654114158794827E-003   5.0099435919716592E-002   0.0000000000000000     
  -6.8077298803741219E-003   5.5511131167702829E-002   0.0000000000000000     
  -7.9827715721721721E-003   3.5320326242704550E-002   0.0000000000000000     
  -8.6227621550358114E-003   4.0083222294608013E-002   0.0000000000000000     
  -9.2381759436866630E-003   4.5061471430624556E-002   0.0000000000000000     
  -9.8290129381247374E-003   5.0255073650754184E-002   0.0000000000000000     
  -1.0395273138350029E-002   5.5664028954996891E-002   0.0000000000000000     
  -1.0710609277277830E-002   3.5531225389953645E-002   0.0000000000000000     
  -1.1582548671112101E-002   4.0299536240583606E-002   0.0000000000000000     
  -1.2438971690869358E-002   4.5280116602003720E-002   0.0000000000000000     
  -1.3279878336549608E-002   5.0472966474213975E-002   0.0000000000000000     
  -1.4105268608152845E-002   5.5878085857214363E-002   0.0000000000000000     
   9.6957381359730199E-014   5.5388812937884918E-002   0.0000000000000000     
   1.1504599356504386E-013   6.1011695166566779E-002   0.0000000000000000     
   1.1602882283440197E-013   6.6833249768277078E-002   0.0000000000000000     
   9.9906872054814078E-014   7.2853476743015816E-002   0.0000000000000000     
   6.6679517810031008E-014   7.9072376090783006E-002   0.0000000000000000     
  -3.3426388342251276E-003   5.5419392495332169E-002   0.0000000000000000     
  -3.4871209871735775E-003   6.1041570837130445E-002   0.0000000000000000     
  -3.6302559243725054E-003   6.6862550266154633E-002   0.0000000000000000     
  -3.7720436458219091E-003   7.2882330782404678E-002   0.0000000000000000     
  -3.9124841515217890E-003   7.9100912385880656E-002   0.0000000000000000     
  -6.8077298803741219E-003   5.5511131167702829E-002   0.0000000000000000     
  -7.1353104271903367E-003   6.1131197848839379E-002   0.0000000000000000     
  -7.4584260105621915E-003   6.6950451759790641E-002   0.0000000000000000     
  -7.7770766304896856E-003   7.2968892900556637E-002   0.0000000000000000     
  -8.0912622869728223E-003   7.9186521271137317E-002   0.0000000000000000     
  -1.0395273138350029E-002   5.5664028954996891E-002   0.0000000000000000     
  -1.0944568319935224E-002   6.1280576201693575E-002   0.0000000000000000     
  -1.1484510258453026E-002   6.7096954249185173E-002   0.0000000000000000     
  -1.2015098953903423E-002   7.3113163097471637E-002   0.0000000000000000     
  -1.2536334406286419E-002   7.9329202746552988E-002   0.0000000000000000     
  -1.4105268608152845E-002   5.5878085857214363E-002   0.0000000000000000     
  -1.4914894665408247E-002   6.1489705895693053E-002   0.0000000000000000     
  -1.5708508668045008E-002   6.7302057734338172E-002   0.0000000000000000     
  -1.6486110616063115E-002   7.3315141373149706E-002   0.0000000000000000     
  -1.7247700509462574E-002   7.9528956812127669E-002   0.0000000000000000     
   6.6679517810031008E-014   7.9072376090783006E-002   0.0000000000000000     
   1.3621482414238884E-014   8.5473300903765370E-002   0.0000000000000000     
  -6.1990939725226069E-014   9.2039604274149631E-002   0.0000000000000000     
  -1.6016012030061616E-013   9.8771286201935815E-002   0.0000000000000000     
  -2.8088469050668863E-013  0.10566834668712390        0.0000000000000000     
  -3.9124841515217890E-003   7.9100912385880656E-002   0.0000000000000000     
  -4.0504160502974167E-003   8.5501549886424208E-002   0.0000000000000000     
  -4.1846779509740568E-003   9.2067498093877015E-002   0.0000000000000000     
  -4.3152698535517120E-003   9.8798757008239063E-002   0.0000000000000000     
  -4.4421917580303822E-003  0.10569532662951038        0.0000000000000000     
  -8.0912622869728223E-003   7.9186521271137317E-002   0.0000000000000000     
  -8.3980405178673036E-003   8.5586296834342726E-002   0.0000000000000000     
  -8.6944688610288371E-003   9.2151179552982812E-002   0.0000000000000000     
  -8.9805473164574125E-003   9.8881169427057630E-002   0.0000000000000000     
  -9.2562758841530438E-003  0.10577626645656710        0.0000000000000000     
  -1.2536334406286419E-002   7.9329202746552988E-002   0.0000000000000000     
  -1.3042873402696040E-002   8.5727541747520911E-002   0.0000000000000000     
  -1.3529372730226327E-002   9.2290648651467050E-002   0.0000000000000000     
  -1.3995832388877269E-002   9.9018523458391461E-002   0.0000000000000000     
  -1.4442252378648868E-002  0.10591116616829407        0.0000000000000000     
  -1.7247700509462574E-002   7.9528956812127669E-002   0.0000000000000000     
  -1.7984914704783628E-002   8.5925284625958775E-002   0.0000000000000000     
  -1.8689389558566531E-002   9.2485905389329756E-002   0.0000000000000000     
  -1.9361125070811270E-002   9.9210819102240597E-002   0.0000000000000000     
  -2.0000121241517854E-002  0.10610002576469132        0.0000000000000000     
  -2.8088469050668863E-013  0.10566834668712390        0.0000000000000000     
  -4.2244788396594846E-013  0.11272258297286393        0.0000000000000000     
  -5.8313250062003164E-013  0.11992579230230589        0.0000000000000000     
  -7.6293767310720018E-013  0.12727797467544980        0.0000000000000000     
  -9.6186513615093006E-013  0.13477913009229564        0.0000000000000000     
  -4.4421917580303822E-003  0.10569532662951038        0.0000000000000000     
  -4.5512257076637261E-003  0.11274889593116719        0.0000000000000000     
  -4.6281537457054040E-003  0.11995115388668572        0.0000000000000000     
  -4.6729758721554175E-003  0.12730210049606597        0.0000000000000000     
  -4.6856920870137660E-003  0.13480173575930793        0.0000000000000000     
  -9.2562758841530438E-003  0.10577626645656710        0.0000000000000000     
  -9.5035935522681716E-003  0.11282783480596767        0.0000000000000000     
  -9.7044393089552473E-003  0.12002723863971571        0.0000000000000000     
  -9.8588131542142778E-003  0.12737447795781123        0.0000000000000000     
  -9.9667150880452544E-003  0.13486955276025420        0.0000000000000000     
  -1.4442252378648868E-002  0.10591116616829407        0.0000000000000000     
  -1.4857103534235781E-002  0.11295939959726543        0.0000000000000000     
  -1.5228856690332662E-002  0.12015404656139592        0.0000000000000000     
  -1.5557511846939511E-002  0.12749510706068562        0.0000000000000000     
  -1.5843069004056336E-002  0.13498258109513447        0.0000000000000000     
  -2.0000121241517854E-002  0.10610002576469132        0.0000000000000000     
  -2.0611755653566557E-002  0.11314359030506038        0.0000000000000000     
  -2.1201405889837644E-002  0.12033157765172633        0.0000000000000000     
  -2.1769071950331127E-002  0.12766398780468910        0.0000000000000000     
  -2.2314753835046996E-002  0.13514082076394873        0.0000000000000000     
  -9.6186513615093006E-013  0.13477913009229564        0.0000000000000000     
  -1.2051974002114108E-012  0.14240836187116257        0.0000000000000000     
  -1.5182135063018798E-012  0.15014477333036974        0.0000000000000000     
  -1.9009163817682029E-012  0.15798836446991707        0.0000000000000000     
  -2.3533046171475558E-012  0.16593913528980464        0.0000000000000000     
  -4.6856920870137660E-003  0.13480173575930793        0.0000000000000000     
  -4.6609107169585211E-003  0.14243097027364657        0.0000000000000000     
  -4.5932400886677582E-003  0.15017071463631676        0.0000000000000000     
  -4.4826802021414791E-003  0.15802096884731850        0.0000000000000000     
  -4.3292310573796794E-003  0.16598173290665186        0.0000000000000000     
  -9.9667150880452544E-003  0.13486955276025420        0.0000000000000000     
  -1.0017942444692568E-002  0.14249879548106209        0.0000000000000000     
  -1.0002292558400598E-002  0.15024853855425219        0.0000000000000000     
  -9.9197654291693464E-003  0.15811878197982462        0.0000000000000000     
  -9.7703610569988154E-003  0.16610952575777929        0.0000000000000000     
  -1.5843069004056336E-002  0.13498258109513447        0.0000000000000000     
  -1.6071095184407330E-002  0.14261183749340908        0.0000000000000000     
  -1.6227157410716730E-002  0.15037824508417608        0.0000000000000000     
  -1.6311255682984523E-002  0.15828180386743532        0.0000000000000000     
  -1.6323390001210712E-002  0.16632251384318694        0.0000000000000000     
  -2.2314753835046996E-002  0.13514082076394873        0.0000000000000000     
  -2.2820368936102824E-002  0.14277009631068771        0.0000000000000000     
  -2.3267834645616159E-002  0.15055983422608835        0.0000000000000000     
  -2.3657150963587004E-002  0.15851003451015072        0.0000000000000000     
  -2.3988317890015369E-002  0.16662069716287484        0.0000000000000000     
   0.0000000000000000        0.0000000000000000        0.0000000000000000     
  -8.4133681946507841E-004   1.1119903187882993E-003   0.0000000000000000     
  -1.7012062515717634E-003   2.6022459608901695E-003   0.0000000000000000     
  -2.5796082963200546E-003   4.4707669263056096E-003   0.0000000000000000     
  -3.4765429537099530E-003   6.7175532150346214E-003   0.0000000000000000     
   0.0000000000000000        0.0000000000000000        0.0000000000000000     
  -1.0564156867217346E-003   1.1357949985626591E-003   0.0000000000000000     
  -2.1388357803510121E-003   2.6537730818366649E-003   0.0000000000000000     
  -3.2472602808878317E-003   4.5539342498220189E-003   0.0000000000000000     
  -4.3816891883321938E-003   6.8362785025187188E-003   0.0000000000000000     
   0.0000000000000000        0.0000000000000000        0.0000000000000000     
  -1.2875349712849504E-003   1.1711692174940602E-003   0.0000000000000000     
  -2.6045109988520358E-003   2.7270598582404570E-003   0.0000000000000000     
  -3.9509280827012558E-003   4.6676719222391912E-003   0.0000000000000000     
  -5.3267862228326118E-003   6.9930054094902621E-003   0.0000000000000000     
   0.0000000000000000        0.0000000000000000        0.0000000000000000     
  -1.5346946731547247E-003   1.2181129755825021E-003   0.0000000000000000     
  -3.0982319070748344E-003   2.8221062901015444E-003   0.0000000000000000     
  -4.6906117017603286E-003   4.8119799435571266E-003   0.0000000000000000     
  -6.3118340572112059E-003   7.1877339359492495E-003   0.0000000000000000     
   0.0000000000000000        0.0000000000000000        0.0000000000000000     
  -1.7978947923310586E-003   1.2766262728279854E-003   0.0000000000000000     
  -3.6199985050194075E-003   2.9389123774199279E-003   0.0000000000000000     
  -5.4663111380650470E-003   4.9868583137758276E-003   0.0000000000000000     
  -7.3368326914679772E-003   7.4204640818956837E-003   0.0000000000000000     
  -3.4765429537099530E-003   6.7175532150346214E-003   0.0000000000000000     
  -4.3839147105318452E-003   9.3057786117371182E-003   0.0000000000000000     
  -5.2936280535761200E-003   1.2198616901073021E-002   0.0000000000000000     
  -6.2056829828427773E-003   1.5396068083042325E-002   0.0000000000000000     
  -7.1200794983318173E-003   1.8898132157645034E-002   0.0000000000000000     
  -4.3816891883321938E-003   6.8362785025187188E-003   0.0000000000000000     
  -5.5294874849226251E-003   9.4594383817405130E-003   0.0000000000000000     
  -6.6780201528976509E-003   1.2382046429301151E-002   0.0000000000000000     
  -7.8272871922572731E-003   1.5604102645200629E-002   0.0000000000000000     
  -8.9772886030014907E-003   1.9125607029438947E-002   0.0000000000000000     
  -5.3267862228326118E-003   6.9930054094902621E-003   0.0000000000000000     
  -6.7179504207369673E-003   9.6576437334706597E-003   0.0000000000000000     
  -8.1102856779051921E-003   1.2616170307657371E-002   0.0000000000000000     
  -9.5037919943372802E-003   1.5868585132050399E-002   0.0000000000000000     
  -1.0898469370033236E-002   1.9414888206649741E-002   0.0000000000000000     
  -6.3118340572112059E-003   7.1877339359492495E-003   0.0000000000000000     
  -7.9493035179748744E-003   9.9003946669275564E-003   0.0000000000000000     
  -9.5904246285987409E-003   1.2900988536141684E-002   0.0000000000000000     
  -1.1235197389082800E-002   1.6189515543591639E-002   0.0000000000000000     
  -1.2883621799427055E-002   1.9765975689277418E-002   0.0000000000000000     
  -7.3368326914679772E-003   7.4204640818956837E-003   0.0000000000000000     
  -9.2235467766363429E-003   1.0187691182111200E-002   0.0000000000000000     
  -1.1118437004978296E-002   1.3236501114754089E-002   0.0000000000000000     
  -1.3021503376493831E-002   1.6566893879824345E-002   0.0000000000000000     
  -1.4932745891182948E-002   2.0178869477321965E-002   0.0000000000000000     
  -7.1200794983318173E-003   1.8898132157645034E-002   0.0000000000000000     
  -8.0311630909661157E-003   2.2678478375353875E-002   0.0000000000000000     
  -8.9332792516685511E-003   2.6710775986641594E-002   0.0000000000000000     
  -9.8264279804391227E-003   3.0995024991508184E-002   0.0000000000000000     
  -1.0710609277277830E-002   3.5531225389953645E-002   0.0000000000000000     
  -8.9772886030014907E-003   1.9125607029438947E-002   0.0000000000000000     
  -1.0122088482681845E-002   2.2921433619637454E-002   0.0000000000000000     
  -1.1255750928849886E-002   2.6966456453417491E-002   0.0000000000000000     
  -1.2378275941505607E-002   3.1260675530779061E-002   0.0000000000000000     
  -1.3489663520649016E-002   3.5804090851722148E-002   0.0000000000000000     
  -1.0898469370033236E-002   1.9414888206649741E-002   0.0000000000000000     
  -1.2284868083195649E-002   2.3230182596217973E-002   0.0000000000000000     
  -1.3653538412027114E-002   2.7289571365517660E-002   0.0000000000000000     
  -1.5004480356527619E-002   3.1593054514548809E-002   0.0000000000000000     
  -1.6337693916697180E-002   3.6140632043311409E-002   0.0000000000000000     
  -1.2883621799427055E-002   1.9765975689277418E-002   0.0000000000000000     
  -1.4519501892507525E-002   2.3604725305095435E-002   0.0000000000000000     
  -1.6126641701200227E-002   2.7680120722942101E-002   0.0000000000000000     
  -1.7705041225505154E-002   3.1992161942817419E-002   0.0000000000000000     
  -1.9254700465422318E-002   3.6540848964721401E-002   0.0000000000000000     
  -1.4932745891182948E-002   2.0178869477321965E-002   0.0000000000000000     
  -1.6825989910617473E-002   2.4045061746269834E-002   0.0000000000000000     
  -1.8675060796369228E-002   2.8138104525690814E-002   0.0000000000000000     
  -2.0479958548438218E-002   3.2457997815584921E-002   0.0000000000000000     
  -2.2240683166824440E-002   3.7004741615952144E-002   0.0000000000000000     
  -1.0710609277277830E-002   3.5531225389953645E-002   0.0000000000000000     
  -1.1582548671112101E-002   4.0299536240583606E-002   0.0000000000000000     
  -1.2438971690869358E-002   4.5280116602003720E-002   0.0000000000000000     
  -1.3279878336549608E-002   5.0472966474213975E-002   0.0000000000000000     
  -1.4105268608152845E-002   5.5878085857214363E-002   0.0000000000000000     
  -1.3489663520649016E-002   3.5804090851722148E-002   0.0000000000000000     
  -1.4591774307804841E-002   4.0576674526187823E-002   0.0000000000000000     
  -1.5686468944497822E-002   4.5558398664117136E-002   0.0000000000000000     
  -1.6773747430727959E-002   5.0749263265510075E-002   0.0000000000000000     
  -1.7853609766495245E-002   5.6149268330366639E-002   0.0000000000000000     
  -1.6337693916697180E-002   3.6140632043311409E-002   0.0000000000000000     
  -1.7657111953537283E-002   4.0913657506479767E-002   0.0000000000000000     
  -1.8966667328049441E-002   4.5893484458728158E-002   0.0000000000000000     
  -2.0266360040233647E-002   5.1080112900056589E-002   0.0000000000000000     
  -2.1556190090089900E-002   5.6473542830465066E-002   0.0000000000000000     
  -1.9254700465422318E-002   3.6540848964721401E-002   0.0000000000000000     
  -2.0778561608309432E-002   4.1310485181459397E-002   0.0000000000000000     
  -2.2279566841524219E-002   4.6285373985836778E-002   0.0000000000000000     
  -2.3757716165066681E-002   5.1465515377853523E-002   0.0000000000000000     
  -2.5213009578936817E-002   5.6850909357509666E-002   0.0000000000000000     
  -2.2240683166824440E-002   3.7004741615952144E-002   0.0000000000000000     
  -2.3956123272121283E-002   4.1767157551126741E-002   0.0000000000000000     
  -2.5625167484922155E-002   4.6734067245442996E-002   0.0000000000000000     
  -2.7247815805227057E-002   5.1905470698900884E-002   0.0000000000000000     
  -2.8824068233035995E-002   5.7281367911500430E-002   0.0000000000000000     
  -1.4105268608152845E-002   5.5878085857214363E-002   0.0000000000000000     
  -1.4914894665408247E-002   6.1489705895693053E-002   0.0000000000000000     
  -1.5708508668045008E-002   6.7302057734338172E-002   0.0000000000000000     
  -1.6486110616063115E-002   7.3315141373149706E-002   0.0000000000000000     
  -1.7247700509462574E-002   7.9528956812127669E-002   0.0000000000000000     
  -1.7853609766495245E-002   5.6149268330366639E-002   0.0000000000000000     
  -1.8918436456771878E-002   6.1754435172706866E-002   0.0000000000000000     
  -1.9960608006530049E-002   6.7560785106550780E-002   0.0000000000000000     
  -2.0980124415769744E-002   7.3568318131898389E-002   0.0000000000000000     
  -2.1976985684490982E-002   7.9777034248749712E-002   0.0000000000000000     
  -2.1556190090089900E-002   5.6473542830465066E-002   0.0000000000000000     
  -2.2827340687188578E-002   6.2070612274604094E-002   0.0000000000000000     
  -2.4070995041100038E-002   6.7868159257124180E-002   0.0000000000000000     
  -2.5287153151824282E-002   7.3866183778025299E-002   0.0000000000000000     
  -2.6475815019361314E-002   8.0064685837307498E-002   0.0000000000000000     
  -2.5213009578936817E-002   5.6850909357509666E-002   0.0000000000000000     
  -2.6641607356658339E-002   6.2438237201384750E-002   0.0000000000000000     
  -2.8039669771754983E-002   6.8224180186058331E-002   0.0000000000000000     
  -2.9407196824226729E-002   7.4208738311530423E-002   0.0000000000000000     
  -3.0744188514073581E-002   8.0391911577801026E-002   0.0000000000000000     
  -2.8824068233035995E-002   5.7281367911500430E-002   0.0000000000000000     
  -3.0361236465181188E-002   6.2857309953048821E-002   0.0000000000000000     
  -3.1866632198494879E-002   6.8628847893353259E-002   0.0000000000000000     
  -3.3340255432977077E-002   7.4595981732413760E-002   0.0000000000000000     
  -3.4782106168627779E-002   8.0758711470230338E-002   0.0000000000000000     
  -1.7247700509462574E-002   7.9528956812127669E-002   0.0000000000000000     
  -1.7984914704783628E-002   8.5925284625958775E-002   0.0000000000000000     
  -1.8689389558566531E-002   9.2485905389329756E-002   0.0000000000000000     
  -1.9361125070811270E-002   9.9210819102240597E-002   0.0000000000000000     
  -2.0000121241517854E-002  0.10610002576469132        0.0000000000000000     
  -2.1976985684490982E-002   7.9777034248749712E-002   0.0000000000000000     
  -2.2939677126787090E-002   8.6168273190239217E-002   0.0000000000000000     
  -2.3856684056751412E-002   9.2723374689501425E-002   0.0000000000000000     
  -2.4728006474383956E-002   9.9442338746536352E-002   0.0000000000000000     
  -2.5553644379684718E-002  0.10632516536134397        0.0000000000000000     
  -2.6475815019361314E-002   8.0064685837307498E-002   0.0000000000000000     
  -2.7622673371363437E-002   8.6445255160945145E-002   0.0000000000000000     
  -2.8713420935482948E-002   9.2989481474912636E-002   0.0000000000000000     
  -2.9748057711719855E-002   9.9697364779209985E-002   0.0000000000000000     
  -3.0726583700074160E-002  0.10656890507383719        0.0000000000000000     
  -3.0744188514073581E-002   8.0391911577801026E-002   0.0000000000000000     
  -3.2033903438512673E-002   8.6756230538076559E-002   0.0000000000000000     
  -3.3259600194761138E-002   9.3284225745563387E-002   0.0000000000000000     
  -3.4421278782818976E-002   9.9975897200261538E-002   0.0000000000000000     
  -3.5518939202686187E-002  0.10683124490217100        0.0000000000000000     
  -3.4782106168627779E-002   8.0758711470230338E-002   0.0000000000000000     
  -3.6173367328234805E-002   8.7101199321633460E-002   0.0000000000000000     
  -3.7495221834585986E-002   9.3607607501453680E-002   0.0000000000000000     
  -3.8747669687681313E-002  0.10027793600969097        0.0000000000000000     
  -3.9930710887520801E-002  0.10711218484634535        0.0000000000000000     
  -2.0000121241517854E-002  0.10610002576469132        0.0000000000000000     
  -2.0611755653566557E-002  0.11314359030506038        0.0000000000000000     
  -2.1201405889837644E-002  0.12033157765172633        0.0000000000000000     
  -2.1769071950331127E-002  0.12766398780468910        0.0000000000000000     
  -2.2314753835046996E-002  0.13514082076394873        0.0000000000000000     
  -2.5553644379684718E-002  0.10632516536134397        0.0000000000000000     
  -2.6355635639279985E-002  0.11336092944051718        0.0000000000000000     
  -2.7156018119796045E-002  0.12053870589064888        0.0000000000000000     
  -2.7954791821232904E-002  0.12785849471173910        0.0000000000000000     
  -2.8751956743590563E-002  0.13532029590378777        0.0000000000000000     
  -3.0726583700074160E-002  0.10656890507383719        0.0000000000000000     
  -3.1676829220395546E-002  0.11359193951480036        0.0000000000000000     
  -3.2626624592533703E-002  0.12075430525810560        0.0000000000000000     
  -3.3575969816488638E-002  0.12805600230375294        0.0000000000000000     
  -3.4524864892260344E-002  0.13549703065174232        0.0000000000000000     
  -3.5518939202686187E-002  0.10683124490217100        0.0000000000000000     
  -3.6575336396913245E-002  0.11383662052790990        0.0000000000000000     
  -3.7613225308050627E-002  0.12097837575409646        0.0000000000000000     
  -3.8632605936098303E-002  0.12825651058073062        0.0000000000000000     
  -3.9633478281056324E-002  0.13567102500781242        0.0000000000000000     
  -3.9930710887520801E-002  0.10711218484634535        0.0000000000000000     
  -4.1051157168833077E-002  0.11409497247984586        0.0000000000000000     
  -4.2115820266346790E-002  0.12121091737862147        0.0000000000000000     
  -4.3124700180061933E-002  0.12846001954267217        0.0000000000000000     
  -4.4077796909978512E-002  0.13584227897199802        0.0000000000000000     
  -2.2314753835046996E-002  0.13514082076394873        0.0000000000000000     
  -2.2820368936102824E-002  0.14277009631068771        0.0000000000000000     
  -2.3267834645616159E-002  0.15055983422608835        0.0000000000000000     
  -2.3657150963587004E-002  0.15851003451015072        0.0000000000000000     
  -2.3988317890015369E-002  0.16662069716287484        0.0000000000000000     
  -2.8751956743590563E-002  0.13532029590378777        0.0000000000000000     
  -2.9525293520909591E-002  0.14294107679391255        0.0000000000000000     
  -3.0252582787230572E-002  0.15073780470923104        0.0000000000000000     
  -3.0933824542553504E-002  0.15871047964974322        0.0000000000000000     
  -3.1569018786878379E-002  0.16685910161544909        0.0000000000000000     
  -3.4524864892260344E-002  0.13549703065174232        0.0000000000000000     
  -3.5445398759958217E-002  0.14309228380409850        0.0000000000000000     
  -3.6309660359691680E-002  0.15085665526284614        0.0000000000000000     
  -3.7117649691460704E-002  0.15879014502798522        0.0000000000000000     
  -3.7869366755265317E-002  0.16689275309951576        0.0000000000000000     
  -3.9633478281056324E-002  0.13567102500781242        0.0000000000000000     
  -4.0580684653248697E-002  0.14322371734124550        0.0000000000000000     
  -4.1439067362999467E-002  0.15091638588693362        0.0000000000000000     
  -4.2208626410308633E-002  0.15874903064487672        0.0000000000000000     
  -4.2889361795176197E-002  0.16672165161507491        0.0000000000000000     
  -4.4077796909978512E-002  0.13584227897199802        0.0000000000000000     
  -4.4931151200781012E-002  0.14333537740535357        0.0000000000000000     
  -4.5640803797153934E-002  0.15091699658149352        0.0000000000000000     
  -4.6206754699097262E-002  0.15858713650041784        0.0000000000000000     
  -4.6629003906611011E-002  0.16634579716212650        0.0000000000000000     
   0.0000000000000000        0.0000000000000000        0.0000000000000000     
  -1.7978947923310586E-003   1.2766262728279854E-003   0.0000000000000000     
  -3.6199985050194075E-003   2.9389123774199279E-003   0.0000000000000000     
  -5.4663111380650470E-003   4.9868583137758276E-003   0.0000000000000000     
  -7.3368326914679772E-003   7.4204640818956837E-003   0.0000000000000000     
   0.0000000000000000        0.0000000000000000        0.0000000000000000     
  -2.0689775992436899E-003   1.3539809856924674E-003   0.0000000000000000     
  -4.1626762405718547E-003   3.0922592731583852E-003   0.0000000000000000     
  -6.2810959239844961E-003   5.2148348623977537E-003   0.0000000000000000     
  -8.4242366494816125E-003   7.7217077534105722E-003   0.0000000000000000     
   0.0000000000000000        0.0000000000000000        0.0000000000000000     
  -2.3397853643223557E-003   1.4574489906379051E-003   0.0000000000000000     
  -4.7191305616182747E-003   3.2969281302796952E-003   0.0000000000000000     
  -7.1380355918877559E-003   5.5184374189253703E-003   0.0000000000000000     
  -9.5965004551308020E-003   8.1219768565749303E-003   0.0000000000000000     
   0.0000000000000000        0.0000000000000000        0.0000000000000000     
  -2.6103180875670581E-003   1.5870302876642985E-003   0.0000000000000000     
  -5.2893614681586675E-003   3.5529189487838574E-003   0.0000000000000000     
  -8.0371301417748297E-003   5.8976659833586756E-003   0.0000000000000000     
  -1.0853624108415540E-002   8.6212713913887545E-003   0.0000000000000000     
   0.0000000000000000        0.0000000000000000        0.0000000000000000     
  -2.8805757689777953E-003   1.7427248767716481E-003   0.0000000000000000     
  -5.8733689601930322E-003   3.8602317286708715E-003   0.0000000000000000     
  -8.9783795736457107E-003   6.3525205556976706E-003   0.0000000000000000     
  -1.2195607609335832E-002   9.2195913578520441E-003   0.0000000000000000     
  -7.3368326914679772E-003   7.4204640818956837E-003   0.0000000000000000     
  -9.2235467766363429E-003   1.0187691182111200E-002   0.0000000000000000     
  -1.1118437004978296E-002   1.3236501114754089E-002   0.0000000000000000     
  -1.3021503376493831E-002   1.6566893879824345E-002   0.0000000000000000     
  -1.4932745891182948E-002   2.0178869477321965E-002   0.0000000000000000     
  -8.4242366494816125E-003   7.7217077534105722E-003   0.0000000000000000     
  -1.0583045902162259E-002   1.0555580481377754E-002   0.0000000000000000     
  -1.2748471167125495E-002   1.3659155581480214E-002   0.0000000000000000     
  -1.4920512444371316E-002   1.7032433053717950E-002   0.0000000000000000     
  -1.7099169733899727E-002   2.0675412898090960E-002   0.0000000000000000     
  -9.5965004551308020E-003   8.1219768565749303E-003   0.0000000000000000     
  -1.2070166599993505E-002   1.1040109767083372E-002   0.0000000000000000     
  -1.4534675475121975E-002   1.4205399474305689E-002   0.0000000000000000     
  -1.6990027080516210E-002   1.7617845978241880E-002   0.0000000000000000     
  -1.9436221416176208E-002   2.1277449278891952E-002   0.0000000000000000     
  -1.0853624108415540E-002   8.6212713913887545E-003   0.0000000000000000     
  -1.3684908870130082E-002   1.1641279039228047E-002   0.0000000000000000     
  -1.6477049928967737E-002   1.4875232793230511E-002   0.0000000000000000     
  -1.9230047284928508E-002   1.8323132653396149E-002   0.0000000000000000     
  -2.1943900938012382E-002   2.1984978619724954E-002   0.0000000000000000     
  -1.2195607609335832E-002   9.2195913578520441E-003   0.0000000000000000     
  -1.5427272712571993E-002   1.2359088297811786E-002   0.0000000000000000     
  -1.8575594528662781E-002   1.5668655538254680E-002   0.0000000000000000     
  -2.1640573057608206E-002   1.9148293079180739E-002   0.0000000000000000     
  -2.4622208299408265E-002   2.2798000920589957E-002   0.0000000000000000     
  -1.4932745891182948E-002   2.0178869477321965E-002   0.0000000000000000     
  -1.6825989910617473E-002   2.4045061746269834E-002   0.0000000000000000     
  -1.8675060796369228E-002   2.8138104525690814E-002   0.0000000000000000     
  -2.0479958548438218E-002   3.2457997815584921E-002   0.0000000000000000     
  -2.2240683166824440E-002   3.7004741615952144E-002   0.0000000000000000     
  -1.7099169733899727E-002   2.0675412898090960E-002   0.0000000000000000     
  -1.9251307856581114E-002   2.4562281957030776E-002   0.0000000000000000     
  -2.1343791633285883E-002   2.8667227072968943E-002   0.0000000000000000     
  -2.3376621064014023E-002   3.2990248245905456E-002   0.0000000000000000     
  -2.5349796148765532E-002   3.7531345475840305E-002   0.0000000000000000     
  -1.9436221416176208E-002   2.1277449278891952E-002   0.0000000000000000     
  -2.1842431449454077E-002   2.5167475974667879E-002   0.0000000000000000     
  -2.4177830147701938E-002   2.9271192663981628E-002   0.0000000000000000     
  -2.6442417510919785E-002   3.3588599346833198E-002   0.0000000000000000     
  -2.8636193539107613E-002   3.8119696023222599E-002   0.0000000000000000     
  -2.1943900938012382E-002   2.1984978619724954E-002   0.0000000000000000     
  -2.4599360689236356E-002   2.5860643799181123E-002   0.0000000000000000     
  -2.7177176339617394E-002   2.9950001298728858E-002   0.0000000000000000     
  -2.9677347889155499E-002   3.4253051118368155E-002   0.0000000000000000     
  -3.2099875337850671E-002   3.8769793258099004E-002   0.0000000000000000     
  -2.4622208299408265E-002   2.2798000920589957E-002   0.0000000000000000     
  -2.7522095575927951E-002   2.6641785430570528E-002   0.0000000000000000     
  -3.0341830209032254E-002   3.0703652977210644E-002   0.0000000000000000     
  -3.3081412198721176E-002   3.4983603560510314E-002   0.0000000000000000     
  -3.5740841544994718E-002   3.9481637180469528E-002   0.0000000000000000     
  -2.2240683166824440E-002   3.7004741615952144E-002   0.0000000000000000     
  -2.3956123272121283E-002   4.1767157551126741E-002   0.0000000000000000     
  -2.5625167484922155E-002   4.6734067245442996E-002   0.0000000000000000     
  -2.7247815805227057E-002   5.1905470698900884E-002   0.0000000000000000     
  -2.8824068233035995E-002   5.7281367911500430E-002   0.0000000000000000     
  -2.5349796148765532E-002   3.7531345475840305E-002   0.0000000000000000     
  -2.7258012992694619E-002   4.2283654089205466E-002   0.0000000000000000     
  -2.9095967700955461E-002   4.7240309412432881E-002   0.0000000000000000     
  -3.0863660273548071E-002   5.2401311445522555E-002   0.0000000000000000     
  -3.2561090710472446E-002   5.7766660188474483E-002   0.0000000000000000     
  -2.8636193539107613E-002   3.8119696023222599E-002   0.0000000000000000     
  -3.0752446817751210E-002   4.2859954269419229E-002   0.0000000000000000     
  -3.2784465932336332E-002   4.7804845661692498E-002   0.0000000000000000     
  -3.4732250882862997E-002   5.2954370200042414E-002   0.0000000000000000     
  -3.6595801669331199E-002   5.8308527884468969E-002   0.0000000000000000     
  -3.2099875337850671E-002   3.8769793258099004E-002   0.0000000000000000     
  -3.4439424747291052E-002   4.3496058091768028E-002   0.0000000000000000     
  -3.6690662179064776E-002   4.8427675993221848E-002   0.0000000000000000     
  -3.8853587633171829E-002   5.3564646962460473E-002   0.0000000000000000     
  -4.0928201109612240E-002   5.8906970999483874E-002   0.0000000000000000     
  -3.5740841544994718E-002   3.9481637180469528E-002   0.0000000000000000     
  -3.8318946781314159E-002   4.4191965556251878E-002   0.0000000000000000     
  -4.0814556441140785E-002   4.9108800407020932E-002   0.0000000000000000     
  -4.3227670524474598E-002   5.4232141732776719E-002   0.0000000000000000     
  -4.5558289031315591E-002   5.9561989533519211E-002   0.0000000000000000     
  -2.8824068233035995E-002   5.7281367911500430E-002   0.0000000000000000     
  -3.0361236465181188E-002   6.2857309953048821E-002   0.0000000000000000     
  -3.1866632198494879E-002   6.8628847893353259E-002   0.0000000000000000     
  -3.3340255432977077E-002   7.4595981732413760E-002   0.0000000000000000     
  -3.4782106168627779E-002   8.0758711470230338E-002   0.0000000000000000     
  -3.2561090710472446E-002   5.7766660188474483E-002   0.0000000000000000     
  -3.4206819487627632E-002   6.3330265216332601E-002   0.0000000000000000     
  -3.5819407080912698E-002   6.9086036104140894E-002   0.0000000000000000     
  -3.7398853490327615E-002   7.5033972851899305E-002   0.0000000000000000     
  -3.8945158715872411E-002   8.1174075459607864E-002   0.0000000000000000     
  -3.6595801669331199E-002   5.8308527884468969E-002   0.0000000000000000     
  -3.8398947898868219E-002   6.3859537677972450E-002   0.0000000000000000     
  -4.0165519178601360E-002   6.9599618543553135E-002   0.0000000000000000     
  -4.1895515508530615E-002   7.5528770481211066E-002   0.0000000000000000     
  -4.3588936888655977E-002   8.1646993490946215E-002   0.0000000000000000     
  -4.0928201109612240E-002   5.8906970999483874E-002   0.0000000000000000     
  -4.2937621698902938E-002   6.4445127337968325E-002   0.0000000000000000     
  -4.4904968491560886E-002   7.0169595211590038E-002   0.0000000000000000     
  -4.6830241487586056E-002   7.6080374620349042E-002   0.0000000000000000     
  -4.8713440686978478E-002   8.2177465564245308E-002   0.0000000000000000     
  -4.5558289031315591E-002   5.9561989533519211E-002   0.0000000000000000     
  -4.7822840887731803E-002   6.5087034196320226E-002   0.0000000000000000     
  -5.0037755019791262E-002   7.0795966108251576E-002   0.0000000000000000     
  -5.2203031427493961E-002   7.6688785269313248E-002   0.0000000000000000     
  -5.4318670110839920E-002   8.2765491679505226E-002   0.0000000000000000     
  -3.4782106168627779E-002   8.0758711470230338E-002   0.0000000000000000     
  -3.6173367328234805E-002   8.7101199321633460E-002   0.0000000000000000     
  -3.7495221834585986E-002   9.3607607501453680E-002   0.0000000000000000     
  -3.8747669687681313E-002  0.10027793600969097        0.0000000000000000     
  -3.9930710887520801E-002  0.10711218484634535        0.0000000000000000     
  -3.8945158715872411E-002   8.1174075459607864E-002   0.0000000000000000     
  -4.0437805190867850E-002   8.7492286207865519E-002   0.0000000000000000     
  -4.1856275348634731E-002   9.3974547377271109E-002   0.0000000000000000     
  -4.3200569189173005E-002  0.10062085896782473        0.0000000000000000     
  -4.4470686712482749E-002  0.10743122097952630        0.0000000000000000     
  -4.3588936888655977E-002   8.1646993490946215E-002   0.0000000000000000     
  -4.5223957176749853E-002   8.7941615893022365E-002   0.0000000000000000     
  -4.6778750230584601E-002   9.4399966007703340E-002   0.0000000000000000     
  -4.8253316050160248E-002  0.10102204383498918        0.0000000000000000     
  -4.9647654635476782E-002  0.10780784937487983        0.0000000000000000     
  -4.8713440686978478E-002   8.2177465564245308E-002   0.0000000000000000     
  -5.0531823285880781E-002   8.8449188377104054E-002   0.0000000000000000     
  -5.2262646480435639E-002   9.4883863392750387E-002   0.0000000000000000     
  -5.3905910270643002E-002  0.10148149061118435        0.0000000000000000     
  -5.5461614656502907E-002  0.10824207003240589        0.0000000000000000     
  -5.4318670110839920E-002   8.2765491679505226E-002   0.0000000000000000     
  -5.6361403518260675E-002   8.9015003660110559E-002   0.0000000000000000     
  -5.8307964098187809E-002   9.5426239532412221E-002   0.0000000000000000     
  -6.0158351850621281E-002  0.10199919929641020        0.0000000000000000     
  -6.1912566775561131E-002  0.10873388295210452        0.0000000000000000     
  -3.9930710887520801E-002  0.10711218484634535        0.0000000000000000     
  -4.1051157168833077E-002  0.11409497247984586        0.0000000000000000     
  -4.2115820266346790E-002  0.12121091737862147        0.0000000000000000     
  -4.3124700180061933E-002  0.12846001954267217        0.0000000000000000     
  -4.4077796909978512E-002  0.13584227897199802        0.0000000000000000     
  -4.4470686712482749E-002  0.10743122097952630        0.0000000000000000     
  -4.5657084581363097E-002  0.11438929423372700        0.0000000000000000     
  -4.6750219458613275E-002  0.12147873955177785        0.0000000000000000     
  -4.7750091344233275E-002  0.12869955693367885        0.0000000000000000     
  -4.8656700238223098E-002  0.13605174637943004        0.0000000000000000     
  -4.9647654635476782E-002  0.10780784937487983        0.0000000000000000     
  -5.0945911679711360E-002  0.11474188465267211        0.0000000000000000     
  -5.2132232876041129E-002  0.12180865169366278        0.0000000000000000     
  -5.3206618224466110E-002  0.12900815049785189        0.0000000000000000     
  -5.4169067724986281E-002  0.13634038106523941        0.0000000000000000     
  -5.5461614656502907E-002  0.10824207003240589        0.0000000000000000     
  -5.6917638463877873E-002  0.11515274373668119        0.0000000000000000     
  -5.8261860518630366E-002  0.12220065380427632        0.0000000000000000     
  -5.9494280820760428E-002  0.12938580023519125        0.0000000000000000     
  -6.0614899370268031E-002  0.13670818302942608        0.0000000000000000     
  -6.1912566775561131E-002  0.10873388295210452        0.0000000000000000     
  -6.3572264933862602E-002  0.11562187148575424        0.0000000000000000     
  -6.5139102386380959E-002  0.12265474588361842        0.0000000000000000     
  -6.6613079133116232E-002  0.12983250614569702        0.0000000000000000     
  -6.7994195174068392E-002  0.13715515227199010        0.0000000000000000     
  -4.4077796909978512E-002  0.13584227897199802        0.0000000000000000     
  -4.4931151200781012E-002  0.14333537740535357        0.0000000000000000     
  -4.5640803797153934E-002  0.15091699658149352        0.0000000000000000     
  -4.6206754699097262E-002  0.15858713650041784        0.0000000000000000     
  -4.6629003906611011E-002  0.16634579716212650        0.0000000000000000     
  -4.8656700238223098E-002  0.13605174637943004        0.0000000000000000     
  -4.9419922077143116E-002  0.14349005134238174        0.0000000000000000     
  -4.9989632797553703E-002  0.15096921527588433        0.0000000000000000     
  -5.0365832399454843E-002  0.15848923817993776        0.0000000000000000     
  -5.0548520882846559E-002  0.16605012005454206        0.0000000000000000     
  -5.4169067724986281E-002  0.13634038106523941        0.0000000000000000     
  -5.4970120956922948E-002  0.14375052649828907        0.0000000000000000     
  -5.5560317499597382E-002  0.15118376989946455        0.0000000000000000     
  -5.5939657353009632E-002  0.15864011126876590        0.0000000000000000     
  -5.6108140517159649E-002  0.16611955060619310        0.0000000000000000     
  -6.0614899370268031E-002  0.13670818302942608        0.0000000000000000     
  -6.1581747840120465E-002  0.14411680287307546        0.0000000000000000     
  -6.2352857903284993E-002  0.15156066045223418        0.0000000000000000     
  -6.2928229559761586E-002  0.15903975576690221        0.0000000000000000     
  -6.3307862809550280E-002  0.16655408881707956        0.0000000000000000     
  -6.7994195174068392E-002  0.13715515227199010        0.0000000000000000     
  -6.9254802726735717E-002  0.14458888046674104        0.0000000000000000     
  -7.0367254008616500E-002  0.15209988693419324        0.0000000000000000     
  -7.1331549019710755E-002  0.15968817167434671        0.0000000000000000     
  -7.2147687760018453E-002  0.16735373468720149        0.0000000000000000     
   0.0000000000000000        0.0000000000000000        0.0000000000000000     
  -2.8805757689777953E-003   1.7427248767716481E-003   0.0000000000000000     
  -5.8733689601930322E-003   3.8602317286708715E-003   0.0000000000000000     
  -8.9783795736457107E-003   6.3525205556976706E-003   0.0000000000000000     
  -1.2195607609335832E-002   9.2195913578520441E-003   0.0000000000000000     
   0.0000000000000000        0.0000000000000000        0.0000000000000000     
  -3.2840361518765970E-003   1.9970795301800437E-003   0.0000000000000000     
  -6.6784649193827351E-003   4.3260828607531270E-003   0.0000000000000000     
  -1.0183286302518415E-002   6.9870099917192490E-003   0.0000000000000000     
  -1.3798500301283635E-002   9.9798609230784090E-003   0.0000000000000000     
   0.0000000000000000        0.0000000000000000        0.0000000000000000     
  -3.9541769795854911E-003   2.4226410201095747E-003   0.0000000000000000     
  -7.9119612273891408E-003   5.0576887358430101E-003   0.0000000000000000     
  -1.1873352743410948E-002   7.9051431472003022E-003   0.0000000000000000     
  -1.5838351527650913E-002   1.0965004254181458E-002   0.0000000000000000     
   0.0000000000000000        0.0000000000000000        0.0000000000000000     
  -4.8909982521044776E-003   3.0194093465602426E-003   0.0000000000000000     
  -9.5738578842122484E-003   6.0550493539405200E-003   0.0000000000000000     
  -1.4048578896323308E-002   9.1069200221408353E-003   0.0000000000000000     
  -1.8315161288437663E-002   1.2175021351161183E-002   0.0000000000000000     
   0.0000000000000000        0.0000000000000000        0.0000000000000000     
  -6.0944999694335575E-003   3.7873845095320459E-003   0.0000000000000000     
  -1.1664154889852056E-002   7.3181647150456601E-003   0.0000000000000000     
  -1.6708964761255499E-002   1.0592340616540841E-002   0.0000000000000000     
  -2.1228929583643884E-002   1.3609912214017594E-002   0.0000000000000000     
  -1.2195607609335832E-002   9.2195913578520441E-003   0.0000000000000000     
  -1.5427272712571993E-002   1.2359088297811786E-002   0.0000000000000000     
  -1.8575594528662781E-002   1.5668655538254680E-002   0.0000000000000000     
  -2.1640573057608206E-002   1.9148293079180739E-002   0.0000000000000000     
  -2.4622208299408265E-002   2.2798000920589957E-002   0.0000000000000000     
  -1.3798500301283635E-002   9.9798609230784090E-003   0.0000000000000000     
  -1.7407491820189833E-002   1.3206247383163543E-002   0.0000000000000000     
  -2.0893645763748435E-002   1.6567781100307578E-002   0.0000000000000000     
  -2.4256962131959457E-002   2.0064462074510511E-002   0.0000000000000000     
  -2.7497440924822883E-002   2.3696290305772354E-002   0.0000000000000000     
  -1.5838351527650913E-002   1.0965004254181458E-002   0.0000000000000000     
  -1.9735799885854218E-002   1.4195466135612273E-002   0.0000000000000000     
  -2.3494540123766044E-002   1.7554722870318555E-002   0.0000000000000000     
  -2.7114572241386393E-002   2.1042774458300301E-002   0.0000000000000000     
  -3.0595896238715260E-002   2.4659620899557519E-002   0.0000000000000000     
  -1.8315161288437663E-002   1.2175021351161183E-002   0.0000000000000000     
  -2.2412196909565151E-002   1.5326744555157975E-002   0.0000000000000000     
  -2.6378277608715604E-002   1.8629480848287621E-002   0.0000000000000000     
  -3.0213403385889029E-002   2.2083230230550113E-002   0.0000000000000000     
  -3.3917574241085421E-002   2.5687992701945463E-002   0.0000000000000000     
  -2.1228929583643884E-002   1.3609912214017594E-002   0.0000000000000000     
  -2.5436682891322622E-002   1.6600082641800656E-002   0.0000000000000000     
  -2.9544858218597109E-002   1.9792055034214776E-002   0.0000000000000000     
  -3.3553455565467349E-002   2.3185829391259946E-002   0.0000000000000000     
  -3.7462474931933346E-002   2.6781405712936177E-002   0.0000000000000000     
  -2.4622208299408265E-002   2.2798000920589957E-002   0.0000000000000000     
  -2.7522095575927951E-002   2.6641785430570528E-002   0.0000000000000000     
  -3.0341830209032254E-002   3.0703652977210644E-002   0.0000000000000000     
  -3.3081412198721176E-002   3.4983603560510314E-002   0.0000000000000000     
  -3.5740841544994718E-002   3.9481637180469528E-002   0.0000000000000000     
  -2.7497440924822883E-002   2.3696290305772354E-002   0.0000000000000000     
  -3.0636303033712845E-002   2.7506592901446913E-002   0.0000000000000000     
  -3.3694769350003456E-002   3.1538696968888023E-002   0.0000000000000000     
  -3.6672839873694726E-002   3.5792602508095683E-002   0.0000000000000000     
  -3.9570514604786645E-002   4.0268309519069886E-002   0.0000000000000000     
  -3.0595896238715260E-002   2.4659620899557519E-002   0.0000000000000000     
  -3.3967649986774998E-002   2.8450758244421122E-002   0.0000000000000000     
  -3.7258971356587921E-002   3.2461682543222042E-002   0.0000000000000000     
  -4.0469860348154044E-002   3.6692393795960267E-002   0.0000000000000000     
  -4.3600316961473373E-002   4.1142892002635809E-002   0.0000000000000000     
  -3.3917574241085421E-002   2.5687992701945463E-002   0.0000000000000000     
  -3.7516136435114408E-002   2.9474281459493150E-002   0.0000000000000000     
  -4.1034436228785658E-002   3.3472609700212687E-002   0.0000000000000000     
  -4.4472473622099148E-002   3.7682977424104071E-002   0.0000000000000000     
  -4.7830248615054888E-002   4.2105384631167295E-002   0.0000000000000000     
  -3.7462474931933346E-002   2.6781405712936177E-002   0.0000000000000000     
  -4.1281762378731116E-002   3.0577162546663005E-002   0.0000000000000000     
  -4.5021163966596681E-002   3.4571478439859978E-002   0.0000000000000000     
  -4.8680679695530041E-002   3.8764353392527082E-002   0.0000000000000000     
  -5.2260309565531196E-002   4.3155787404664331E-002   0.0000000000000000     
  -3.5740841544994718E-002   3.9481637180469528E-002   0.0000000000000000     
  -3.8318946781314159E-002   4.4191965556251878E-002   0.0000000000000000     
  -4.0814556441140785E-002   4.9108800407020932E-002   0.0000000000000000     
  -4.3227670524474598E-002   5.4232141732776719E-002   0.0000000000000000     
  -4.5558289031315591E-002   5.9561989533519211E-002   0.0000000000000000     
  -3.9570514604786645E-002   4.0268309519069886E-002   0.0000000000000000     
  -4.2390691558304550E-002   4.4959310549260438E-002   0.0000000000000000     
  -4.5136268749273734E-002   4.9859098146117165E-002   0.0000000000000000     
  -4.7807246177694225E-002   5.4967672309640031E-002   0.0000000000000000     
  -5.0403623843565983E-002   6.0285033039829058E-002   0.0000000000000000     
  -4.3600316961473373E-002   4.1142892002635809E-002   0.0000000000000000     
  -4.6654337716746236E-002   4.5809726957183432E-002   0.0000000000000000     
  -4.9635919134173000E-002   5.0689448453537927E-002   0.0000000000000000     
  -5.2545061213753637E-002   5.5782056491699296E-002   0.0000000000000000     
  -5.5381763955488196E-002   6.1087551071667509E-002   0.0000000000000000     
  -4.7830248615054888E-002   4.2105384631167295E-002   0.0000000000000000     
  -5.1109885256639231E-002   4.6743214780020852E-002   0.0000000000000000     
  -5.4313507595838563E-002   5.1599851329283249E-002   0.0000000000000000     
  -5.7441115632652869E-002   5.6675294278954493E-002   0.0000000000000000     
  -6.0492709367082176E-002   6.1969543629034583E-002   0.0000000000000000     
  -5.2260309565531196E-002   4.3155787404664331E-002   0.0000000000000000     
  -5.5757334177983529E-002   4.7759774017772684E-002   0.0000000000000000     
  -5.9169034134270437E-002   5.2590306773353121E-002   0.0000000000000000     
  -6.2495409434391920E-002   5.7647385671405649E-002   0.0000000000000000     
  -6.5736460078347977E-002   6.2931010711930246E-002   0.0000000000000000     
  -4.5558289031315591E-002   5.9561989533519211E-002   0.0000000000000000     
  -4.7822840887731803E-002   6.5087034196320226E-002   0.0000000000000000     
  -5.0037755019791262E-002   7.0795966108251576E-002   0.0000000000000000     
  -5.2203031427493961E-002   7.6688785269313248E-002   0.0000000000000000     
  -5.4318670110839920E-002   8.2765491679505226E-002   0.0000000000000000     
  -5.0403623843565983E-002   6.0285033039829058E-002   0.0000000000000000     
  -5.2933869115269067E-002   6.5797232429533517E-002   0.0000000000000000     
  -5.5406449361183448E-002   7.1490322571602663E-002   0.0000000000000000     
  -5.7821364581309147E-002   7.7364303466036510E-002   0.0000000000000000     
  -6.0178614775646150E-002   8.3419175112835045E-002   0.0000000000000000     
  -5.5381763955488196E-002   6.1087551071667509E-002   0.0000000000000000     
  -5.8149970031428973E-002   6.6587696214113534E-002   0.0000000000000000     
  -6.0853622113628381E-002   7.2264255939708269E-002   0.0000000000000000     
  -6.3492720202086392E-002   7.8117230248451727E-002   0.0000000000000000     
  -6.6067264296803041E-002   8.4146619140343895E-002   0.0000000000000000     
  -6.0492709367082176E-002   6.1969543629034583E-002   0.0000000000000000     
  -6.3471143636211549E-002   6.7458425550060264E-002   0.0000000000000000     
  -6.6379273277126061E-002   7.3117766212568380E-002   0.0000000000000000     
  -6.9217098289825751E-002   7.8947565616558857E-002   0.0000000000000000     
  -7.1984618674310580E-002   8.4947823762031763E-002   0.0000000000000000     
  -6.5736460078347977E-002   6.2931010711930246E-002   0.0000000000000000     
  -6.8897389929616776E-002   6.8409420437373761E-002   0.0000000000000000     
  -7.1983402851676523E-002   7.4050853390182997E-002   0.0000000000000000     
  -7.4994498844527163E-002   7.9855309570357969E-002   0.0000000000000000     
  -7.7930677908168766E-002   8.5822788977898662E-002   0.0000000000000000     
  -5.4318670110839920E-002   8.2765491679505226E-002   0.0000000000000000     
  -5.6361403518260675E-002   8.9015003660110559E-002   0.0000000000000000     
  -5.8307964098187809E-002   9.5426239532412221E-002   0.0000000000000000     
  -6.0158351850621281E-002  0.10199919929641020        0.0000000000000000     
  -6.1912566775561131E-002  0.10873388295210452        0.0000000000000000     
  -6.0178614775646150E-002   8.3419175112835045E-002   0.0000000000000000     
  -6.2455137972917504E-002   8.9644886867126697E-002   0.0000000000000000     
  -6.4627872201846223E-002   9.6031388084039881E-002   0.0000000000000000     
  -6.6696817462432320E-002  0.10257867876357457        0.0000000000000000     
  -6.8661973754675767E-002  0.10928675890573079        0.0000000000000000     
  -6.6067264296803041E-002   8.4146619140343895E-002   0.0000000000000000     
  -6.8555466748879260E-002   9.0344663123237287E-002   0.0000000000000000     
  -7.0935539909416034E-002   9.6703602704984404E-002   0.0000000000000000     
  -7.3207483778413324E-002  0.10322343788558522        0.0000000000000000     
  -7.5371298355871169E-002  0.10990416866503978        0.0000000000000000     
  -7.1984618674310580E-002   8.4947823762031763E-002   0.0000000000000000     
  -7.4662389846145941E-002   9.1114332428442302E-002   0.0000000000000000     
  -7.7230967220897187E-002   9.7442883395245775E-002   0.0000000000000000     
  -7.9690350798564291E-002  0.10393347666244215        0.0000000000000000     
  -8.2040540579147350E-002  0.11058611223003147        0.0000000000000000     
  -7.7930677908168766E-002   8.5822788977898662E-002   0.0000000000000000     
  -8.0775907264717534E-002   9.1953894782741782E-002   0.0000000000000000     
  -8.3514154136289709E-002   9.8249230154824022E-002   0.0000000000000000     
  -8.6145418522885292E-002  0.10470879509414538        0.0000000000000000     
  -8.8669700424504283E-002  0.11133258960070586        0.0000000000000000     
  -6.1912566775561131E-002  0.10873388295210452        0.0000000000000000     
  -6.3572264933862602E-002  0.11562187148575424        0.0000000000000000     
  -6.5139102386380959E-002  0.12265474588361842        0.0000000000000000     
  -6.6613079133116232E-002  0.12983250614569702        0.0000000000000000     
  -6.7994195174068392E-002  0.13715515227199010        0.0000000000000000     
  -6.8661973754675767E-002  0.10928675890573079        0.0000000000000000     
  -7.0539752153625318E-002  0.11615224669424698        0.0000000000000000     
  -7.2346563734329711E-002  0.12317176031286151        0.0000000000000000     
  -7.4082408496788890E-002  0.13034529976157441        0.0000000000000000     
  -7.5747286441002926E-002  0.13767286504038567        0.0000000000000000     
  -7.5371298355871169E-002  0.10990416866503978        0.0000000000000000     
  -7.7450061187125774E-002  0.11674684815651505        0.0000000000000000     
  -7.9466849817513313E-002  0.12375252947317802        0.0000000000000000     
  -8.1421664247033815E-002  0.13092121261502870        0.0000000000000000     
  -8.3314504475687251E-002  0.13825289758206710        0.0000000000000000     
  -8.2040540579147350E-002  0.11058611223003147        0.0000000000000000     
  -8.4303192034363983E-002  0.11740567587255846        0.0000000000000000     
  -8.6499960635931850E-002  0.12439705336456797        0.0000000000000000     
  -8.8630846383850978E-002  0.13156024470605987        0.0000000000000000     
  -9.0695849278121382E-002  0.13889524989703431        0.0000000000000000     
  -8.8669700424504283E-002  0.11133258960070586        0.0000000000000000     
  -9.1099144695339876E-002  0.11812872984237721        0.0000000000000000     
  -9.3445896189585237E-002  0.12510533198703125        0.0000000000000000     
  -9.5709954907240380E-002  0.13226239603466794        0.0000000000000000     
  -9.7891320848305291E-002  0.13959992198528731        0.0000000000000000     
  -6.7994195174068392E-002  0.13715515227199010        0.0000000000000000     
  -6.9254802726735717E-002  0.14458888046674104        0.0000000000000000     
  -7.0367254008616500E-002  0.15209988693419324        0.0000000000000000     
  -7.1331549019710755E-002  0.15968817167434671        0.0000000000000000     
  -7.2147687760018453E-002  0.16735373468720149        0.0000000000000000     
  -7.5747286441002926E-002  0.13767286504038567        0.0000000000000000     
  -7.7321574988608685E-002  0.14513170025748690        0.0000000000000000     
  -7.8785651561243161E-002  0.15269904952106966        0.0000000000000000     
  -8.0139516158906271E-002  0.16037491283113392        0.0000000000000000     
  -8.1383168781598070E-002  0.16815929018767975        0.0000000000000000     
  -8.3314504475687251E-002  0.13825289758206710        0.0000000000000000     
  -8.5114353997579439E-002  0.14571020322351425        0.0000000000000000     
  -8.6790196306816086E-002  0.15325574838859138        0.0000000000000000     
  -8.8342031403397331E-002  0.16088953307729834        0.0000000000000000     
  -8.9769859287323048E-002  0.16861155728963526        0.0000000000000000     
  -9.0695849278121382E-002  0.13889524989703431        0.0000000000000000     
  -9.2633139753647883E-002  0.14632438936482312        0.0000000000000000     
  -9.4380888245335415E-002  0.15376998353675836        0.0000000000000000     
  -9.5939094753183921E-002  0.16123203241284001        0.0000000000000000     
  -9.7307759277193373E-002  0.16871053599306796        0.0000000000000000     
  -9.7891320848305291E-002  0.13959992198528731        0.0000000000000000     
  -9.9877932256814128E-002  0.14697425868141351        0.0000000000000000     
 -0.10155772737680102       0.15424175496557069        0.0000000000000000     
 -0.10293070620826601       0.16140241083775880        0.0000000000000000     
 -0.10399686875120909       0.16845622629797793        0.0000000000000000     
 </DataArray>
 <DataArray  type="Float64" Name="stress" NumberOfComponents="3" format="ascii">
   13412407899.304758        4023722369.7914271        2891583996.2140913     
   11764755419.197916        1890555749.7924433        1714885231.5972486     
   10314059765.021793        413911882.89585495        810816645.01344228     
   9060320936.7763901       -406209230.89833832        179378236.46267384     
   8003538934.4617043       -569807591.59013939       -179429994.05505672     
   10539043647.516178        3161713094.2548532        2223724811.9250054     
   9667975213.0695438        1590238814.0745213        1445437426.7407129     
   8945341029.0592079        513545368.68184900        862270897.15000808     
   8371141095.4851704       -68367241.923164845        474225223.15289074     
   7945375412.3474312       -155499017.74051714        281300404.74936068     
   8339073432.2176418        2501722029.6652927        1710600127.2335320     
   8023133836.4613609        1425503527.2126553        1274114450.0716333     
   7807105915.6469536        682323941.23294210        955240306.06387198     
   7690989669.7744265        272183271.72615385        753977695.21024871     
   7674785098.8437767        195081518.69228888        670326617.51076198     
   6812497253.4091539        2043749176.0227463        1352209942.1396720     
   6830231289.3733654        1396349889.2068462        1200916301.5900090     
   6899354424.7850342        920247600.54913592        1089724871.7550342     
   7019866659.6441593        615442310.04961443        1018635652.6347469     
   7191767993.9507408        481934017.70828176        987648644.22914696     
   5959315111.0907116        1787794533.3272133        1148554256.6434252     
   6089267571.8055611        1502777900.0570943        1225842981.2958410     
   6222086556.4734459        1227316346.6304293        1265724594.2234948     
   6357772065.0943680        961409873.04721749        1268199095.4263868     
   6496324097.6683254        705058479.30745983        1233266484.9045157     
   8003538934.4617043       -569807591.59013939       -179429994.05505672     
   7921907217.0693436       -204614241.64952421       -79354375.888711572     
   7799085679.3434343        23279707.179271221       -11172035.163871279     
   7635074321.2839832        113874254.89625359        25117028.119465046     
   7429873142.8909864        67169401.501414299        29512813.961294435     
   7945375412.3474312       -155499017.74051714        281300404.74936068     
   7745123201.8594933        15105114.614697933        278243627.68762517     
   7521765444.0413828        108690755.86934471        260738798.97511864     
   7275302138.8931065        125257906.02342892        228785918.61184525     
   7005733286.4146595        64806565.076942921        182384986.59780437     
   7674785098.8437767        195081518.69228888        670326617.51076198     
   7405755897.5195093        186049484.13988256        585235763.72488022     
   7131705421.8684492        160279868.49815750        503142084.07896847     
   6852633671.8905916        117772671.76711416        424045578.57302415     
   6568540647.5859375        58527893.946752787        347946247.20704490     
   7191767993.9507408        481934017.70828176        987648644.22914696     
   6903805304.0493927        308218866.92602420        841622032.22305906     
   6628905612.8246250        178047045.06569982        716037820.14767492     
   6367068920.2764359        91418552.127306700        610896008.00299513     
   6118295226.4048271        48333388.110846758        526196595.78901964     
   6496324097.6683254        705058479.30745983        1233266484.9045157     
   6239271421.4491444        381613262.97312975        1047402433.1821569     
   6013366016.9099159        161992285.57197833        899426007.18123984     
   5818607884.0506430        46195547.104009390        789337206.90176332     
   5654997022.8713245        34223047.569221497        717136032.34372652     
   7429873142.8909864        67169401.501414299        29512813.961294435     
   7250798791.1171417       -18475607.250663280        15390034.859969353     
   7082071488.2419004       -69630453.007397175        912924.78543095407     
   6923691234.2652683       -86295135.768769741       -13918516.262324767     
   6775658029.1872368       -68469655.534805298       -29104288.283295408     
   7005733286.4146595        64806565.076942921        182384986.59780437     
   6834926449.6269789        9129804.7312083244        173724777.71228847     
   6670837891.5278311       -24152693.319408417        164862777.08018485     
   6513467612.1172218       -35040929.074903488        155798984.70149851     
   6362815611.3951454       -23534902.535289288        146533400.57622558     
   6568540647.5859375        58527893.946752787        347946247.20704490     
   6406437152.1462202        32950129.915905714        340515043.29225558     
   6247423165.1849651        17670727.479938507        333034586.85751235     
   6091498686.7021790        12689686.638859272        325504877.90281069     
   5938663716.6978521        18007007.392663002        317925916.42815620     
   6118295226.4048271        48333388.110846758        526196595.78901964     
   5965330898.6748686        52985368.303424597        515760831.59987789     
   5811827309.2133045        55839809.390650034        505428354.11740673     
   5657784458.0201349        56896711.372529268        495199163.34160918     
   5503202345.0953617        56156074.249055862        485073259.27248520     
   5654997022.8713245        34223047.569221497        717136032.34372652     
   5511607689.2129221        69235519.893761396        699462142.63514745     
   5364050323.6128435        90354552.412720442        682044078.85986853     
   5212324926.0710936        97580145.126097679        664881841.01789641     
   5056431496.5876646        90912298.033885479        647975429.10922527     
   6775658029.1872368       -68469655.534805298       -29104288.283295408     
   6618585601.7351446       -45966614.292687416       -19303331.241143063     
   6456038209.5956669       -41713455.341839790       -509353.84378742328     
   6288015852.7688074       -55710178.682262182        27277643.908780798     
   6114518531.2545748       -87956784.313944340        64057662.016551673     
   6362815611.3951454       -23534902.535289288        146533400.57622558     
   6222324250.6940346       -5347902.9643080235        144542856.68888551     
   6077509851.5407019       -1571031.5674057007        147309968.79429644     
   5928372413.9351482       -12204288.344569206        154834736.89243266     
   5774911937.8773727       -37247673.295813799        167117160.98330614     
   5938663716.6978521        18007007.392663002        317925916.42815620     
   5802652381.7121086        28247652.981830120        305487785.55234486     
   5663469934.5092916        27917924.514105797        293571946.30680460     
   5521116375.0894070        17017821.989493132        282178398.69153124     
   5375591703.4524651       -4452654.5920035839        271307142.70652992     
   5503202345.0953617        56156074.249055862        485073259.27248520     
   5359569994.7893515        54820053.545714140        463531455.34922075     
   5213918458.5014296        46753412.902679682        438276578.69375497     
   5066247736.2315969        31956152.319936037        409308629.30608761     
   4916557827.9798584        10428271.797504663        376627607.18622410     
   5056431496.5876646        90912298.033885479        647975429.10922527     
   4893077089.9257679        74369298.727353573        618673866.07951736     
   4728855423.5171165        54935433.598312616        581423865.95514309     
   4563766497.3617125        32610702.646761656        536225428.73609620     
   4397810311.4595594        7395105.8727016449        483078554.42238432     
   6114518531.2545748       -87956784.313944340        64057662.016551673     
   5962830251.1832523       -114116037.62661386        59917810.269150421     
   5816316698.3615952       -123026200.10706449        58763657.664816976     
   5674977872.7896023       -114687271.75530457        60595204.203531474     
   5538813774.4672832       -89099252.571296930        65412449.885307372     
   5774911937.8773727       -37247673.295813799        167117160.98330614     
   5633455799.3395386       -58818514.535791159        147988683.80878434     
   5496237804.1694994       -66262211.216457129        132686521.26942433     
   5363257952.3672609       -59578763.337791920        121210673.36522160     
   5234516243.9328146       -38768170.899816513        113561140.09618385     
   5375591703.4524651       -4452654.5920035839        271307142.70652992     
   5246769464.9969864       -20714556.194630384        236097358.90936607     
   5121248786.0274324       -25971259.510841608        205554505.23946741     
   4999029666.5438051       -20222764.540630341        179678581.69682664     
   4880112106.5460968       -3469071.2840211391        158469588.28145537     
   4916557827.9798584        10428271.797504663        376627607.18622410     
   4802771248.1556044        195837.39690160751        324243835.57090163     
   4691349643.9353952       -2153344.9902033806        277367609.57494736     
   4582293015.3192368        3380724.6361994743        235998929.19835445     
   4475601362.3071365        16798046.276105881        200137794.44112876     
   4397810311.4595594        7395105.8727016449        483078554.42238432     
   4301461148.8153801        3912666.2387659550        412428113.79339218     
   4206540377.8933830        5191532.3454337120        348125834.27585906     
   4113047998.6935630        11231704.192692995        290171715.86980325     
   4020984011.2159300        22033181.780566216        238565758.57520521     
   5538813774.4672832       -89099252.571296930        65412449.885307372     
   5336725345.9924564       -78039443.623384953        71192129.910487756     
   5132923127.9446707       -72692266.585335016        74129308.329691827     
   4927407120.3239145       -73057721.457193851        74223985.142939419     
   4720177323.1301928       -79135808.238925695        71476160.350214541     
   5234516243.9328146       -38768170.899816513        113561140.09618385     
   5025314161.3889656       -37268144.743880033        101397827.95437607     
   4815056932.8075132       -39285272.046611547        88811079.548199192     
   4603744558.1884651       -44819552.808010101        75800894.877665997     
   4391377037.5318031       -53870987.028109550        62367273.942764975     
   4880112106.5460968       -3469071.2840211391        158469588.28145537     
   4670707985.1949482       -9455343.3415229321        129131701.43058655     
   4460907361.3415527       -16763290.406501055        101789443.65695006     
   4250710234.9859166       -25392912.478955507        76442814.960552797     
   4040116606.1280389       -35344209.558889389        53091815.341390111     
   4475601362.3071365        16798046.276105881        200137794.44112876     
   4272906817.4103994        5398960.5836691856        154393750.33912107     
   4070474413.5467834       -5126321.6650342941        113064400.65594099     
   3868304150.7162824       -14777800.470026970        76149745.391604930     
   3666396028.9188976       -23555475.831283331        43649784.546102107     
   4020984011.2159300        22033181.780566216        238565758.57520521     
   3831910658.0353265        7294767.0317077637        177183974.67997006     
   3643758089.4231977       -4374365.8222303391        122635950.54517782     
   3456526305.3795552       -12974216.781219244        74921686.170820177     
   3270215305.9043851       -18504785.845295906        34041181.556904167     
   4720177323.1301928       -79135808.238925695        71476160.350214541     
   4560628227.2428026       -81732357.529800892        87882554.097348154     
   4395657092.6419716       -102402369.19882464        121465975.32558021     
   4225263919.3276939       -141145843.24599099        172226424.03489789     
   4049448707.2999973       -197962779.67123222        240163900.22532171     
   4391377037.5318031       -53870987.028109550        62367273.942764975     
   4267100361.6343346       -46476309.984349251        59762815.856634341     
   4137297858.9191437       -57501055.666357517        64808293.435222663     
   4001969529.3862324       -86945224.074114323        77503706.678503349     
   3861115373.0355797       -134808815.20763230        97849055.586486980     
   4040116606.1280389       -35344209.558889389        53091815.341390111     
   3923892087.8879514       -26124384.880278587        31355419.300339539     
   3802037954.7258472       -35669943.275038004        7741867.1076015308     
   3674554206.6417322       -63980884.743175745       -17748841.236829359     
   3541440843.6356025       -111057209.28470373       -45116705.732948959     
   3666396028.9188976       -23555475.831283331        43649784.546102107     
   3531003406.0036435       -20676582.217561722        2660364.4284602208     
   3389877380.0620751       -36909032.024867535       -49733303.657265238     
   3243017951.0942149       -72252825.253155947       -113531219.71107243     
   3090425119.1000504       -126707961.90245914       -188733383.73296320     
   3270215305.9043851       -18504785.845295906        34041181.556904167     
   3088434315.9814053       -30132901.996249199       -26322348.759004571     
   2900816134.9278355       -61218321.915826082       -107617218.85938406     
   2707360762.7436781       -111761045.60402417       -209843428.74424133     
   2508068199.4289312       -181761073.06087160       -333000978.41356552     
   4049448707.2999973       -197962779.67123222        240163900.22532171     
   3445218446.5953407       -248439402.20046854        157381376.05681819     
   2935332089.5486369        15563654.130113602        180305243.13052750     
   2519789636.1598659        594046389.32049966        308935501.44646055     
   2198591086.4290180        1487008803.3705964        543272151.00461543     
   3861115373.0355797       -134808815.20763230        97849055.586486980     
   3487460919.5949926       -167254963.67726731        41041986.516176224     
   3175546050.1968865        6097501.3280255795        51733653.162268676     
   2925370764.8412519        385248579.80824995        129924055.52473871     
   2736935063.5281072        970198271.76339579        275613193.60359913     
   3541440843.6356025       -111057209.28470373       -45116705.732948959     
   3289197467.3852515       -158222302.71692395       -113986692.58973396     
   3066089355.5619297       -108269848.05904341       -153565599.25597215     
   2872116508.1656332        38800154.688919067       -163853425.73166430     
   2707278925.1963482        282987705.52692723       -144850172.01680484     
   3090425119.1000504       -126707961.90245914       -188733383.73296320     
   2850428089.9661331       -221341419.31937397       -307704661.26094037     
   2606962005.6437855       -327538394.03105259       -435592514.12420654     
   2360026866.1330080       -445298886.03752410       -572396942.32275808     
   2109622671.4337876       -574622895.33878827       -718117945.85659027     
   2508068199.4289312       -181761073.06087160       -333000978.41356552     
   2171152787.3376384       -356612313.48461998       -540111919.49743962     
   1798164000.4424441       -651708136.58803904       -794347091.44242537     
   1389101838.7433741       -1067048542.3710577       -1095706494.2485356     
   943966302.24040055       -1602633530.8337386       -1444190127.9157660     
   5959315111.0907116        1787794533.3272133        1148554256.6434252     
   6089267571.8055611        1502777900.0570943        1225842981.2958410     
   6222086556.4734459        1227316346.6304293        1265724594.2234948     
   6357772065.0943680        961409873.04721749        1268199095.4263868     
   6496324097.6683254        705058479.30745983        1233266484.9045157     
   5434982908.6015720        1630494872.5804715        1032074659.1505677     
   5489700609.0414839        1373045332.0237415        1112170539.3677521     
   5546712237.0379734        1123242216.6556032        1165439002.0105033     
   5606017792.5910416        881085526.47605753        1191880047.0788217     
   5667617275.7006865        646575261.48510385        1191493674.5727067     
   4894956549.2809925        1468486964.7842977        935212738.06687653     
   4904667187.0183363        1247672826.2126672        1017447744.7196279     
   4916099155.9157982        1032596458.1747670        1083435027.9482751     
   4929252455.9733810        823257860.67059720        1133174587.7528183     
   4944127087.1910839        619657033.70015824        1166666424.1332576     
   4339236033.1289721        1301770809.9386916        857968493.39235151     
   4334167305.7361174        1126660382.6238716        941674597.35146797     
   4330247313.1069221        955379071.18792033        1019712672.0368100     
   4327476055.2413874        787926875.63083696        1092082717.4483767     
   4325853532.1395130        624303795.95262265        1158784733.5861678     
   3767821360.1455131        1130346408.0436540        800341925.12699282     
   3778200965.1948261        1010008001.2573547        884851097.26327312     
   3789156708.6113415        891590055.69506204        974271934.27610743     
   3800688590.3950591        775092571.35677648        1068604436.1654960     
   3812796610.5459781        660515548.24249756        1167848602.9314377     
   6496324097.6683254        705058479.30745983        1233266484.9045157     
   6239271421.4491444        381613262.97312975        1047402433.1821569     
   6013366016.9099159        161992285.57197833        899426007.18123984     
   5818607884.0506430        46195547.104009390        789337206.90176332     
   5654997022.8713245        34223047.569221497        717136032.34372652     
   5667617275.7006865        646575261.48510385        1191493674.5727067     
   5514970297.6725416        388271699.80421209        1069608106.8008317     
   5386719925.0447865        211290156.12461400        975114299.30367422     
   5282866157.8174171        115630630.44631124        908012252.08123338     
   5203408995.9904385        101293122.76930285        868301965.13350856     
   4944127087.1910839        619657033.70015824        1166666424.1332576     
   4865897620.3633356        417498670.57551193        1100883562.9857061     
   4805314092.6564102        274160104.52027488        1051996596.6661488     
   4762376504.0703077        189641335.53444695        1020005525.1745832     
   4737084854.6050291        163942363.61802936        1004910348.5110126     
   4325853532.1395130        624303795.95262265        1158784733.5861678     
   4292053389.5215244        469294175.28703189        1141228801.7367799     
   4269148519.7447929        350602130.75896430        1130072899.2686613     
   4257138922.8093176        268227662.36841917        1125317026.1818125     
   4256024598.7151008        222170770.11539817        1126961182.4762347     
   3812796610.5459781        660515548.24249756        1167848602.9314377     
   3793437605.1471095        543658213.93876922        1190643823.0540531     
   3778223206.3099313        440616234.84067976        1209343207.1112154     
   3767153414.0344458        351389610.94822645        1223946755.1029236     
   3760228228.3206506        275978342.26141262        1234454467.0291770     
   5654997022.8713245        34223047.569221497        717136032.34372652     
   5511607689.2129221        69235519.893761396        699462142.63514745     
   5364050323.6128435        90354552.412720442        682044078.85986853     
   5212324926.0710936        97580145.126097679        664881841.01789641     
   5056431496.5876646        90912298.033885479        647975429.10922527     
   5203408995.9904385        101293122.76930285        868301965.13350856     
   5054223365.1010857        100929931.86639810        843824696.31041992     
   4903647408.4769392        95932321.847508907        822796525.96732056     
   4751681126.1179962        86300292.712633371        805217454.10421669     
   4598324518.0242586        72033844.461771250        791087480.72110581     
   4737084854.6050291        163942363.61802936        1004910348.5110126     
   4591226562.3324184        130940600.24198461        976870357.81476891     
   4446755650.5318899        102563438.43955302        955472738.14521015     
   4303672119.2034464        78810878.210735083        940717489.50233638     
   4161975968.3470902        59682919.555531025        932604611.88614714     
   4256024598.7151008        222170770.11539817        1126961182.4762347     
   4122617280.9069185        159267525.02052212        1098599127.1481988     
   3993375049.7776976        110247902.18885469        1080072715.3935397     
   3868297905.3274422        75111901.620401621        1071381947.2122549     
   3747385847.5561490        53859523.315158606        1072526822.6043472     
   3760228228.3206506        275978342.26141262        1234454467.0291770     
   3648395520.8245854        185910706.20200908        1209011004.3107076     
   3543505606.2143607        118985713.09541154        1196596457.7123065     
   3445558484.4899817        75203362.941630006        1197210827.2339704     
   3354554155.6514449        54563655.740654826        1210854112.8757033     
   5056431496.5876646        90912298.033885479        647975429.10922527     
   4893077089.9257679        74369298.727353573        618673866.07951736     
   4728855423.5171165        54935433.598312616        581423865.95514309     
   4563766497.3617125        32610702.646761656        536225428.73609620     
   4397810311.4595594        7395105.8727016449        483078554.42238432     
   4598324518.0242586        72033844.461771250        791087480.72110581     
   4421468260.3931866        47709642.776038647        772202869.48065495     
   4244019125.0417423        21409182.022397757        752676318.21532238     
   4065977111.9699264       -6867537.7991468906        732507826.92510843     
   3887342221.1777396       -37120516.688603640        711697395.61001742     
   4161975968.3470902        59682919.555531025        932604611.88614714     
   3992493565.6605268        33840227.264704227        924457064.79905915     
   3822692667.2799697        6935882.6605687141        922974074.75687814     
   3652573273.2054195       -21030114.256874323        928155641.75960636     
   3482135383.4368801       -50057763.487624168        940001765.80724454     
   3747385847.5561490        53859523.315158606        1072526822.6043472     
   3606153005.7277770        32761052.193340063        1075436452.0347323     
   3464876050.2317934        11515535.512819529        1092317135.5798118     
   3323554981.0681953       -9877026.7264151573        1123168873.2395935     
   3182189798.2369881       -31416634.524352670        1167991665.0140681     
   3354554155.6514449        54563655.740654826        1210854112.8757033     
   3262446580.5949450        44472117.561952949        1225141031.1876705     
   3170569273.8972135        35148140.579143643        1260705500.6841264     
   3078922235.5582485        26591724.792226791        1317547521.3650682     
   2987505465.5780540        18802870.201206207        1395667093.2304945     
   4397810311.4595594        7395105.8727016449        483078554.42238432     
   4301461148.8153801        3912666.2387659550        412428113.79339218     
   4206540377.8933830        5191532.3454337120        348125834.27585906     
   4113047998.6935630        11231704.192692995        290171715.86980325     
   4020984011.2159300        22033181.780566216        238565758.57520521     
   3887342221.1777396       -37120516.688603640        711697395.61001742     
   3806788669.6625204       -36360056.662767410        678916143.93239093     
   3727875712.6581392       -30130948.267482042        650958070.55178523     
   3650603350.1645918       -18433191.502736807        627823175.46819615     
   3574971582.1818810       -1266786.3685462475        609511458.68162596     
   3482135383.4368801       -50057763.487624168        940001765.80724454     
   3413020349.2950568       -46361531.928683996        945337273.00108862     
   3345758112.4527221       -36489309.371441603        953970975.67750335     
   3280348672.9098768       -20441095.815895081        965902873.83648801     
   3216792030.6665249        1783108.7379523516        981132967.47803760     
   3182189798.2369881       -31416634.524352670        1167991665.0140681     
   3120156187.7129860       -26091759.558981061        1211691500.9994829     
   3060187577.2771287       -13883550.966461539        1257164549.6530182     
   3002283966.9294209        5207991.2532274723        1304410810.9746716     
   2946445356.6698565        31182867.100055575        1353430284.9644446     
   2987505465.5780540        18802870.201206207        1395667093.2304945     
   2928196184.9163079        24449260.446340680        1477978827.9275734     
   2871164107.1313615        37686326.947470546        1560538792.4783251     
   2816409232.2232213        58514069.704624176        1643346986.8827443     
   2763931560.1918755        86932488.717764854        1726403411.1408396     
   4020984011.2159300        22033181.780566216        238565758.57520521     
   3831910658.0353265        7294767.0317077637        177183974.67997006     
   3643758089.4231977       -4374365.8222303391        122635950.54517782     
   3456526305.3795552       -12974216.781219244        74921686.170820177     
   3270215305.9043851       -18504785.845295906        34041181.556904167     
   3574971582.1818810       -1266786.3685462475        609511458.68162596     
   3404507565.7620425       -9099986.7182803154        579305164.36608410     
   3234677725.6317182       -14819266.102958798        554986473.70627356     
   3065482061.7909141       -18424624.522574663        536555386.70220238     
   2896920574.2396336       -19916061.977109551        524011903.35386443     
   3216792030.6665249        1783108.7379523516        981132967.47803760     
   3062234047.8511519        44131.840443253517        981767786.41673028     
   2908023633.0463352       -536285.02186810970        987344052.90645826     
   2754160786.2520809        41858.151028990746        997861766.94721413     
   2600645507.4683895        1778561.3591287136        1013320928.5390034     
   2946445356.6698565        31182867.100055575        1353430284.9644446     
   2805090104.3026547        34727122.707884669        1384571840.8319211     
   2663795811.6670551        38474577.421060085        1419708688.1457293     
   2522562478.7630553        42425231.239572644        1458840826.9058628     
   2381390105.5906596        46579084.163418055        1501968257.1123307     
   2763931560.1918755        86932488.717764854        1726403411.1408396     
   2633075735.1165543        94948985.884051919        1787717327.6116507     
   2501994261.4938745        102213321.22581792        1852080379.4240854     
   2370687139.3238363        108725494.74305391        1919492566.5781467     
   2239154368.6064420        114485506.43576801        1989953889.0738392     
   3270215305.9043851       -18504785.845295906        34041181.556904167     
   3088434315.9814053       -30132901.996249199       -26322348.759004571     
   2900816134.9278355       -61218321.915826082       -107617218.85938406     
   2707360762.7436781       -111761045.60402417       -209843428.74424133     
   2508068199.4289312       -181761073.06087160       -333000978.41356552     
   2896920574.2396336       -19916061.977109551        524011903.35386443     
   2675604197.6384535       -42106100.581351161        491900498.75408697     
   2450441248.4171557       -77118047.919318080        452745964.75247365     
   2221431726.5757508       -124951903.99098253        406548301.34901369     
   1988575632.1142328       -185607668.79635441        353307508.54370856     
   2600645507.4683895        1778561.3591287136        1013320928.5390034     
   2379474345.2822404       -19069219.370442390        1011784037.9175856     
   2156447228.9864521       -46103513.798806787        1017092228.2769575     
   1931564158.5810263       -79324321.925956488        1029245499.6171122     
   1704825134.0659580       -118731643.75191665        1048243851.9380555     
   2381390105.5906596        46579084.163418055        1501968257.1123307     
   2200044758.9127660        38977741.636488438        1533328268.7314909     
   2018834076.6357126        31825280.445688486        1585421571.7140646     
   1837758058.7594950        25121700.591009021        1658248166.0600588     
   1656816705.2841139        18867002.072453439        1751808051.7694683     
   2239154368.6064420        114485506.43576801        1989953889.0738392     
   2137315438.5300362        132034782.43945110        2056533191.1957943     
   2037601791.3649433        156668334.81416994        2157733995.0638018     
   1940013427.1111693        188386163.55995834        2293556300.6778517     
   1844550345.7686987        227188268.67675215        2464000108.0379543     
   2508068199.4289312       -181761073.06087160       -333000978.41356552     
   2171152787.3376384       -356612313.48461998       -540111919.49743962     
   1798164000.4424441       -651708136.58803904       -794347091.44242537     
   1389101838.7433741       -1067048542.3710577       -1095706494.2485356     
   943966302.24040055       -1602633530.8337386       -1444190127.9157660     
   1988575632.1142328       -185607668.79635441        353307508.54370856     
   1568125548.2724364       -334382145.01042235        209647625.54367068     
   1130528291.1642094       -540313865.44593477        42836818.779045574     
   675783860.78953862       -803402830.10289454       -147124911.75014436     
   203892257.14844489       -1123649038.9813182       -360237566.04392284     
   1704825134.0659580       -118731643.75191665        1048243851.9380555     
   1269335541.6066437       -220880806.81637710        990115595.48220861     
   835624977.41833866       -317099875.64412868        932809722.35832655     
   403693441.50105941       -407388850.23512805        876326232.56640053     
  -26459066.145199850       -491747730.58940428        820665126.10643840     
   1656816705.2841139        18867002.072453439        1751808051.7694683     
   1274782767.3402462       -16108298.902525783        1801291990.3181837     
   913454059.20484781        17933832.817398429        1875571619.2953975     
   572830580.87792408        120993397.23225006        1974646938.7011116     
   252912332.35948300        293070394.34201127        2098517948.5353286     
   1844550345.7686987        227188268.67675215        2464000108.0379543     
   1584467225.4732521        279935378.73115325        2643176810.0515876     
   1364015536.5237265        464787259.93862635        2871122509.5902600     
   1183195278.9201348        781743912.29922450        3147837206.6539760     
   1042006452.6624765        1230805335.8129132        3473320901.2427440     
   3767821360.1455131        1130346408.0436540        800341925.12699282     
   3778200965.1948261        1010008001.2573547        884851097.26327312     
   3789156708.6113415        891590055.69506204        974271934.27610743     
   3800688590.3950591        775092571.35677648        1068604436.1654960     
   3812796610.5459781        660515548.24249756        1167848602.9314377     
   3207609795.7377667        962282938.72133005        757050687.59007382     
   3235089009.7297983        869287929.79935467        853567927.03408110     
   3262271232.8961449        775302951.45842922        952017032.05032003     
   3289156465.2368059        680328003.69855285        1052398002.6387905     
   3315744706.7517829        584363086.51972711        1154710838.7994921     
   2685498605.3128877        805649581.59386635        722812435.10086787     
   2721563715.9495730        737443856.84679568        830319091.12756765     
   2756458706.5676861        665337732.03781760        936777813.42217600     
   2790183577.1672268        589331207.16693211        1042188601.9846933     
   2822738327.7481961        509424282.23413938        1146551456.8151190     
   2201487788.8708763        660446336.66126287        697627167.65937507     
   2237625083.8541517        614475782.39967775        815104589.54373181     
   2271719129.6259661        561694397.43322766        928554278.39167464     
   2303769926.1863213        502102181.76191306        1037976234.2032043     
   2333777473.5352182        435699135.38573426        1143370456.9783199     
   1755577346.4117324        526673203.92351973        681494885.26559532     
   1783273113.4435315        500383706.45800030        807924422.28257442     
   1808052502.0709841        464372947.64465916        927346426.95881724     
   1829915512.2940900        418640927.48349631        1039760899.2943236     
   1848862144.1128502        363187645.97451204        1145167839.2890940     
   3812796610.5459781        660515548.24249756        1167848602.9314377     
   3793437605.1471095        543658213.93876922        1190643823.0540531     
   3778223206.3099313        440616234.84067976        1209343207.1112154     
   3767153414.0344458        351389610.94822645        1223946755.1029236     
   3760228228.3206506        275978342.26141262        1234454467.0291770     
   3315744706.7517829        584363086.51972711        1154710838.7994921     
   3290981630.0210705        478448938.31565237        1184366120.9684691     
   3270113015.1809616        385516329.74691892        1211434910.6169474     
   3253138862.2314553        305565260.81352854        1235917207.7449269     
   3240059171.1725512        238595731.51547873        1257813012.3524063     
   2822738327.7481961        509424282.23413938        1146551456.8151190     
   2796883589.8140831        415747043.16825002        1182774965.5808549     
   2774673169.0994840        334217528.16740680        1217921325.3710461     
   2756107065.6043992        264835737.23161018        1251990536.1856925     
   2741185279.3288288        207601670.36085939        1284982598.0247936     
   2333777473.5352182        435699135.38573426        1143370456.9783199     
   2311143484.5261469        355552528.49656355        1185870356.8912098     
   2291903668.0654998        286719830.10214168        1228802451.3735104     
   2276058024.1532784        229201040.20247340        1272166740.4252210     
   2263606552.7894807        182996158.79755247        1315963224.0463421     
   1848862144.1128502        363187645.97451204        1145167839.2890940     
   1833761314.1572607        297865394.30059218        1193652294.8995352     
   1821804512.0790071        243023235.55112469        1244078288.6243422     
   1812991737.8780911        198661169.72611529        1296445820.4635131     
   1807322991.5545104        164779196.82555813        1350754890.4170487     
   3760228228.3206506        275978342.26141262        1234454467.0291770     
   3648395520.8245854        185910706.20200908        1209011004.3107076     
   3543505606.2143607        118985713.09541154        1196596457.7123065     
   3445558484.4899817        75203362.941630006        1197210827.2339704     
   3354554155.6514449        54563655.740654826        1210854112.8757033     
   3240059171.1725512        238595731.51547873        1257813012.3524063     
   3163311989.5306711        166709612.82123876        1245423953.0753186     
   3092022208.2698584        113014828.73055851        1242799108.9432709     
   3026189827.3901143        77511379.243439436        1249938479.9562612     
   2965814846.8914404        60199264.359883428        1266842066.1142888     
   2741185279.3288288        207601670.36085939        1284982598.0247936     
   2690195906.4696221        151098753.91032803        1283914984.2668531     
   2643178541.4867091        107835863.71410751        1289346884.6789222     
   2600133184.3800902        77812999.772202611        1301278299.2609994     
   2561059835.1497655        61030162.084609747        1319709228.0130873     
   2263606552.7894807        182996158.79755247        1315963224.0463421     
   2229047271.6414394        139078129.46927762        1324484097.8853097     
   2196974605.8649158        103448818.04606366        1336239784.9192584     
   2167388555.4599118        76108224.527916908        1351230285.1481867     
   2140289120.4264290        57056348.914837956        1369455598.5720973     
   1807322991.5545104        164779196.82555813        1350754890.4170487     
   1779866085.0461216        130647739.49808508        1367131293.9306889     
   1753410401.4044776        99853691.726428807        1383477809.6642802     
   1727955940.6295779        72397053.510586739        1399794437.6178241     
   1703502702.7214239        48277824.850565016        1416081177.7913194     
   3354554155.6514449        54563655.740654826        1210854112.8757033     
   3262446580.5949450        44472117.561952949        1225141031.1876705     
   3170569273.8972135        35148140.579143643        1260705500.6841264     
   3078922235.5582485        26591724.792226791        1317547521.3650682     
   2987505465.5780540        18802870.201206207        1395667093.2304945     
   2965814846.8914404        60199264.359883428        1266842066.1142888     
   2920949129.8383374        56924696.123542309        1272189674.7880917     
   2876813771.2702413        56084656.170558095        1291026476.1394775     
   2833408771.1871490        57679144.500918508        1323352470.1684449     
   2790734129.5890656        61708161.114637971        1369167656.8749945     
   2561059835.1497655        61030162.084609747        1319709228.0130873     
   2541183523.2231965        57896827.927573800        1316700965.5293329     
   2522537659.9078708        58864989.141350031        1319393537.2162585     
   2505122245.2037868        63934645.725935102        1327786943.0738623     
   2488937279.1109447        73105797.681328416        1341881183.1021473     
   2140289120.4264290        57056348.914837956        1369455598.5720973     
   2123149760.7495251        47388512.974047422        1358674903.4113960     
   2107740939.8101017        43489139.491526484        1345806683.9144716     
   2094062657.6081572        45358228.467267752        1330850940.0813248     
   2082114914.1436944        52995779.901276708        1313807671.9119527     
   1703502702.7214239        48277824.850565016        1416081177.7913194     
   1666847842.4173191        25399751.262957096        1398111488.4342811     
   1632423610.9769313        9957107.2210735083        1370265916.2341192     
   1600230008.4002631        1949892.7249236703        1332544461.1908274     
   1570267034.6873121        1378107.7744919062        1284947123.3044112     
   2987505465.5780540        18802870.201206207        1395667093.2304945     
   2928196184.9163079        24449260.446340680        1477978827.9275734     
   2871164107.1313615        37686326.947470546        1560538792.4783251     
   2816409232.2232213        58514069.704624176        1643346986.8827443     
   2763931560.1918755        86932488.717764854        1726403411.1408396     
   2790734129.5890656        61708161.114637971        1369167656.8749945     
   2732994344.6730251        64668532.119530916        1417615403.2748618     
   2676799518.2301497        72778764.701642632        1467642074.8347325     
   2622149650.2604423        86038858.860981345        1519247671.5546076     
   2569044740.7639031        104448814.59754515        1572432193.4344881     
   2488937279.1109447        73105797.681328416        1341881183.1021473     
   2436568976.5301352        74520745.422839522        1355610656.0672247     
   2385013388.0188565        78644740.062786341        1372249749.4986427     
   2334270513.5771112        85477781.601179600        1391798463.3963959     
   2284340353.2048960        95019870.038005114        1414256797.7604885     
   2082114914.1436944        52995779.901276708        1313807671.9119527     
   2038920080.4876411        54005900.356267452        1291964586.3046691     
   1995805716.4974833        55284253.030911326        1274361816.4700553     
   1952771822.1732218        56830837.925208688        1260999362.4081142     
   1909818397.5148578        58645655.039163828        1251877224.1188471     
   1570267034.6873121        1378107.7744919062        1284947123.3044112     
   1540047656.5455382        3123996.9198118448        1226677193.9871886     
   1509176503.6660264        2697303.6060025096        1173978275.7489746     
   1477653576.0487776        98027.833069860935        1126850368.5897629     
   1445478873.6937888       -4673830.3989965320        1085293472.5095589     
   2763931560.1918755        86932488.717764854        1726403411.1408396     
   2633075735.1165543        94948985.884051919        1787717327.6116507     
   2501994261.4938745        102213321.22581792        1852080379.4240854     
   2370687139.3238363        108725494.74305391        1919492566.5781467     
   2239154368.6064420        114485506.43576801        1989953889.0738392     
   2569044740.7639031        104448814.59754515        1572432193.4344881     
   2446025599.1048827        104101285.42307436        1603059770.1056757     
   2322923115.2832894        103475949.04002643        1638596589.3725750     
   2199737289.2991133        102572805.44836581        1679042651.2351794     
   2076468121.1523564        101391854.64810622        1724397955.6934857     
   2284340353.2048960        95019870.038005114        1414256797.7604885     
   2174472487.1166968        87902692.169157386        1414364058.7476354     
   2064663585.2506983        80982061.707639694        1421240669.5845649     
   1954913647.6068895        74257978.653424144        1434886630.2712793     
   1845222674.1852806        67730443.006537557        1455301940.8077788     
   1909818397.5148578        58645655.039163828        1251877224.1188471     
   1818416399.1519897        46353206.122281551        1221630193.5375192     
   1727215671.3960953        34731659.228649378        1200012620.0600548     
   1636216214.2471662        23781014.358232617        1187024503.6864522     
   1545418027.7052162        13501271.511078835        1182665844.4167118     
   1445478873.6937888       -4673830.3989965320        1085293472.5095589     
   1377857335.2107592       -20547172.717561245        1024858174.4753313     
   1310579373.7194800       -35275258.396952868        974912440.79904389     
   1243644989.2199430       -48858087.437209308        935456271.48069787     
   1177054181.7121596       -61295659.838284135        906489666.52028942     
   2239154368.6064420        114485506.43576801        1989953889.0738392     
   2137315438.5300362        132034782.43945110        2056533191.1957943     
   2037601791.3649433        156668334.81416994        2157733995.0638018     
   1940013427.1111693        188386163.55995834        2293556300.6778517     
   1844550345.7686987        227188268.67675215        2464000108.0379543     
   2076468121.1523564        101391854.64810622        1724397955.6934857     
   2050155128.8840506        132134892.12864405        1762265687.3594861     
   2025796117.5809240        169391199.49311727        1820564078.3294661     
   2003391087.2429762        213160776.74151105        1899293128.6034350     
   1982940037.8702052        263443623.87383312        1998452838.1813860     
   1845222674.1852806        67730443.006537557        1455301940.8077788     
   1853890355.6048985        99503662.727897644        1464258249.7473240     
   1864340716.0435553        137219145.84605545        1479454375.5487969     
   1876573755.5012560        180876892.36102206        1500890318.2121878     
   1890589473.9779930        230476902.27278513        1528566077.7374992     
   1545418027.7052162        13501271.511078835        1182665844.4167118     
   1548521118.6925740        34141094.237192571        1162510878.3593199     
   1553235586.7528362        60152173.872984171        1134404886.7217810     
   1559561431.8860044        91534510.418462157        1098347869.5041020     
   1567498654.0920825        128288103.87364429        1054339826.7062856     
   1177054181.7121596       -61295659.838284135        906489666.52028942     
   1134047418.1470814       -63952813.343459547        857023573.19546318     
   1092480729.7087712       -61809716.426076829        785415611.84842896     
   1052354116.3972268       -54866369.086137116        691665782.47919333     
   1013667578.2124518       -43122771.323632479        575774085.08774781     
   1844550345.7686987        227188268.67675215        2464000108.0379543     
   1584467225.4732521        279935378.73115325        2643176810.0515876     
   1364015536.5237265        464787259.93862635        2871122509.5902600     
   1183195278.9201348        781743912.29922450        3147837206.6539760     
   1042006452.6624765        1230805335.8129132        3473320901.2427440     
   1982940037.8702052        263443623.87383312        1998452838.1813860     
   1827862155.7768760        314988789.53278875        2126624654.2033467     
   1698292074.0433080        451559956.39093697        2287078104.6393065     
   1594229792.6694915        673157124.44827688        2479813189.4892716     
   1515675311.6554346        979780293.70479345        2704829908.7532196     
   1890589473.9779930        230476902.27278513        1528566077.7374992     
   1793410078.3409545        266688098.01257062        1589255438.2839196     
   1707614852.0774925        340846524.99762189        1665739070.1332974     
   1633203795.1876140        452952183.22795230        1758016973.2856221     
   1570176907.6713228        603005072.70355916        1866089147.7409134     
   1567498654.0920825        128288103.87364429        1054339826.7062856     
   1481110993.1654794        135033304.17048144        1031069162.2932971     
   1391983870.6262891        132646965.75869381        1007105406.0722213     
   1300117286.4745011        121129088.63825387        982448558.04305422     
   1205511240.7101328        100479672.80919498        957098618.20579183     
   1013667578.2124518       -43122771.323632479        575774085.08774781     
   890964900.25045288       -79975591.993476570        452065826.23148298     
   751399129.68969369       -173038721.32585695        311177112.45608640     
   594970266.53016424       -322312159.32079983        153107943.76155606     
   421678310.77187324       -527795905.97828352       -22141679.852112520     
   1755577346.4117324        526673203.92351973        681494885.26559532     
   1783273113.4435315        500383706.45800030        807924422.28257442     
   1808052502.0709841        464372947.64465916        927346426.95881724     
   1829915512.2940900        418640927.48349631        1039760899.2943236     
   1848862144.1128502        363187645.97451204        1145167839.2890940     
   1325708570.6601174        397712571.19803518        671339819.12940991     
   1338795838.2267871        375690080.78672445        793582787.39239252     
   1349695821.9901946        346376644.36453927        910611286.77965605     
   1358408521.9503400        309772261.93147969        1022425317.2912005     
   1364933938.1072228        265876933.48754600        1129024878.9270260     
   889822754.34069288        266946826.30220786        664086200.46069992     
   893424560.91371131        250728254.48654926        782993210.33761752     
   895568178.28455174        229649051.99696347        898478814.80383348     
   896253606.45321381        203709218.83345032        1010543013.8593478     
   895480845.41969776        172908754.99600995        1119185807.5041606     
   447919897.45345873        134375969.23603761        659734029.25946581     
   447159281.50430405        125498227.55747457        776155691.11825001     
   445669570.95405531        114190170.54193141        890949011.03134990     
   443450765.80271256        100451798.18940845        1004113988.9987651     
   440502866.05027592        84283110.499905109        1115650625.0204966     
  -1.5849272443919087E-003  -4.7547817331757263E-004   658283305.52570724     
  -1.4346410963967621E-003  -4.9945167049766535E-004   773070229.73428941     
  -1.2943601090210266E-003  -5.5629865411990201E-004   888021875.46220469     
  -1.1638998487522839E-003  -6.4611991924339507E-004   1003138242.7094527     
  -1.0433160745594050E-003  -7.6903627696736426E-004   1118419331.4760339     
   1848862144.1128502        363187645.97451204        1145167839.2890940     
   1833761314.1572607        297865394.30059218        1193652294.8995352     
   1821804512.0790071        243023235.55112469        1244078288.6243422     
   1812991737.8780911        198661169.72611529        1296445820.4635131     
   1807322991.5545104        164779196.82555813        1350754890.4170487     
   1364933938.1072228        265876933.48754600        1129024878.9270260     
   1358695096.2591891        218411278.91759974        1185191694.9180553     
   1354814275.3191190        178805694.04086462        1242113133.5457690     
   1353291475.2870114        147060178.85733908        1299789194.8101666     
   1354126696.1628678        123174733.36702567        1358219878.7112482     
   895480845.41969776        172908754.99600995        1119185807.5041606     
   894712804.60013366        142282341.40631327        1182117975.7448413     
   895516777.71915925        116895974.27858180        1244617851.1445260     
   897892764.77677536        96749653.612818241        1306685433.7032146     
   901840765.77298069        81843379.409019530        1368320723.4209075     
   440502866.05027592        84283110.499905109        1115650625.0204966     
   441814439.18009430        69478581.766731262        1184431137.3798938     
   443912019.27912939        57294076.264279470        1251592441.4206142     
   446795606.34738064        47729593.992549121        1317134537.1426587     
   450465200.38484871        40785134.951540068        1381057424.5460255     
  -1.0433160745594050E-003  -7.6903627696736426E-004   1118419331.4760339     
  -9.2927611576450327E-004  -1.1461098782482350E-003   1192131179.8232119     
  -9.7207469866562889E-004  -2.0461954589503606E-003   1263036904.3740327     
  -1.1712546712038996E-003  -3.4678775990947155E-003   1331136505.1284969     
  -1.5277614338451038E-003  -5.4131150111775264E-003   1396429982.0866036     
   1807322991.5545104        164779196.82555813        1350754890.4170487     
   1779866085.0461216        130647739.49808508        1367131293.9306889     
   1753410401.4044776        99853691.726428807        1383477809.6642802     
   1727955940.6295779        72397053.510586739        1399794437.6178241     
   1703502702.7214239        48277824.850565016        1416081177.7913194     
   1354126696.1628678        123174733.36702567        1358219878.7112482     
   1329922415.5490270        96492660.150916994        1376358345.0708351     
   1306469052.0851009        72313644.101189017        1395309630.4882686     
   1283766605.7710893        50637685.217843592        1415073734.9635503     
   1261815076.6069918        31464783.500879467        1435650658.4966769     
   901840765.77298069        81843379.409019530        1368320723.4209075     
   883296844.87624693        63333010.451044053        1387929229.2901387     
   865253535.41259754        46491346.270015448        1409193261.0551119     
   847710837.38203120        31318386.865932018        1432112818.7158272     
   830668750.78454912        17814132.238794595        1456687902.2722850     
   450465200.38484871        40785134.951540068        1381057424.5460255     
   439989373.02778047        31168790.398466453        1401843946.5885983     
   429763851.38696462        22386798.232901260        1425128701.3648088     
   419788635.46240216        14439158.454846278        1450911688.8746574     
   410063725.25409299        7325871.0643036962        1479192909.1181438     
  -1.5277614338451038E-003  -5.4131150111775264E-003   1396429982.0866036     
   3.6267005881956789E-003  -6.8198308721901298E-003   1418102496.9662158     
   8.2036369455826368E-003  -1.0151632282048819E-002   1443115951.4173605     
   1.2203542320449848E-002  -1.5407303981175645E-002   1471470345.4400392     
   1.5625138545664746E-002  -2.2589805484072203E-002   1503165679.0342505     
   1703502702.7214239        48277824.850565016        1416081177.7913194     
   1666847842.4173191        25399751.262957096        1398111488.4342811     
   1632423610.9769313        9957107.2210735083        1370265916.2341192     
   1600230008.4002631        1949892.7249236703        1332544461.1908274     
   1570267034.6873121        1378107.7744919062        1284947123.3044112     
   1261815076.6069918        31464783.500879467        1435650658.4966769     
   1207022979.4977295        6115942.7441098690        1426832635.5934007     
   1153903854.0366232       -13656325.852136791        1414508951.9529347     
   1102457700.2236757       -27852022.287853539        1398679607.5752811     
   1052684518.0588845       -36471146.563052475        1379344602.4604380     
   830668750.78454912        17814132.238794595        1456687902.2722850     
   775940051.45852423       -4545285.3106217682        1456370945.7379470     
   722326666.56509519       -23186988.084716469        1458918550.5723596     
   669828596.10426438       -38110976.083482921        1464330716.7755249     
   618445840.07603216       -49317249.306923449        1472607444.3474376     
   410063725.25409299        7325871.0643036962        1479192909.1181438     
   373599058.29970270       -6583932.9012400508        1486726418.8679242     
   337692048.56234914       -18634879.476661533        1503494712.0923936     
   302342696.04203445       -28826968.661952034        1529497788.7915545     
   267551000.73875791       -37160200.457117230        1564735648.9654033     
   1.5625138545664746E-002  -2.2589805484072203E-002   1503165679.0342505     
   2.1266322036694874E-002  -2.7742391717211490E-002   1517899054.9833305     
   2.8385489929257240E-002  -2.7968710223271839E-002   1548237436.5130394     
   3.6980875092953794E-002  -2.3274131019870650E-002   1594180823.6233773     
   4.7056360639565357E-002  -1.3645883873419366E-002   1655729216.3143430     
   1570267034.6873121        1378107.7744919062        1284947123.3044112     
   1540047656.5455382        3123996.9198118448        1226677193.9871886     
   1509176503.6660264        2697303.6060025096        1173978275.7489746     
   1477653576.0487776        98027.833069860935        1126850368.5897629     
   1445478873.6937888       -4673830.3989965320        1085293472.5095589     
   1052684518.0588845       -36471146.563052475        1379344602.4604380     
   1035623426.1413374       -33480697.194790721        1348925928.4265816     
   1018073503.1707697       -32119684.669935107        1322770795.7424424     
   1000034749.1471765       -32388108.988494873        1300879204.4080291     
   981507164.07055974       -34285970.150464714        1283251154.4233327     
   618445840.07603216       -49317249.306923449        1472607444.3474376     
   610807406.58475626       -46202928.055102706        1470230126.5624461     
   602843085.72517061       -44174898.030980229        1470808880.3978884     
   594552877.49727726       -43233159.234550804        1474343705.8537672     
   585936781.90107608       -43377711.665814310        1480834602.9300797     
   267551000.73875791       -37160200.457117230        1564735648.9654033     
   265599597.87579083       -35042695.661135659        1590589788.3947787     
   263485251.32923204       -33468336.477128133        1618092529.7153029     
   261207961.09908092       -32437122.905095026        1647243872.9269776     
   258767727.18533468       -31949054.945043787        1678043818.0298038     
   4.7056360639565357E-002  -1.3645883873419366E-002   1655729216.3143430     
   1.4445770587060876E-002  -1.2875003261327820E-002   1710004913.9235854     
  -1.7045568253585237E-002  -8.3739791657654224E-003   1764621743.6946919     
  -4.7413824240409561E-002  -1.2865166807332108E-004   1819579705.6276627     
  -7.6659603573483906E-002   1.1857570786061616E-002   1874878799.7224996     
   1445478873.6937888       -4673830.3989965320        1085293472.5095589     
   1377857335.2107592       -20547172.717561245        1024858174.4753313     
   1310579373.7194800       -35275258.396952868        974912440.79904389     
   1243644989.2199430       -48858087.437209308        935456271.48069787     
   1177054181.7121596       -61295659.838284135        906489666.52028942     
   981507164.07055974       -34285970.150464714        1283251154.4233327     
   940316820.68816793       -43333233.740219176        1245995711.2863269     
   899384160.04931891       -51521554.851493359        1217007143.3929160     
   858709182.15401018       -58850933.484300256        1196285450.7430978     
   818291887.00224483       -65321369.638629436        1183830633.3368738     
   585936781.90107608       -43377711.665814310        1480834602.9300797     
   564827093.29261565       -47504058.624762088        1466658804.7340567     
   543889193.17948699       -51057777.265934974        1458527192.6672807     
   523123081.56169844       -54038867.589308262        1456439766.7297466     
   502528758.43924403       -56447329.594902247        1460396526.9214628     
   258767727.18533468       -31949054.945043787        1678043818.0298038     
   251388153.02409953       -33059647.371195808        1686847454.8185220     
   244094473.10998791       -33883925.640268460        1699472588.6221395     
   236886687.44300848       -34421889.752234697        1715919219.4406531     
   229764796.02315706       -34673539.707106695        1736187347.2740638     
  -7.6659603573483906E-002   1.1857570786061616E-002   1874878799.7224996     
 -0.11737918329620591        2.0481693264483826E-002   1906561661.5397203     
 -0.15918591994019121        2.5482306283390335E-002   1939843331.2574883     
 -0.20205532531008547        2.6940863688281178E-002   1974723808.8758092     
 -0.24601209348051267        2.4774184535338473E-002   2011203094.3946791     
   1177054181.7121596       -61295659.838284135        906489666.52028942     
   1134047418.1470814       -63952813.343459547        857023573.19546318     
   1092480729.7087712       -61809716.426076829        785415611.84842896     
   1052354116.3972268       -54866369.086137116        691665782.47919333     
   1013667578.2124518       -43122771.323632479        575774085.08774781     
   818291887.00224483       -65321369.638629436        1183830633.3368738     
   729892917.70326483       -84157403.753484488        1157434446.1268983     
   642574004.74885190       -99393250.053114682        1121996633.4383609     
   556335148.13901246       -111028908.53749987        1077517195.2712612     
   471176347.87374270       -119064379.20665401        1023996131.6256007     
   502528758.43924403       -56447329.594902247        1460396526.9214628     
   406166847.81676626       -80233464.996314049        1456650223.9137788     
   310524974.75666124       -101619475.18981771        1456962537.9711738     
   215603139.25892359       -120605360.17542845        1461333469.0936470     
   121401341.32355902       -137191119.95313114        1469763017.2812002     
   229764796.02315706       -34673539.707106695        1736187347.2740638     
   162869208.48758820       -52180997.071944140        1754670906.5561051     
   96333639.732187346       -68488391.836222202        1790313325.4468665     
   30158089.756961245       -83595723.999917358        1843114603.9463458     
  -35657441.438095495       -97502993.563049510        1913074742.0545437     
 -0.24601209348051267        2.4774184535338473E-002   2011203094.3946791     
 -0.28427347472329884        1.9614049395644387E-002   2051496494.0538785     
 -0.32455768841707855        7.7111394193051380E-003   2122048995.8654385     
 -0.36687390762708960       -1.0965816167195636E-002   2222860599.8293595     
 -0.41121822064720820       -3.6401696675273959E-002   2353931305.9456377     
   1013667578.2124518       -43122771.323632479        575774085.08774781     
   890964900.25045288       -79975591.993476570        452065826.23148298     
   751399129.68969369       -173038721.32585695        311177112.45608640     
   594970266.53016424       -322312159.32079983        153107943.76155606     
   421678310.77187324       -527795905.97828352       -22141679.852112520     
   471176347.87374270       -119064379.20665401        1023996131.6256007     
   319329923.95194507       -164649819.35712862        957503075.86162460     
   154836180.57501024       -252392991.02472553        887787428.77401280     
  -22304882.257059470       -382293894.20943326        814849190.36275280     
  -212093264.54426137       -554352528.91126347        738688360.62785506     
   121401341.32355902       -137191119.95313114        1469763017.2812002     
  -19709218.285199337       -179545296.50237998        1465403566.6104124     
  -169251324.20546323       -250004627.42331195        1471779388.2114809     
  -327224976.43723619       -348569112.71594620        1488890482.0844038     
  -493630174.98051846       -475238752.38027340        1516736848.2291605     
  -35657441.438095495       -97502993.563049510        1913074742.0545437     
  -126152526.46097529       -124662023.42921335        1975767298.4778512     
  -220863384.65173680       -165873630.52164799        2063152990.7684977     
  -319790016.01038033       -221137814.84035587        2175231818.9264913     
  -422932420.53690159       -290454576.38532448        2312003782.9518266     
 -0.41121822064720820       -3.6401696675273959E-002   2353931305.9456377     
 -0.57538419999254986      -0.13763324271485092        2488594271.4639330     
 -0.76380769840824003      -0.31972318565558927        2661908236.4450641     
 -0.97648125848962131      -0.58264597359257475        2873873200.8890262     
  -1.2134070305312885      -0.92641224362140728        3124489164.7958288     
  -1.5849272443919087E-003  -4.7547817331757263E-004   658283305.52570724     
  -1.4346410963967621E-003  -4.9945167049766535E-004   773070229.73428941     
  -1.2943601090210266E-003  -5.5629865411990201E-004   888021875.46220469     
  -1.1638998487522839E-003  -6.4611991924339507E-004   1003138242.7094527     
  -1.0433160745594050E-003  -7.6903627696736426E-004   1118419331.4760339     
  -447919897.45659071       -134375969.23697722        659734029.25948179     
  -447159281.50709665       -125498227.55817805        776155691.11824155     
  -445669570.95654619       -114190170.54252285        890949011.03128088     
  -443450765.80493861       -100451798.19001161        1004113988.9986000     
  -440502866.05227441       -84283110.500644207        1115650625.0201995     
  -889822754.34371078       -266946826.30311322        664086200.46084666     
  -893424560.91645372       -250728254.48696509        782993210.33769488     
  -895568178.28707325       -229649051.99707210        898478814.80376983     
  -896253606.45556903       -203709218.83343399        1010543013.8590716     
  -895480845.42194140       -172908754.99605101        1119185807.5035999     
  -1325708570.6629457       -397712571.19888371        671339819.12980258     
  -1338795838.2295055       -375690080.78686064        793582787.39265049     
  -1349695821.9928751       -346376644.36420351        910611286.77967179     
  -1358408521.9530549       -309772261.93091255        1022425317.2908672     
  -1364933938.1100445       -265876933.48698798        1129024878.9262354     
  -1755577346.4142950       -526673203.92428845        681494885.26634884     
  -1783273113.4462523       -500383706.45786458        807924422.28310752     
  -1808052502.0739527       -464372947.64391798        927346426.95898664     
  -1829915512.2973962       -418640927.48244858        1039760899.2939860     
  -1848862144.1165836       -363187645.97345626        1145167839.2881064     
  -1.0433160745594050E-003  -7.6903627696736426E-004   1118419331.4760339     
  -9.2927611576450327E-004  -1.1461098782482350E-003   1192131179.8232119     
  -9.7207469866562889E-004  -2.0461954589503606E-003   1263036904.3740327     
  -1.1712546712038996E-003  -3.4678775990947155E-003   1331136505.1284969     
  -1.5277614338451038E-003  -5.4131150111775264E-003   1396429982.0866036     
  -440502866.05227441       -84283110.500644207        1115650625.0201995     
  -441814439.18184882       -69478581.767996579        1184431137.3791468     
  -443912019.28086352       -57294076.266815767        1251592441.4193766     
  -446795606.34931725       -47729593.997098878        1317134537.1408896     
  -450465200.38721144       -40785134.958850086        1381057424.5436859     
  -895480845.42194140       -172908754.99605101        1119185807.5035999     
  -894712804.60223281       -142282341.40668622        1182117975.7434862     
  -895516777.72124767       -116895974.27973154        1244617851.1422951     
  -897892764.77898562       -96749653.615187228        1306685433.7000277     
  -901840765.77544618       -81843379.413053006        1368320723.4166827     
  -1364933938.1100445       -265876933.48698798        1129024878.9262354     
  -1358695096.2620821       -218411278.91721529        1185191694.9162304     
  -1354814275.3221259       -178805694.04079631        1242113133.5427880     
  -1353291475.2901764       -147060178.85773301        1299789194.8059092     
  -1354126696.1662323       -123174733.36802107        1358219878.7055919     
  -1848862144.1165836       -363187645.97345626        1145167839.2881064     
  -1833761314.1613955       -297865394.29958367        1193652294.8973794     
  -1821804512.0834975       -243023235.55000901        1244078288.6208556     
  -1812991737.8828883       -198661169.72473246        1296445820.4585347     
  -1807322991.5595694       -164779196.82375431        1350754890.4104156     
  -1.5277614338451038E-003  -5.4131150111775264E-003   1396429982.0866036     
   3.6267005881956789E-003  -6.8198308721901298E-003   1418102496.9662158     
   8.2036369455826368E-003  -1.0151632282048819E-002   1443115951.4173605     
   1.2203542320449848E-002  -1.5407303981175645E-002   1471470345.4400392     
   1.5625138545664746E-002  -2.2589805484072203E-002   1503165679.0342505     
  -450465200.38721144       -40785134.958850086        1381057424.5436859     
  -439989373.02015221       -31168790.407124609        1401843946.5844862     
  -429763851.37025207       -22386798.245928690        1425128701.3583412     
  -419788635.43751073       -14439158.475263134        1450911688.8652513     
  -410063725.22192955       -7325871.0951308608        1479192909.1052170     
  -901840765.77544618       -81843379.413053006        1368320723.4166827     
  -883296844.87070572       -63333010.455462545        1387929229.2826586     
  -865253535.39970541       -46491346.277006805        1409193261.0432127     
  -847710837.36244631       -31318386.877687097        1432112818.6983423     
  -830668750.75892758       -17814132.257503629        1456687902.2480502     
  -1354126696.1662323       -123174733.36802107        1358219878.7055919     
  -1329922415.5480340       -96492660.151832938        1376358345.0607328     
  -1306469052.0801568       -72313644.103385925        1395309630.4719727     
  -1283766605.7626011       -50637685.222676754        1415073734.9393134     
  -1261815076.5953689       -31464783.509709179        1435650658.4627502     
  -1807322991.5595694       -164779196.82375431        1350754890.4104156     
  -1779866085.0521348       -130647739.49623406        1367131293.9187095     
  -1753410401.4116042       -99853691.725059450        1383477809.6446242     
  -1727955940.6379762       -72397053.510229290        1399794437.5881600     
  -1703502702.7312541       -48277824.851748824        1416081177.7493172     
   1.5625138545664746E-002  -2.2589805484072203E-002   1503165679.0342505     
   2.1266322036694874E-002  -2.7742391717211490E-002   1517899054.9833305     
   2.8385489929257240E-002  -2.7968710223271839E-002   1548237436.5130394     
   3.6980875092953794E-002  -2.3274131019870650E-002   1594180823.6233773     
   4.7056360639565357E-002  -1.3645883873419366E-002   1655729216.3143430     
  -410063725.22192955       -7325871.0951308608        1479192909.1052170     
  -373599058.25645173        6583932.8624445647        1486726418.8547962     
  -337692048.50624555        18634879.435780078        1503494712.0783758     
  -302342695.97131640        28826968.624859825        1529497788.7759566     
  -267551000.65166259        37160200.429687425        1564735648.9475374     
  -830668750.75892758       -17814132.257503629        1456687902.2480502     
  -775940051.42397714        4545285.2856949270        1456370945.7119172     
  -722326666.52105439        23186988.055470616        1458918550.5431559     
  -669828596.05015838        38110976.051821262        1464330716.7417674     
  -618445840.01128948        49317249.274749130        1472607444.3077521     
  -1261815076.5953689       -31464783.509709179        1435650658.4627502     
  -1207022979.4813139       -6115942.7580008507        1426832635.5546937     
  -1153903854.0160382        13656325.831109524        1414508951.9073820     
  -1102457700.1995420        27852022.257621348        1398679607.5208149     
  -1052684518.0318255        36471146.521534443        1379344602.3949921     
  -1703502702.7312541       -48277824.851748824        1416081177.7493172     
  -1666847842.4284589       -25399751.268635988        1398111488.3831260     
  -1632423610.9911976       -9957107.2373020649        1370265916.1710515     
  -1600230008.4194658       -1949892.7577348948        1332544461.1130931     
  -1570267034.7132683       -1378107.8299473524        1284947123.2092514     
   4.7056360639565357E-002  -1.3645883873419366E-002   1655729216.3143430     
   1.4445770587060876E-002  -1.2875003261327820E-002   1710004913.9235854     
  -1.7045568253585237E-002  -8.3739791657654224E-003   1764621743.6946919     
  -4.7413824240409561E-002  -1.2865166807332108E-004   1819579705.6276627     
  -7.6659603573483906E-002   1.1857570786061616E-002   1874878799.7224996     
  -267551000.65166259        37160200.429687425        1564735648.9475374     
  -265599597.85381633        35042695.625556961        1590589788.3755348     
  -263485251.36976936        33468336.442096770        1618092529.6969962     
  -261207961.19951579        32437122.879325017        1647243872.9119189     
  -258767727.34305987        31949054.937227145        1678043818.0203087     
  -618445840.01128948        49317249.274749130        1472607444.3077521     
  -610807406.57841897        46202928.007087976        1470230126.5204346     
  -602843085.77426386        44174897.977041125        1470808880.3581762     
  -594552877.59882176        43233159.184617400        1474343705.8209841     
  -585936782.05209589        43377711.629807681        1480834602.9088511     
  -1052684518.0318255        36471146.521534443        1379344602.3949921     
  -1035623426.1593630        33480697.131711006        1348925928.3582847     
  -1018073503.2305319        32119684.596451044        1322770795.6782398     
  -1000034749.2453358        32388108.915739000        1300879204.3548539     
  -981507164.20376945        34285970.089596033        1283251154.3881316     
  -1570267034.7132683       -1378107.8299473524        1284947123.2092514     
  -1540047656.5966439       -3123997.0005562305        1226677193.8890858     
  -1509176503.7385716       -2697303.6996710896        1173978275.6571801     
  -1477653576.1390493       -98027.927284240723        1126850368.5135329     
  -1445478873.7980793        4673830.3165935874        1085293472.4581473     
  -7.6659603573483906E-002   1.1857570786061616E-002   1874878799.7224996     
 -0.11737918329620591        2.0481693264483826E-002   1906561661.5397203     
 -0.15918591994019121        2.5482306283390335E-002   1939843331.2574883     
 -0.20205532531008547        2.6940863688281178E-002   1974723808.8758092     
 -0.24601209348051267        2.4774184535338473E-002   2011203094.3946791     
  -258767727.34305987        31949054.937227145        1678043818.0203087     
  -251388153.26142582        33059647.375833079        1686847454.8118484     
  -244094473.42875597        33883925.651226535        1699472588.6208043     
  -236886687.84505111        34421889.763401181        1715919219.4471798     
  -229764796.51030746        34673539.712374613        1736187347.2909729     
  -585936782.05209589        43377711.629807681        1480834602.9088511     
  -564827093.51419890        47504058.598578244        1466658804.7188435     
  -543889193.47315156        51057777.244513065        1458527192.6631222     
  -523123081.92895603        54038867.567608744        1456439766.7416854     
  -502528758.88161027        56447329.567874521        1460396526.9545338     
  -981507164.20376945        34285970.089596033        1283251154.3881316     
  -940316820.87570119        43333233.688702047        1245995711.2607095     
  -899384160.29237080        51521554.805350900        1217007143.3844373     
  -858709182.45377898        58850933.439534247        1196285450.7593191     
  -818291887.35992086        65321369.591274500        1183830633.3853548     
  -1445478873.7980793        4673830.3165935874        1085293472.4581473     
  -1377857335.3459334        20547172.646210253        1024858174.4374404     
  -1310579373.8864105        35275258.333745897        974912440.78475273     
  -1243644989.4195156        48858087.379188061        935456271.50008678     
  -1177054181.9452419        61295659.782564759        906489666.58344150     
 -0.24601209348051267        2.4774184535338473E-002   2011203094.3946791     
 -0.28427347472329884        1.9614049395644387E-002   2051496494.0538785     
 -0.32455768841707855        7.7111394193051380E-003   2122048995.8654385     
 -0.36687390762708960       -1.0965816167195636E-002   2222860599.8293595     
 -0.41121822064720820       -3.6401696675273959E-002   2353931305.9456377     
  -229764796.51030746        34673539.712374613        1736187347.2909729     
  -162869209.04850766        52180997.065047540        1754670906.5832407     
  -96333640.371419922        68488391.802014932        1790313325.4867690     
  -30158090.479045376        83595723.923269793        1843114604.0015581     
   35657440.628612816        97502993.428804502        1913074742.1276155     
  -502528758.88161027        56447329.567874521        1460396526.9545338     
  -406166848.32288694        80233464.957434148        1456650223.9667311     
  -310524975.33155876        101619475.12234281        1456962538.0490954     
  -215603139.90763307        120605360.06257731        1461333469.2016239     
  -121401342.05110373        137191119.77815640        1469763017.4243221     
  -818291887.35992086        65321369.591274500        1183830633.3853548     
  -729892918.10741043        84157403.696777523        1157434446.2043538     
  -642574005.20498049        99393249.968677282        1121996633.5524197     
  -556335148.65263200        111028908.40696970        1077517195.4295566     
  -471176348.45037103        119064379.01164144        1023996131.8357582     
  -1177054181.9452419        61295659.782564759        906489666.58344150     
  -1134047418.4020772        63952813.283077896        857023573.29610574     
  -1092480729.9916768        61809716.341041028        785415611.99674237     
  -1052354116.7140512        54866368.956423044        691665782.68534958     
  -1013667578.5691905        43122771.129254162        575774085.36192846     
 -0.41121822064720820       -3.6401696675273959E-002   2353931305.9456377     
 -0.57538419999254986      -0.13763324271485092        2488594271.4639330     
 -0.76380769840824003      -0.31972318565558927        2661908236.4450641     
 -0.97648125848962131      -0.58264597359257475        2873873200.8890262     
  -1.2134070305312885      -0.92641224362140728        3124489164.7958288     
   35657440.628612816        97502993.428804502        1913074742.1276155     
   126152525.34419689        124662023.10676891        1975767298.5309999     
   220863383.18957925        165873629.88405859        2063152990.8146133     
   319790014.16474962        221137813.76064461        2175231818.9784632     
   422932418.26972210        290454574.73656875        2312003783.0225487     
  -121401342.05110373        137191119.77815640        1469763017.4243221     
   19709217.308228098        179545296.16452777        1465403566.7258496     
   169251322.95139778        250004626.83035651        1471779388.3250105     
   327224974.87841284        348569111.77566993        1488890482.2217956     
   493630173.08927321        475238751.00046968        1516736848.4162211     
  -471176348.45037103        119064379.01164144        1023996131.8357582     
  -319329924.68330330        164649819.03560030        957503076.04848766     
  -154836181.47834155        252392990.51920038        887787428.97624826     
   22304881.164507166        382293893.46242875        814849190.61903155     
   212093263.24525076        554352527.86530185        738688360.97685444     
  -1013667578.5691905        43122771.129254162        575774085.36192846     
  -890964900.63038707        79975591.720020533        452065826.49891526     
  -751399130.09964919        173038720.95056379        311177112.76833022     
  -594970266.97697175        322312158.82090473        153107944.17017663     
  -421678311.26235163        527795905.33106017       -22141679.295557719     
  -1755577346.4142950       -526673203.92428845        681494885.26634884     
  -1783273113.4462523       -500383706.45786458        807924422.28310752     
  -1808052502.0739527       -464372947.64391798        927346426.95898664     
  -1829915512.2973962       -418640927.48244858        1039760899.2939860     
  -1848862144.1165836       -363187645.97345626        1145167839.2881064     
  -2201487788.8730659       -660446336.66191983        697627167.66054308     
  -2237625083.8568273       -614475782.39951789        815104589.54466224     
  -2271719129.6291981       -561694397.43248343        928554278.39227831     
  -2303769926.1901793       -502102181.76081651        1037976234.2033916     
  -2333777473.5397706       -435699135.38451689        1143370456.9780021     
  -2685498605.3145657       -805649581.59436965        722812435.10244298     
  -2721563715.9519119       -737443856.84652424        830319091.12891090     
  -2756458706.5707345       -665337732.03693640        936777813.42325246     
  -2790183577.1710353       -589331207.16560638        1042188601.9854679     
  -2822738327.7528129       -509424282.23253435        1146551456.8155568     
  -3207609795.7387938       -962282938.72163808        757050687.59204817     
  -3235089009.7315059       -869287929.79888332        853567927.03585327     
  -3262271232.8985620       -775302951.45727634        952017032.05190861     
  -3289156465.2399621       -680328003.69681764        1052398002.6402142     
  -3315744706.7557068       -584363086.51750708        1154710838.8007705     
  -3767821360.1457515       -1130346408.0437255        800341925.12935901     
  -3778200965.1956100       -1010008001.2565954        884851097.26548970     
  -3789156708.6126804       -891590055.69350410        974271934.27824712     
  -3800688590.3969622       -775092571.35445058        1068604436.1676316     
  -3812796610.5484548       -660515548.23943615        1167848602.9336433     
  -1848862144.1165836       -363187645.97345626        1145167839.2881064     
  -1833761314.1613955       -297865394.29958367        1193652294.8973794     
  -1821804512.0834975       -243023235.55000901        1244078288.6208556     
  -1812991737.8828883       -198661169.72473246        1296445820.4585347     
  -1807322991.5595694       -164779196.82375431        1350754890.4104156     
  -2333777473.5397706       -435699135.38451689        1143370456.9780021     
  -2311143484.5314064       -355552528.49522513        1185870356.8900833     
  -2291903668.0713959       -286719830.10044360        1228802451.3714623     
  -2276058024.1597352       -229201040.20016956        1272166740.4221396     
  -2263606552.7964301       -182996158.79440737        1315963224.0421150     
  -2822738327.7528129       -509424282.23253435        1146551456.8155568     
  -2796883589.8195691       -415747043.16631132        1182774965.5808716     
  -2774673169.1057425       -334217528.16481030        1217921325.3705795     
  -2756107065.6113329       -264835737.22803104        1251990536.1846812     
  -2741185279.3363390       -207601670.35597301        1284982598.0231767     
  -3315744706.7557068       -584363086.51750708        1154710838.8007705     
  -3290981630.0258846       -478448938.31284380        1184366120.9697449     
  -3270113015.1865430       -385516329.74311423        1211434910.6182077     
  -3253138862.2376790       -305565260.80831742        1235917207.7461603     
  -3240059171.1792979       -238595731.50845373        1257813012.3536007     
  -3812796610.5484548       -660515548.23943615        1167848602.9336433     
  -3793437605.1503520       -543658213.93482149        1190643823.0567029     
  -3778223206.3137927       -440616234.83535254        1209343207.1143460     
  -3767153414.0387759       -351389610.94102836        1223946755.1065745     
  -3760228228.3253040       -275978342.25184977        1234454467.0333867     
  -1807322991.5595694       -164779196.82375431        1350754890.4104156     
  -1779866085.0521348       -130647739.49623406        1367131293.9187095     
  -1753410401.4116042       -99853691.725059450        1383477809.6446242     
  -1727955940.6379762       -72397053.510229290        1399794437.5881600     
  -1703502702.7312541       -48277824.851748824        1416081177.7493172     
  -2263606552.7964301       -182996158.79440737        1315963224.0421150     
  -2229047271.6545057       -139078129.46681833        1324484097.8765566     
  -2196974605.8840709       -103448818.04419672        1336239784.9045079     
  -2167388555.4851251       -76108224.526538491        1351230285.1259677     
  -2140289120.4576707       -57056348.913848281        1369455598.5409374     
  -2741185279.3363390       -207601670.35597301        1284982598.0231767     
  -2690195906.4859576       -151098753.90612781        1283914984.2617495     
  -2643178541.5116534       -107835863.70986795        1289346884.6697195     
  -2600133184.4134235       -77812999.767192483        1301278299.2470889     
  -2561059835.1912680       -61030162.078100562        1319709227.9938548     
  -3240059171.1792979       -238595731.50845373        1257813012.3536007     
  -3163311989.5464926       -166709612.81416190        1245423953.0742879     
  -3092022208.2943487       -113014828.72207487        1242799108.9402604     
  -3026189827.4228663       -77511379.232191324        1249938479.9515197     
  -2965814846.9320426       -60199264.344506860        1266842066.1080670     
  -3760228228.3253040       -275978342.25184977        1234454467.0333867     
  -3648395520.8361077       -185910706.19092000        1209011004.3141720     
  -3543505606.2321587       -118985713.08081245        1196596457.7161303     
  -3445558484.5134568       -75203362.921531439        1197210827.2392652     
  -3354554155.6800003       -54563655.713068724        1210854112.8835754     
  -1703502702.7312541       -48277824.851748824        1416081177.7493172     
  -1666847842.4284589       -25399751.268635988        1398111488.3831260     
  -1632423610.9911976       -9957107.2373020649        1370265916.1710515     
  -1600230008.4194658       -1949892.7577348948        1332544461.1130931     
  -1570267034.7132683       -1378107.8299473524        1284947123.2092514     
  -2140289120.4576707       -57056348.913848281        1369455598.5409374     
  -2123149760.7876515       -47388512.975993276        1358674903.3734632     
  -2107740939.8566523       -43489139.501541853        1345806683.8678732     
  -2094062657.6646757       -45358228.490496159        1330850940.0241694     
  -2082114914.2117155       -52995779.942844391        1313807671.8423495     
  -2561059835.1912680       -61030162.078100562        1319709227.9938548     
  -2541183523.2746816       -57896827.921697974        1316700965.5060263     
  -2522537659.9706063       -58864989.140331507        1319393537.1878507     
  -2505122245.2790403       -63934645.733992934        1327786943.0393310     
  -2488937279.1999831       -73105797.702686787        1341881183.0604646     
  -2965814846.9320426       -60199264.344506860        1266842066.1080670     
  -2920949129.8895531       -56924696.105758667        1272189674.7808127     
  -2876813771.3330598       -56084656.153669119        1291026476.1309824     
  -2833408771.2625675       -57679144.488242388        1323352470.1585758     
  -2790734129.6780715       -61708161.109477401        1369167656.8635924     
  -3354554155.6800003       -54563655.713068724        1210854112.8835754     
  -3262446580.6322641       -44472117.528167486        1225141031.1978271     
  -3170569273.9440145       -35148140.541560650        1260705500.6972704     
  -3078922235.6152525       -26591724.753241420        1317547521.3819070     
  -2987505465.6459765       -18802870.163209677        1395667093.2517359     
  -1570267034.7132683       -1378107.8299473524        1284947123.2092514     
  -1540047656.5966439       -3123997.0005562305        1226677193.8890858     
  -1509176503.7385716       -2697303.6996710896        1173978275.6571801     
  -1477653576.1390493       -98027.927284240723        1126850368.5135329     
  -1445478873.7980793        4673830.3165935874        1085293472.4581473     
  -2082114914.2117155       -52995779.942844391        1313807671.8423495     
  -2038920080.5571718       -54005900.412548542        1291964586.2414110     
  -1995805716.5665717       -55284253.095398903        1274361816.4196351     
  -1952771822.2399132       -56830837.991386890        1260999362.3770196     
  -1909818397.5771949       -58645655.100509167        1251877224.1135678     
  -2488937279.1999831       -73105797.702686787        1341881183.0604646     
  -2436568976.6049409       -74520745.450713515        1355610656.0391285     
  -2385013388.0792346       -78644740.096522093        1372249749.4878585     
  -2334270513.6228609       -85477781.640109658        1391798463.4066498     
  -2284340353.2358184       -95019870.081467867        1414256797.7955098     
  -2790734129.6780715       -61708161.109477401        1369167656.8635924     
  -2732994344.7399530       -64668532.115056276        1417615403.2822371     
  -2676799518.2765594       -72778764.703045607        1467642074.8618491     
  -2622149650.2878904       -86038858.873451233        1519247671.6024282     
  -2569044740.7739468       -104448814.62627923        1572432193.5039735     
  -2987505465.6459765       -18802870.163209677        1395667093.2517359     
  -2928196184.9622035       -24449260.405559540        1477978827.9707389     
  -2871164107.1585469       -37686326.914967179        1560538792.5416083     
  -2816409232.2350068       -58514069.691429615        1643346986.9643500     
  -2763931560.1915812       -86932488.734935999        1726403411.2389586     
  -1445478873.7980793        4673830.3165935874        1085293472.4581473     
  -1377857335.3459334        20547172.646210253        1024858174.4374404     
  -1310579373.8864105        35275258.333745897        974912440.78475273     
  -1243644989.4195156        48858087.379188061        935456271.50008678     
  -1177054181.9452419        61295659.782564759        906489666.58344150     
  -1909818397.5771949       -58645655.100509167        1251877224.1135678     
  -1818416399.2241127       -46353206.180317640        1221630193.5404003     
  -1727215671.4781575       -34731659.283878624        1200012620.0790296     
  -1636216214.3393242       -23781014.411181092        1187024503.7294569     
  -1545418027.8076205       -13501271.562243760        1182665844.4916773     
  -2284340353.2358184       -95019870.081467867        1414256797.7955098     
  -2174472487.1424379       -87902692.218887806        1414364058.7862968     
  -2064663585.2706833       -80982061.761723399        1421240669.6326587     
  -1954913647.6205573       -74257978.709987640        1434886630.3345935     
  -1845222674.1920562       -67730443.063672721        1455301940.8921030     
  -2569044740.7739468       -104448814.62627923        1572432193.5039735     
  -2446025599.1009088       -104101285.46950233        1603059770.1751328     
  -2322923115.2639976       -103475949.09981799        1638596589.4456415     
  -2199737289.2632132       -102572805.51722419        1679042651.3155007     
  -2076468121.0985541       -101391854.72170866        1724397955.7847090     
  -2763931560.1915812       -86932488.734935999        1726403411.2389586     
  -2633075735.0995235       -94948985.932160139        1787717327.7069046     
  -2501994261.4580917       -102213321.29813826        1852080379.5179784     
  -2370687139.2672853       -108725494.83287203        1919492566.6721780     
  -2239154368.5271134       -114485506.53637993        1989953889.1695025     
  -1177054181.9452419        61295659.782564759        906489666.58344150     
  -1134047418.4020772        63952813.283077896        857023573.29610574     
  -1092480729.9916768        61809716.341041028        785415611.99674237     
  -1052354116.7140512        54866368.956423044        691665782.68534958     
  -1013667578.5691905        43122771.129254162        575774085.36192846     
  -1545418027.8076205       -13501271.562243760        1182665844.4916773     
  -1548521118.7931492       -34141094.287576079        1162510878.4526510     
  -1553235586.8544755       -60152173.932227552        1134404886.8403132     
  -1559561431.9916043       -91534510.496224284        1098347869.6546636     
  -1567498654.2045257       -128288103.97952962        1054339826.8957031     
  -1845222674.1920562       -67730443.063672721        1455301940.8921030     
  -1853890355.5956612       -99503662.781670451        1464258249.8345158     
  -1864340716.0180936       -137219145.89575952        1479454375.6423366     
  -1876573755.4593511       -180876892.40593338        1500890318.3155646     
  -1890589473.9194326       -230476902.31218487        1528566077.8541982     
  -2076468121.0985541       -101391854.72170866        1724397955.7847090     
  -2050155128.8096104       -132134892.19919175        1762265687.4416990     
  -2025796117.4825196       -169391199.54951847        1820564078.4028132     
  -2003391087.1172819       -213160776.77268922        1899293128.6680536     
  -1982940037.7138999       -263443623.86870807        1998452838.2374213     
  -2239154368.5271134       -114485506.53637993        1989953889.1695025     
  -2137315438.4349957       -132034782.54014552        2056533191.2742009     
  -2037601791.2477641       -156668334.89353782        2157733995.1217422     
  -1940013426.9654112       -188386163.59652340        2293556300.7121282     
  -1844550345.5879378       -227188268.64910603        2464000108.0453572     
  -1013667578.5691905        43122771.129254162        575774085.36192846     
  -890964900.63038707        79975591.720020533        452065826.49891526     
  -751399130.09964919        173038720.95056379        311177112.76833022     
  -594970266.97697175        322312158.82090473        153107944.17017663     
  -421678311.26235163        527795905.33106017       -22141679.295557719     
  -1567498654.2045257       -128288103.97952962        1054339826.8957031     
  -1481110993.1781275       -135033304.27906376        1031069162.4324434     
  -1391983870.5405600       -132646965.87470162        1007105406.1865109     
  -1300117286.2918284       -121129088.76644987        982448558.15790403     
  -1205511240.4319184       -100479672.95429438        957098618.34664035     
  -1890589473.9194326       -230476902.31218487        1528566077.8541982     
  -1793410078.1342778       -266688098.00065082        1589255438.3131218     
  -1707614851.7187309       -340846524.92113519        1665739070.0742755     
  -1633203794.6727858       -452952183.07362628        1758016973.1376638     
  -1570176906.9964426       -603005072.45812941        1866089147.5032880     
  -1982940037.7138999       -263443623.86870807        1998452838.2374213     
  -1827862155.4988425       -314988789.44476569        2126624654.1409550     
  -1698292073.6341615       -451559956.18874162        2287078104.4316282     
  -1594229792.1198590       -673157124.10064495        2479813189.1094389     
  -1515675310.9559278       -979780293.18045294        2704829908.1743860     
  -1844550345.5879378       -227188268.64910603        2464000108.0453572     
  -1584467225.2718256       -279935378.61140609        2643176809.9159422     
  -1364015536.2868626       -464787259.67754334        2871122509.2585683     
  -1183195278.6330419       -781743911.84749174        3147837206.0732379     
  -1042006452.3103727       -1230805335.1212709        3473320900.3599424     
  -3767821360.1457515       -1130346408.0437255        800341925.12935901     
  -3778200965.1956100       -1010008001.2565954        884851097.26548970     
  -3789156708.6126804       -891590055.69350410        974271934.27824712     
  -3800688590.3969622       -775092571.35445058        1068604436.1676316     
  -3812796610.5484548       -660515548.23943615        1167848602.9336433     
  -4339236033.1283379       -1301770809.9385014        857968493.39500940     
  -4334167305.7359600       -1126660382.6232650        941674597.35400152     
  -4330247313.1072102       -955379071.18678677        1019712672.0392933     
  -4327476055.2420864       -787926875.62906492        1092082717.4508846     
  -4325853532.1405888       -624303795.95010006        1158784733.5887749     
  -4894956549.2794552       -1468486964.7838366        935212738.06963396     
  -4904667187.0172052       -1247672826.2122033        1017447744.7223361     
  -4916099155.9149990       -1032596458.1740468        1083435027.9510100     
  -4929252455.9728336       -823257860.66936505        1133174587.7556565     
  -4944127087.1907110       -619657033.69815993        1166666424.1362746     
  -5434982908.5991020       -1630494872.5797307        1032074659.1532323     
  -5489700609.0393438       -1373045332.0234098        1112170539.3704927     
  -5546712237.0360441       -1123242216.6552837        1165439002.0133975     
  -5606017792.5892029       -881085526.47535241        1191880047.0819473     
  -5667617275.6988201       -646575261.48361611        1191493674.5761416     
  -5959315111.0872793       -1787794533.3261838        1148554256.6458046     
  -6089267571.8023758       -1502777900.0568843        1225842981.2984719     
  -6222086556.4703493       -1227316346.6304989        1265724594.2264564     
  -6357772065.0911961       -961409873.04702711        1268199095.4297578     
  -6496324097.6649151       -705058479.30646753        1233266484.9083765     
  -3812796610.5484548       -660515548.23943615        1167848602.9336433     
  -3793437605.1503520       -543658213.93482149        1190643823.0567029     
  -3778223206.3137927       -440616234.83535254        1209343207.1143460     
  -3767153414.0387759       -351389610.94102836        1223946755.1065745     
  -3760228228.3253040       -275978342.25184977        1234454467.0333867     
  -4325853532.1405888       -624303795.95010006        1158784733.5887749     
  -4292053389.5232334       -469294175.28368747        1141228801.7399919     
  -4269148519.7470708       -350602130.75458610        1130072899.2725580     
  -4257138922.8121018       -268227662.36279297        1125317026.1864729     
  -4256024598.7183232       -222170770.10831046        1126961182.4817369     
  -4944127087.1907110       -619657033.69815993        1166666424.1362746     
  -4865897620.3633461       -417498670.57272315        1100883562.9893916     
  -4805314092.6568232       -274160104.51676154        1051996596.6706223     
  -4762376504.0711422       -189641335.53027153        1020005525.1799672     
  -4737084854.6063032       -163942363.61325574        1004910348.5174259     
  -5667617275.6988201       -646575261.48361611        1191493674.5761416     
  -5514970297.6706877       -388271699.80192828        1069608106.8049011     
  -5386719925.0430489       -211290156.12187743        975114299.30854023     
  -5282866157.8159018       -115630630.44346547        908012252.08705652     
  -5203408995.9892426       -101293122.76668739        868301965.14045238     
  -6496324097.6649151       -705058479.30646753        1233266484.9083765     
  -6239271421.4452600       -381613262.97130036        1047402433.1865212     
  -6013366016.9057493       -161992285.56993866        899426007.18630970     
  -5818607884.0463781       -46195547.102375269        789337206.90774202     
  -5654997022.8671446       -34223047.568612814        717136032.35081708     
  -3760228228.3253040       -275978342.25184977        1234454467.0333867     
  -3648395520.8361077       -185910706.19092000        1209011004.3141720     
  -3543505606.2321587       -118985713.08081245        1196596457.7161303     
  -3445558484.5134568       -75203362.921531439        1197210827.2392652     
  -3354554155.6800003       -54563655.713068724        1210854112.8835754     
  -4256024598.7183232       -222170770.10831046        1126961182.4817369     
  -4122617280.9143648       -159267525.01218653        1098599127.1537414     
  -3993375049.7888298       -110247902.17747259        1080072715.4001126     
  -3868297905.3417158       -75111901.604168892        1071381947.2208506     
  -3747385847.5730233       -53859523.292267799        1072526822.6159561     
  -4737084854.6063032       -163942363.61325574        1004910348.5174259     
  -4591226562.3356047       -130940600.23634744        976870357.82194424     
  -4446755650.5365057       -102563438.43143487        955472738.15402198     
  -4303672119.2090025       -78810878.198514223        940717489.51365900     
  -4161975968.3531003       -59682919.537584543        932604611.90085506     
  -5203408995.9892426       -101293122.76668739        868301965.14045238     
  -5054223365.0998297       -100929931.86340475        843824696.31878126     
  -4903647408.4751873       -95932321.842697144        822796525.97786164     
  -4751681126.1153202       -86300292.704567194        805217454.11769283     
  -4598324518.0202246       -72033844.449014664        791087480.73827505     
  -5654997022.8671446       -34223047.568612814        717136032.35081708     
  -5511607689.2070341       -69235519.893353462        699462142.64425087     
  -5364050323.6048765       -90354552.411262274        682044078.87162805     
  -5212324926.0606651       -97580145.122332096        664881841.03295064     
  -5056431496.5744028       -90912298.026560068        647975429.12821233     
  -3354554155.6800003       -54563655.713068724        1210854112.8835754     
  -3262446580.6322641       -44472117.528167486        1225141031.1978271     
  -3170569273.9440145       -35148140.541560650        1260705500.6972704     
  -3078922235.6152525       -26591724.753241420        1317547521.3819070     
  -2987505465.6459765       -18802870.163209677        1395667093.2517359     
  -3747385847.5730233       -53859523.292267799        1072526822.6159561     
  -3606153005.7517500       -32761052.164738655        1075436452.0477483     
  -3464876050.2631407       -11515535.479411840        1092317135.5949216     
  -3323554981.1071920        9877026.7637093067        1123168873.2574775     
  -3182189798.2839022        31416634.564631581        1167991665.0354147     
  -4161975968.3531003       -59682919.537584543        932604611.90085506     
  -3992493565.6720362       -33840227.241548300        924457064.81481767     
  -3822692667.2968078       -6935882.6316282749        922974074.77435219     
  -3652573273.2274141        21030114.292173624        928155641.77945757     
  -3482135383.4638562        50057763.529859304        940001765.83013391     
  -4598324518.0202246       -72033844.449014664        791087480.73827505     
  -4421468260.3931160       -47709642.758598566        772202869.49903893     
  -4244019125.0450168       -21409181.998206139        752676318.23556304     
  -4065977111.9759264        6867537.8321518898        732507826.94784665     
  -3887342221.1858435        37120516.732481241        711697395.63589275     
  -5056431496.5744028       -90912298.026560068        647975429.12821233     
  -4893077089.9149923       -74369298.715883493        618673866.10040867     
  -4728855423.5077629       -54935433.579141617        581423865.97855365     
  -4563766497.3527193       -32610702.616356134        536225428.76264745     
  -4397810311.4498577       -7395105.8275065422        483078554.45269275     
  -2987505465.6459765       -18802870.163209677        1395667093.2517359     
  -2928196184.9622035       -24449260.405559540        1477978827.9707389     
  -2871164107.1585469       -37686326.914967179        1560538792.5416083     
  -2816409232.2350068       -58514069.691429615        1643346986.9643500     
  -2763931560.1915812       -86932488.734935999        1726403411.2389586     
  -3182189798.2839022        31416634.564631581        1167991665.0354147     
  -3120156187.7413516        26091759.604283690        1211691501.0385370     
  -3060187577.2905679        13883551.004718661        1257164549.7083886     
  -3002283966.9315438       -5207991.2340507507        1304410811.0449660     
  -2946445356.6642885       -31182867.112042427        1353430285.0482705     
  -3482135383.4638562        50057763.529859304        940001765.83013391     
  -3413020349.3057952        46361531.978536367        945337273.03712213     
  -3345758112.4511414        36489309.415847063        953970975.72569764     
  -3280348672.8999004        20441095.841779947        965902873.89585686     
  -3216792030.6520724       -1783108.7436652184        981132967.54760218     
  -3887342221.1858435        37120516.732481241        711697395.63589275     
  -3806788669.6555271        36360056.717208624        678916143.96649265     
  -3727875712.6402726        30130948.318401814        650958070.59353340     
  -3650603350.1400785        18433191.536062241        627823175.51701891     
  -3574971582.1549454        1266786.3701837063        609511458.73694503     
  -4397810311.4498577       -7395105.8275065422        483078554.45269275     
  -4301461148.7905569       -3912666.1797134876        412428113.82664376     
  -4206540377.8579593       -5191532.2876057625        348125834.31189656     
  -4113047998.6520734       -11231704.151199818        290171715.90845424     
  -4020984011.1728959       -22033181.770490408        238565758.61630821     
  -2763931560.1915812       -86932488.734935999        1726403411.2389586     
  -2633075735.0995235       -94948985.932160139        1787717327.7069046     
  -2501994261.4580917       -102213321.29813826        1852080379.5179784     
  -2370687139.2672853       -108725494.83287203        1919492566.6721780     
  -2239154368.5271134       -114485506.53637993        1989953889.1695025     
  -2946445356.6642885       -31182867.112042427        1353430285.0482705     
  -2805090104.2767162       -34727122.749662876        1384571840.9162586     
  -2663795811.6187372       -38474577.485922933        1419708688.2316067     
  -2522562478.6903563       -42425231.320841670        1458840826.9943142     
  -2381390105.4915638       -46579084.254392862        1501968257.2043796     
  -3216792030.6520724       -1783108.7436652184        981132967.54760218     
  -3062234047.8140411       -44131.875201702118        981767786.49017143     
  -2908023632.9845676        536284.96473050117        987344052.98433387     
  -2754160786.1636543       -41858.223866224289        997861767.03008711     
  -2600645507.3512959       -1778561.4409922361        1013320928.6274339     
  -3574971582.1549454        1266786.3701837063        609511458.73694503     
  -3404507565.7114968        9099986.6912150383        579305164.42863846     
  -3234677725.5555749        14819266.053839445        554986473.77615595     
  -3065482061.6871805        18424624.458032250        536555386.77949989     
  -2896920574.1063032        19916061.903828621        524011903.43866855     
  -4020984011.1728959       -22033181.770490408        238565758.61630821     
  -3831910657.9690843       -7294767.0504024029        177183974.73166269     
  -3643758089.3317652        4374365.7813813686        122635950.60707767     
  -3456526305.2609329        12974216.724874735        74921686.242547095     
  -3270215305.7565937        18504785.780057669        34041181.638077691     
  -2239154368.5271134       -114485506.53637993        1989953889.1695025     
  -2137315438.4349957       -132034782.54014552        2056533191.2742009     
  -2037601791.2477641       -156668334.89353782        2157733995.1217422     
  -1940013426.9654112       -188386163.59652340        2293556300.7121282     
  -1844550345.5879378       -227188268.64910603        2464000108.0453572     
  -2381390105.4915638       -46579084.254392862        1501968257.2043796     
  -2200044758.8036861       -38977741.727923155        1533328268.8147347     
  -2018834076.5093057       -31825280.513119221        1585421571.7873924     
  -1837758058.6084363       -25121700.610013127        1658248166.1223519     
  -1656816705.1010692       -18867002.018582523        1751808051.8196111     
  -2600645507.3512959       -1778561.4409922361        1013320928.6274339     
  -2379474345.1549115        19069219.289552808        1011784038.0067204     
  -2156447228.8406553        46103513.746341109        1017092228.3677655     
  -1931564158.4085259        79324321.929371595        1029245499.7105743     
  -1704825133.8585196        118731643.83864701        1048243852.0351429     
  -2896920574.1063032        19916061.903828621        524011903.43866855     
  -2675604197.4886789        42106100.512259364        491900498.85015821     
  -2450441248.2418008        77118047.884867191        452745964.86286658     
  -2221431726.3656745        124951904.02163839        406548301.47679484     
  -1988575631.8602965        185607668.92257774        353307508.69194537     
  -3270215305.7565937        18504785.780057669        34041181.638077691     
  -3088434315.8049860        30132901.940207124       -26322348.654955752     
  -2900816134.7127485        61218321.902451754       -107617218.72730638     
  -2707360762.4798846        111761045.66678464       -209843428.57898346     
  -2508068199.1063933        181761073.23321235       -333000978.20998091     
  -1844550345.5879378       -227188268.64910603        2464000108.0453572     
  -1584467225.2718256       -279935378.61140609        2643176809.9159422     
  -1364015536.2868626       -464787259.67754334        2871122509.2585683     
  -1183195278.6330419       -781743911.84749174        3147837206.0732379     
  -1042006452.3103727       -1230805335.1212709        3473320900.3599424     
  -1656816705.1010692       -18867002.018582523        1751808051.8196111     
  -1274782767.2439127        16108299.044884205        1801291990.2691786     
  -913454059.16879439       -17933832.498445928        1875571619.1184812     
  -572830580.87571454       -120993396.64856783        1974646938.3675241     
  -252912332.36467314       -293070393.40548867        2098517948.0163062     
  -1704825133.8585196        118731643.83864701        1048243852.0351429     
  -1269335541.5240369        220880807.00876683        990115595.53764784     
  -835624977.42248511        317099876.06911755        932809722.36758971     
  -403693441.55386221        407388851.01970530        876326232.52496970     
   26459066.081833348        491747731.86053562        820665126.00979400     
  -1988575631.8602965        185607668.92257774        353307508.69194537     
  -1568125548.1122057        334382145.28022754        209647625.72134754     
  -1130528291.0479264        540313866.02516222        42836819.005890839     
  -675783860.66747606        803402831.15734947       -147124911.45442823     
  -203892256.97084326        1123649040.6768117       -360237565.65961581     
  -2508068199.1063933        181761073.23321235       -333000978.20998091     
  -2171152787.0084038        356612313.85929620       -540111919.17971694     
  -1798164000.0451286        651708137.36967218       -794347090.96661627     
  -1389101838.2165680        1067048543.7643335       -1095706493.5706756     
  -943966301.52270746        1602633533.0433180       -1444190126.9919050     
  -5959315111.0872793       -1787794533.3261838        1148554256.6458046     
  -6089267571.8023758       -1502777900.0568843        1225842981.2984719     
  -6222086556.4703493       -1227316346.6304989        1265724594.2264564     
  -6357772065.0911961       -961409873.04702711        1268199095.4297578     
  -6496324097.6649151       -705058479.30646753        1233266484.9083765     
  -6812497253.4051723       -2043749176.0215516        1352209942.1416790     
  -6830231289.3693438       -1396349889.2063937        1200916301.5921590     
  -6899354424.7808447       -920247600.54900122        1089724871.7574515     
  -7019866659.6396780       -615442310.04937649        1018635652.6375561     
  -7191767993.9458399       -481934017.70751619        987648644.23247254     
  -8339073432.2139673       -2501722029.6641903        1710600127.2351842     
  -8023133836.4572287       -1425503527.2121778        1274114450.0732782     
  -7807105915.6422739       -682323941.23278379        955240306.06567991     
  -7690989669.7691059       -272183271.72600985        753977695.21238863     
  -7674785098.8377218       -195081518.69185305        670326617.51340544     
  -10539043647.513668       -3161713094.2541003        2223724811.9263196     
  -9667975213.0660286       -1590238814.0742369        1445437426.7418294     
  -8945341029.0546303       -513545368.68184519        862270897.15114164     
  -8371141095.4794769        68367241.923073769        474225223.15425712     
  -7945375412.3405628        155499017.74052191        281300404.75117385     
  -13412407899.304268       -4023722369.7912803        2891583996.2150855     
  -11764755419.195745       -1890555749.7925704        1714885231.5978124     
  -10314059765.017920       -413911882.89618492        810816645.01383734     
  -9060320936.7707939        406209230.89787388        179378236.46315974     
  -8003538934.4543629        569807591.58961105       -179429994.05422005     
  -6496324097.6649151       -705058479.30646753        1233266484.9083765     
  -6239271421.4452600       -381613262.97130036        1047402433.1865212     
  -6013366016.9057493       -161992285.56993866        899426007.18630970     
  -5818607884.0463781       -46195547.102375269        789337206.90774202     
  -5654997022.8671446       -34223047.568612814        717136032.35081708     
  -7191767993.9458399       -481934017.70751619        987648644.23247254     
  -6903805304.0435944       -308218866.92461133        841622032.22656107     
  -6628905612.8180685       -178047045.06410432        716037820.15152180     
  -6367068920.2692633       -91418552.126001120        610896008.00735474     
  -6118295226.3971786       -48333388.110295534        526196595.79406047     
  -7674785098.8377218       -195081518.69185305        670326617.51340544     
  -7405755897.5122318       -186049484.13901186        585235763.72742784     
  -7131705421.8600388       -160279868.49716759        503142084.08155048     
  -6852633671.8811474       -117772671.76632547        424045578.57577491     
  -6568540647.5755529       -58527893.946480036        347946247.21010053     
  -7945375412.3405628        155499017.74052191        281300404.75117385     
  -7745123201.8511724       -15105114.614502430        278243627.68912083     
  -7521765444.0316620       -108690755.86912918        260738798.97639903     
  -7275302138.8820286       -125257906.02334738        228785918.61300302     
  -7005733286.4022741       -64806565.077166080        182384986.59893829     
  -8003538934.4543629        569807591.58961105       -179429994.05422005     
  -7921907217.0604200        204614241.64891243       -79354375.888358966     
  -7799085679.3329344       -23279707.179978371       -11172035.163938893     
  -7635074321.2719135       -113874254.89707804        25117028.119038932     
  -7429873142.8773441       -67169401.502364159        29512813.960577060     
  -5654997022.8671446       -34223047.568612814        717136032.35081708     
  -5511607689.2070341       -69235519.893353462        699462142.64425087     
  -5364050323.6048765       -90354552.411262274        682044078.87162805     
  -5212324926.0606651       -97580145.122332096        664881841.03295064     
  -5056431496.5744028       -90912298.026560068        647975429.12821233     
  -6118295226.3971786       -48333388.110295534        526196595.79406047     
  -5965330898.6641493       -52985368.302671432        515760831.60687917     
  -5811827309.1992588       -55839809.388836384        505428354.12668324     
  -5657784458.0025063       -56896711.368792057        495199163.35347271     
  -5503202345.0738878       -56156074.242532730        485073259.28725201     
  -6568540647.5755529       -58527893.946480036        347946247.21010053     
  -6406437152.1323442       -32950129.915313244        340515043.29708433     
  -6247423165.1674585       -17670727.478559494        333034586.86409748     
  -6091498686.6808977       -12689686.636220932        325504877.91113847     
  -5938663716.6726599       -18007007.388292074        317925916.43821120     
  -7005733286.4022741       -64806565.077166080        182384986.59893829     
  -6834926449.6116180       -9129804.7312831879        173724777.71486950     
  -6670837891.5094719        24152693.319575310        164862777.08387148     
  -6513467612.0958347        35040929.075388908        155798984.70594615     
  -6362815611.3707123        23534902.536160707        146533400.58109495     
  -7429873142.8773441       -67169401.502364159        29512813.960577060     
  -7250798791.1019707        18475607.249431133        15390034.860233245     
  -7082071488.2252951        69630453.005570412        912924.78600645519     
  -6923691234.2473240        86295135.766032219       -13918516.262107633     
  -6775658029.1680460        68469655.530840397       -29104288.284101173     
  -5056431496.5744028       -90912298.026560068        647975429.12821233     
  -4893077089.9149923       -74369298.715883493        618673866.10040867     
  -4728855423.5077629       -54935433.579141617        581423865.97855365     
  -4563766497.3527193       -32610702.616356134        536225428.76264745     
  -4397810311.4498577       -7395105.8275065422        483078554.45269275     
  -5503202345.0738878       -56156074.242532730        485073259.28725201     
  -5359569994.7684774       -54820053.536242008        463531455.36561012     
  -5213918458.4804249       -46753412.887810230        438276578.71287686     
  -5066247736.2097359       -31956152.297248602        409308629.32905221     
  -4916557827.9564047       -10428271.764548302        376627607.21413761     
  -5938663716.6726599       -18007007.388292074        317925916.43821120     
  -5802652381.6842260       -28247652.975280523        305487785.56336224     
  -5663469934.4783268       -27917924.504052401        293571946.32037991     
  -5521116375.0549574       -17017821.974596739        282178398.70926416     
  -5375591703.4141312        4452654.6130616665        271307142.73001450     
  -6362815611.3707123        23534902.536160707        146533400.58109495     
  -6222324250.6622295        5347902.9670088291        144542856.69366530     
  -6077509851.5014563        1571031.5721480846        147309968.80106068     
  -5928372413.8883991        12204288.351576328        154834736.90328082     
  -5774911937.8230476        37247673.305308580        167117161.00032783     
  -6775658029.1680460        68469655.530840397       -29104288.284101173     
  -6618585601.7024899        45966614.290616989       -19303331.243483499     
  -6456038209.5498257        41713455.340765715       -509353.84508350189     
  -6288015852.7100449        55710178.681300163        27277643.911102418     
  -6114518531.1831522        87956784.312199593        64057662.025071785     
  -4397810311.4498577       -7395105.8275065422        483078554.45269275     
  -4301461148.7905569       -3912666.1797134876        412428113.82664376     
  -4206540377.8579593       -5191532.2876057625        348125834.31189656     
  -4113047998.6520734       -11231704.151199818        290171715.90845424     
  -4020984011.1728959       -22033181.770490408        238565758.61630821     
  -4916557827.9564047       -10428271.764548302        376627607.21413761     
  -4802771248.1189947       -195837.35411977768        324243835.59745258     
  -4691349643.8889551        2153345.0317447186        277367609.59970409     
  -4582293015.2662821       -3380724.6069409847        235998929.22090435     
  -4475601362.2509756       -16798046.270179272        200137794.46104056     
  -5375591703.4141312        4452654.6130616665        271307142.73001450     
  -5246769464.9482203        20714556.221229792        236097358.92858917     
  -5121248785.9703350        25971259.535984993        205554505.25374499     
  -4999029666.4804688        20222764.557328939        179678581.70548391     
  -4880112106.4786320        3469071.2852609158        158469588.28380221     
  -5774911937.8230476        37247673.305308580        167117161.00032783     
  -5633455799.2782307        58818514.546348095        147988683.82006294     
  -5496237804.1020966        66262211.225117922        132686521.27401704     
  -5363257952.2946453        59578763.341609240        121210673.36219358     
  -5234516243.8558741        38768170.895831347        113561140.08459480     
  -6114518531.1831522        87956784.312199593        64057662.025071785     
  -5962830251.1090279        114116037.62123179        59917810.271866836     
  -5816316698.2842474        123026200.09911966        58763657.660520732     
  -5674977872.7088022        114687271.74588752        60595204.191037543     
  -5538813774.3827038        89099252.561505556        65412449.863413349     
  -4020984011.1728959       -22033181.770490408        238565758.61630821     
  -3831910657.9690843       -7294767.0504024029        177183974.73166269     
  -3643758089.3317652        4374365.7813813686        122635950.60707767     
  -3456526305.2609329        12974216.724874735        74921686.242547095     
  -3270215305.7565937        18504785.780057669        34041181.638077691     
  -4475601362.2509756       -16798046.270179272        200137794.46104056     
  -4272906817.3313985       -5398960.5977654457        154393750.37030637     
  -4070474413.4433289        5126321.6362898350        113064400.69648828     
  -3868304150.5867696        14777800.431989431        76149745.439588025     
  -3666396028.7617154        23555475.789324522        43649784.599604182     
  -4880112106.4786320        3469071.2852609158        158469588.28380221     
  -4670707985.1094112        9455343.3301632404        129131701.44445765     
  -4460907361.2367115        16763290.386649847        101789443.67888796     
  -4250710234.8605390        25392912.454718113        76442814.987095341     
  -4040116605.9808912        35344209.534370184        53091815.369078539     
  -5234516243.8558741        38768170.895831347        113561140.08459480     
  -5025314161.3031187        37268144.733386278        101397827.95411415     
  -4815056932.7119083        39285272.032474995        88811079.554272458     
  -4603744558.0822411        44819552.793076754        75800894.885062009     
  -4391377037.4141245        53870987.015181065        62367273.946489803     
  -5538813774.3827038        89099252.561505556        65412449.863413349     
  -5336725345.9125290        78039443.611898422        71192129.899281338     
  -5132923127.8689232        72692266.573750257        74129308.322647780     
  -4927407120.2518845        73057721.447037458        74223985.133499607     
  -4720177323.0613966        79135808.231813431        71476160.331849739     
  -3270215305.7565937        18504785.780057669        34041181.638077691     
  -3088434315.8049860        30132901.940207124       -26322348.654955752     
  -2900816134.7127485        61218321.902451754       -107617218.72730638     
  -2707360762.4798846        111761045.66678464       -209843428.57898346     
  -2508068199.1063933        181761073.23321235       -333000978.20998091     
  -3666396028.7617154        23555475.789324522        43649784.599604182     
  -3531003405.8117185        20676582.186846495        2660364.5049359053     
  -3389877379.8284259        36909032.028689384       -49733303.558738604     
  -3243017950.8118415        72252825.314838409       -113531219.59141454     
  -3090425118.7619600        126707962.04530811       -188733383.59309864     
  -4040116605.9808912        35344209.534370184        53091815.369078539     
  -3923892087.7173114        26124384.863832712        31355419.347545046     
  -3802037954.5277662        35669943.279828787        7741867.1673282739     
  -3674554206.4122648        63980884.782355785       -17748841.171574183     
  -3541440843.3707976        111057209.37142277       -45116705.669163130     
  -4391377037.4141245        53870987.015181065        62367273.946489803     
  -4267100361.5217543        46476309.971161604        59762815.872876480     
  -4137297858.8107657        57501055.655876875        64808293.450893857     
  -4001969529.2811480        86945224.069343090        77503706.680545807     
  -3861115372.9329090        134808815.21156812        97849055.561819047     
  -4720177323.0613966        79135808.231813431        71476160.331849739     
  -4560628227.2250624        81732357.508820772        87882554.080929235     
  -4395657092.6774302        102402369.15682364        121465975.29195198     
  -4225263919.4185190        141145843.17576385        172226423.96493238     
  -4049448707.4483027        197962779.56570268        240163900.09986565     
  -2508068199.1063933        181761073.23321235       -333000978.20998091     
  -2171152787.0084038        356612313.85929620       -540111919.17971694     
  -1798164000.0451286        651708137.36967218       -794347090.96661627     
  -1389101838.2165680        1067048543.7643335       -1095706493.5706756     
  -943966301.52270746        1602633533.0433180       -1444190126.9919050     
  -3090425118.7619600        126707962.04530811       -188733383.59309864     
  -2850428089.5383711        221341419.64079130       -307704660.98205853     
  -2606962005.0758371        327538394.69943821       -435592513.68094826     
  -2360026865.3743458        445298887.22125542       -572396941.68976891     
  -2109622670.4339120        574622897.20623708       -718117945.00852370     
  -3541440843.3707976        111057209.37142277       -45116705.669163130     
  -3289197467.0009537        158222302.94250011       -113986692.37474056     
  -3066089355.0184884        108269848.55563486       -153565598.88302046     
  -2872116507.4234304       -38800153.789224863       -163853425.19400033     
  -2707278924.2157426       -282987704.09202468       -144850171.30767724     
  -3861115372.9329090        134808815.21156812        97849055.561819047     
  -3487460919.3961368        167254963.76444960        41041986.642229319     
  -3175546049.8731041       -6097501.0617877245        51733653.427167512     
  -2925370764.3637896       -385248579.26708567        129924055.91663565     
  -2736935062.8681984       -970198270.85147762        275613194.11064035     
  -4049448707.4483027        197962779.56570268        240163900.09986565     
  -3445218446.7239523        248439402.10656261        157381376.06885728     
  -2935332089.6396503       -15563654.152749658        180305243.24962071     
  -2519789636.1954455       -594046389.21234751        308935501.64214826     
  -2198591086.3912725       -1487008803.0721159        543272151.24643731     
 </DataArray>
 <DataArray  type="Float64" Name="VM" NumberOfComponents="1" format="ascii">
   12930545065.494228     
   11338617163.772865     
   10210500030.904257     
   9275307923.2565136     
   8308933672.8380175     
   10128242419.633877     
   9321592290.6363525     
   8827205096.4802666     
   8445570308.4848003     
   8039033412.8544044     
   7982178493.0637474     
   7735362575.6221714     
   7669872592.6777344     
   7670560227.0940361     
   7667541177.0710840     
   6492257624.0282440     
   6587189056.4582376     
   6757317045.8944254     
   6960591209.1852531     
   7170368133.2154217     
   5658016043.6364737     
   5890227269.6285591     
   6114766899.5073919     
   6329149751.6366577     
   6533137417.8234844     
   8308933672.8380175     
   8027347465.5266895     
   7787495964.0910339     
   7578903709.2015610     
   7396693824.5594006     
   8039033412.8544044     
   7752575646.3156834     
   7481656024.4289961     
   7224365067.8287058     
   6980707278.7165718     
   7667541177.0710840     
   7384409282.8893404     
   7106567309.4457445     
   6834094645.6195679     
   6567184227.3373203     
   7170368133.2154217     
   6910472229.3941336     
   6658225273.8441563     
   6409792318.2439175     
   6162045377.0123816     
   6533137417.8234844     
   6323314273.2575407     
   6135111643.3226967     
   5954720618.2086782     
   5773169283.8689604     
   7396693824.5594006     
   7260103162.3225794     
   7117142355.6654329     
   6967281335.5186014     
   6810337581.3749533     
   6980707278.7165718     
   6836990732.5139160     
   6689044732.6367464     
   6536631099.3003407     
   6379666194.5566263     
   6567184227.3373203     
   6417186396.1649513     
   6265217319.0900269     
   6111225600.9217710     
   5955194715.1961136     
   6162045377.0123816     
   6005824891.8411751     
   5849982640.2058659     
   5694516618.1148281     
   5539425919.4273090     
   5773169283.8689604     
   5609701927.9220276     
   5449044487.7801123     
   5291071459.0223131     
   5135726743.9574432     
   6810337581.3749533     
   6641772363.1899948     
   6476995740.0002184     
   6316231921.4043226     
   6159967273.0290308     
   6379666194.5566263     
   6230032261.5060129     
   6083648338.3132029     
   5940540495.3220005     
   5800851812.3689432     
   5955194715.1961136     
   5812712761.1297302     
   5672399161.4179811     
   5534250825.8982496     
   5398311248.7604628     
   5539425919.4273090     
   5392473280.7418919     
   5245914807.6654139     
   5099861782.2708311     
   4954485188.8837900     
   5135726743.9574432     
   4973139003.3320293     
   4808271095.8289270     
   4641423660.8440762     
   4473070826.5729542     
   6159967273.0290308     
   6021593814.5757732     
   5879676370.8522120     
   5734142489.7515087     
   5585045858.2068872     
   5800851812.3689432     
   5668892071.1362143     
   5534440413.4178514     
   5397378794.4657078     
   5257688113.3264179     
   5398311248.7604628     
   5273037957.5002098     
   5146613146.5092897     
   5018829937.8670549     
   4889557597.0546932     
   4954485188.8837900     
   4835397949.8031464     
   4716955224.0109749     
   4598805901.5796337     
   4480655507.8624411     
   4473070826.5729542     
   4358445134.3400459     
   4246968954.6654425     
   4138078337.3876572     
   4031245920.4805832     
   5585045858.2068872     
   5377583807.6384258     
   5171246782.2034483     
   4966003533.7177973     
   4761848171.6588078     
   5257688113.3264179     
   5047108085.7616720     
   4837265719.7898779     
   4628179755.4434834     
   4419879095.0665779     
   4889557597.0546932     
   4680789529.8841038     
   4472788643.8407917     
   4265518810.9614367     
   4058945965.9866076     
   4480655507.8624411     
   4278575096.2200136     
   4077745145.0247645     
   3877957808.4220862     
   3679007245.9066696     
   4031245920.4805832     
   3840549712.2032242     
   3652129517.0437951     
   3465462152.2755003     
   3280036831.2108374     
   4761848171.6588078     
   4604555454.3478727     
   4452715482.8563595     
   4307916155.0889034     
   4172756920.1112447     
   4419879095.0665779     
   4291775786.9288344     
   4167857877.1363649     
   4048369078.6836796     
   3933906587.9105177     
   4058945965.9866076     
   3937393853.1681337     
   3820021366.6578751     
   3707086249.9319348     
   3599103505.1876702     
   3679007245.9066696     
   3541389965.6932635     
   3409570093.9796810     
   3285631008.6095934     
   3172573823.1021905     
   3280036831.2108374     
   3103945328.5475469     
   2937823926.8117442     
   2788722484.2912383     
   2666829822.6130118     
   4172756920.1112447     
   3586291536.5649414     
   2944191256.0100722     
   2343433894.9749227     
   2158959827.3859229     
   3933906587.9105177     
   3574731650.3454309     
   3173766864.9089136     
   2762219475.0013051     
   2450431892.0149155     
   3599103505.1876702     
   3376870973.5750351     
   3132944063.4610085     
   2866995632.8972697     
   2589644625.4320040     
   3172573823.1021905     
   3014779692.5746231     
   2885590920.7901230     
   2793179195.8313084     
   2745909125.8980989     
   2666829822.6130118     
   2547645823.7485704     
   2592866614.9340177     
   2855197675.6483507     
   3351028803.0056829     
   5658016043.6364737     
   5890227269.6285591     
   6114766899.5073919     
   6329149751.6366577     
   6533137417.8234844     
   5150861606.3186293     
   5309917926.9705286     
   5465540464.7413063     
   5614810789.1065702     
   5756246655.6074581     
   4642493112.0695534     
   4753801370.0121431     
   4866151884.1022959     
   4976895758.1259346     
   5084096380.3044577     
   4133184679.4467897     
   4222734706.1756864     
   4318125184.2507868     
   4417700427.5645056     
   4520007014.0091705     
   3624480522.0753059     
   3718573635.6541352     
   3823857261.2892962     
   3940287183.1699910     
   4067787902.2161179     
   6533137417.8234844     
   6323314273.2575407     
   6135111643.3226967     
   5954720618.2086782     
   5773169283.8689604     
   5756246655.6074581     
   5644158919.7713356     
   5547592079.1913748     
   5457530841.8282862     
   5368472859.0157709     
   5084096380.3044577     
   5045353591.3638363     
   5016858817.6556168     
   4993424093.3726511     
   4971898586.6796875     
   4520007014.0091705     
   4531548653.5486765     
   4547853630.3587561     
   4566433038.3307915     
   4585593254.2758074     
   4067787902.2161179     
   4108077134.7134175     
   4146311584.6870737     
   4181544918.9258757     
   4213000393.4233360     
   5773169283.8689604     
   5609701927.9220276     
   5449044487.7801123     
   5291071459.0223131     
   5135726743.9574432     
   5368472859.0157709     
   5213574456.1589613     
   5061178223.0082178     
   4911310949.0185432     
   4764031954.2542810     
   4971898586.6796875     
   4833027613.5639038     
   4697538183.4572554     
   4565465679.4301596     
   4436942778.6944008     
   4585593254.2758074     
   4470514563.7760754     
   4361033005.8193197     
   4257040415.6948428     
   4158715003.3280520     
   4213000393.4233360     
   4129430917.8028202     
   4055180919.2204165     
   3989781012.1774430     
   3933379855.2412701     
   5135726743.9574432     
   4973139003.3320293     
   4808271095.8289270     
   4641423660.8440762     
   4473070826.5729542     
   4764031954.2542810     
   4596694783.3559370     
   4429544065.5723143     
   4262609932.7953153     
   4095930563.1150656     
   4436942778.6944008     
   4286012801.7981806     
   4140308806.7409425     
   4000370795.4510770     
   3866896750.2231908     
   4158715003.3280520     
   4044374130.5074186     
   3942723541.1410618     
   3855316726.6332064     
   3784165191.8796754     
   3933379855.2412701     
   3873416991.6887403     
   3835419191.7153025     
   3821830688.6704831     
   3835756598.4654531     
   4473070826.5729542     
   4358445134.3400459     
   4246968954.6654425     
   4138078337.3876572     
   4031245920.4805832     
   4095930563.1150656     
   4001769417.6950841     
   3909159610.7303090     
   3817986732.8738770     
   3728198599.6210804     
   3866896750.2231908     
   3806583484.8873892     
   3748025491.7615175     
   3691485373.2405601     
   3637290744.1769290     
   3784165191.8796754     
   3771213950.6344543     
   3761491080.1459560     
   3755337929.3983226     
   3753125977.8808570     
   3835756598.4654531     
   3880283840.1253953     
   3929712957.5257978     
   3984037305.4810014     
   4043266710.4511528     
   4031245920.4805832     
   3840549712.2032242     
   3652129517.0437951     
   3465462152.2755003     
   3280036831.2108374     
   3728198599.6210804     
   3553662753.9911032     
   3381615753.9421949     
   3212113812.2609086     
   3045325292.5174518     
   3637290744.1769290     
   3502677002.3910127     
   3373826626.2368207     
   3251533587.7102184     
   3136748750.5111237     
   3753125977.8808570     
   3677423188.2288909     
   3611304235.1430593     
   3555664598.6050615     
   3511408750.3524156     
   4043266710.4511528     
   4034835188.2454376     
   4037981042.5473843     
   4053095083.1561875     
   4080480111.1726656     
   3280036831.2108374     
   3103945328.5475469     
   2937823926.8117442     
   2788722484.2912383     
   2666829822.6130118     
   3045325292.5174518     
   2828283632.8084016     
   2610463460.1305890     
   2392444060.3615403     
   2175421045.5533857     
   3136748750.5111237     
   2962896780.4185677     
   2802720068.5102463     
   2658663453.5694804     
   2533651150.1834803     
   3511408750.3524156     
   3436458957.7695136     
   3398990820.3711963     
   3403113150.5416961     
   3452626933.9730954     
   4080480111.1726656     
   4122054922.9834085     
   4221917375.7904763     
   4383477075.3753691     
   4609643140.7637863     
   2666829822.6130118     
   2547645823.7485704     
   2592866614.9340177     
   2855197675.6483507     
   3351028803.0056829     
   2175421045.5533857     
   1796396036.2937179     
   1478640720.5403357     
   1307671143.3650260     
   1386569820.1306195     
   2533651150.1834803     
   2209379909.3428297     
   1916820269.3059301     
   1672494327.2368701     
   1499992824.8536983     
   3452626933.9730954     
   3373399422.8680696     
   3372186961.8353400     
   3459936004.6262145     
   3645142867.9676628     
   4609643140.7637863     
   4806714337.2159910     
   5115918483.7497568     
   5550923900.1182604     
   6124542951.8615055     
   3624480522.0753059     
   3718573635.6541352     
   3823857261.2892962     
   3940287183.1699910     
   4067787902.2161179     
   3138072355.1401715     
   3254992042.3817458     
   3381311733.0617824     
   3516577293.5417104     
   3660343662.8291459     
   2695324957.9091454     
   2830551437.0706820     
   2973116366.6366115     
   3121948855.5397015     
   3276146219.1262383     
   2299744398.3977685     
   2450054398.2973804     
   2605155587.6995316     
   2763135638.3331900     
   2922569795.7151923     
   1956559933.4353158     
   2120460246.5147409     
   2285825802.9968481     
   2449710526.5968814     
   2610161057.2331538     
   4067787902.2161179     
   4108077134.7134175     
   4146311584.6870737     
   4181544918.9258757     
   4213000393.4233360     
   3660343662.8291459     
   3700415670.4761314     
   3739559283.2674460     
   3776865154.3146567     
   3811578123.2747307     
   3276146219.1262383     
   3321065671.4280472     
   3366476675.6635556     
   3411566998.6498179     
   3455670901.2966022     
   2922569795.7151923     
   2977403971.0805430     
   3034429575.3654137     
   3092979635.5258622     
   3152530497.3788943     
   2610161057.2331538     
   2679479001.0156393     
   2752904558.9815688     
   2829938080.3848801     
   2910219179.1189928     
   4213000393.4233360     
   4129430917.8028202     
   4055180919.2204165     
   3989781012.1774430     
   3933379855.2412701     
   3811578123.2747307     
   3763007147.1881790     
   3722576823.0110273     
   3690028095.9586558     
   3665488814.1816564     
   3455670901.2966022     
   3434939979.0755877     
   3420561079.9692917     
   3412389033.0598345     
   3410476154.8151221     
   3152530497.3788943     
   3152896623.2535310     
   3157013610.8226848     
   3164787412.7445216     
   3176192968.4002090     
   2910219179.1189928     
   2925679503.3712397     
   2941320595.1261883     
   2957067390.1982298     
   2972855278.6372900     
   3933379855.2412701     
   3873416991.6887403     
   3835419191.7153025     
   3821830688.6704831     
   3835756598.4654531     
   3665488814.1816564     
   3636524412.7375274     
   3621892590.6601386     
   3622414779.5786624     
   3639183153.6489444     
   3410476154.8151221     
   3393367586.0546451     
   3382391180.6272578     
   3377664207.3604646     
   3379368701.4774628     
   3176192968.4002090     
   3153948342.5112453     
   3128320032.5843396     
   3099300805.7586312     
   3066910425.9811597     
   2972855278.6372900     
   2932718288.3496766     
   2877766115.6378322     
   2807960795.3398881     
   2723388292.4149904     
   3835756598.4654531     
   3880283840.1253953     
   3929712957.5257978     
   3984037305.4810014     
   4043266710.4511528     
   3639183153.6489444     
   3650424861.4793725     
   3665741129.2361484     
   3685350074.6192646     
   3709473785.5852599     
   3379368701.4774628     
   3357661021.4569502     
   3340076828.9395652     
   3326846240.0121679     
   3318214696.4193659     
   3066910425.9811597     
   3009570649.4422083     
   2957694084.2887063     
   2911344715.1897311     
   2870615408.9699335     
   2723388292.4149904     
   2623195809.3893018     
   2531447266.5316434     
   2447997244.4457045     
   2372714206.6633749     
   4043266710.4511528     
   4034835188.2454376     
   4037981042.5473843     
   4053095083.1561875     
   4080480111.1726656     
   3709473785.5852599     
   3667239531.2622213     
   3636111762.0002427     
   3616805879.6869850     
   3610001127.5939088     
   3318214696.4193659     
   3247490195.0404701     
   3187784218.4432659     
   3139861876.9420238     
   3104539836.7271318     
   2870615408.9699335     
   2775182584.9021583     
   2691576129.7919698     
   2620293814.0943766     
   2561977664.8027620     
   2372714206.6633749     
   2253492162.9582477     
   2148594067.3858886     
   2057920648.3977356     
   1981548022.0925121     
   4080480111.1726656     
   4122054922.9834085     
   4221917375.7904763     
   4383477075.3753691     
   4609643140.7637863     
   3610001127.5939088     
   3642312413.0062146     
   3705772786.3560367     
   3801830102.7258673     
   3931984494.6989727     
   3104539836.7271318     
   3113598916.7973776     
   3131314086.2670484     
   3157979088.3972292     
   3193940155.7003331     
   2561977664.8027620     
   2529922862.6229534     
   2486634656.7101045     
   2432480392.8544359     
   2367977163.8584571     
   1981548022.0925121     
   1888424540.9425697     
   1765076077.6634133     
   1613506435.7083037     
   1437929441.5495715     
   4609643140.7637863     
   4806714337.2159910     
   5115918483.7497568     
   5550923900.1182604     
   6124542951.8615055     
   3931984494.6989727     
   4053657505.2374840     
   4244219650.0937138     
   4513309469.4893436     
   4870372344.9174843     
   3193940155.7003331     
   3222787562.3925610     
   3282400066.6553850     
   3377073900.1835313     
   3511283543.1892896     
   2367977163.8584571     
   2280621693.3891244     
   2193936137.0843945     
   2107868757.8388956     
   2022458265.5783713     
   1437929441.5495715     
   1218425429.7555535     
   1007500760.1649274     
   848508706.35880685     
   824870877.26995850     
   1956559933.4353158     
   2120460246.5147409     
   2285825802.9968481     
   2449710526.5968814     
   2610161057.2331538     
   1655451297.2480533     
   1822049927.4089575     
   1990424886.4894967     
   2157891534.4872952     
   2322697199.5912771     
   1395901582.0965059     
   1573626520.2623045     
   1752400413.1051850     
   1930229105.4304104     
   2105867403.0241728     
   1210060508.1446197     
   1402439482.2795720     
   1594409012.1369095     
   1785197027.5928037     
   1974347592.8278384     
   1140180130.9449112     
   1338996915.7187333     
   1538099006.5331404     
   1737486403.3881321     
   1937159106.2837083     
   2610161057.2331538     
   2679479001.0156393     
   2752904558.9815688     
   2829938080.3848801     
   2910219179.1189928     
   2322697199.5912771     
   2410609793.9800096     
   2500755845.6626000     
   2592752413.8883781     
   2686321024.4189286     
   2105867403.0241728     
   2210353401.6993814     
   2314768551.6974692     
   2418880229.8781867     
   2522520607.6527410     
   1974347592.8278384     
   2092357997.3176501     
   2207794800.5219789     
   2320583810.5759978     
   2430672513.8700218     
   1937159106.2837083     
   2064831772.7408326     
   2187644090.2103381     
   2305596058.6922259     
   2418687678.1864948     
   2910219179.1189928     
   2925679503.3712397     
   2941320595.1261883     
   2957067390.1982298     
   2972855278.6372900     
   2686321024.4189286     
   2707907604.6480026     
   2730985537.1124840     
   2755524438.3115358     
   2781500138.7157450     
   2522520607.6527410     
   2550945937.2215161     
   2582261656.9792452     
   2616464589.0601749     
   2653554071.0043135     
   2430672513.8700218     
   2465024859.3245702     
   2503707759.7887745     
   2546724127.1630926     
   2594077261.8279791     
   2418687678.1864948     
   2456225575.0857754     
   2499550149.0679679     
   2548661400.1330748     
   2603559328.2810931     
   2972855278.6372900     
   2932718288.3496766     
   2877766115.6378322     
   2807960795.3398881     
   2723388292.4149904     
   2781500138.7157450     
   2749020535.4527678     
   2711078274.8002834     
   2667547249.1235971     
   2618328101.5651007     
   2653554071.0043135     
   2639825654.6148567     
   2631420156.6969242     
   2628391896.3008876     
   2630803214.0977182     
   2594077261.8279791     
   2602526789.3618717     
   2627197190.3322945     
   2668154452.2667613     
   2725454021.0291243     
   2603559328.2810931     
   2629078283.9919133     
   2681625902.2207780     
   2761202182.9676886     
   2867807126.2326422     
   2723388292.4149904     
   2623195809.3893018     
   2531447266.5316434     
   2447997244.4457045     
   2372714206.6633749     
   2618328101.5651007     
   2562638037.9094481     
   2513836364.2253332     
   2471915823.1900148     
   2436880042.6338654     
   2630803214.0977182     
   2624532599.2102098     
   2623325757.0182080     
   2627191412.5917339     
   2636139886.0339165     
   2725454021.0291243     
   2769658117.4622083     
   2816741614.7783642     
   2866703983.9000235     
   2919544832.4631901     
   2867807126.2326422     
   2961815392.1080947     
   3056414516.2199912     
   3151604498.5683331     
   3247385339.1531224     
   2372714206.6633749     
   2253492162.9582477     
   2148594067.3858886     
   2057920648.3977356     
   1981548022.0925121     
   2436880042.6338654     
   2363120055.9065948     
   2302434183.5337305     
   2254922918.3783059     
   2220739819.4675298     
   2636139886.0339165     
   2607945936.7033725     
   2589999389.8858695     
   2582343377.4279056     
   2585026481.1154709     
   2919544832.4631901     
   2934103398.8154926     
   2955270266.7657661     
   2983050545.9274793     
   3017449318.4027534     
   3247385339.1531224     
   3302261665.5497332     
   3359907208.4616337     
   3420321967.8888345     
   3483505943.8313289     
   1981548022.0925121     
   1888424540.9425697     
   1765076077.6634133     
   1613506435.7083037     
   1437929441.5495715     
   2220739819.4675298     
   2149468660.8869443     
   2064770501.7284076     
   1966401642.1322842     
   1854181228.8178666     
   2585026481.1154709     
   2563100995.9074726     
   2550789519.6993017     
   2548238565.0692997     
   2555547858.2784863     
   3017449318.4027534     
   3045383043.9147167     
   3104228402.6539035     
   3193999557.3946834     
   3314644247.2250066     
   3483505943.8313289     
   3553296159.2507405     
   3675496676.9894576     
   3850107497.0474811     
   4077128619.4248037     
   1437929441.5495715     
   1218425429.7555535     
   1007500760.1649274     
   848508706.35880685     
   824870877.26995850     
   1854181228.8178666     
   1712336181.5055242     
   1578371181.7995012     
   1459471383.1140649     
   1368099895.4723308     
   2555547858.2784863     
   2543876787.1978874     
   2558757200.8539543     
   2600942270.5575943     
   2671404580.5996218     
   3314644247.2250066     
   3424426653.3263664     
   3579030605.4114375     
   3778273457.5933943     
   4021999193.6086197     
   4077128619.4248037     
   4310371717.6003866     
   4610560310.6089191     
   4977694398.4503918     
   5411773981.1248226     
   1140180130.9449112     
   1338996915.7187333     
   1538099006.5331404     
   1737486403.3881321     
   1937159106.2837083     
   1210060508.1455619     
   1402439482.2802744     
   1594409012.1373603     
   1785197027.5929744     
   1974347592.8276873     
   1395901582.0982349     
   1573626520.2637067     
   1752400413.1061971     
   1930229105.4309480     
   2105867403.0241351     
   1655451297.2503204     
   1822049927.4109895     
   1990424886.4911582     
   2157891534.4884324     
   2322697199.5917211     
   1956559933.4379199     
   2120460246.5173423     
   2285825802.9992433     
   2449710526.5988512     
   2610161057.2344656     
   1937159106.2837083     
   2064831772.7408326     
   2187644090.2103381     
   2305596058.6922259     
   2418687678.1864948     
   1974347592.8276873     
   2092357997.3166313     
   2207794800.5200105     
   2320583810.5729942     
   2430672513.8658972     
   2105867403.0241351     
   2210353401.6979380     
   2314768551.6944618     
   2418880229.8734531     
   2522520607.6461172     
   2322697199.5917211     
   2410609793.9788914     
   2500755845.6596937     
   2592752413.8834567     
   2686321024.4117627     
   2610161057.2344656     
   2679479001.0155911     
   2752904558.9798856     
   2829938080.3812890     
   2910219179.1132131     
   2418687678.1864948     
   2456225575.0857754     
   2499550149.0679679     
   2548661400.1330748     
   2603559328.2810931     
   2430672513.8658972     
   2465024859.3155780     
   2503707759.7739344     
   2546724127.1414170     
   2594077261.7984776     
   2522520607.6461172     
   2550945937.2068014     
   2582261656.9545150     
   2616464589.0234723     
   2653554070.9536648     
   2686321024.4117627     
   2707907604.6319366     
   2730985537.0847392     
   2755524438.2692823     
   2781500138.6561017     
   2910219179.1132131     
   2925679503.3584509     
   2941320595.1029410     
   2957067390.1610036     
   2972855278.5825014     
   2603559328.2810931     
   2629078283.9919133     
   2681625902.2207780     
   2761202182.9676886     
   2867807126.2326422     
   2594077261.7984776     
   2602526789.3302269     
   2627197190.2979002     
   2668154452.2290392     
   2725454020.9874892     
   2653554070.9536648     
   2639825654.5578847     
   2631420156.6317954     
   2628391896.2257919     
   2630803214.0108643     
   2781500138.6561017     
   2749020535.3822894     
   2711078274.7155881     
   2667547249.0212593     
   2618328101.4416776     
   2972855278.5825014     
   2932718288.2812343     
   2877766115.5512633     
   2807960795.2308297     
   2723388292.2792954     
   2867807126.2326422     
   2961815392.1080947     
   3056414516.2199912     
   3151604498.5683331     
   3247385339.1531224     
   2725454020.9874892     
   2769658117.4246511     
   2816741614.7487931     
   2866703983.8823185     
   2919544832.4612288     
   2630803214.0108643     
   2624532599.1316438     
   2623325756.9560013     
   2627191412.5538859     
   2636139886.0283575     
   2618328101.4416776     
   2562638037.7954297     
   2513836364.1327500     
   2471915823.1307464     
   2436880042.6197309     
   2723388292.2792954     
   2623195809.2580428     
   2531447266.4193211     
   2447997244.3664918     
   2372714206.6312022     
   3247385339.1531224     
   3302261665.5497332     
   3359907208.4616337     
   3420321967.8888345     
   3483505943.8313289     
   2919544832.4612288     
   2934103398.8259044     
   2955270266.7921977     
   2983050545.9735608     
   3017449318.4720950     
   2636139886.0283575     
   2607945936.7244020     
   2589999389.9407353     
   2582343377.5236945     
   2585026481.2591290     
   2436880042.6197309     
   2363120055.9312201     
   2302434183.6079021     
   2254922918.5124993     
   2220739819.6720009     
   2372714206.6312022     
   2253492162.9673529     
   2148594067.4493127     
   2057920648.5282419     
   1981548022.3029671     
   3483505943.8313289     
   3553296159.2507405     
   3675496676.9894576     
   3850107497.0474811     
   4077128619.4248037     
   3017449318.4720950     
   3045383043.9961228     
   3104228402.7485461     
   3193999557.5041642     
   3314644247.3514996     
   2585026481.2591290     
   2563100996.0815806     
   2550789519.9074664     
   2548238565.3151860     
   2555547858.5659671     
   2220739819.6720009     
   2149468661.1453667     
   2064770502.0500722     
   1966401642.5264835     
   1854181229.2937968     
   1981548022.3029671     
   1888424541.2168677     
   1765076078.0121627     
   1613506436.1387372     
   1437929442.0614221     
   4077128619.4248037     
   4310371717.6003866     
   4610560310.6089191     
   4977694398.4503918     
   5411773981.1248226     
   3314644247.3514996     
   3424426653.3917484     
   3579030605.4249640     
   3778273457.5634561     
   4021999193.5416603     
   2555547858.5659671     
   2543876787.4017520     
   2558757200.9898481     
   2600942270.6350145     
   2671404580.6190147     
   1854181229.2937968     
   1712336181.9296482     
   1578371182.1959631     
   1459471383.4797521     
   1368099895.7566946     
   1437929442.0614221     
   1218425430.2255881     
   1007500760.5907941     
   848508706.61301565     
   824870877.05323291     
   1956559933.4379199     
   2120460246.5173423     
   2285825802.9992433     
   2449710526.5988512     
   2610161057.2344656     
   2299744398.4004869     
   2450054398.3004498     
   2605155587.7028108     
   2763135638.3365245     
   2922569795.7184196     
   2695324957.9117336     
   2830551437.0738683     
   2973116366.6403260     
   3121948855.5438638     
   3276146219.1307588     
   3138072355.1424298     
   3254992042.3847175     
   3381311733.0654707     
   3516577293.5461106     
   3660343662.8342485     
   3624480522.0770693     
   3718573635.6565871     
   3823857261.2925110     
   3940287183.1740417     
   4067787902.2210755     
   2610161057.2344656     
   2679479001.0155911     
   2752904558.9798856     
   2829938080.3812890     
   2910219179.1132131     
   2922569795.7184196     
   2977403971.0833249     
   3034429575.3675809     
   3092979635.5272498     
   3152530497.3793354     
   3276146219.1307588     
   3321065671.4329157     
   3366476675.6687093     
   3411566998.6552043     
   3455670901.3021746     
   3660343662.8342485     
   3700415670.4822125     
   3739559283.2745352     
   3776865154.3227992     
   3811578123.2839832     
   4067787902.2210755     
   4108077134.7198014     
   4146311584.6949873     
   4181544918.9354382     
   4213000393.4346786     
   2910219179.1132131     
   2925679503.3584509     
   2941320595.1029410     
   2957067390.1610036     
   2972855278.5825014     
   3152530497.3793354     
   3152896623.2522101     
   3157013610.8175592     
   3164787412.7334647     
   3176192968.3809915     
   3455670901.3021746     
   3434939979.0837593     
   3420561079.9792709     
   3412389033.0707335     
   3410476154.8259172     
   3811578123.2839832     
   3763007147.2027664     
   3722576823.0312481     
   3690028095.9847293     
   3665488814.2136922     
   4213000393.4346786     
   4129430917.8201828     
   4055180919.2450428     
   3989781012.2105608     
   3933379855.2840757     
   2972855278.5825014     
   2932718288.2812343     
   2877766115.5512633     
   2807960795.2308297     
   2723388292.2792954     
   3176192968.3809915     
   3153948342.4869761     
   3128320032.5520048     
   3099300805.7152691     
   3066910425.9239097     
   3410476154.8259172     
   3393367586.0677299     
   3382391180.6406174     
   3377664207.3720069     
   3379368701.4850197     
   3665488814.2136922     
   3636524412.7774882     
   3621892590.7069097     
   3622414779.6309929     
   3639183153.7054663     
   3933379855.2840757     
   3873416991.7434359     
   3835419191.7819276     
   3821830688.7490554     
   3835756598.5559859     
   2723388292.2792954     
   2623195809.2580428     
   2531447266.4193211     
   2447997244.3664918     
   2372714206.6312022     
   3066910425.9239097     
   3009570649.3891683     
   2957694084.2489557     
   2911344715.1725068     
   2870615408.9847093     
   3379368701.4850197     
   3357661021.4668789     
   3340076828.9574256     
   3326846240.0438919     
   3318214696.4712739     
   3639183153.7054663     
   3650424861.5390759     
   3665741129.3016624     
   3685350074.6934695     
   3709473785.6712976     
   3835756598.5559859     
   3880283840.2243400     
   3929712957.6324840     
   3984037305.5946994     
   4043266710.5711403     
   2372714206.6312022     
   2253492162.9673529     
   2148594067.4493127     
   2057920648.5282419     
   1981548022.3029671     
   2870615408.9847093     
   2775182584.9345741     
   2691576129.8524718     
   2620293814.1938992     
   2561977664.9529190     
   3318214696.4712739     
   3247490195.0925689     
   3187784218.5041418     
   3139861877.0209026     
   3104539836.8339367     
   3709473785.6712976     
   3667239531.3365469     
   3636111762.0695767     
   3616805879.7585363     
   3610001127.6753411     
   4043266710.5711403     
   4034835188.3465714     
   4037981042.6342869     
   4053095083.2336063     
   4080480111.2454228     
   1981548022.3029671     
   1888424541.2168677     
   1765076078.0121627     
   1613506436.1387372     
   1437929442.0614221     
   2561977664.9529190     
   2529922862.7977543     
   2486634656.9175167     
   2432480393.1021023     
   2367977164.1535487     
   3104539836.8339367     
   3113598916.9007483     
   3131314086.3724127     
   3157979088.5101523     
   3193940155.8265152     
   3610001127.6753411     
   3642312413.0677009     
   3705772786.3997555     
   3801830102.7535343     
   3931984494.7117720     
   4080480111.2454228     
   4122054923.0301251     
   4221917375.8087254     
   4383477075.3612757     
   4609643140.7119493     
   1437929442.0614221     
   1218425430.2255881     
   1007500760.5907941     
   848508706.61301565     
   824870877.05323291     
   2367977164.1535487     
   2280621693.5568585     
   2193936137.1601968     
   2107868757.8598940     
   2022458265.5833774     
   3193940155.8265152     
   3222787562.3316331     
   3282400066.4094687     
   3377073899.7546268     
   3511283542.5793118     
   3931984494.7117720     
   4053657505.0377259     
   4244219649.6349688     
   4513309468.7196426     
   4870372343.7818718     
   4609643140.7119493     
   4806714336.9444504     
   5115918483.1499987     
   5550923899.0738258     
   6124542950.2548714     
   3624480522.0770693     
   3718573635.6565871     
   3823857261.2925110     
   3940287183.1740417     
   4067787902.2210755     
   4133184679.4479189     
   4222734706.1773906     
   4318125184.2531195     
   4417700427.5675402     
   4520007014.0129890     
   4642493112.0699396     
   4753801370.0129814     
   4866151884.1036110     
   4976895758.1277819     
   5084096380.3069229     
   5150861606.3181725     
   5309917926.9704008     
   5465540464.7414942     
   5614810789.1071110     
   5756246655.6084242     
   5658016043.6350670     
   5890227269.6273699     
   6114766899.5063686     
   6329149751.6358051     
   6533137417.8228512     
   4067787902.2210755     
   4108077134.7198014     
   4146311584.6949873     
   4181544918.9354382     
   4213000393.4346786     
   4520007014.0129890     
   4531548653.5538712     
   4547853630.3654280     
   4566433038.3390427     
   4585593254.2857227     
   5084096380.3069229     
   5045353591.3673725     
   5016858817.6603060     
   4993424093.3785639     
   4971898586.6868858     
   5756246655.6084242     
   5644158919.7728605     
   5547592079.1935101     
   5457530841.8310585     
   5368472859.0192108     
   6533137417.8228512     
   6323314273.2567854     
   6135111643.3218441     
   5954720618.2076912     
   5773169283.8678150     
   4213000393.4346786     
   4129430917.8201828     
   4055180919.2450428     
   3989781012.2105608     
   3933379855.2840757     
   4585593254.2857227     
   4470514563.7904415     
   4361033005.8391800     
   4257040415.7212653     
   4158715003.3621469     
   4971898586.6868858     
   4833027613.5737629     
   4697538183.4706163     
   4565465679.4478970     
   4436942778.7174482     
   5368472859.0192108     
   5213574456.1632080     
   5061178223.0139179     
   4911310949.0263662     
   4764031954.2649345     
   5773169283.8678150     
   5609701927.9198790     
   5449044487.7774448     
   5291071459.0195971     
   5135726743.9551668     
   3933379855.2840757     
   3873416991.7434359     
   3835419191.7819276     
   3821830688.7490554     
   3835756598.5559859     
   4158715003.3621469     
   4044374130.5515990     
   3942723541.1957045     
   3855316726.6986752     
   3784165191.9563575     
   4436942778.7174482     
   4286012801.8296552     
   4140308806.7814722     
   4000370795.5013356     
   3866896750.2839131     
   4764031954.2649345     
   4596694783.3733416     
   4429544065.5972338     
   4262609932.8285594     
   4095930563.1575003     
   5135726743.9551668     
   4973139003.3347759     
   4808271095.8374815     
   4641423660.8592024     
   4473070826.5953865     
   3835756598.5559859     
   3880283840.2243400     
   3929712957.6324840     
   3984037305.5946994     
   4043266710.5711403     
   3784165191.9563575     
   3771213950.7147202     
   3761491080.2281351     
   3755337929.4809074     
   3753125977.9625893     
   3866896750.2839131     
   3806583484.9468851     
   3748025491.8171511     
   3691485373.2899146     
   3637290744.2179213     
   4095930563.1575003     
   4001769417.7321453     
   3909159610.7587299     
   3817986732.8905573     
   3728198599.6231647     
   4473070826.5953865     
   4358445134.3540850     
   4246968954.6678076     
   4138078337.3751149     
   4031245920.4500437     
   4043266710.5711403     
   4034835188.3465714     
   4037981042.6342869     
   4053095083.2336063     
   4080480111.2454228     
   3753125977.9625893     
   3677423188.2889490     
   3611304235.1857276     
   3555664598.6349320     
   3511408750.3743443     
   3637290744.2179213     
   3502677002.4051299     
   3373826626.2273126     
   3251533587.6807704     
   3136748750.4658880     
   3728198599.6231647     
   3553662753.9601722     
   3381615753.8798923     
   3212113812.1691799     
   3045325292.3986254     
   4031245920.4500437     
   3840549712.1350574     
   3652129516.9383268     
   3465462152.1333032     
   3280036831.0327096     
   4080480111.2454228     
   4122054923.0301251     
   4221917375.8087254     
   4383477075.3612757     
   4609643140.7119493     
   3511408750.3743443     
   3436458957.7834959     
   3398990820.3799233     
   3403113150.5467486     
   3452626933.9747138     
   3136748750.4658880     
   2962896780.3742142     
   2802720068.4746838     
   2658663453.5514708     
   2533651150.1927872     
   3045325292.3986254     
   2828283632.6820145     
   2610463460.0036440     
   2392444060.2419696     
   2175421045.4511118     
   3280036831.0327096     
   3103945328.3400807     
   2937823926.5757289     
   2788722484.0255294     
   2666829822.3152065     
   4609643140.7119493     
   4806714336.9444504     
   5115918483.1499987     
   5550923899.0738258     
   6124542950.2548714     
   3452626933.9747138     
   3373399422.7805123     
   3372186961.5719757     
   3459936004.0826406     
   3645142867.0285993     
   2533651150.1927872     
   2209379909.4402747     
   1916820269.4845457     
   1672494327.4767175     
   1499992825.1098495     
   2175421045.4511118     
   1796396036.3691239     
   1478640720.8829863     
   1307671144.0849328     
   1386569821.2316608     
   2666829822.3152065     
   2547645823.4549713     
   2592866614.6387348     
   2855197675.3728304     
   3351028802.8053746     
   5658016043.6350670     
   5890227269.6273699     
   6114766899.5063686     
   6329149751.6358051     
   6533137417.8228512     
   6492257624.0261984     
   6587189056.4558086     
   6757317045.8916531     
   6960591209.1822643     
   7170368133.2123775     
   7982178493.0617771     
   7735362575.6192379     
   7669872592.6739206     
   7670560227.0894947     
   7667541177.0660019     
   10128242419.632677     
   9321592290.6336250     
   8827205096.4760952     
   8445570308.4793186     
   8039033412.8477421     
   12930545065.494495     
   11338617163.771006     
   10210500030.900362     
   9275307923.2507057     
   8308933672.8303499     
   6533137417.8228512     
   6323314273.2567854     
   6135111643.3218441     
   5954720618.2076912     
   5773169283.8678150     
   7170368133.2123775     
   6910472229.3903923     
   6658225273.8397093     
   6409792318.2387199     
   6162045377.0063782     
   7667541177.0660019     
   7384409282.8831530     
   7106567309.4384222     
   6834094645.6110735     
   6567184227.3276005     
   8039033412.8477421     
   7752575646.3076372     
   7481656024.4195337     
   7224365067.8177948     
   6980707278.7041788     
   8308933672.8303499     
   8027347465.5174408     
   7787495964.0801821     
   7578903709.1890860     
   7396693824.5452814     
   5773169283.8678150     
   5609701927.9198790     
   5449044487.7774448     
   5291071459.0195971     
   5135726743.9551668     
   6162045377.0063782     
   6005824891.8327475     
   5849982640.1952667     
   5694516618.1023149     
   5539425919.4131384     
   6567184227.3276005     
   6417186396.1521959     
   6265217319.0743284     
   6111225600.9032211     
   5955194715.1748056     
   6980707278.7041788     
   6836990732.4987297     
   6689044732.6187601     
   6536631099.2795343     
   6379666194.5329857     
   7396693824.5452814     
   7260103162.3067923     
   7117142355.6479015     
   6967281335.4992628     
   6810337581.3537617     
   5135726743.9551668     
   4973139003.3347759     
   4808271095.8374815     
   4641423660.8592024     
   4473070826.5953865     
   5539425919.4131384     
   5392473280.7300892     
   5245914807.6566811     
   5099861782.2658377     
   4954485188.8831882     
   5955194715.1748056     
   5812712761.1069393     
   5672399161.3942184     
   5534250825.8740330     
   5398311248.7363176     
   6379666194.5329857     
   6230032261.4759169     
   6083648338.2768526     
   5940540495.2796583     
   5800851812.3209448     
   6810337581.3537617     
   6641772363.1563158     
   6476995739.9538364     
   6316231921.3451042     
   6159967272.9569998     
   4473070826.5953865     
   4358445134.3540850     
   4246968954.6678076     
   4138078337.3751149     
   4031245920.4500437     
   4954485188.8831882     
   4835397949.7933702     
   4716955223.9898205     
   4598805901.5449152     
   4480655507.8120556     
   5398311248.7363176     
   5273037957.4675112     
   5146613146.4666777     
   5018829937.8131542     
   4889557596.9881821     
   5800851812.3209448     
   5668892071.0812101     
   5534440413.3552446     
   5397378794.3948851     
   5257688113.2467690     
   6159967272.9569998     
   6021593814.4988842     
   5879676370.7706652     
   5734142489.6654911     
   5585045858.1165524     
   4031245920.4500437     
   3840549712.1350574     
   3652129516.9383268     
   3465462152.1333032     
   3280036831.0327096     
   4480655507.8120556     
   4278575096.1375222     
   4077745144.9104195     
   3877957808.2763596     
   3679007245.7302508     
   4889557596.9881821     
   4680789529.7941217     
   4472788643.7275562     
   4265518810.8253269     
   4058945965.8281727     
   5257688113.2467690     
   5047108085.6705608     
   4837265719.6875076     
   4628179755.3300962     
   4419879094.9425182     
   5585045858.1165524     
   5377583807.5522146     
   5171246782.1215153     
   4966003533.6401854     
   4761848171.5855713     
   3280036831.0327096     
   3103945328.3400807     
   2937823926.5757289     
   2788722484.0255294     
   2666829822.3152065     
   3679007245.7302508     
   3541389965.4860215     
   3409570093.7437468     
   3285631008.3471708     
   3172573822.8164220     
   4058945965.8281727     
   3937393852.9903369     
   3820021366.4625931     
   3707086249.7216582     
   3599103504.9659643     
   4419879094.9425182     
   4291775786.8102722     
   4167857877.0234184     
   4048369078.5763278     
   3933906587.8082132     
   4761848171.5855713     
   4604555454.3184404     
   4452715482.8673220     
   4307916155.1343422     
   4172756920.1808114     
   2666829822.3152065     
   2547645823.4549713     
   2592866614.6387348     
   2855197675.3728304     
   3351028802.8053746     
   3172573822.8164220     
   3014779692.2446308     
   2885590920.4218369     
   2793179195.4294686     
   2745909125.4680820     
   3599103504.9659643     
   3376870973.2903695     
   3132944063.1250901     
   2866995632.5050530     
   2589644624.9346790     
   3933906587.8082132     
   3574731650.1977253     
   3173766864.7308960     
   2762219474.7953248     
   2450431891.7277927     
   4172756920.1808114     
   3586291536.6429219     
   2944191256.1112871     
   2343433895.1167927     
   2158959827.4894347     
 </DataArray>
 <DataArray  type="Float64" Name="strain" NumberOfComponents="3" format="ascii">
  0.20342151980612216        0.0000000000000000       0.12530197316927730     
  0.18662647823766973       -2.7314514599448864E-002   7.4311693369214102E-002
  0.16983143666921729       -4.4671767443511388E-002   3.5135387950582499E-002
  0.15303639510076486       -5.2071758532187595E-002   7.7730569133825332E-003
  0.13624135353231243       -4.9514487865477505E-002  -7.7752997423857911E-003
  0.15984216198732870        0.0000000000000000        9.6361408516750235E-002
  0.15318172614745312       -2.1835895830772365E-002   6.2635621825430893E-002
  0.14652129030757757       -3.6167615667265229E-002   3.7365072209833684E-002
  0.13986085446770199       -4.2995159509478603E-002   2.0549759669958600E-002
  0.13320041862782644       -4.2318527357412442E-002   1.2189684205805629E-002
  0.12647594705530091        0.0000000000000000        7.4126005513453053E-002
  0.12659137963829273       -1.6357277062095880E-002   5.5211626169770781E-002
  0.12670681222128452       -2.7663463891019067E-002   4.1393746596101122E-002
  0.12682224480427634       -3.3918560486769569E-002   3.2672366792444112E-002
  0.12693767738726816       -3.5122566849347399E-002   2.9047486758799684E-002
  0.10332287501003884        0.0000000000000000        5.8595764159385791E-002
  0.10685543871018853       -1.0878658293419389E-002   5.2039706402233724E-002
  0.11038800241033822       -1.9159312114772904E-002   4.7221411109384812E-002
  0.11392056611048793       -2.4841961464060557E-002   4.4140878280839034E-002
  0.11745312981063760       -2.7926606341282339E-002   4.2798107916596370E-002
   9.0382945851542454E-002   0.0000000000000000        4.9770684454548422E-002
   9.3973903363140543E-002  -5.4000395247428990E-003   5.3119862522819777E-002
   9.7564860874738632E-002  -1.0655160338526745E-002   5.4848065749684774E-002
  0.10115581838633672       -1.5765362441351551E-002   5.4955294135143433E-002
  0.10474677589793480       -2.0730645833217300E-002   5.3441547679195685E-002
  0.13624135353231243       -4.9514487865477505E-002  -7.7752997423857911E-003
  0.13305485815940335       -4.3019773446172124E-002  -3.4386896218441682E-003
  0.12986836278649422       -3.8607433277062647E-002  -4.8412152376775541E-004
  0.12668186741358511       -3.6277467358149025E-002   1.0884045518434853E-003
  0.12349537204067604       -3.6029875689431362E-002   1.2788886049894255E-003
  0.13320041862782644       -4.2318527357412442E-002   1.2189684205805629E-002
  0.12900986112458473       -3.8473864099052499E-002   1.2057223866463757E-002
  0.12481930362134300       -3.5797314622384502E-002   1.1298681288921808E-002
  0.12062874611810130       -3.4288878927408388E-002   9.9140564731799614E-003
  0.11643818861485961       -3.3948557014124248E-002   7.9033494192381898E-003
  0.12693767738726816       -3.5122566849347399E-002   2.9047486758799684E-002
  0.12249901753795908       -3.3927954751932839E-002   2.5360216428078144E-002
  0.11806035768865003       -3.2987195967706287E-002   2.1802823643421967E-002
  0.11362169783934095       -3.2300290496667723E-002   1.8375308404831047E-002
  0.10918303799003187       -3.1867238338817147E-002   1.5077670712305279E-002
  0.11745312981063760       -2.7926606341282339E-002   4.2798107916596370E-002
  0.11352232739952642       -2.9382045404813224E-002   3.6470288062999227E-002
  0.10959152498841526       -3.0177077313028135E-002   3.1028305539732581E-002
  0.10566072257730408       -3.0311702065927069E-002   2.6472160346796454E-002
  0.10172992016619289       -2.9785919663510026E-002   2.2801852484190852E-002
  0.10474677589793480       -2.0730645833217300E-002   5.3441547679195685E-002
  0.10207979070928676       -2.4836136057693560E-002   4.5387438771226800E-002
   9.9412805520638706E-002  -2.7366958658349941E-002   3.8975126977853727E-002
   9.6745820331990667E-002  -2.8323113635186390E-002   3.4204612299076412E-002
   9.4078835143342629E-002  -2.7704600988202932E-002   3.1075894734894818E-002
  0.12349537204067604       -3.6029875689431362E-002   1.2788886049894255E-003
  0.12093902455487235       -3.6561920743096762E-002   6.6690151059867198E-004
  0.11838267706906867       -3.6570864991332795E-002   3.9560074035341342E-005
  0.11582632958326500       -3.6056708434139169E-002  -6.0313570470073991E-004
  0.11326998209746131       -3.5019451071516272E-002  -1.2611858256094677E-003
  0.11643818861485961       -3.3948557014124248E-002   7.9033494192381898E-003
  0.11386979180346027       -3.4022468835948089E-002   7.5280737008658338E-003
  0.11130139499206090       -3.3756734346295961E-002   7.1440536734746762E-003
  0.10873299818066155       -3.3151353545167836E-002   6.7512893370649356E-003
  0.10616460136926220       -3.2206326432563881E-002   6.3497806916364419E-003
  0.10918303799003187       -3.1867238338817147E-002   1.5077670712305279E-002
  0.10660920188619080       -3.1483016928799339E-002   1.4755651875997741E-002
  0.10403536578234973       -3.0942603701259185E-002   1.4431498763825535E-002
  0.10146152967850867       -3.0245998656196569E-002   1.4105211375788464E-002
   9.8887693574667562E-002  -2.9393201793611545E-002   1.3776789711886769E-002
  0.10172992016619289       -2.9785919663510026E-002   2.2801852484190852E-002
   9.9157254803064018E-002  -2.8943565021650599E-002   2.2349636035994710E-002
   9.6584589439935156E-002  -2.8128473056222354E-002   2.1901895345087626E-002
   9.4011924076806266E-002  -2.7340643767225184E-002   2.1458630411469733E-002
   9.1439258713677418E-002  -2.6580077154659210E-002   2.1019841235141026E-002
   9.4078835143342629E-002  -2.7704600988202932E-002   3.1075894734894818E-002
   9.1513950554079904E-002  -2.6404113114501922E-002   3.0310026180856389E-002
   8.8949065964817137E-002  -2.5314342411185548E-002   2.9555243417260971E-002
   8.6384181375554397E-002  -2.4435288878253837E-002   2.8811546444108847E-002
   8.3819296786291658E-002  -2.3766952515706902E-002   2.8078935261399762E-002
  0.11326998209746131       -3.5019451071516272E-002  -1.2611858256094677E-003
  0.11053959310038253       -3.3859038246887185E-002  -8.3647768711619941E-004
  0.10780920410330364       -3.2975415303675662E-002  -2.2071999897455008E-005
  0.10507881510622477       -3.2368582241881744E-002   1.1820312360471680E-003
  0.10234842610914596       -3.2038539061505278E-002   2.7758320207172393E-003
  0.10616460136926220       -3.2206326432563881E-002   6.3497806916364419E-003
  0.10373214369305545       -3.1200752969541973E-002   6.2635237898517049E-003
  0.10129968601684872       -3.0413733117160266E-002   6.3834319810861795E-003
   9.8867228340641988E-002  -2.9845266875418563E-002   6.7095052653387485E-003
   9.6434770664435288E-002  -2.9495354244317096E-002   7.2417436426099324E-003
   9.8887693574667562E-002  -2.9393201793611545E-002   1.3776789711886769E-002
   9.6569634763625983E-002  -2.8542467692196705E-002   1.3237804040601611E-002
   9.4251575952584335E-002  -2.7852050930644696E-002   1.2721451006628200E-002
   9.1933517141542659E-002  -2.7321951508955486E-002   1.2227730609966354E-002
   8.9615458330501108E-002  -2.6952169427129052E-002   1.1756642850616297E-002
   9.1439258713677418E-002  -2.6580077154659210E-002   2.1019841235141026E-002
   8.9052066312093947E-002  -2.5884182414851520E-002   2.0086363065132899E-002
   8.6664873910510434E-002  -2.5290368744129158E-002   1.8991985076729383E-002
   8.4277681508926935E-002  -2.4798636142492385E-002   1.7736707269930464E-002
   8.1890489107343464E-002  -2.4408984609940884E-002   1.6320529644736379E-002
   8.3819296786291658E-002  -2.3766952515706902E-002   2.8078935261399762E-002
   8.1179438338459364E-002  -2.3225897137506279E-002   2.6809200863445751E-002
   7.8539579890627056E-002  -2.2728686557613710E-002   2.5195034191389534E-002
   7.5899721442794749E-002  -2.2275320776029207E-002   2.3236435245230835E-002
   7.3259862994962482E-002  -2.1865799792752771E-002   2.0933404024969987E-002
  0.10234842610914596       -3.2038539061505278E-002   2.7758320207172393E-003
   9.9951084374520605E-002  -3.1716085216359824E-002   2.5964384449965183E-003
   9.7553742639895247E-002  -3.1132020160259052E-002   2.5464251654754022E-003
   9.5156400905269889E-002  -3.0286343893203085E-002   2.6257921821530306E-003
   9.2759059170644531E-002  -2.9179056415191362E-002   2.8345394950299863E-003
   9.6434770664435288E-002  -2.9495354244317096E-002   7.2417436426099324E-003
   9.4185022561671272E-002  -2.9147587572294215E-002   6.4128429650473218E-003
   9.1935274458907285E-002  -2.8585559207788450E-002   5.7497492550083878E-003
   8.9685526356143297E-002  -2.7809269150799499E-002   5.2524625124929364E-003
   8.7435778253379337E-002  -2.6818717401327685E-002   4.9209827375013004E-003
   8.9615458330501108E-002  -2.6952169427129052E-002   1.1756642850616297E-002
   8.7549730530922923E-002  -2.6579089928228772E-002   1.0230885552739197E-002
   8.5484002731344738E-002  -2.6039098255317854E-002   8.9073618937102542E-003
   8.3418274931766567E-002  -2.5332194408396194E-002   7.7860718735291538E-003
   8.1352547132188396E-002  -2.4458378387464175E-002   6.8670154921963988E-003
   8.1890489107343464E-002  -2.4408984609940884E-002   1.6320529644736379E-002
   8.0045208282275571E-002  -2.4010592284162996E-002   1.4050566208072404E-002
   7.8199927457207608E-002  -2.3492637302847032E-002   1.2019263081581051E-002
   7.6354646632139617E-002  -2.2855119665992858E-002   1.0226620265262026E-002
   7.4509365807071737E-002  -2.2098039373600581E-002   8.6726377591155798E-003
   7.3259862994962482E-002  -2.1865799792752771E-002   2.0933404024969987E-002
   7.1671455815729174E-002  -2.1442094640097470E-002   1.7871884931046994E-002
   7.0083048636495879E-002  -2.0946176350376350E-002   1.5085452818620559E-002
   6.8494641457262584E-002  -2.0378044923589599E-002   1.2574107687691474E-002
   6.6906234278029331E-002  -1.9737700359736876E-002   1.0337849538258892E-002
   9.2759059170644531E-002  -2.9179056415191362E-002   2.8345394950299863E-003
   8.9335619651324527E-002  -2.7984284123685366E-002   3.0849922961211362E-003
   8.5912180132004523E-002  -2.6876153416145604E-002   3.2122700276199789E-003
   8.2488740612684547E-002  -2.5854664292572806E-002   3.2163726895273748E-003
   7.9065301093364515E-002  -2.4919816752966395E-002   3.0973002818426298E-003
   8.7435778253379337E-002  -2.6818717401327685E-002   4.9209827375013004E-003
   8.3941576746868835E-002  -2.5747706552676164E-002   4.3939058780229634E-003
   8.0447375240358276E-002  -2.4730039198147757E-002   3.8484801137552982E-003
   7.6953173733847802E-002  -2.3765715337742493E-002   3.2847054446988599E-003
   7.3458972227337271E-002  -2.2854734971460844E-002   2.7025818708531490E-003
   8.1352547132188396E-002  -2.4458378387464175E-002   6.8670154921963988E-003
   7.7892409803290097E-002  -2.3511128981666796E-002   5.5957070619920835E-003
   7.4432272474391728E-002  -2.2583924980149453E-002   4.4108758918011692E-003
   7.0972135145493387E-002  -2.1676766382912178E-002   3.3125219816239546E-003
   6.7511997816595087E-002  -2.0789653189955015E-002   2.3006453314602382E-003
   7.4509365807071737E-002  -2.2098039373600581E-002   8.6726377591155798E-003
   7.1188118820588314E-002  -2.1274551410657511E-002   6.6903958480285797E-003
   6.7866871834104892E-002  -2.0437810762151155E-002   4.8994573617574429E-003
   6.4545624847621511E-002  -1.9587817428081862E-002   3.2998223003028807E-003
   6.1224377861138046E-002  -1.8724571408449214E-002   1.8914906636644246E-003
   6.6906234278029331E-002  -1.9737700359736876E-002   1.0337849538258892E-002
   6.3828703798763570E-002  -1.9037973839648170E-002   7.6779722361320357E-003
   6.0751173319497781E-002  -1.8291696544153163E-002   5.3142245236243724E-003
   5.7673642840232020E-002  -1.7498868473251432E-002   3.2466064007355411E-003
   5.4596112360966231E-002  -1.6659489626943524E-002   1.4751178674658472E-003
   7.9065301093364515E-002  -2.4919816752966395E-002   3.0973002818426298E-003
   7.6419132241695720E-002  -2.4165347095044032E-002   3.8082440108850868E-003
   7.3772963390026980E-002  -2.3684991616523599E-002   5.2635255974418094E-003
   7.1126794538358185E-002  -2.3478750317404984E-002   7.4631450415122425E-003
   6.8480625686689445E-002  -2.3546623197687189E-002   1.0407102343097274E-002
   7.3458972227337271E-002  -2.2854734971460844E-002   2.7025818708531490E-003
   7.1350720910493992E-002  -2.2110106974577493E-002   2.5897220204541549E-003
   6.9242469593650852E-002  -2.1644840222368344E-002   2.8083593821929820E-003
   6.7134218276807781E-002  -2.1458934714833067E-002   3.3584939560684784E-003
   6.5025966959964487E-002  -2.1552390451971770E-002   4.2401257420811023E-003
   6.7511997816595087E-002  -2.0789653189955015E-002   2.3006453314602382E-003
   6.5528823389200574E-002  -2.0054866854111064E-002   1.3587348363480467E-003
   6.3545648961805978E-002  -1.9604688828213201E-002   3.3548090799606634E-004
   6.1562474534411424E-002  -1.9439119112261594E-002  -7.6911645359593883E-004
   5.9579300107016897E-002  -1.9558157706256407E-002  -1.9550572484277884E-003
   6.1224377861138046E-002  -1.8724571408449214E-002   1.8914906636644246E-003
   5.8953439677815203E-002  -1.7999626733644247E-002   1.1528245856660957E-004
   5.6682501494492263E-002  -1.7564537434058169E-002  -2.1551098251481604E-003
   5.4411563311169364E-002  -1.7419303509690343E-002  -4.9196861874798055E-003
   5.2140625127846472E-002  -1.7563924960541238E-002  -8.1784466284284055E-003
   5.4596112360966231E-002  -1.6659489626943524E-002   1.4751178674658472E-003
   5.1624569776338003E-002  -1.5944386613177847E-002  -1.1406351128901981E-003
   4.8653027191709719E-002  -1.5524386039902943E-002  -4.6634128172399758E-003
   4.5681484607081421E-002  -1.5399487907118793E-002  -9.0932152455837911E-003
   4.2709942022453207E-002  -1.5569692214825848E-002  -1.4430042397921172E-002
   6.8480625686689445E-002  -2.3546623197687189E-002   1.0407102343097274E-002
   5.8662504454258024E-002  -2.1366748936317848E-002   6.8198596291287883E-003
   4.8844383221826715E-002  -1.4417266212241292E-002   7.8132272023228588E-003
   3.9026261989395267E-002  -2.6981750254576678E-003   1.3387205062679958E-002
   2.9208140756963985E-002   1.3790524624031519E-002   2.3541793210200002E-002
   6.5025966959964487E-002  -2.1552390451971770E-002   4.2401257420811023E-003
   5.8960623478302887E-002  -2.0224887325929419E-002   1.7784860823676363E-003
   5.2895279996641315E-002  -1.5776105228850673E-002   2.2417916370316426E-003
   4.6829936514979617E-002  -8.2060441607354276E-003   5.6300424060720111E-003
   4.0764593033318142E-002   2.4852958784160606E-003   1.1943238389489297E-002
   5.9579300107016897E-002  -1.9558157706256407E-002  -1.9550572484277884E-003
   5.5611069303338811E-002  -1.9083025715541657E-002  -4.9394233455551384E-003
   5.1642838499660712E-002  -1.7134944245460373E-002  -6.6545093010921263E-003
   4.7674607695982633E-002  -1.3713913296012851E-002  -7.1003151150387869E-003
   4.3706376892304499E-002  -8.8199328671996202E-003  -6.2768407873948773E-003
   5.2140625127846472E-002  -1.7563924960541238E-002  -8.1784466284284055E-003
   4.8613841929365749E-002  -1.7941164105153562E-002  -1.3333868654640750E-002
   4.5087058730885018E-002  -1.8493783262069803E-002  -1.8875675612048951E-002
   4.1560275532404420E-002  -1.9221782431290441E-002  -2.4803867500652849E-002
   3.8033492333923738E-002  -2.0125161612815412E-002  -3.1118444320452243E-002
   4.2709942022453207E-002  -1.5569692214825848E-002  -1.4430042397921172E-002
   3.7968941356383734E-002  -1.6799302494765189E-002  -2.3404849844889053E-002
   3.3227940690314262E-002  -1.9852622278679538E-002  -3.4421707295838433E-002
   2.8486940024244858E-002  -2.4729651566567833E-002  -4.7480614750769881E-002
   2.3745939358175372E-002  -3.1430390358430982E-002  -6.2581572209683189E-002
   9.0382945851542454E-002   0.0000000000000000        4.9770684454548422E-002
   9.3973903363140543E-002  -5.4000395247428990E-003   5.3119862522819777E-002
   9.7564860874738632E-002  -1.0655160338526745E-002   5.4848065749684774E-002
  0.10115581838633672       -1.5765362441351551E-002   5.4955294135143433E-002
  0.10474677589793480       -2.0730645833217300E-002   5.3441547679195685E-002
   8.2430574113790511E-002   0.0000000000000000        4.4723235229857931E-002
   8.4629783490572694E-002  -4.5644141781450622E-003   4.8194056705935927E-002
   8.6828992867354876E-002  -9.0128575742631466E-003   5.0502356753788474E-002
   8.9028202244137072E-002  -1.3345330188354250E-002   5.1648135373415609E-002
   9.1227411620919255E-002  -1.7561832020418368E-002   5.1631392564817295E-002
   7.4240174330761716E-002   0.0000000000000000        4.0525885316231317E-002
   7.5506088985908937E-002  -3.7287888315472263E-003   4.4089402271183874E-002
   7.6772003641056144E-002  -7.3705548099995428E-003   4.6948851211091921E-002
   7.8037918296203365E-002  -1.0925297935356952E-002   4.9104232135955460E-002
   7.9303832951350600E-002  -1.4393018207619446E-002   5.0555545045774503E-002
   6.5811746502456081E-002   0.0000000000000000        3.7178634713668564E-002
   6.6602819849149258E-002  -2.8931634849493908E-003   4.0805899218563611E-002
   6.7393893195842436E-002  -5.7282520457359399E-003   4.4187549121595102E-002
   6.8184966542535599E-002  -8.5052656823596529E-003   4.7323584422762986E-002
   6.8976039889228777E-002  -1.1224204394820523E-002   5.0214005122067272E-002
   5.7145290628873614E-002   0.0000000000000000        3.4681483422169687E-002
   5.7919976080293666E-002  -2.0575381383515536E-003   3.8343547548075167E-002
   5.8694661531713717E-002  -4.0859492814723404E-003   4.2218450485297987E-002
   5.9469346983133775E-002  -6.0852334293623571E-003   4.6306192233838160E-002
   6.0244032434553813E-002  -8.0553905820215984E-003   5.0606772793695631E-002
  0.10474677589793480       -2.0730645833217300E-002   5.3441547679195685E-002
  0.10207979070928676       -2.4836136057693560E-002   4.5387438771226800E-002
   9.9412805520638706E-002  -2.7366958658349941E-002   3.8975126977853727E-002
   9.6745820331990667E-002  -2.8323113635186390E-002   3.4204612299076412E-002
   9.4078835143342629E-002  -2.7704600988202932E-002   3.1075894734894818E-002
   9.1227411620919255E-002  -1.7561832020418368E-002   5.1631392564817295E-002
   8.9974813128854636E-002  -2.1103656491625843E-002   4.6349684628036042E-002
   8.8722214636790031E-002  -2.3412097023147029E-002   4.2254952969825885E-002
   8.7469616144725384E-002  -2.4487153614981896E-002   3.9347197590186782E-002
   8.6217017652660807E-002  -2.4328826267130482E-002   3.7626418489118706E-002
   7.9303832951350600E-002  -1.4393018207619446E-002   5.0555545045774503E-002
   7.9010800319844698E-002  -1.7371176925558143E-002   4.7704954396047265E-002
   7.8717767688338783E-002  -1.9457235387944131E-002   4.5586519188866449E-002
   7.8424735056832895E-002  -2.0651193594777423E-002   4.4200239424231937E-002
   7.8131702425327007E-002  -2.0953051546057991E-002   4.3546115102143880E-002
   6.8976039889228777E-002  -1.1224204394820523E-002   5.0214005122067272E-002
   6.9187752282256917E-002  -1.3638697359490425E-002   4.9453248075260463E-002
   6.9399464675285058E-002  -1.5502373752741225E-002   4.8969825634975324E-002
   6.9611177068313199E-002  -1.6815233574572937E-002   4.8763737801211876E-002
   6.9822889461341353E-002  -1.7577276824985534E-002   4.8834984573970168E-002
   6.0244032434553813E-002  -8.0553905820215984E-003   5.0606772793695631E-002
   6.0505669016091314E-002  -9.9062177934227252E-003   5.1594565665675635E-002
   6.0767305597628794E-002  -1.1547512117538329E-002   5.2404872308152661E-002
   6.1028942179166296E-002  -1.2979273554368455E-002   5.3037692721126690E-002
   6.1290578760703783E-002  -1.4201502103913043E-002   5.3493026904597667E-002
   9.4078835143342629E-002  -2.7704600988202932E-002   3.1075894734894818E-002
   9.1513950554079904E-002  -2.6404113114501922E-002   3.0310026180856389E-002
   8.8949065964817137E-002  -2.5314342411185548E-002   2.9555243417260971E-002
   8.6384181375554397E-002  -2.4435288878253837E-002   2.8811546444108847E-002
   8.3819296786291658E-002  -2.3766952515706902E-002   2.8078935261399762E-002
   8.6217017652660807E-002  -2.4328826267130482E-002   3.7626418489118706E-002
   8.3732406425686107E-002  -2.3588951294398794E-002   3.6565736840118199E-002
   8.1247795198711448E-002  -2.2919365011592883E-002   3.5654516125250557E-002
   7.8763183971736775E-002  -2.2320067418712758E-002   3.4892756344516059E-002
   7.6278572744762116E-002  -2.1791058515758438E-002   3.4280457497914585E-002
   7.8131702425327007E-002  -2.0953051546057991E-002   4.3546115102143880E-002
   7.5865739704330373E-002  -2.0773789474295676E-002   4.2331048838639987E-002
   7.3599776983333740E-002  -2.0524387612000233E-002   4.1403818652959105E-002
   7.1333814262337106E-002  -2.0204845959171647E-002   4.0764424545101242E-002
   6.9067851541340514E-002  -1.9815164515809933E-002   4.0412866515066377E-002
   6.9822889461341353E-002  -1.7577276824985534E-002   4.8834984573970168E-002
   6.7913950390012690E-002  -1.7958627654192552E-002   4.7605962176421948E-002
   6.6005011318684012E-002  -1.8129410212407576E-002   4.6803151000386720E-002
   6.4096072247355362E-002  -1.8089624499630516E-002   4.6426551045864378E-002
   6.2187133176026692E-002  -1.7839270515861434E-002   4.6476162312855049E-002
   6.1290578760703783E-002  -1.4201502103913043E-002   5.3493026904597667E-002
   5.9877038482733048E-002  -1.5143465834089442E-002   5.2390476853463992E-002
   5.8463498204762293E-002  -1.5734432812814947E-002   5.1852513167533282E-002
   5.7049957926791545E-002  -1.5974403040089409E-002   5.1879135846805383E-002
   5.5636417648820810E-002  -1.5863376515912977E-002   5.2470344891280482E-002
   8.3819296786291658E-002  -2.3766952515706902E-002   2.8078935261399762E-002
   8.1179438338459364E-002  -2.3225897137506279E-002   2.6809200863445751E-002
   7.8539579890627056E-002  -2.2728686557613710E-002   2.5195034191389534E-002
   7.5899721442794749E-002  -2.2275320776029207E-002   2.3236435245230835E-002
   7.3259862994962482E-002  -2.1865799792752771E-002   2.0933404024969987E-002
   7.6278572744762116E-002  -2.1791058515758438E-002   3.4280457497914585E-002
   7.3452589459339593E-002  -2.1312180589031955E-002   3.3462124344161716E-002
   7.0626606173917056E-002  -2.0863275924835417E-002   3.2615973789330635E-002
   6.7800622888494505E-002  -2.0444344523168748E-002   3.1742005833421363E-002
   6.4974639603072010E-002  -2.0055386384032092E-002   3.0840220476434088E-002
   6.9067851541340514E-002  -1.9815164515809933E-002   4.0412866515066377E-002
   6.6372358291351921E-002  -1.9398464040557561E-002   4.0059806141292564E-002
   6.3676865041363315E-002  -1.8997865292057037E-002   3.9995543239464720E-002
   6.0981371791374701E-002  -1.8613368270308340E-002   4.0220077809582942E-002
   5.8285878541386123E-002  -1.8244972975311469E-002   4.0733409851647265E-002
   6.2187133176026692E-002  -1.7839270515861434E-002   4.6476162312855049E-002
   5.9938744834496252E-002  -1.7484747492083216E-002   4.6602246254838400E-002
   5.7690356492965791E-002  -1.7132454659278644E-002   4.7333742541791846E-002
   5.5441968151435331E-002  -1.6782392017447894E-002   4.8670651173715718E-002
   5.3193579809904898E-002  -1.6434559566590817E-002   5.0612972150609621E-002
   5.5636417648820810E-002  -1.5863376515912977E-002   5.2470344891280482E-002
   5.4151749088772655E-002  -1.5571030943608843E-002   5.3089444684799050E-002
   5.2667080528724507E-002  -1.5267044026500341E-002   5.4630571696312143E-002
   5.1182411968676345E-002  -1.4951415764587465E-002   5.7093725925819627E-002
   4.9697743408628203E-002  -1.4624146157870166E-002   6.0478907373321428E-002
   7.3259862994962482E-002  -2.1865799792752771E-002   2.0933404024969987E-002
   7.1671455815729174E-002  -2.1442094640097470E-002   1.7871884931046994E-002
   7.0083048636495879E-002  -2.0946176350376350E-002   1.5085452818620559E-002
   6.8494641457262584E-002  -2.0378044923589599E-002   1.2574107687691474E-002
   6.6906234278029331E-002  -1.9737700359736876E-002   1.0337849538258892E-002
   6.4974639603072010E-002  -2.0055386384032092E-002   3.0840220476434088E-002
   6.3628278111022507E-002  -1.9639944292692058E-002   2.9419699570403607E-002
   6.2281916618973060E-002  -1.9141561034415396E-002   2.8208183057244027E-002
   6.0935555126923543E-002  -1.8560236609201905E-002   2.7205670936955167E-002
   5.9589193634874082E-002  -1.7895971017051843E-002   2.6412163209537126E-002
   5.8285878541386123E-002  -1.8244972975311469E-002   4.0733409851647265E-002
   5.7115480147894367E-002  -1.7837793945286687E-002   4.0964615163380506E-002
   5.5945081754402576E-002  -1.7336945718454302E-002   4.1338742279358479E-002
   5.4774683360910750E-002  -1.6742428294814298E-002   4.1855791199581147E-002
   5.3604284967418994E-002  -1.6054241674366754E-002   4.2515761924048295E-002
   5.3193579809904898E-002  -1.6434559566590817E-002   5.0612972150609621E-002
   5.2133061926344669E-002  -1.6035643597881281E-002   5.2506631709977589E-002
   5.1072544042784447E-002  -1.5532330402493334E-002   5.4477130484964123E-002
   5.0012026159224218E-002  -1.4924619980426648E-002   5.6524468475569099E-002
   4.8951508275664003E-002  -1.4212512331681693E-002   5.8648645681792601E-002
   4.9697743408628203E-002  -1.4624146157870166E-002   6.0478907373321428E-002
   4.8681023446373428E-002  -1.4233493250475862E-002   6.4045749210194847E-002
   4.7664303484118667E-002  -1.3727715086532297E-002   6.7623347674060752E-002
   4.6647583521863899E-002  -1.3106811666039036E-002   7.1211702764918922E-002
   4.5630863559609103E-002  -1.2370782988996631E-002   7.4810814482769716E-002
   6.6906234278029331E-002  -1.9737700359736876E-002   1.0337849538258892E-002
   6.3828703798763570E-002  -1.9037973839648170E-002   7.6779722361320357E-003
   6.0751173319497781E-002  -1.8291696544153163E-002   5.3142245236243724E-003
   5.7673642840232020E-002  -1.7498868473251432E-002   3.2466064007355411E-003
   5.4596112360966231E-002  -1.6659489626943524E-002   1.4751178674658472E-003
   5.9589193634874082E-002  -1.7895971017051843E-002   2.6412163209537126E-002
   5.6787292696292110E-002  -1.7174204274114882E-002   2.5103223789196979E-002
   5.3985391757710097E-002  -1.6420376396541238E-002   2.4049413860605190E-002
   5.1183490819128104E-002  -1.5634487384330813E-002   2.3250733423762104E-002
   4.8381589880546111E-002  -1.4816537237483329E-002   2.2707182478667459E-002
   5.3604284967418994E-002  -1.6054241674366754E-002   4.2515761924048295E-002
   5.1037013471650315E-002  -1.5310434708581705E-002   4.2543270744724977E-002
   4.8469741975881594E-002  -1.4549056248929479E-002   4.2784908959279860E-002
   4.5902470480112867E-002  -1.3770106295409919E-002   4.3240676567712612E-002
   4.3335198984344181E-002  -1.2973584848023134E-002   4.3910573570023481E-002
   4.8951508275664003E-002  -1.4212512331681693E-002   5.8648645681792601E-002
   4.6577866124838156E-002  -1.3446665143048528E-002   5.9998113102716584E-002
   4.4204223974012288E-002  -1.2677736101317609E-002   6.1520709819648273E-002
   4.1830581823186393E-002  -1.1905725206489066E-002   6.3216435832587389E-002
   3.9456939672360566E-002  -1.1130632458562995E-002   6.5085291141534329E-002
   4.5630863559609103E-002  -1.2370782988996631E-002   7.4810814482769716E-002
   4.3409850655855647E-002  -1.1582895577515240E-002   7.7467750863171536E-002
   4.1188837752102150E-002  -1.0806415953705739E-002   8.0256816441710371E-002
   3.8967824848348667E-002  -1.0041344117568282E-002   8.3178011218386361E-002
   3.6746811944595198E-002  -9.2876800691027439E-003   8.6231335193199699E-002
   5.4596112360966231E-002  -1.6659489626943524E-002   1.4751178674658472E-003
   5.1624569776338003E-002  -1.5944386613177847E-002  -1.1406351128901981E-003
   4.8653027191709719E-002  -1.5524386039902943E-002  -4.6634128172399758E-003
   4.5681484607081421E-002  -1.5399487907118793E-002  -9.0932152455837911E-003
   4.2709942022453207E-002  -1.5569692214825848E-002  -1.4430042397921172E-002
   4.8381589880546111E-002  -1.4816537237483329E-002   2.2707182478667459E-002
   4.4803933796880982E-002  -1.4079789331214787E-002   2.1315688279343770E-002
   4.1226277713215853E-002  -1.3537507040741081E-002   1.9618991805940525E-002
   3.7648621629550759E-002  -1.3189690366061796E-002   1.7617093058457260E-002
   3.4070965545885651E-002  -1.3036339307177069E-002   1.5309992036894038E-002
   4.3335198984344181E-002  -1.2973584848023134E-002   4.3910573570023481E-002
   3.9753251851556218E-002  -1.2215192049251908E-002   4.3843974976428710E-002
   3.6171304718768234E-002  -1.1550628041579039E-002   4.4073996558668158E-002
   3.2589357585980222E-002  -1.0979892825004407E-002   4.4600638316741527E-002
   2.9007410453192217E-002  -1.0502986399528402E-002   4.5423900250649074E-002
   3.9456939672360566E-002  -1.1130632458562995E-002   6.5085291141534329E-002
   3.6472523940363655E-002  -1.0350594767289022E-002   6.6444224978364608E-002
   3.3488108208366764E-002  -9.5637490424170871E-003   6.8701601440942797E-002
   3.0503692476369873E-002  -8.7700952839473243E-003   7.1857420529269217E-002
   2.7519276744372965E-002  -7.9696334918796796E-003   7.5911682243343631E-002
   3.6746811944595198E-002  -9.2876800691027439E-003   8.6231335193199699E-002
   3.4961750063303348E-002  -8.4859974853259967E-003   8.9116438285151089E-002
   3.3176688182011541E-002  -7.5768700432552183E-003   9.3501806452764735E-002
   3.1391626300719698E-002  -6.5602977428898743E-003   9.9387439696040247E-002
   2.9606564419427883E-002  -5.4362805842309569E-003  0.10677333801497801     
   4.2709942022453207E-002  -1.5569692214825848E-002  -1.4430042397921172E-002
   3.7968941356383734E-002  -1.6799302494765189E-002  -2.3404849844889053E-002
   3.3227940690314262E-002  -1.9852622278679538E-002  -3.4421707295838433E-002
   2.8486940024244858E-002  -2.4729651566567833E-002  -4.7480614750769881E-002
   2.3745939358175372E-002  -3.1430390358430982E-002  -6.2581572209683189E-002
   3.4070965545885651E-002  -1.3036339307177069E-002   1.5309992036894038E-002
   2.7807336529592719E-002  -1.3413663491535888E-002   9.0847304402257301E-003
   2.1543707513299828E-002  -1.4657872546586626E-002   1.8562621470919749E-003
   1.5280078497006785E-002  -1.6768966472329269E-002  -6.3754128425062562E-003
   9.0164494807140061E-003  -1.9746945268764193E-002  -1.5610294528569990E-002
   2.9007410453192217E-002  -1.0502986399528402E-002   4.5423900250649074E-002
   2.2259996394192613E-002  -1.0028024488306170E-002   4.2905009137562372E-002
   1.5512582335192954E-002  -9.4631228144938379E-003   4.0421754635527482E-002
   8.7651682761932977E-003  -8.8082813780907647E-003   3.7974136744544022E-002
   2.0177542171936902E-003  -8.0635001790974048E-003   3.5562155464612333E-002
   2.7519276744372965E-002  -7.9696334918796796E-003   7.5911682243343631E-002
   2.1326920950183396E-002  -6.6423854850766600E-003   7.8055986247121290E-002
   1.5134565155993806E-002  -4.2683730824009322E-003   8.1274770169467228E-002
   8.9422093618041522E-003  -8.4759628385211970E-004   8.5568034010381502E-002
   2.7498535676146602E-003   3.6199449105694392E-003   9.0935777769864237E-002
   2.9606564419427883E-002  -5.4362805842309569E-003  0.10677333801497801     
   2.5008110197565103E-002  -3.2567464818470393E-003  0.11453766176890212     
   2.0409655975702309E-002   9.2637664969180689E-004  0.12441530874891127     
   1.5811201753839460E-002   7.1130888103864004E-003  0.13640627895500562     
   1.1212747531976708E-002   1.5303390000236172E-002  0.15051057238718557     
   5.7145290628873614E-002   0.0000000000000000        3.4681483422169687E-002
   5.7919976080293666E-002  -2.0575381383515536E-003   3.8343547548075167E-002
   5.8694661531713717E-002  -4.0859492814723404E-003   4.2218450485297987E-002
   5.9469346983133775E-002  -6.0852334293623571E-003   4.6306192233838160E-002
   6.0244032434553813E-002  -8.0553905820215984E-003   5.0606772793695631E-002
   4.8648748568689462E-002   0.0000000000000000        3.2805529795569867E-002
   4.9571710513166528E-002  -1.6873128853264127E-003   3.6987943504810182E-002
   5.0494672457643601E-002  -3.3896403068402383E-003   4.1254071388847201E-002
   5.1417634402120667E-002  -5.1069822645414802E-003   4.5603913447680923E-002
   5.2340596346597747E-002  -6.8393387584301298E-003   5.0037469681311321E-002
   4.0730062180578799E-002   0.0000000000000000        3.1321872187704276E-002
   4.1672175981592244E-002  -1.3170876323012710E-003   3.5980493948861263E-002
   4.2614289782605681E-002  -2.6933313322081379E-003   4.0593705248294296E-002
   4.3556403583619126E-002  -4.1287310997206016E-003   4.5161506086003375E-002
   4.4498517384632577E-002  -5.6232869348386587E-003   4.9683896461988494E-002
   3.3389231464541626E-002   0.0000000000000000        3.0230510598572919E-002
   3.4221372485570806E-002  -9.4686237927612887E-004   3.5321198880228381E-002
   3.5053513506599965E-002  -1.9970223575760376E-003   4.0237352063639237E-002
   3.5885654527629124E-002  -3.1504799348997222E-003   4.4978970148805517E-002
   3.6717795548658304E-002  -4.4072351112471875E-003   4.9546053135727193E-002
   2.6626256420577941E-002   0.0000000000000000        2.9531445028175798E-002
   2.7219300025102193E-002  -5.7663712625098760E-004   3.5010058298911559E-002
   2.7812343629626441E-002  -1.3007133829439355E-003   4.0185011834882080E-002
   2.8405387234150689E-002  -2.1722287700788462E-003   4.5056305636087354E-002
   2.8998430838674941E-002  -3.1911832876557154E-003   4.9623939702527403E-002
   6.0244032434553813E-002  -8.0553905820215984E-003   5.0606772793695631E-002
   6.0505669016091314E-002  -9.9062177934227252E-003   5.1594565665675635E-002
   6.0767305597628794E-002  -1.1547512117538329E-002   5.2404872308152661E-002
   6.1028942179166296E-002  -1.2979273554368455E-002   5.3037692721126690E-002
   6.1290578760703783E-002  -1.4201502103913043E-002   5.3493026904597667E-002
   5.2340596346597747E-002  -6.8393387584301298E-003   5.0037469681311321E-002
   5.2457449142106247E-002  -8.4807591781778137E-003   5.1322531908633666E-002
   5.2574301937614767E-002  -9.9252929134561584E-003   5.2495512793401054E-002
   5.2691154733123281E-002  -1.1172939964265135E-002   5.3556412335613500E-002
   5.2808007528631795E-002  -1.2223700330604777E-002   5.4505230535270940E-002
   4.4498517384632577E-002  -5.6232869348386587E-003   4.9683896461988494E-002
   4.4535991281060137E-002  -7.0553005629329160E-003   5.1253581841837051E-002
   4.4573465177487705E-002  -8.3030737093739738E-003   5.2776590766078664E-002
   4.4610939073915265E-002  -9.3666063741618261E-003   5.4252923234713347E-002
   4.4648412970342846E-002  -1.0245898557296487E-002   5.5682579247741060E-002
   3.6717795548658304E-002  -4.4072351112471875E-003   4.9546053135727193E-002
   3.6741295432952958E-002  -5.6298419476880062E-003   5.1387715465285762E-002
   3.6764795317247620E-002  -6.6808545052918031E-003   5.3248106226185449E-002
   3.6788295201542275E-002  -7.5602727840585020E-003   5.5127225418426247E-002
   3.6811795085836915E-002  -8.2680967839881946E-003   5.7025073042008163E-002
   2.8998430838674941E-002  -3.1911832876557154E-003   4.9623939702527403E-002
   2.9073361597784717E-002  -4.2043833324430999E-003   5.1724932778979861E-002
   2.9148292356894496E-002  -5.0586353012096246E-003   5.3910059173721499E-002
   2.9223223116004275E-002  -5.7539391939552004E-003   5.6179318886752240E-002
   2.9298153875114051E-002  -6.2902950106799166E-003   5.8532711918072106E-002
   6.1290578760703783E-002  -1.4201502103913043E-002   5.3493026904597667E-002
   5.9877038482733048E-002  -1.5143465834089442E-002   5.2390476853463992E-002
   5.8463498204762293E-002  -1.5734432812814947E-002   5.1852513167533282E-002
   5.7049957926791545E-002  -1.5974403040089409E-002   5.1879135846805383E-002
   5.5636417648820810E-002  -1.5863376515912977E-002   5.2470344891280482E-002
   5.2808007528631795E-002  -1.2223700330604777E-002   5.4505230535270940E-002
   5.1888318428071657E-002  -1.3038066400632708E-002   5.3968371299930470E-002
   5.0968629327511512E-002  -1.3576530562506650E-002   5.3854628054208410E-002
   5.0048940226951374E-002  -1.3839092816226582E-002   5.4164000798104656E-002
   4.9129251126391257E-002  -1.3825753161792478E-002   5.4896489531619186E-002
   4.4648412970342846E-002  -1.0245898557296487E-002   5.5682579247741060E-002
   4.4081104671608730E-002  -1.0932666967175977E-002   5.5636315984896968E-002
   4.3513796372874614E-002  -1.1418628312198420E-002   5.5871698336086628E-002
   4.2946488074140490E-002  -1.1703782592363741E-002   5.6388726301309977E-002
   4.2379179775406381E-002  -1.1788129807672000E-002   5.7187399880567119E-002
   3.6811795085836915E-002  -8.2680967839881946E-003   5.7025073042008163E-002
   3.6455397213344273E-002  -8.8272675337192387E-003   5.7394310908363416E-002
   3.6098999340851610E-002  -9.2607260618901843E-003   5.7903724013167859E-002
   3.5742601468358948E-002  -9.5684723685009448E-003   5.8553312356421423E-002
   3.5386203595866292E-002  -9.7505064535515114E-003   5.9343075938124219E-002
   2.9298153875114051E-002  -6.2902950106799166E-003   5.8532711918072106E-002
   2.9011196053278267E-002  -6.7218681002625229E-003   5.9242356070329849E-002
   2.8724238231442482E-002  -7.1028238115819070E-003   5.9950705085452138E-002
   2.8437280409606698E-002  -7.4331621446381106E-003   6.0657758963439043E-002
   2.8150322587770907E-002  -7.7128830994310366E-003   6.1363517704290507E-002
   5.5636417648820810E-002  -1.5863376515912977E-002   5.2470344891280482E-002
   5.4151749088772655E-002  -1.5571030943608843E-002   5.3089444684799050E-002
   5.2667080528724507E-002  -1.5267044026500341E-002   5.4630571696312143E-002
   5.1182411968676345E-002  -1.4951415764587465E-002   5.7093725925819627E-002
   4.9697743408628203E-002  -1.4624146157870166E-002   6.0478907373321428E-002
   4.9129251126391257E-002  -1.3825753161792478E-002   5.4896489531619186E-002
   4.8397862016687908E-002  -1.3656000713799313E-002   5.5128219240817303E-002
   4.7666472906984565E-002  -1.3449324586841904E-002   5.5944480632710694E-002
   4.6935083797281230E-002  -1.3205724780920438E-002   5.7345273707299277E-002
   4.6203694687577901E-002  -1.2925201296034694E-002   5.9330598464583092E-002
   4.2379179775406381E-002  -1.1788129807672000E-002   5.7187399880567119E-002
   4.2063574580748747E-002  -1.1740970483989754E-002   5.7057041839604430E-002
   4.1747969386091092E-002  -1.1631605147183520E-002   5.7173719946037871E-002
   4.1432364191433445E-002  -1.1460033797253352E-002   5.7537434199867364E-002
   4.1116758996775769E-002  -1.1226256434199250E-002   5.8148184601093056E-002
   3.5386203595866292E-002  -9.7505064535515114E-003   5.9343075938124219E-002
   3.5148886780955180E-002  -9.8259402541801683E-003   5.8875912481160496E-002
   3.4911569966044068E-002  -9.8138857075250677E-003   5.8318289636293770E-002
   3.4674253151132949E-002  -9.7143428135863224E-003   5.7670207403524076E-002
   3.4436936336221857E-002  -9.5273115723638613E-003   5.6931665782851290E-002
   2.8150322587770907E-002  -7.7128830994310366E-003   6.1363517704290507E-002
   2.7653798617307199E-002  -7.9109100243706446E-003   6.0584831165485520E-002
   2.7157274646843491E-002  -7.9961662678667660E-003   5.9378189703478503E-002
   2.6660750676379769E-002  -7.9686518299192551E-003   5.7743593318269185E-002
   2.6164226705916074E-002  -7.8283667105283616E-003   5.5681042009857823E-002
   4.9697743408628203E-002  -1.4624146157870166E-002   6.0478907373321428E-002
   4.8681023446373428E-002  -1.4233493250475862E-002   6.4045749210194847E-002
   4.7664303484118667E-002  -1.3727715086532297E-002   6.7623347674060752E-002
   4.6647583521863899E-002  -1.3106811666039036E-002   7.1211702764918922E-002
   4.5630863559609103E-002  -1.2370782988996631E-002   7.4810814482769716E-002
   4.6203694687577901E-002  -1.2925201296034694E-002   5.9330598464583092E-002
   4.5226563083952766E-002  -1.2587162854706277E-002   6.1430000808577342E-002
   4.4249431480327617E-002  -1.2171018179456705E-002   6.3597823242838414E-002
   4.3272299876702461E-002  -1.1676767270285854E-002   6.5834065767366334E-002
   4.2295168273077333E-002  -1.1104410127193765E-002   6.8138728382161146E-002
   4.1116758996775769E-002  -1.1226256434199250E-002   5.8148184601093056E-002
   4.0236879215054727E-002  -1.0940832458936685E-002   5.8743128429579738E-002
   3.9356999433333678E-002  -1.0614321272381176E-002   5.9464155811607848E-002
   3.8477119651612622E-002  -1.0246722874532562E-002   6.0311266747177156E-002
   3.7597239869891580E-002  -9.8380372653910642E-003   6.1284461236287835E-002
   3.4436936336221857E-002  -9.5273115723638613E-003   5.6931665782851290E-002
   3.3711971839679347E-002  -9.2945020631670823E-003   5.5985132073202326E-002
   3.2987007343136830E-002  -9.0576243653055603E-003   5.5222345380369062E-002
   3.2262042846594320E-002  -8.8166784787792989E-003   5.4643305704351615E-002
   3.1537078350051810E-002  -8.5716644035882250E-003   5.4248013045150048E-002
   2.6164226705916074E-002  -7.8283667105283616E-003   5.5681042009857823E-002
   2.5651840957826577E-002  -7.6481716673974937E-003   5.3156011739444842E-002
   2.5139455209737094E-002  -7.5009274582300903E-003   5.0872391949122228E-002
   2.4627069461647610E-002  -7.3866340830260561E-003   4.8830182638889726E-002
   2.4114683713558127E-002  -7.3052915417855524E-003   4.7029383808747549E-002
   4.5630863559609103E-002  -1.2370782988996631E-002   7.4810814482769716E-002
   4.3409850655855647E-002  -1.1582895577515240E-002   7.7467750863171536E-002
   4.1188837752102150E-002  -1.0806415953705739E-002   8.0256816441710371E-002
   3.8967824848348667E-002  -1.0041344117568282E-002   8.3178011218386361E-002
   3.6746811944595198E-002  -9.2876800691027439E-003   8.6231335193199699E-002
   4.2295168273077333E-002  -1.1104410127193765E-002   6.8138728382161146E-002
   4.0246586891299341E-002  -1.0495106571806509E-002   6.9465923371245950E-002
   3.8198005509521363E-002  -9.8900164257493400E-003   7.1005852206144915E-002
   3.6149424127743392E-002  -9.2891396890228024E-003   7.2758514886857778E-002
   3.4100842745965407E-002  -8.6924763616266776E-003   7.4723911413384386E-002
   3.7597239869891580E-002  -9.8380372653910642E-003   6.1284461236287835E-002
   3.5801694657765830E-002  -9.4073175660975283E-003   6.1289109212397538E-002
   3.4006149445640108E-002  -8.9736168977928299E-003   6.1587095681997814E-002
   3.2210604233514371E-002  -8.5369352604773782E-003   6.2178420645088772E-002
   3.0415059021388656E-002  -8.0972726541507778E-003   6.3063084101670414E-002
   3.1537078350051810E-002  -8.5716644035882250E-003   5.4248013045150048E-002
   3.0075173955255087E-002  -8.3195285603885893E-003   5.2937308386625831E-002
   2.8613269560458340E-002  -8.0572173698363198E-003   5.2000546869269040E-002
   2.7151365165661606E-002  -7.7847308319319540E-003   5.1437728493079593E-002
   2.5689460770864876E-002  -7.5020689466747670E-003   5.1248853258057510E-002
   2.4114683713558127E-002  -7.3052915417855524E-003   4.7029383808747549E-002
   2.3067024783767126E-002  -7.2317395546798169E-003   4.4410520893931021E-002
   2.2019365853976097E-002  -7.1408178418799484E-003   4.2246205767958567E-002
   2.0971706924185096E-002  -7.0325264033865367E-003   4.0536438430830241E-002
   1.9924047994394081E-002  -6.9068652391988672E-003   3.9281218882545876E-002
   3.6746811944595198E-002  -9.2876800691027439E-003   8.6231335193199699E-002
   3.4961750063303348E-002  -8.4859974853259967E-003   8.9116438285151089E-002
   3.3176688182011541E-002  -7.5768700432552183E-003   9.3501806452764735E-002
   3.1391626300719698E-002  -6.5602977428898743E-003   9.9387439696040247E-002
   2.9606564419427883E-002  -5.4362805842309569E-003  0.10677333801497801     
   3.4100842745965407E-002  -8.6924763616266776E-003   7.4723911413384386E-002
   3.3508577687424296E-002  -8.0485274422761877E-003   7.6364846452244395E-002
   3.2916312628883150E-002  -7.3057939296859997E-003   7.8891110060943528E-002
   3.2324047570342046E-002  -6.4642758238563636E-003   8.2302702239482189E-002
   3.1731782511800921E-002  -5.5239731247871404E-003   8.6599622987860059E-002
   3.0415059021388656E-002  -8.0972726541507778E-003   6.3063084101670414E-002
   3.0400654279775487E-002  -7.6110573992261982E-003   6.3451190822384040E-002
   3.0386249538162307E-002  -7.0347178161168505E-003   6.4109689607114537E-002
   3.0371844796549155E-002  -6.3682539048225788E-003   6.5038580455861472E-002
   3.0357440054935958E-002  -5.6116656653435459E-003   6.6237863368624972E-002
   2.5689460770864876E-002  -7.5020689466747670E-003   5.1248853258057510E-002
   2.5637979840356935E-002  -7.1735873561763266E-003   5.0375471395570526E-002
   2.5586498909849015E-002  -6.7636417025477777E-003   4.9157545091277177E-002
   2.5535017979341098E-002  -6.2722319857889865E-003   4.7595074345177756E-002
   2.5483537048833153E-002  -5.6993582058996739E-003   4.5688059157272379E-002
   1.9924047994394081E-002  -6.9068652391988672E-003   3.9281218882545876E-002
   1.9220554369168655E-002  -6.7361173131263996E-003   3.7137688171803407E-002
   1.8517060743943235E-002  -6.4925655889784689E-003   3.4034676513431922E-002
   1.7813567118717798E-002  -6.1762100667550855E-003   2.9972183907431713E-002
   1.7110073493492362E-002  -5.7870507464561349E-003   2.4950210353802404E-002
   2.9606564419427883E-002  -5.4362805842309569E-003  0.10677333801497801     
   2.5008110197565103E-002  -3.2567464818470393E-003  0.11453766176890212     
   2.0409655975702309E-002   9.2637664969180689E-004  0.12441530874891127     
   1.5811201753839460E-002   7.1130888103864004E-003  0.13640627895500562     
   1.1212747531976708E-002   1.5303390000236172E-002  0.15051057238718557     
   3.1731782511800921E-002  -5.5239731247871404E-003   8.6599622987860059E-002
   2.8889425315283990E-002  -3.8894976200045672E-003   9.2153735015478355E-002
   2.6047068118767114E-002  -9.6546109703425642E-004   9.9106717867703281E-002
   2.3204710922250141E-002   3.2481364441238232E-003  0.10745857154453511     
   2.0362353725733279E-002   8.7512950034693837E-003  0.11720929604597286     
   3.0357440054935958E-002  -5.6116656653435459E-003   6.6237863368624972E-002
   2.8556727482286388E-002  -4.5222487581619286E-003   6.8867735658969850E-002
   2.6756014909636763E-002  -2.8572988437604308E-003   7.2182026372442892E-002
   2.4955302336987138E-002  -6.1681592213886499E-004   7.6180735509043626E-002
   2.3154589764337583E-002   2.1992000067027062E-003   8.0863863068772912E-002
   2.5483537048833153E-002  -5.6993582058996739E-003   4.5688059157272379E-002
   2.4010016698572251E-002  -5.1549998963193733E-003   4.4679663699376204E-002
   2.2536496348311352E-002  -4.7491365904865496E-003   4.3641234263129589E-002
   2.1062975998050418E-002  -4.4817682884016087E-003   4.2572770848532351E-002
   1.9589455647789574E-002  -4.3528949900640823E-003   4.1474273455584312E-002
   1.7110073493492362E-002  -5.7870507464561349E-003   2.4950210353802404E-002
   1.5249292964141598E-002  -5.7877510344768734E-003   1.9589519136697597E-002
   1.3388512434790847E-002  -6.6409743372127517E-003   1.3484341539763744E-002
   1.1527731905440070E-002  -8.3467206546641512E-003   6.6346775630007626E-003
   9.6669513760893055E-003  -1.0904989986830760E-002  -9.5947279359154258E-004
   2.6626256420577941E-002   0.0000000000000000        2.9531445028175798E-002
   2.7219300025102193E-002  -5.7663712625098760E-004   3.5010058298911559E-002
   2.7812343629626441E-002  -1.3007133829439355E-003   4.0185011834882080E-002
   2.8405387234150689E-002  -2.1722287700788462E-003   4.5056305636087354E-002
   2.8998430838674941E-002  -3.1911832876557154E-003   4.9623939702527403E-002
   2.0106579988345114E-002   0.0000000000000000        2.9091392162274431E-002
   2.0434813566512829E-002  -4.3247784468852801E-004   3.4388587453670343E-002
   2.0763047144680545E-002  -9.7553503720865069E-004   3.9459822427118429E-002
   2.1091280722848268E-002  -1.6291715775603715E-003   4.4305097082618691E-002
   2.1419514301015984E-002  -2.3933874657436809E-003   4.8924411420171128E-002
   1.3495645107500509E-002   0.0000000000000000        2.8777068686630332E-002
   1.3636768076129109E-002  -2.8831856312606886E-004   3.3929705781296761E-002
   1.3777891044757712E-002  -6.5035669147336765E-004   3.8934081974832786E-002
   1.3919014013386312E-002  -1.0861143850418968E-003   4.3790197267238408E-002
   1.4060136982014913E-002  -1.5955916438316568E-003   4.8498051658513626E-002
   6.7934517780441237E-003   0.0000000000000000        2.8588474601243519E-002
   6.8251635539510278E-003  -1.4415928156361079E-004   3.3633413281790835E-002
   6.8568753298579310E-003  -3.2517834573808635E-004   3.8607790478025164E-002
   6.8885871057648342E-003  -5.4305719252342212E-004   4.3511606189946490E-002
   6.9202988816717392E-003  -7.9779582191962743E-004   4.8344860417554855E-002
  -2.4038063206610616E-014   0.0000000000000000        2.8525609906113979E-002
  -2.1413426587457707E-014  -1.1509890263106115E-015   3.3499709955152543E-002
  -1.8791175213084266E-014  -2.7998436902265667E-015   3.8480947936695535E-002
  -1.6167731216321091E-014  -4.9491660769618306E-015   4.3469323850742952E-002
  -1.3543419857819927E-014  -7.6006909099923803E-015   4.8464837697294809E-002
   2.8998430838674941E-002  -3.1911832876557154E-003   4.9623939702527403E-002
   2.9073361597784717E-002  -4.2043833324430999E-003   5.1724932778979861E-002
   2.9148292356894496E-002  -5.0586353012096246E-003   5.3910059173721499E-002
   2.9223223116004275E-002  -5.7539391939552004E-003   5.6179318886752240E-002
   2.9298153875114051E-002  -6.2902950106799166E-003   5.8532711918072106E-002
   2.1419514301015984E-002  -2.3933874657436809E-003   4.8924411420171128E-002
   2.1552861876398488E-002  -3.1532874993359505E-003   5.1358306779782398E-002
   2.1686209451780993E-002  -3.7939764759145180E-003   5.3824902453649986E-002
   2.1819557027163494E-002  -4.3154543954794051E-003   5.6324198441773887E-002
   2.1952904602546001E-002  -4.7177212580305772E-003   5.8856194744154086E-002
   1.4060136982014913E-002  -1.5955916438316568E-003   4.8498051658513626E-002
   1.4200468369637329E-002  -2.1021916662287803E-003   5.1225112282276462E-002
   1.4340799757259746E-002  -2.5293176506194326E-003   5.3933440216262792E-002
   1.4481131144882165E-002  -2.8769695970035725E-003   5.6623035460472634E-002
   1.4621462532504580E-002  -3.1451475053812447E-003   5.9293898014905991E-002
   6.9202988816717392E-003  -7.9779582191962743E-004   4.8344860417554855E-002
   7.0161810775012483E-003  -1.0510958331216170E-003   5.1325349286462062E-002
   7.1120632733307591E-003  -1.2646588253243227E-003   5.4235672461559956E-002
   7.2079454691602656E-003  -1.4384847985277516E-003   5.7075829942848544E-002
   7.3038276649897774E-003  -1.5725737527319088E-003   5.9845821730327778E-002
  -1.3543419857819927E-014  -7.6006909099923803E-015   4.8464837697294809E-002
  -9.7573858715005457E-015  -1.4455450725314734E-014   5.1659017792339182E-002
  -5.9702676830086787E-015  -2.9242884155844528E-014   5.4731599189541416E-002
  -2.1815231912580835E-015  -5.1941686628892425E-014   5.7682581888901532E-002
   1.6028844918025698E-015  -8.2579776350399925E-014   6.0511965890419496E-002
   2.9298153875114051E-002  -6.2902950106799166E-003   5.8532711918072106E-002
   2.9011196053278267E-002  -6.7218681002625229E-003   5.9242356070329849E-002
   2.8724238231442482E-002  -7.1028238115819070E-003   5.9950705085452138E-002
   2.8437280409606698E-002  -7.4331621446381106E-003   6.0657758963439043E-002
   2.8150322587770907E-002  -7.7128830994310366E-003   6.1363517704290507E-002
   2.1952904602546001E-002  -4.7177212580305772E-003   5.8856194744154086E-002
   2.1682910291729196E-002  -5.0414010752298510E-003   5.9642194953069522E-002
   2.1412915980912401E-002  -5.3271178587390201E-003   6.0463417321158307E-002
   2.1142921670095606E-002  -5.5748716085580541E-003   6.1319861848420511E-002
   2.0872927359278801E-002  -5.7846623246869677E-003   6.2211528534856002E-002
   1.4621462532504580E-002  -3.1451475053812447E-003   5.9293898014905991E-002
   1.4404949029015563E-002  -3.3609340501971671E-003   6.0143599935906011E-002
   1.4188435525526549E-002  -3.5514119058960639E-003   6.1065041312388178E-002
   1.3971922022037528E-002  -3.7165810724779560E-003   6.2058222144352512E-002
   1.3755408518548513E-002  -3.8564415499428364E-003   6.3123142431799020E-002
   7.3038276649897774E-003  -1.5725737527319088E-003   5.9845821730327778E-002
   7.1773122651373426E-003  -1.6804670251644614E-003   6.0746571018839256E-002
   7.0507968652849034E-003  -1.7757059530531354E-003   6.1755577059141718E-002
   6.9242814654324712E-003  -1.8582905363979064E-003   6.2872839851235152E-002
   6.7977660655800312E-003  -1.9282207751987364E-003   6.4098359395119570E-002
   1.6028844918025698E-015  -8.2579776350399925E-014   6.0511965890419496E-002
   9.4544164164211963E-014  -1.3179735081081390E-013   6.1451108201869359E-002
   1.8748544383662136E-013  -2.1021205609539351E-013   6.2535024561418961E-002
   2.8042889191337572E-013  -3.1780611128851000E-013   6.3763714969068366E-002
   3.7336800318144014E-013  -4.5462245079619379E-013   6.5137179424817518E-002
   2.8150322587770907E-002  -7.7128830994310366E-003   6.1363517704290507E-002
   2.7653798617307199E-002  -7.9109100243706446E-003   6.0584831165485520E-002
   2.7157274646843491E-002  -7.9961662678667660E-003   5.9378189703478503E-002
   2.6660750676379769E-002  -7.9686518299192551E-003   5.7743593318269185E-002
   2.6164226705916074E-002  -7.8283667105283616E-003   5.5681042009857823E-002
   2.0872927359278801E-002  -5.7846623246869677E-003   6.2211528534856002E-002
   2.0086469944574942E-002  -5.9331825184201492E-003   6.1829414209047362E-002
   1.9300012529871072E-002  -5.9971247010520631E-003   6.1295387917960506E-002
   1.8513555115167196E-002  -5.9764888725826037E-003   6.0609449661595517E-002
   1.7727097700463337E-002  -5.8712750330119634E-003   5.9771599439952319E-002
   1.3755408518548513E-002  -3.8564415499428364E-003   6.3123142431799020E-002
   1.2955060617528512E-002  -3.9554550124696504E-003   6.3109407648644367E-002
   1.2154712716508503E-002  -3.9980831342374176E-003   6.3219803858135581E-002
   1.1354364815488488E-002  -3.9843259152460373E-003   6.3454331060272748E-002
   1.0554016914468486E-002  -3.9141833554955513E-003   6.3812989255055630E-002
   6.7977660655800312E-003  -1.9282207751987364E-003   6.4098359395119570E-002
   6.2595706361679125E-003  -1.9777275065191811E-003   6.4424811484276714E-002
   5.7213752067557929E-003  -1.9990415674227711E-003   6.5151437524003722E-002
   5.1831797773436682E-003  -1.9921629579093729E-003   6.6278237514300689E-002
   4.6449843479315512E-003  -1.9570916779790767E-003   6.7805211455167477E-002
   3.7336800318144014E-013  -4.5462245079619379E-013   6.5137179424817518E-002
   4.9315065919763867E-013  -5.6870480547033253E-013   6.5775625715944322E-002
   6.1293504993731318E-013  -6.0807262003415019E-013   6.7090288915565038E-002
   7.3271857331524970E-013  -5.7280655912927969E-013   6.9081169023679681E-002
   8.5250209669318622E-013  -4.6271320108814962E-013   7.1748266040288194E-002
   2.6164226705916074E-002  -7.8283667105283616E-003   5.5681042009857823E-002
   2.5651840957826577E-002  -7.6481716673974937E-003   5.3156011739444842E-002
   2.5139455209737094E-002  -7.5009274582300903E-003   5.0872391949122228E-002
   2.4627069461647610E-002  -7.3866340830260561E-003   4.8830182638889726E-002
   2.4114683713558127E-002  -7.3052915417855524E-003   4.7029383808747549E-002
   1.7727097700463337E-002  -5.8712750330119634E-003   5.9771599439952319E-002
   1.7427793921662910E-002  -5.7361287506198649E-003   5.8453456898485204E-002
   1.7128490142862503E-002  -5.6256955936861003E-003   5.7320067815505839E-002
   1.6829186364062085E-002  -5.5399755622107978E-003   5.6371432191014592E-002
   1.6529882585261654E-002  -5.4789686561938777E-003   5.5607550025011082E-002
   1.0554016914468486E-002  -3.9141833554955513E-003   6.3812989255055630E-002
   1.0411138083354785E-002  -3.8240858338421599E-003   6.3709972151039337E-002
   1.0268259252241077E-002  -3.7504637291421901E-003   6.3735051483908498E-002
   1.0125380421127376E-002  -3.6933170413955664E-003   6.3888227253663249E-002
   9.9825015900136746E-003  -3.6526457706022863E-003   6.4169499460303453E-002
   4.6449843479315512E-003  -1.9570916779790767E-003   6.7805211455167477E-002
   4.6018734429021926E-003  -1.9120429170645485E-003   6.8925557497107076E-002
   4.5587625378728409E-003  -1.8752318645982955E-003   7.0117342954329795E-002
   4.5156516328434902E-003  -1.8466585205803216E-003   7.1380567826835703E-002
   4.4725407278141307E-003  -1.8263228850107366E-003   7.2715232114624828E-002
   8.5250209669318622E-013  -4.6271320108814962E-013   7.1748266040288194E-002
   3.0513785942432037E-013  -2.8681224062410138E-013   7.4100212936688697E-002
  -2.4222290839759353E-013  -5.4338478161497505E-014   7.6466942226769988E-002
  -7.8958714566645938E-013   2.3492492673415910E-013   7.8848453910532051E-002
  -1.3369479134883733E-012   5.8092419763511316E-013   8.1244747987974986E-002
   2.4114683713558127E-002  -7.3052915417855524E-003   4.7029383808747549E-002
   2.3067024783767126E-002  -7.2317395546798169E-003   4.4410520893931021E-002
   2.2019365853976097E-002  -7.1408178418799484E-003   4.2246205767958567E-002
   2.0971706924185096E-002  -7.0325264033865367E-003   4.0536438430830241E-002
   1.9924047994394081E-002  -6.9068652391988672E-003   3.9281218882545876E-002
   1.6529882585261654E-002  -5.4789686561938777E-003   5.5607550025011082E-002
   1.5888613180170562E-002  -5.4238046657778261E-003   5.3993147489074161E-002
   1.5247343775079449E-002  -5.3556133811048165E-003   5.2736976213693026E-002
   1.4606074369988339E-002  -5.2743948021750555E-003   5.1839036198867566E-002
   1.3964804964897229E-002  -5.1801489289883818E-003   5.1299327444597864E-002
   9.9825015900136746E-003  -3.6526457706022863E-003   6.4169499460303453E-002
   9.6513051813340717E-003  -3.6158697768757797E-003   6.3555214871809124E-002
   9.3201087726544583E-003  -3.5704089203296846E-003   6.3202845015582168E-002
   8.9889123639748485E-003  -3.5162632009636298E-003   6.3112389891622350E-002
   8.6577159552952455E-003  -3.4534326187779241E-003   6.3283849499930059E-002
   4.4725407278141307E-003  -1.8263228850107366E-003   7.2715232114624828E-002
   4.3551007872576382E-003  -1.8079348879737611E-003   7.3096723042135950E-002
   4.2376608467011414E-003  -1.7852044595544139E-003   7.3643812173626047E-002
   4.1202209061446480E-003  -1.7581315997522873E-003   7.4356499509094967E-002
   4.0027809655881512E-003  -1.7267163085675635E-003   7.5234785048542765E-002
  -1.3369479134883733E-012   5.8092419763511316E-013   8.1244747987974986E-002
  -2.0587281879258512E-012   9.2825747088909338E-013   8.2617672000054543E-002
  -2.7805101970868051E-012   1.2206347044241284E-012   8.4059877687824497E-002
  -3.5022930736094970E-012   1.4592910213551136E-012   8.5571365051285070E-002
  -4.2240724806852370E-012   1.6429635429915379E-012   8.7152134090436095E-002
   1.9924047994394081E-002  -6.9068652391988672E-003   3.9281218882545876E-002
   1.9220554369168655E-002  -6.7361173131263996E-003   3.7137688171803407E-002
   1.8517060743943235E-002  -6.4925655889784689E-003   3.4034676513431922E-002
   1.7813567118717798E-002  -6.1762100667550855E-003   2.9972183907431713E-002
   1.7110073493492362E-002  -5.7870507464561349E-003   2.4950210353802404E-002
   1.3964804964897229E-002  -5.1801489289883818E-003   5.1299327444597864E-002
   1.2585668980488504E-002  -5.0520879844077327E-003   5.0155492665498930E-002
   1.1206532996079772E-002  -4.8694241912961705E-003   4.8619854115662303E-002
   9.8273970116710407E-003  -4.6321575496533936E-003   4.6692411795087985E-002
   8.4482610272623160E-003  -4.3402880594796134E-003   4.4373165703776030E-002
   8.6577159552952455E-003  -3.4534326187779241E-003   6.3283849499930059E-002
   7.1706147885943414E-003  -3.3680586556890657E-003   6.3121509702930415E-002
   5.6835136218934424E-003  -3.2462827936136016E-003   6.3135043312084194E-002
   4.1964124551925356E-003  -3.0881050325517589E-003   6.3324450327391368E-002
   2.7093112884916393E-003  -2.8935253725033139E-003   6.3689730748852008E-002
   4.0027809655881512E-003  -1.7267163085675635E-003   7.5234785048542765E-002
   2.9753917934861908E-003  -1.6840293269703432E-003   7.6035739284097889E-002
   1.9480026213842335E-003  -1.6231413959313067E-003   7.7580244102697551E-002
   9.2061344928227417E-004  -1.5440525154500956E-003   7.9868299504341655E-002
  -1.0677572281967730E-004  -1.4467626855270144E-003   8.2899905489030229E-002
  -4.2240724806852370E-012   1.6429635429915379E-012   8.7152134090436095E-002
  -4.8359614923665362E-012   1.7482681968772340E-012   8.8898181409001409E-002
  -5.4478505040478353E-012   1.7513074324071454E-012   9.1955456487502335E-002
  -6.0597360462821825E-012   1.6516059353488544E-012   9.6323959325938915E-002
  -6.6716285274104337E-012   1.4493961586481419E-012  0.10200368992431097     
   1.7110073493492362E-002  -5.7870507464561349E-003   2.4950210353802404E-002
   1.5249292964141598E-002  -5.7877510344768734E-003   1.9589519136697597E-002
   1.3388512434790847E-002  -6.6409743372127517E-003   1.3484341539763744E-002
   1.1527731905440070E-002  -8.3467206546641512E-003   6.6346775630007626E-003
   9.6669513760893055E-003  -1.0904989986830760E-002  -9.5947279359154258E-004
   8.4482610272623160E-003  -4.3402880594796134E-003   4.4373165703776030E-002
   6.1454144959847273E-003  -4.3408132757118689E-003   4.1491799954003733E-002
   3.8425679647071317E-003  -4.9807307532871437E-003   3.8470788580207221E-002
   1.5397214334295084E-003  -6.2600404922052572E-003   3.5310131582385954E-002
  -7.6312509784803861E-004  -8.1787424924664176E-003   3.2009828960540387E-002
   2.7093112884916393E-003  -2.8935253725033139E-003   6.3689730748852008E-002
   5.6923951109191101E-004  -2.8938755169470032E-003   6.3500821219784537E-002
  -1.5708322663078277E-003  -3.3204871693612165E-003   6.3777106822497501E-002
  -3.7109040437075386E-003  -4.1733603297462556E-003   6.4518587556990831E-002
  -5.8509758211072738E-003  -5.4524949981019644E-003   6.5725263423263625E-002
  -1.0677572281967730E-004  -1.4467626855270144E-003   8.2899905489030229E-002
  -1.4792319905368549E-003  -1.4469377581820125E-003   8.5616582934040217E-002
  -2.8516882582540403E-003  -1.6602435854354489E-003   8.9403296266634902E-002
  -4.2241445259712258E-003  -2.0866801672873633E-003   9.4260045486814617E-002
  -5.5966007936884034E-003  -2.7262475037375666E-003  0.10018683059457915     
  -6.6716285274104337E-012   1.4493961586481419E-012  0.10200368992431097     
  -8.9015704529682438E-012   5.8303362138190096E-013  0.10783908509677043     
  -1.1131512378526054E-011  -1.5096812688852879E-012  0.11534935691261944     
  -1.3361457773530816E-011  -4.8283599340948058E-012  0.12453450537185781     
  -1.5591389290747770E-011  -9.3731689077003466E-012  0.13539453047448591     
  -2.4038063206610616E-014   0.0000000000000000        2.8525609906113979E-002
  -2.1413426587457707E-014  -1.1509890263106115E-015   3.3499709955152543E-002
  -1.8791175213084266E-014  -2.7998436902265667E-015   3.8480947936695535E-002
  -1.6167731216321091E-014  -4.9491660769618306E-015   4.3469323850742952E-002
  -1.3543419857819927E-014  -7.6006909099923803E-015   4.8464837697294809E-002
  -6.7934517780916257E-003   0.0000000000000000        2.8588474601244210E-002
  -6.8251635539940542E-003   1.4415928156584924E-004   3.3633413281790467E-002
  -6.8568753298964887E-003   3.2517834574068323E-004   3.8607790478022173E-002
  -6.8885871057989181E-003   5.4305719252449938E-004   4.3511606189939336E-002
  -6.9202988817013526E-003   7.9779582191730203E-004   4.8344860417541984E-002
  -1.3495645107546280E-002   0.0000000000000000        2.8777068686636691E-002
  -1.3636768076172735E-002   2.8831856313284989E-004   3.3929705781300112E-002
  -1.3777891044799193E-002   6.5035669148416457E-004   3.8934081974830025E-002
  -1.3919014013425646E-002   1.0861143850539453E-003   4.3790197267226438E-002
  -1.4060136982052102E-002   1.5955916438421904E-003   4.8498051658489333E-002
  -2.0106579988388010E-002   0.0000000000000000        2.9091392162291445E-002
  -2.0434813566557457E-002   4.3247784469984990E-004   3.4388587453681521E-002
  -2.0763047144726904E-002   9.7553503722765111E-004   3.9459822427119109E-002
  -2.1091280722896351E-002   1.6291715775833978E-003   4.4305097082604245E-002
  -2.1419514301065801E-002   2.3933874657670893E-003   4.8924411420136871E-002
  -2.6626256420616806E-002   0.0000000000000000        2.9531445028208449E-002
  -2.7219300025148215E-002   5.7663712626685164E-004   3.5010058298934658E-002
  -2.7812343629679624E-002   1.3007133829711307E-003   4.0185011834889421E-002
  -2.8405387234211030E-002   2.1722287701128381E-003   4.5056305636072727E-002
  -2.8998430838742446E-002   3.1911832876919790E-003   4.9623939702484611E-002
  -1.3543419857819927E-014  -7.6006909099923803E-015   4.8464837697294809E-002
  -9.7573858715005457E-015  -1.4455450725314734E-014   5.1659017792339182E-002
  -5.9702676830086787E-015  -2.9242884155844528E-014   5.4731599189541416E-002
  -2.1815231912580835E-015  -5.1941686628892425E-014   5.7682581888901532E-002
   1.6028844918025698E-015  -8.2579776350399925E-014   6.0511965890419496E-002
  -6.9202988817013526E-003   7.9779582191730203E-004   4.8344860417541984E-002
  -7.0161810775241640E-003   1.0510958331093009E-003   5.1325349286429699E-002
  -7.1120632733469797E-003   1.2646588252907213E-003   5.4235672461506318E-002
  -7.2079454691697928E-003   1.4384847984616049E-003   5.7075829942771890E-002
  -7.3038276649926076E-003   1.5725737526218891E-003   5.9845821730226387E-002
  -1.4060136982052102E-002   1.5955916438421904E-003   4.8498051658489333E-002
  -1.4200468369670450E-002   2.1021916662330607E-003   5.1225112282217732E-002
  -1.4340799757288804E-002   2.5293176506107130E-003   5.3933440216166126E-002
  -1.4481131144907157E-002   2.8769695969751408E-003   5.6623035460334536E-002
  -1.4621462532525505E-002   3.1451475053263477E-003   5.9293898014722922E-002
  -2.1419514301065801E-002   2.3933874657670893E-003   4.8924411420136871E-002
  -2.1552861876448625E-002   3.1532874993568222E-003   5.1358306779703315E-002
  -2.1686209451831452E-002   3.7939764759306912E-003   5.3824902453520812E-002
  -2.1819557027214276E-002   4.3154543954886651E-003   5.6324198441589396E-002
  -2.1952904602597103E-002   4.7177212580308114E-003   5.8856194743908984E-002
  -2.8998430838742446E-002   3.1911832876919790E-003   4.9623939702484611E-002
  -2.9073361597858675E-002   4.2043833324805829E-003   5.1724932778886443E-002
  -2.9148292356974911E-002   5.0586353012506699E-003   5.3910059173570404E-002
  -2.9223223116091143E-002   5.7539391940022340E-003   5.6179318886536503E-002
  -2.9298153875207386E-002   6.2902950107352751E-003   5.8532711917784683E-002
   1.6028844918025698E-015  -8.2579776350399925E-014   6.0511965890419496E-002
   9.4544164164211963E-014  -1.3179735081081390E-013   6.1451108201869359E-002
   1.8748544383662136E-013  -2.1021205609539351E-013   6.2535024561418961E-002
   2.8042889191337572E-013  -3.1780611128851000E-013   6.3763714969068366E-002
   3.7336800318144014E-013  -4.5462245079619379E-013   6.5137179424817518E-002
  -7.3038276649926076E-003   1.5725737526218891E-003   5.9845821730226387E-002
  -7.1773122649669147E-003   1.6804670249820179E-003   6.0746571018661072E-002
  -7.0507968649412243E-003   1.7757059527524488E-003   6.1755577058861456E-002
  -6.9242814649155297E-003   1.8582905359331679E-003   6.2872839850827561E-002
  -6.7977660648898385E-003   1.9282207745241337E-003   6.4098359394559407E-002
  -1.4621462532525505E-002   3.1451475053263477E-003   5.9293898014722922E-002
  -1.4404949028901116E-002   3.3609340500958193E-003   6.0143599935581868E-002
  -1.4188435525276724E-002   3.5514119057150810E-003   6.1065041311872549E-002
  -1.3971922021652337E-002   3.7165810721841138E-003   6.2058222143594834E-002
  -1.3755408518027940E-002   3.8564415495029106E-003   6.3123142430748846E-002
  -2.1952904602597103E-002   4.7177212580308114E-003   5.8856194743908984E-002
  -2.1682910291708067E-002   5.0414010752096207E-003   5.9642194952631761E-002
  -2.1412915980819017E-002   5.3271178586776855E-003   6.0463417320452149E-002
  -2.1142921669929971E-002   5.5748716084350605E-003   6.1319861847370247E-002
  -2.0872927359040935E-002   5.7846623244816910E-003   6.2211528533385838E-002
  -2.9298153875207386E-002   6.2902950107352751E-003   5.8532711917784683E-002
  -2.9011196053387742E-002   6.7218681003234394E-003   5.9242356069810750E-002
  -2.8724238231568104E-002   7.1028238116403637E-003   5.9950705084600382E-002
  -2.8437280409748460E-002   7.4331621446860592E-003   6.0657758962153599E-002
  -2.8150322587928826E-002   7.7128830994604575E-003   6.1363517702470408E-002
   3.7336800318144014E-013  -4.5462245079619379E-013   6.5137179424817518E-002
   4.9315065919763867E-013  -5.6870480547033253E-013   6.5775625715944322E-002
   6.1293504993731318E-013  -6.0807262003415019E-013   6.7090288915565038E-002
   7.3271857331524970E-013  -5.7280655912927969E-013   6.9081169023679681E-002
   8.5250209669318622E-013  -4.6271320108814962E-013   7.1748266040288194E-002
  -6.7977660648898385E-003   1.9282207745241337E-003   6.4098359394559407E-002
  -6.2595706352530853E-003   1.9777275056563348E-003   6.4424811483707836E-002
  -5.7213752056163259E-003   1.9990415664608956E-003   6.5151437523396291E-002
  -5.1831797759795718E-003   1.9921629569375791E-003   6.6278237513624785E-002
  -4.6449843463428134E-003   1.9570916770864366E-003   6.7805211454393291E-002
  -1.3755408518027940E-002   3.8564415495029106E-003   6.3123142430748846E-002
  -1.2955060616828095E-002   3.9554550118814681E-003   6.3109407647516408E-002
  -1.2154712715628260E-002   3.9980831335297822E-003   6.3219803856870094E-002
  -1.1354364814428412E-002   3.9843259144478130E-003   6.3454331058809918E-002
  -1.0554016913228572E-002   3.9141833546356003E-003   6.3812989253335922E-002
  -2.0872927359040935E-002   5.7846623244816910E-003   6.2211528533385838E-002
  -2.0086469944231893E-002   5.9331825181065546E-003   6.1829414207370065E-002
  -1.9300012529422848E-002   5.9971247005986819E-003   6.1295387915986550E-002
  -1.8513555114613809E-002   5.9764888719580668E-003   6.0609449659235308E-002
  -1.7727097699804763E-002   5.8712750321847015E-003   5.9771599437116324E-002
  -2.8150322587928826E-002   7.7128830994604575E-003   6.1363517702470408E-002
  -2.7653798617464472E-002   7.9109100243316965E-003   6.0584831163268793E-002
  -2.7157274647000115E-002   7.9961662676676197E-003   5.9378189700745564E-002
  -2.6660750676535755E-002   7.9686518294684143E-003   5.7743593314900699E-002
  -2.6164226706071401E-002   7.8283667097338860E-003   5.5681042005734233E-002
   8.5250209669318622E-013  -4.6271320108814962E-013   7.1748266040288194E-002
   3.0513785942432037E-013  -2.8681224062410138E-013   7.4100212936688697E-002
  -2.4222290839759353E-013  -5.4338478161497505E-014   7.6466942226769988E-002
  -7.8958714566645938E-013   2.3492492673415910E-013   7.8848453910532051E-002
  -1.3369479134883733E-012   5.8092419763511316E-013   8.1244747987974986E-002
  -4.6449843463428134E-003   1.9570916770864366E-003   6.7805211454393291E-002
  -4.6018734423580567E-003   1.9120429163616975E-003   6.8925557496273174E-002
  -4.5587625383733069E-003   1.8752318642171265E-003   7.0117342953536499E-002
  -4.5156516343885546E-003   1.8466585206529957E-003   7.1380567826183156E-002
  -4.4725407304038005E-003   1.8263228856690850E-003   7.2715232114213380E-002
  -1.0554016913228572E-002   3.9141833546356003E-003   6.3812989253335922E-002
  -1.0411138083009090E-002   3.8240858330102281E-003   6.3709972149218835E-002
  -1.0268259252789604E-002   3.7504637284886712E-003   6.3735051482187638E-002
  -1.0125380422570118E-002   3.6933170410710656E-003   6.3888227252242649E-002
  -9.9825015923506351E-003   3.6526457707572735E-003   6.4169499459383550E-002
  -1.7727097699804763E-002   5.8712750321847015E-003   5.9771599437116324E-002
  -1.7427793921647939E-002   5.7361287496586651E-003   5.8453456895525668E-002
  -1.7128490143491118E-002   5.6256955927601760E-003   5.7320067812723724E-002
  -1.6829186365334294E-002   5.5399755614889967E-003   5.6371432188710338E-002
  -1.6529882587177473E-002   5.4789686558454481E-003   5.5607550023485705E-002
  -2.6164226706071401E-002   7.8283667097338860E-003   5.5681042005734233E-002
  -2.5651840958274618E-002   7.6481716663072824E-003   5.3156011735193714E-002
  -2.5139455210477842E-002   7.5009274570316739E-003   5.0872391945144466E-002
  -2.4627069462681069E-002   7.3866340819071768E-003   4.8830182635586424E-002
  -2.4114683714884289E-002   7.3052915409336228E-003   4.7029383806519720E-002
  -1.3369479134883733E-012   5.8092419763511316E-013   8.1244747987974986E-002
  -2.0587281879258512E-012   9.2825747088909338E-013   8.2617672000054543E-002
  -2.7805101970868051E-012   1.2206347044241284E-012   8.4059877687824497E-002
  -3.5022930736094970E-012   1.4592910213551136E-012   8.5571365051285070E-002
  -4.2240724806852370E-012   1.6429635429915379E-012   8.7152134090436095E-002
  -4.4725407304038005E-003   1.8263228856690850E-003   7.2715232114213380E-002
  -4.3551007912362629E-003   1.8079348892376806E-003   7.3096723041846765E-002
  -4.2376608520687323E-003   1.7852044613308887E-003   7.3643812173568191E-002
  -4.1202209129011912E-003   1.7581316019486086E-003   7.4356499509377796E-002
  -4.0027809737336641E-003   1.7267163110911143E-003   7.5234785049275499E-002
  -9.9825015923506351E-003   3.6526457707572735E-003   6.4169499459383550E-002
  -9.6513051848962049E-003   3.6158697775472981E-003   6.3555214871149887E-002
  -9.3201087774417591E-003   3.5704089214409762E-003   6.3202845015401965E-002
  -8.9889123699873116E-003   3.5162632024382592E-003   6.3112389892139700E-002
  -8.6577159625328762E-003   3.4534326205392929E-003   6.3283849501363135E-002
  -1.6529882587177473E-002   5.4789686558454481E-003   5.5607550023485705E-002
  -1.5888613183038532E-002   5.4238046658568739E-003   5.3993147487964077E-002
  -1.5247343778899601E-002   5.3556133815510359E-003   5.2736976213325619E-002
  -1.4606074374760653E-002   5.2743948029277989E-003   5.1839036199570490E-002
  -1.3964804970621721E-002   5.1801489299875131E-003   5.1299327446698711E-002
  -2.4114683714884289E-002   7.3052915409336228E-003   4.7029383806519720E-002
  -2.3067024785663276E-002   7.2317395541665053E-003   4.4410520892289085E-002
  -2.2019365856442239E-002   7.1408178416611512E-003   4.2246205767339284E-002
  -2.0971706927221202E-002   7.0325264034173801E-003   4.0536438431670430E-002
  -1.9924047998000190E-002   6.9068652394356223E-003   3.9281218885282465E-002
  -4.2240724806852370E-012   1.6429635429915379E-012   8.7152134090436095E-002
  -4.8359614923665362E-012   1.7482681968772340E-012   8.8898181409001409E-002
  -5.4478505040478353E-012   1.7513074324071454E-012   9.1955456487502335E-002
  -6.0597360462821825E-012   1.6516059353488544E-012   9.6323959325938915E-002
  -6.6716285274104337E-012   1.4493961586481419E-012  0.10200368992431097     
  -4.0027809737336641E-003   1.7267163110911143E-003   7.5234785049275499E-002
  -2.9753918028003652E-003   1.6840293296599973E-003   7.6035739285273768E-002
  -1.9480026318670733E-003   1.6231413985573484E-003   7.7580244104426654E-002
  -9.2061346093377187E-004   1.5440525177830566E-003   7.9868299506734186E-002
   1.0677570999952438E-004   1.4467626873370110E-003   8.2899905492196668E-002
  -8.6577159625328762E-003   3.4534326205392929E-003   6.3283849501363135E-002
  -7.1706147968352866E-003   3.3680586575716709E-003   6.3121509705225010E-002
  -5.6835136311376936E-003   3.2462827953635073E-003   6.3135043315460798E-002
  -4.1964124654401041E-003   3.0881050339144536E-003   6.3324450332070376E-002
  -2.7093112997425110E-003   2.8935253732247923E-003   6.3689730755053964E-002
  -1.3964804970621721E-002   5.1801489299875131E-003   5.1299327446698711E-002
  -1.2585668986940728E-002   5.0520879854833445E-003   5.0155492668855328E-002
  -1.1206533003259727E-002   4.8694241921695240E-003   4.8619854120604857E-002
  -9.8273970195787153E-003   4.6321575500459884E-003   4.6692411801947456E-002
  -8.4482610358977243E-003   4.3402880591125459E-003   4.4373165712882856E-002
  -1.9924047998000190E-002   6.9068652394356223E-003   3.9281218885282465E-002
  -1.9220554373116677E-002   6.7361173133950181E-003   3.7137688176164585E-002
  -1.8517060748233154E-002   6.4925655889757350E-003   3.4034676519858836E-002
  -1.7813567123349638E-002   6.1762100661773081E-003   2.9972183916365150E-002
  -1.7110073498466112E-002   5.7870507450001885E-003   2.4950210365683567E-002
  -6.6716285274104337E-012   1.4493961586481419E-012  0.10200368992431097     
  -8.9015704529682438E-012   5.8303362138190096E-013  0.10783908509677043     
  -1.1131512378526054E-011  -1.5096812688852879E-012  0.11534935691261944     
  -1.3361457773530816E-011  -4.8283599340948058E-012  0.12453450537185781     
  -1.5591389290747770E-011  -9.3731689077003466E-012  0.13539453047448591     
   1.0677570999952438E-004   1.4467626873370110E-003   8.2899905492196668E-002
   1.4792319735361034E-003   1.4469377583918308E-003   8.5616582936343333E-002
   2.8516882370726946E-003   1.6602435821197470E-003   8.9403296268633248E-002
   4.2241445006092702E-003   2.0866801585203293E-003   9.4260045489066732E-002
   5.5966007641458579E-003   2.7262474875942022E-003  0.10018683059764377     
  -2.7093112997425110E-003   2.8935253732247923E-003   6.3689730755053964E-002
  -5.6923952568550384E-004   2.8938755162009888E-003   6.3500821224786813E-002
   1.5708322483715138E-003   3.3204871657489532E-003   6.3777106827417121E-002
   3.7109040224285305E-003   4.1733603218691018E-003   6.4518587562944471E-002
   5.8509757964855386E-003   5.4524949845614623E-003   6.5725263431369585E-002
  -8.4482610358977243E-003   4.3402880591125459E-003   4.4373165712882856E-002
  -6.1454145065663896E-003   4.3408132740098554E-003   4.1491799962101131E-002
  -3.8425679772350280E-003   4.9807307493783815E-003   3.8470788588970760E-002
  -1.5397214479036911E-003   6.2600404852179437E-003   3.5310131593491369E-002
   7.6312508142767008E-004   8.1787424815287779E-003   3.2009828975663693E-002
  -1.7110073498466112E-002   5.7870507450001885E-003   2.4950210365683567E-002
  -1.5249292969106553E-002   5.7877510318189440E-003   1.9589519148286327E-002
  -1.3388512439746973E-002   6.6409743330076432E-003   1.3484341553294310E-002
  -1.1527731910387386E-002   8.3467206485666051E-003   6.6346775807076541E-003
  -9.6669513810278274E-003   1.0904989978496094E-002  -9.5947276947416782E-004
  -2.6626256420616806E-002   0.0000000000000000        2.9531445028208449E-002
  -2.7219300025148215E-002   5.7663712626685164E-004   3.5010058298934658E-002
  -2.7812343629679624E-002   1.3007133829711307E-003   4.0185011834889421E-002
  -2.8405387234211030E-002   2.1722287701128381E-003   4.5056305636072727E-002
  -2.8998430838742446E-002   3.1911832876919790E-003   4.9623939702484611E-002
  -3.3389231464574835E-002   0.0000000000000000        3.0230510598623535E-002
  -3.4221372485616193E-002   9.4686237929217029E-004   3.5321198880268696E-002
  -3.5053513506657551E-002   1.9970223576046007E-003   4.0237352063665396E-002
  -3.5885654527698908E-002   3.1504799349372885E-003   4.4978970148813635E-002
  -3.6717795548740266E-002   4.4072351112902398E-003   4.9546053135713426E-002
  -4.0730062180604244E-002   0.0000000000000000        3.1321872187772527E-002
  -4.1672175981632573E-002   1.3170876323174881E-003   3.5980493948919473E-002
  -4.2614289782660894E-002   2.6933313322380662E-003   4.0593705248340939E-002
  -4.3556403583689222E-002   4.1287310997617363E-003   4.5161506086036945E-002
  -4.4498517384717544E-002   5.6232869348884929E-003   4.9683896462007465E-002
  -4.8648748568705040E-002   0.0000000000000000        3.2805529795655423E-002
  -4.9571710513197351E-002   1.6873128853428085E-003   3.6987943504886975E-002
  -5.0494672457689647E-002   3.3896403068715366E-003   4.1254071388916042E-002
  -5.1417634402181944E-002   5.1069822645861823E-003   4.5603913447742617E-002
  -5.2340596346674241E-002   6.8393387584867469E-003   5.0037469681366721E-002
  -5.7145290628877229E-002   0.0000000000000000        3.4681483422272223E-002
  -5.7919976080310520E-002   2.0575381383681262E-003   3.8343547548171222E-002
  -5.8694661531743818E-002   4.0859492815050000E-003   4.2218450485390711E-002
  -5.9469346983177115E-002   6.0852334294106327E-003   4.6306192233930704E-002
  -6.0244032434610399E-002   8.0553905820850043E-003   5.0606772793791215E-002
  -2.8998430838742446E-002   3.1911832876919790E-003   4.9623939702484611E-002
  -2.9073361597858675E-002   4.2043833324805829E-003   5.1724932778886443E-002
  -2.9148292356974911E-002   5.0586353012506699E-003   5.3910059173570404E-002
  -2.9223223116091143E-002   5.7539391940022340E-003   5.6179318886536503E-002
  -2.9298153875207386E-002   6.2902950107352751E-003   5.8532711917784683E-002
  -3.6717795548740266E-002   4.4072351112902398E-003   4.9546053135713426E-002
  -3.6741295433047320E-002   5.6298419477366158E-003   5.1387715465236940E-002
  -3.6764795317354382E-002   6.6808545053495859E-003   5.3248106226096700E-002
  -3.6788295201661408E-002   7.5602727841291842E-003   5.5127225418292722E-002
  -3.6811795085968470E-002   8.2680967840753627E-003   5.7025073041824983E-002
  -4.4498517384717544E-002   5.6232869348884929E-003   4.9683896462007465E-002
  -4.4535991281161258E-002   7.0553005629926564E-003   5.1253581841837773E-002
  -4.4573465177604993E-002   8.3030737094485427E-003   5.2776590766058444E-002
  -4.4610939074048728E-002   9.3666063742561482E-003   5.4252923234669521E-002
  -4.4648412970492449E-002   1.0245898557415478E-002   5.5682579247670991E-002
  -5.2340596346674241E-002   6.8393387584867469E-003   5.0037469681366721E-002
  -5.2457449142200525E-002   8.4807591782486928E-003   5.1322531908688948E-002
  -5.2574301937726810E-002   9.9252929135474760E-003   5.2495512793455670E-002
  -5.2691154733253066E-002   1.1172939964383106E-002   5.3556412335666943E-002
  -5.2808007528779365E-002   1.2223700330755594E-002   5.4505230535322698E-002
  -6.0244032434610399E-002   8.0553905820850043E-003   5.0606772793791215E-002
  -6.0505669016165088E-002   9.9062177935047326E-003   5.1594565665790459E-002
  -6.0767305597719777E-002   1.1547512117646420E-002   5.2404872308288331E-002
  -6.1028942179274459E-002   1.2979273554510073E-002   5.3037692721284897E-002
  -6.1290578760829148E-002   1.4201502104095688E-002   5.3493026904780090E-002
  -2.9298153875207386E-002   6.2902950107352751E-003   5.8532711917784683E-002
  -2.9011196053387742E-002   6.7218681003234394E-003   5.9242356069810750E-002
  -2.8724238231568104E-002   7.1028238116403637E-003   5.9950705084600382E-002
  -2.8437280409748460E-002   7.4331621446860592E-003   6.0657758962153599E-002
  -2.8150322587928826E-002   7.7128830994604575E-003   6.1363517702470408E-002
  -3.6811795085968470E-002   8.2680967840753627E-003   5.7025073041824983E-002
  -3.6455397213574339E-002   8.8272675338255564E-003   5.7394310907984122E-002
  -3.6098999341180202E-002   9.2607260620170759E-003   5.7903724012528676E-002
  -3.5742601468786064E-002   9.5684723686499853E-003   5.8553312355458603E-002
  -3.5386203596391941E-002   9.7505064537242170E-003   5.9343075936773959E-002
  -4.4648412970492449E-002   1.0245898557415478E-002   5.5682579247670991E-002
  -4.4081104671901988E-002   1.0932666967327658E-002   5.5636315984675812E-002
  -4.3513796373311549E-002   1.1418628312393800E-002   5.5871698335687843E-002
  -4.2946488074721095E-002   1.1703782592613910E-002   5.6388726300707188E-002
  -4.2379179776130628E-002   1.1788129807987997E-002   5.7187399879733702E-002
  -5.2808007528779365E-002   1.2223700330755594E-002   5.4505230535322698E-002
  -5.1888318428370737E-002   1.3038066400829766E-002   5.3968371299885805E-002
  -5.0968629327962103E-002   1.3576530562770497E-002   5.3854628054077952E-002
  -5.0048940227553483E-002   1.3839092816577810E-002   5.4164000797899188E-002
  -4.9129251127144849E-002   1.3825753162251767E-002   5.4896489531349568E-002
  -6.1290578760829148E-002   1.4201502104095688E-002   5.3493026904780090E-002
  -5.9877038482980524E-002   1.5143465834331869E-002   5.2390476853614122E-002
  -5.8463498205131914E-002   1.5734432813147251E-002   5.1852513167698983E-002
  -5.7049957927283290E-002   1.5974403040541759E-002   5.1879135847034824E-002
  -5.5636417649434666E-002   1.5863376516515523E-002   5.2470344891621598E-002
  -2.8150322587928826E-002   7.7128830994604575E-003   6.1363517702470408E-002
  -2.7653798617464472E-002   7.9109100243316965E-003   6.0584831163268793E-002
  -2.7157274647000115E-002   7.9961662676676197E-003   5.9378189700745564E-002
  -2.6660750676535755E-002   7.9686518294684143E-003   5.7743593314900699E-002
  -2.6164226706071401E-002   7.8283667097338860E-003   5.5681042005734233E-002
  -3.5386203596391941E-002   9.7505064537242170E-003   5.9343075936773959E-002
  -3.5148886781580888E-002   9.8259402543383681E-003   5.8875912479516741E-002
  -3.4911569966769827E-002   9.8138857075908970E-003   5.8318289634274503E-002
  -3.4674253151958781E-002   9.7143428134817758E-003   5.7670207401047342E-002
  -3.4436936337147700E-002   9.5273115720111712E-003   5.6931665779835147E-002
  -4.2379179776130628E-002   1.1788129807987997E-002   5.7187399879733702E-002
  -4.2063574581636204E-002   1.1740970484345109E-002   5.7057041838594474E-002
  -4.1747969387141787E-002   1.1631605147514176E-002   5.7173719944806863E-002
  -4.1432364192647377E-002   1.1460033797495319E-002   5.7537434198371006E-002
  -4.1116758998152952E-002   1.1226256434288470E-002   5.8148184599286799E-002
  -4.9129251127144849E-002   1.3825753162251767E-002   5.4896489531349568E-002
  -4.8397862017630425E-002   1.3656000714351788E-002   5.5128219240501881E-002
  -4.7666472908115987E-002   1.3449324587437483E-002   5.5944480632342572E-002
  -4.6935083798601583E-002   1.3205724781508799E-002   5.7345273706871619E-002
  -4.6203694689087138E-002   1.2925201296565735E-002   5.9330598464089002E-002
  -5.5636417649434666E-002   1.5863376516515523E-002   5.2470344891621598E-002
  -5.4151749089563564E-002   1.5571030944358528E-002   5.3089444685239170E-002
  -5.2667080529692441E-002   1.5267044027360729E-002   5.4630571696881715E-002
  -5.1182411969821331E-002   1.4951415765522238E-002   5.7093725926549307E-002
  -4.9697743409950229E-002   1.4624146158843054E-002   6.0478907374241886E-002
  -2.6164226706071401E-002   7.8283667097338860E-003   5.5681042005734233E-002
  -2.5651840958274618E-002   7.6481716663072824E-003   5.3156011735193714E-002
  -2.5139455210477842E-002   7.5009274570316739E-003   5.0872391945144466E-002
  -2.4627069462681069E-002   7.3866340819071768E-003   4.8830182635586424E-002
  -2.4114683714884289E-002   7.3052915409336228E-003   4.7029383806519720E-002
  -3.4436936337147700E-002   9.5273115720111712E-003   5.6931665779835147E-002
  -3.3711971840556791E-002   9.2945020625767177E-003   5.5985132070461144E-002
  -3.2987007343965868E-002   9.0576243645762097E-003   5.5222345378184191E-002
  -3.2262042847374953E-002   8.8166784780097842E-003   5.4643305703004186E-002
  -3.1537078350784037E-002   8.5716644028774880E-003   5.4248013044921273E-002
  -4.1116758998152952E-002   1.1226256434288470E-002   5.8148184599286799E-002
  -4.0236879216162112E-002   1.0940832458846146E-002   5.8743128428362233E-002
  -3.9356999434171300E-002   1.0614321272120805E-002   5.9464155811140534E-002
  -3.8477119652180466E-002   1.0246722874112477E-002   6.0311266747621495E-002
  -3.7597239870189640E-002   9.8380372648212977E-003   6.1284461237805427E-002
  -4.6203694689087138E-002   1.2925201296565735E-002   5.9330598464089002E-002
  -4.5226563085090606E-002   1.2587162855115495E-002   6.1430000808896941E-002
  -4.4249431481094094E-002   1.2171018179665370E-002   6.3597823244013460E-002
  -4.3272299877097582E-002   1.1676767270215264E-002   6.5834065769438552E-002
  -4.2295168273101050E-002   1.1104410126765080E-002   6.8138728385172181E-002
  -4.9697743409950229E-002   1.4624146158843054E-002   6.0478907374241886E-002
  -4.8681023447342257E-002   1.4233493251385024E-002   6.4045749212065350E-002
  -4.7664303484734286E-002   1.3727715087209949E-002   6.7623347676803031E-002
  -4.6647583522126300E-002   1.3106811666317875E-002   7.1211702768455162E-002
  -4.5630863559518342E-002   1.2370782988708973E-002   7.4810814487021537E-002
  -2.4114683714884289E-002   7.3052915409336228E-003   4.7029383806519720E-002
  -2.3067024785663276E-002   7.2317395541665053E-003   4.4410520892289085E-002
  -2.2019365856442239E-002   7.1408178416611512E-003   4.2246205767339284E-002
  -2.0971706927221202E-002   7.0325264034173801E-003   4.0536438431670430E-002
  -1.9924047998000190E-002   6.9068652394356223E-003   3.9281218885282465E-002
  -3.1537078350784037E-002   8.5716644028774880E-003   5.4248013044921273E-002
  -3.0075173956166958E-002   8.3195285597819357E-003   5.2937308386750676E-002
  -2.8613269561549901E-002   8.0572173693261445E-003   5.2000546870091285E-002
  -2.7151365166932832E-002   7.7847308315102705E-003   5.1437728494943130E-002
  -2.5689460772315788E-002   7.5020689463340395E-003   5.1248853261306015E-002
  -3.7597239870189640E-002   9.8380372648212977E-003   6.1284461237805427E-002
  -3.5801694657946199E-002   9.4073175653973939E-003   6.1289109214072865E-002
  -3.4006149445702773E-002   8.9736168969913599E-003   6.1587095684081883E-002
  -3.2210604233459353E-002   8.5369352596029943E-003   6.2178420647832383E-002
  -3.0415059021215905E-002   8.0972726532324013E-003   6.3063084105324463E-002
  -4.2295168273101050E-002   1.1104410126765080E-002   6.8138728385172181E-002
  -4.0246586891000968E-002   1.0495106571012838E-002   6.9465923374255750E-002
  -3.8198005508900866E-002   9.8900164246563532E-003   7.1005852209311132E-002
  -3.6149424126800764E-002   9.2891396876956626E-003   7.2758514890338369E-002
  -3.4100842744700689E-002   8.6924763601309574E-003   7.4723911417337391E-002
  -4.5630863559518342E-002   1.2370782988708973E-002   7.4810814487021537E-002
  -4.3409850655331261E-002   1.1582895576628283E-002   7.7467750867299207E-002
  -4.1188837751144167E-002   1.0806415952321485E-002   8.0256816445779061E-002
  -3.8967824846957065E-002   1.0041344115788560E-002   8.3178011222461046E-002
  -3.6746811942769991E-002   9.2876800670292359E-003   8.6231335197345105E-002
  -1.9924047998000190E-002   6.9068652394356223E-003   3.9281218885282465E-002
  -1.9220554373116677E-002   6.7361173133950181E-003   3.7137688176164585E-002
  -1.8517060748233154E-002   6.4925655889757350E-003   3.4034676519858836E-002
  -1.7813567123349638E-002   6.1762100661773081E-003   2.9972183916365150E-002
  -1.7110073498466112E-002   5.7870507450001885E-003   2.4950210365683567E-002
  -2.5689460772315788E-002   7.5020689463340395E-003   5.1248853261306015E-002
  -2.5637979841781275E-002   7.1735873558394780E-003   5.0375471399614874E-002
  -2.5586498911246786E-002   6.7636417020685846E-003   4.9157545096413569E-002
  -2.5535017980712282E-002   6.2722319850209499E-003   4.7595074351702085E-002
  -2.5483537050177783E-002   5.6993582046971358E-003   4.5688059165480466E-002
  -3.0415059021215905E-002   8.0972726532324013E-003   6.3063084105324463E-002
  -3.0400654279352669E-002   7.6110573982837992E-003   6.3451190826162351E-002
  -3.0386249537489429E-002   7.0347178151611428E-003   6.4109689611167919E-002
  -3.0371844795626185E-002   6.3682539038645326E-003   6.5038580460341139E-002
  -3.0357440053762955E-002   5.6116656643940832E-003   6.6237863373681927E-002
  -3.4100842744700689E-002   8.6924763601309574E-003   7.4723911417337391E-002
  -3.3508577685830883E-002   8.0485274407281898E-003   7.6364846455806962E-002
  -3.2916312626961070E-002   7.3057939282539577E-003   7.8891110064121903E-002
  -3.2324047568091256E-002   6.4642758227082559E-003   8.2302702242282325E-002
  -3.1731782509221457E-002   5.5239731240910306E-003   8.6599622990288255E-002
  -3.6746811942769991E-002   9.2876800670292359E-003   8.6231335197345105E-002
  -3.4961750061215865E-002   8.4859974831725526E-003   8.9116438288548705E-002
  -3.3176688179661712E-002   7.5768700413465229E-003   9.3501806455275505E-002
  -3.1391626298107572E-002   6.5602977415516670E-003   9.9387439697525559E-002
  -2.9606564416553433E-002   5.4362805837879224E-003  0.10677333801529881     
  -1.7110073498466112E-002   5.7870507450001885E-003   2.4950210365683567E-002
  -1.5249292969106553E-002   5.7877510318189440E-003   1.9589519148286327E-002
  -1.3388512439746973E-002   6.6409743330076432E-003   1.3484341553294310E-002
  -1.1527731910387386E-002   8.3467206485666051E-003   6.6346775807076541E-003
  -9.6669513810278274E-003   1.0904989978496094E-002  -9.5947276947416782E-004
  -2.5483537050177783E-002   5.6993582046971358E-003   4.5688059165480466E-002
  -2.4010016698240141E-002   5.1549998945729092E-003   4.4679663705405881E-002
  -2.2536496346302490E-002   4.7491365881244391E-003   4.3641234268082141E-002
  -2.1062975994364894E-002   4.4817682853516456E-003   4.2572770853509176E-002
  -1.9589455642427166E-002   4.3528949862546851E-003   4.1474273461687750E-002
  -3.0357440053762955E-002   5.6116656643940832E-003   6.6237863373681927E-002
  -2.8556727478901374E-002   4.5222487573272074E-003   6.8867735660235282E-002
  -2.6756014904039838E-002   2.8572988432414015E-003   7.2182026369885272E-002
  -2.4955302329178301E-002   6.1681592213682496E-004   7.6180735502632102E-002
  -2.3154589754316727E-002  -2.1992000059866124E-003   8.0863863058475816E-002
  -3.1731782509221457E-002   5.5239731240910306E-003   8.6599622990288255E-002
  -2.8889425311090212E-002   3.8894976200814502E-003   9.2153735012774712E-002
  -2.6047068112958982E-002   9.6546109835844718E-004   9.9106717858703897E-002
  -2.3204710914827759E-002  -3.2481364410781206E-003  0.10745857152807568     
  -2.0362353716696535E-002  -8.7512949982279098E-003  0.11720929602089006     
  -2.9606564416553433E-002   5.4362805837879224E-003  0.10677333801529881     
  -2.5008110194806726E-002   3.2567464828356929E-003  0.11453766176302416     
  -2.0409655973059992E-002  -9.2637664652474305E-004  0.12441530873453796     
  -1.5811201751313238E-002  -7.1130888042929864E-003  0.13640627892984031     
  -1.1212747529566525E-002  -1.5303389990469318E-002  0.15051057234893084     
  -5.7145290628877229E-002   0.0000000000000000        3.4681483422272223E-002
  -5.7919976080310520E-002   2.0575381383681262E-003   3.8343547548171222E-002
  -5.8694661531743818E-002   4.0859492815050000E-003   4.2218450485390711E-002
  -5.9469346983177115E-002   6.0852334294106327E-003   4.6306192233930704E-002
  -6.0244032434610399E-002   8.0553905820850043E-003   5.0606772793791215E-002
  -6.5811746502446464E-002   0.0000000000000000        3.7178634713783743E-002
  -6.6602819849149675E-002   2.8931634849587136E-003   4.0805899218673398E-002
  -6.7393893195852900E-002   5.7282520457562717E-003   4.4187549121702710E-002
  -6.8184966542556111E-002   8.5052656823926837E-003   4.7323584422871670E-002
  -6.8976039889259322E-002   1.1224204394867947E-002   5.0214005122180251E-002
  -7.4240174330738401E-002   0.0000000000000000        4.0525885316350804E-002
  -7.5506088985892394E-002   3.7287888315493014E-003   4.4089402271301231E-002
  -7.6772003641046416E-002   7.3705548100075485E-003   4.6948851211210438E-002
  -7.8037918296200395E-002   1.0925297935374747E-002   4.9104232136078445E-002
  -7.9303832951354389E-002   1.4393018207650892E-002   5.0555545045905231E-002
  -8.2430574113753055E-002   0.0000000000000000        4.4723235229973402E-002
  -8.4629783490538679E-002   4.5644141781398893E-003   4.8194056706054686E-002
  -8.6828992867324317E-002   9.0128575742588254E-003   5.0502356753913895E-002
  -8.9028202244109955E-002   1.3345330188356808E-002   5.1648135373551049E-002
  -9.1227411620895579E-002   1.7561832020433831E-002   5.1631392564966141E-002
  -9.0382945851490398E-002   0.0000000000000000        4.9770684454651534E-002
  -9.3973903363088515E-002   5.4000395247304767E-003   5.3119862522933783E-002
  -9.7564860874686660E-002   1.0655160338510095E-002   5.4848065749813116E-002
 -0.10115581838628480        1.5765362441338863E-002   5.4955294135289511E-002
 -0.10474677589788292        2.0730645833216786E-002   5.3441547679362982E-002
  -6.0244032434610399E-002   8.0553905820850043E-003   5.0606772793791215E-002
  -6.0505669016165088E-002   9.9062177935047326E-003   5.1594565665790459E-002
  -6.0767305597719777E-002   1.1547512117646420E-002   5.2404872308288331E-002
  -6.1028942179274459E-002   1.2979273554510073E-002   5.3037692721284897E-002
  -6.1290578760829148E-002   1.4201502104095688E-002   5.3493026904780090E-002
  -6.8976039889259322E-002   1.1224204394867947E-002   5.0214005122180251E-002
  -6.9187752282302117E-002   1.3638697359554709E-002   4.9453248075399650E-002
  -6.9399464675344913E-002   1.5502373752825585E-002   4.8969825635144175E-002
  -6.9611177068387722E-002   1.6815233574680621E-002   4.8763737801413826E-002
  -6.9822889461430504E-002   1.7577276825119774E-002   4.8834984574208602E-002
  -7.9303832951354389E-002   1.4393018207650892E-002   5.0555545045905231E-002
  -7.9010800319858826E-002   1.7371176925604678E-002   4.7704954396206964E-002
  -7.8717767688363249E-002   1.9457235388004757E-002   4.5586519189060301E-002
  -7.8424735056867687E-002   2.0651193594851187E-002   4.4200239424465243E-002
  -7.8131702425372124E-002   2.0953051546143926E-002   4.3546115102421790E-002
  -9.1227411620895579E-002   1.7561832020433831E-002   5.1631392564966141E-002
  -8.9974813128835165E-002   2.1103656491654636E-002   4.6349684628212380E-002
  -8.8722214636774765E-002   2.3412097023183955E-002   4.2254952970036744E-002
  -8.7469616144714366E-002   2.4487153615021750E-002   3.9347197590439115E-002
  -8.6217017652653938E-002   2.4328826267168091E-002   3.7626418489419604E-002
 -0.10474677589788292        2.0730645833216786E-002   5.3441547679362982E-002
 -0.10207979070923118        2.4836136057704631E-002   4.5387438771415919E-002
  -9.9412805520579461E-002   2.7366958658363100E-002   3.8975126978073420E-002
  -9.6745820331927759E-002   2.8323113635192305E-002   3.4204612299335489E-002
  -9.4078835143276016E-002   2.7704600988192177E-002   3.1075894735202073E-002
  -6.1290578760829148E-002   1.4201502104095688E-002   5.3493026904780090E-002
  -5.9877038482980524E-002   1.5143465834331869E-002   5.2390476853614122E-002
  -5.8463498205131914E-002   1.5734432813147251E-002   5.1852513167698983E-002
  -5.7049957927283290E-002   1.5974403040541759E-002   5.1879135847034824E-002
  -5.5636417649434666E-002   1.5863376516515523E-002   5.2470344891621598E-002
  -6.9822889461430504E-002   1.7577276825119774E-002   4.8834984574208602E-002
  -6.7913950390178487E-002   1.7958627654368717E-002   4.7605962176662131E-002
  -6.6005011318926457E-002   1.8129410212652936E-002   4.6803151000671547E-002
  -6.4096072247674427E-002   1.8089624499972434E-002   4.6426551046236858E-002
  -6.2187133176422382E-002   1.7839270516327319E-002   4.6476162313358098E-002
  -7.8131702425372124E-002   2.0953051546143926E-002   4.3546115102421790E-002
  -7.5865739704411683E-002   2.0773789474405568E-002   4.2331048838950919E-002
  -7.3599776983451257E-002   2.0524387612158614E-002   4.1403818653340953E-002
  -7.1333814262490802E-002   2.0204845959403108E-002   4.0764424545591892E-002
  -6.9067851541530417E-002   1.9815164516139093E-002   4.0412866515703721E-002
  -8.6217017652653938E-002   2.4328826267168091E-002   3.7626418489419604E-002
  -8.3732406425680139E-002   2.3588951294442405E-002   3.6565736840480520E-002
  -8.1247795198706313E-002   2.2919365011664323E-002   3.5654516125707338E-002
  -7.8763183971732501E-002   2.2320067418833814E-002   3.4892756345100022E-002
  -7.6278572744758674E-002   2.1791058515950878E-002   3.4280457498658587E-002
  -9.4078835143276016E-002   2.7704600988192177E-002   3.1075894735202073E-002
  -9.1513950553983800E-002   2.6404113114479280E-002   3.0310026181250872E-002
  -8.8949065964691626E-002   2.5314342411170011E-002   2.9555243417770549E-002
  -8.6384181375399438E-002   2.4435288878264461E-002   2.8811546444761194E-002
  -8.3819296786107236E-002   2.3766952515762677E-002   2.8078935262222535E-002
  -5.5636417649434666E-002   1.5863376516515523E-002   5.2470344891621598E-002
  -5.4151749089563564E-002   1.5571030944358528E-002   5.3089444685239170E-002
  -5.2667080529692441E-002   1.5267044027360729E-002   5.4630571696881715E-002
  -5.1182411969821331E-002   1.4951415765522238E-002   5.7093725926549307E-002
  -4.9697743409950229E-002   1.4624146158843054E-002   6.0478907374241886E-002
  -6.2187133176422382E-002   1.7839270516327319E-002   4.6476162313358098E-002
  -5.9938744835038804E-002   1.7484747492679774E-002   4.6602246255402428E-002
  -5.7690356493655288E-002   1.7132454659992174E-002   4.7333742542446600E-002
  -5.5441968152271745E-002   1.6782392018264449E-002   4.8670651174490695E-002
  -5.3193579810888195E-002   1.6434559567496704E-002   5.0612972151534638E-002
  -6.9067851541530417E-002   1.9815164516139093E-002   4.0412866515703721E-002
  -6.6372358291659536E-002   1.9398464041001044E-002   4.0059806141975435E-002
  -6.3676865041788655E-002   1.8997865292623567E-002   3.9995543240221927E-002
  -6.0981371791917767E-002   1.8613368271006632E-002   4.0220077810443164E-002
  -5.8285878542046900E-002   1.8244972976150270E-002   4.0733409852639138E-002
  -7.6278572744758674E-002   2.1791058515950878E-002   3.4280457498658587E-002
  -7.3452589459425607E-002   2.1312180589322272E-002   3.3462124344958356E-002
  -7.0626606174092582E-002   2.0863275925254984E-002   3.2615973790207732E-002
  -6.7800622888759529E-002   2.0444344523748829E-002   3.1742005834406686E-002
  -6.4974639603426462E-002   2.0055386384803905E-002   3.0840220477555354E-002
  -8.3819296786107236E-002   2.3766952515762677E-002   2.8078935262222535E-002
  -8.1179438338337129E-002   2.3225897137643572E-002   2.6809200864351040E-002
  -7.8539579890567007E-002   2.2728686557886454E-002   2.5195034192403994E-002
  -7.5899721442796886E-002   2.2275320776490998E-002   2.3236435246381391E-002
  -7.3259862995026764E-002   2.1865799793457513E-002   2.0933404026283353E-002
  -4.9697743409950229E-002   1.4624146158843054E-002   6.0478907374241886E-002
  -4.8681023447342257E-002   1.4233493251385024E-002   6.4045749212065350E-002
  -4.7664303484734286E-002   1.3727715087209949E-002   6.7623347676803031E-002
  -4.6647583522126300E-002   1.3106811666317875E-002   7.1211702768455162E-002
  -4.5630863559518342E-002   1.2370782988708973E-002   7.4810814487021537E-002
  -5.3193579810888195E-002   1.6434559567496704E-002   5.0612972151534638E-002
  -5.2133061927043950E-002   1.6035643598778154E-002   5.2506631711669943E-002
  -5.1072544043199726E-002   1.5532330403198152E-002   5.4477130487363502E-002
  -5.0012026159355474E-002   1.4924619980756872E-002   5.6524468478615197E-002
  -4.8951508275511264E-002   1.4212512331454069E-002   5.8648645685425049E-002
  -5.8285878542046900E-002   1.8244972976150270E-002   4.0733409852639138E-002
  -5.7115480148322607E-002   1.7837793946171250E-002   4.0964615164941959E-002
  -5.5945081754598253E-002   1.7336945719186488E-002   4.1338742281446898E-002
  -5.4774683360873905E-002   1.6742428295195837E-002   4.1855791202153797E-002
  -5.3604284967149550E-002   1.6054241674199277E-002   4.2515761927062759E-002
  -6.4974639603426462E-002   2.0055386384803905E-002   3.0840220477555354E-002
  -6.3628278111178160E-002   1.9639944293564447E-002   2.9419699571881348E-002
  -6.2281916618929886E-002   1.9141561035174729E-002   2.8208183059053114E-002
  -6.0935555126681619E-002   1.8560236609634764E-002   2.7205670939070822E-002
  -5.9589193634433345E-002   1.7895971016944456E-002   2.6412163211934285E-002
  -7.3259862995026764E-002   2.1865799793457513E-002   2.0933404026283353E-002
  -7.1671455815610713E-002   2.1442094640957560E-002   1.7871884932487897E-002
  -7.0083048636194620E-002   2.0946176351163033E-002   1.5085452820182185E-002
  -6.8494641456778554E-002   2.0378044924073704E-002   1.2574107689366350E-002
  -6.6906234277362475E-002   1.9737700359689636E-002   1.0337849540040023E-002
  -4.5630863559518342E-002   1.2370782988708973E-002   7.4810814487021537E-002
  -4.3409850655331261E-002   1.1582895576628283E-002   7.7467750867299207E-002
  -4.1188837751144167E-002   1.0806415952321485E-002   8.0256816445779061E-002
  -3.8967824846957065E-002   1.0041344115788560E-002   8.3178011222461046E-002
  -3.6746811942769991E-002   9.2876800670292359E-003   8.6231335197345105E-002
  -4.8951508275511264E-002   1.4212512331454069E-002   5.8648645685425049E-002
  -4.6577866124196961E-002   1.3446665142222536E-002   5.9998113106371209E-002
  -4.4204223972882678E-002   1.2677736099994973E-002   6.1520709823369629E-002
  -4.1830581821568395E-002   1.1905725204771086E-002   6.3216435836420282E-002
  -3.9456939670254099E-002   1.1130632456551270E-002   6.5085291145523111E-002
  -5.3604284967149550E-002   1.6054241674199277E-002   4.2515761927062759E-002
  -5.1037013470858011E-002   1.5310434707816845E-002   4.2543270747907432E-002
  -4.8469741974566452E-002   1.4549056247668349E-002   4.2784908962654467E-002
  -4.5902470478274907E-002   1.3770106293753834E-002   4.3240676571303774E-002
  -4.3335198981983306E-002   1.2973584846073277E-002   4.3910573573855471E-002
  -5.9589193634433345E-002   1.7895971016944456E-002   2.6412163211934285E-002
  -5.6787292695314358E-002   1.7174204273411070E-002   2.5103223791907665E-002
  -5.3985391756195440E-002   1.6420376395341864E-002   2.4049413863633424E-002
  -5.1183490817076509E-002   1.5634487382736442E-002   2.3250733427111661E-002
  -4.8381589877957529E-002   1.4816537235595326E-002   2.2707182482342304E-002
  -6.6906234277362475E-002   1.9737700359689636E-002   1.0337849540040023E-002
  -6.3828703797566055E-002   1.9037973839005379E-002   7.6779722383720495E-003
  -6.0751173317769663E-002   1.8291696543015185E-002   5.3142245263066989E-003
  -5.7673642837973257E-002   1.7498868471719241E-002   3.2466064038437076E-003
  -5.4596112358176851E-002   1.6659489625117263E-002   1.4751178709833668E-003
  -3.6746811942769991E-002   9.2876800670292359E-003   8.6231335197345105E-002
  -3.4961750061215865E-002   8.4859974831725526E-003   8.9116438288548705E-002
  -3.3176688179661712E-002   7.5768700413465229E-003   9.3501806455275505E-002
  -3.1391626298107572E-002   6.5602977415516670E-003   9.9387439697525559E-002
  -2.9606564416553433E-002   5.4362805837879224E-003  0.10677333801529881     
  -3.9456939670254099E-002   1.1130632456551270E-002   6.5085291145523111E-002
  -3.6472523938088489E-002   1.0350594765219712E-002   6.6444224981971833E-002
  -3.3488108205922830E-002   9.5637490406612069E-003   6.8701601444120339E-002
  -3.0503692473757209E-002   8.7700952828752982E-003   7.1857420531968585E-002
  -2.7519276741591575E-002   7.9696334918623046E-003   7.5911682245516476E-002
  -4.3335198981983306E-002   1.2973584846073277E-002   4.3910573573855471E-002
  -3.9753251849029628E-002   1.2215192047267107E-002   4.3843974980291217E-002
  -3.6171304716075957E-002   1.1550628039975627E-002   4.4073996562603177E-002
  -3.2589357583122286E-002   1.0979892824198822E-002   4.4600638320791551E-002
  -2.9007410450168560E-002   1.0502986399936715E-002   4.5423900254856195E-002
  -4.8381589877957529E-002   1.4816537235595326E-002   2.2707182482342304E-002
  -4.4803933794039276E-002   1.4079789329314384E-002   2.1315688283506856E-002
  -4.1226277710121016E-002   1.3537507039290124E-002   1.9618991810724219E-002
  -3.7648621626202763E-002   1.3189690365522344E-002   1.7617093063994442E-002
  -3.4070965542284497E-002   1.3036339308011111E-002   1.5309992043317632E-002
  -5.4596112358176851E-002   1.6659489625117263E-002   1.4751178709833668E-003
  -5.1624569773117468E-002   1.5944386611361716E-002  -1.1406351083814159E-003
  -4.8653027188058071E-002   1.5524386038604607E-002  -4.6634128115166096E-003
  -4.5681484602998666E-002   1.5399487906845834E-002  -9.0932152384226167E-003
  -4.2709942017939290E-002   1.5569692216085507E-002  -1.4430042389099174E-002
  -2.9606564416553433E-002   5.4362805837879224E-003  0.10677333801529881     
  -2.5008110194806726E-002   3.2567464828356929E-003  0.11453766176302416     
  -2.0409655973059992E-002  -9.2637664652474305E-004  0.12441530873453796     
  -1.5811201751313238E-002  -7.1130888042929864E-003  0.13640627892984031     
  -1.1212747529566525E-002  -1.5303389990469318E-002  0.15051057234893084     
  -2.7519276741591575E-002   7.9696334918623046E-003   7.5911682245516476E-002
  -2.1326920949289632E-002   6.6423854869676335E-003   7.8055986244997738E-002
  -1.5134565156987675E-002   4.2683730875365394E-003   8.1274770161800847E-002
  -8.9422093646857360E-003   8.4759629356910907E-004   8.5568033995926052E-002
  -2.7498535723837758E-003  -3.6199448949347790E-003   9.0935777747373270E-002
  -2.9007410450168560E-002   1.0502986399936715E-002   4.5423900254856195E-002
  -2.2259996393777778E-002   1.0028024491099630E-002   4.2905009139964742E-002
  -1.5512582337387008E-002   9.4631228215977178E-003   4.0421754635928890E-002
  -8.7651682809962318E-003   8.8082813914310675E-003   3.7974136742748688E-002
  -2.0177542246054558E-003   8.0635002005997602E-003   3.5562155460424405E-002
  -3.4070965542284497E-002   1.3036339308011111E-002   1.5309992043317632E-002
  -2.7807336528271234E-002   1.3413663495231487E-002   9.0847304479250608E-003
  -2.1543707514257920E-002   1.4657872555659004E-002   1.8562621569219364E-003
  -1.5280078500244682E-002   1.6768966489293206E-002  -6.3754128296918903E-003
  -9.0164494862314468E-003   1.9746945296134411E-002  -1.5610294511916686E-002
  -4.2709942017939290E-002   1.5569692216085507E-002  -1.4430042389099174E-002
  -3.7968941352769875E-002   1.6799302499363622E-002  -2.3404849831121066E-002
  -3.3227940687600502E-002   1.9852622289720179E-002  -3.4421707275220037E-002
  -2.8486940022431136E-002   2.4729651587155066E-002  -4.7480614721395947E-002
  -2.3745939357261714E-002   3.1430390391668839E-002  -6.2581572169649213E-002
  -9.0382945851490398E-002   0.0000000000000000        4.9770684454651534E-002
  -9.3973903363088515E-002   5.4000395247304767E-003   5.3119862522933783E-002
  -9.7564860874686660E-002   1.0655160338510095E-002   5.4848065749813116E-002
 -0.10115581838628480        1.5765362441338863E-002   5.4955294135289511E-002
 -0.10474677589788292        2.0730645833216786E-002   5.3441547679362982E-002
 -0.10332287500997844        0.0000000000000000        5.8595764159472763E-002
 -0.10685543871012376        1.0878658293406826E-002   5.2039706402326892E-002
 -0.11038800241026908        1.9159312114754207E-002   4.7221411109489568E-002
 -0.11392056611041441        2.4841961464042116E-002   4.4140878280960763E-002
 -0.11745312981055975        2.7926606341270595E-002   4.2798107916740477E-002
 -0.12647594705524517        0.0000000000000000        7.4126005513524648E-002
 -0.12659137963822625        1.6357277062083179E-002   5.5211626169842057E-002
 -0.12670681222120730        2.7663463890998302E-002   4.1393746596179462E-002
 -0.12682224480418838        3.3918560486745360E-002   3.2672366792536843E-002
 -0.12693767738716943        3.5122566849324389E-002   2.9047486758914238E-002
 -0.15984216198729062        0.0000000000000000        9.6361408516807190E-002
 -0.15318172614739597        2.1835895830759532E-002   6.2635621825479271E-002
 -0.14652129030750130        3.6167615667242407E-002   3.7365072209882805E-002
 -0.13986085446760665        4.2995159509448620E-002   2.0549759670017809E-002
 -0.13320041862771201        4.2318527357378184E-002   1.2189684205884200E-002
 -0.20342151980611473        0.0000000000000000       0.12530197316932037     
 -0.18662647823763290        2.7314514599435884E-002   7.4311693369238541E-002
 -0.16983143666915107        4.4671767443486513E-002   3.5135387950599617E-002
 -0.15303639510066927        5.2071758532151867E-002   7.7730569134035893E-003
 -0.13624135353218744        4.9514487865432000E-002  -7.7752997423495354E-003
 -0.10474677589788292        2.0730645833216786E-002   5.3441547679362982E-002
 -0.10207979070923118        2.4836136057704631E-002   4.5387438771415919E-002
  -9.9412805520579461E-002   2.7366958658363100E-002   3.8975126978073420E-002
  -9.6745820331927759E-002   2.8323113635192305E-002   3.4204612299335489E-002
  -9.4078835143276016E-002   2.7704600988192177E-002   3.1075894735202073E-002
 -0.11745312981055975        2.7926606341270595E-002   4.2798107916740477E-002
 -0.11352232739943685        2.9382045404807787E-002   3.6470288063150981E-002
 -0.10959152498831395        3.0177077313021935E-002   3.1028305539899277E-002
 -0.10566072257719104        3.0311702065912965E-002   2.6472160346985373E-002
 -0.10172992016606816        2.9785919663480966E-002   2.2801852484409288E-002
 -0.12693767738716943        3.5122566849324389E-002   2.9047486758914238E-002
 -0.12249901753784213        3.3927954751910960E-002   2.5360216428188542E-002
 -0.11806035768851481        3.2987195967680731E-002   2.1802823643533854E-002
 -0.11362169783918749        3.2300290496633646E-002   1.8375308404950247E-002
 -0.10918303798986015        3.1867238338769761E-002   1.5077670712437690E-002
 -0.13320041862771201        4.2318527357378184E-002   1.2189684205884200E-002
 -0.12900986112444704        3.8473864099014154E-002   1.2057223866528570E-002
 -0.12481930362118206        3.5797314622339489E-002   1.1298681288977291E-002
 -0.12062874611791707        3.4288878927354348E-002   9.9140564732301314E-003
 -0.11643818861465208        3.3948557014058599E-002   7.9033494192873258E-003
 -0.13624135353218744        4.9514487865432000E-002  -7.7752997423495354E-003
 -0.13305485815925155        4.3019773446117307E-002  -3.4386896218288887E-003
 -0.12986836278631569        3.8607433276998372E-002  -4.8412152377068536E-004
 -0.12668186741337983        3.6277467358074932E-002   1.0884045518250204E-003
 -0.12349537204044392        3.6029875689347318E-002   1.2788886049583392E-003
  -9.4078835143276016E-002   2.7704600988192177E-002   3.1075894735202073E-002
  -9.1513950553983800E-002   2.6404113114479280E-002   3.0310026181250872E-002
  -8.8949065964691626E-002   2.5314342411170011E-002   2.9555243417770549E-002
  -8.6384181375399438E-002   2.4435288878264461E-002   2.8811546444761194E-002
  -8.3819296786107236E-002   2.3766952515762677E-002   2.8078935262222535E-002
 -0.10172992016606816        2.9785919663480966E-002   2.2801852484409288E-002
  -9.9157254802889144E-002   2.8943565021609562E-002   2.2349636036298099E-002
  -9.6584589439710142E-002   2.8128473056182358E-002   2.1901895345489607E-002
  -9.4011924076531139E-002   2.7340643767199330E-002   2.1458630411983818E-002
  -9.1439258713352123E-002   2.6580077154660556E-002   2.1019841235780920E-002
 -0.10918303798986015        3.1867238338769761E-002   1.5077670712437690E-002
 -0.10660920188596250        3.1483016928739831E-002   1.4755651876206989E-002
 -0.10403536578206485        3.0942603701194633E-002   1.4431498764110890E-002
 -0.10146152967816720        3.0245998656134143E-002   1.4105211376149335E-002
  -9.8887693574269533E-002   2.9393201793558428E-002   1.3776789712322487E-002
 -0.11643818861465208        3.3948557014058599E-002   7.9033494192873258E-003
 -0.11386979180320389        3.4022468835870040E-002   7.5280737009776784E-003
 -0.11130139499175573        3.3756734346206942E-002   7.1440536736344313E-003
 -0.10873299818030753        3.3151353545068991E-002   6.7512893372576668E-003
 -0.10616460136885936        3.2206326432456245E-002   6.3497806918474476E-003
 -0.12349537204044392        3.6029875689347318E-002   1.2788886049583392E-003
 -0.12093902455461333        3.6561920743000367E-002   6.6690151061010727E-004
 -0.11838267706878278        3.6570864991219316E-002   3.9560074060279726E-005
 -0.11582632958295222        3.6056708434003826E-002  -6.0313570469133077E-004
 -0.11326998209712164        3.5019451071354235E-002  -1.2611858256443842E-003
  -8.3819296786107236E-002   2.3766952515762677E-002   2.8078935262222535E-002
  -8.1179438338337129E-002   2.3225897137643572E-002   2.6809200864351040E-002
  -7.8539579890567007E-002   2.2728686557886454E-002   2.5195034192403994E-002
  -7.5899721442796886E-002   2.2275320776490998E-002   2.3236435246381391E-002
  -7.3259862995026764E-002   2.1865799793457513E-002   2.0933404026283353E-002
  -9.1439258713352123E-002   2.6580077154660556E-002   2.1019841235780920E-002
  -8.9052066311793410E-002   2.5884182414905019E-002   2.0086363065843105E-002
  -8.6664873910234697E-002   2.5290368744271954E-002   1.8991985077557998E-002
  -8.4277681508676011E-002   2.4798636142761198E-002   1.7736707270925595E-002
  -8.1890489107117340E-002   2.4408984610372886E-002   1.6320529645945964E-002
  -9.8887693574269533E-002   2.9393201793558428E-002   1.3776789712322487E-002
  -9.6569634763194037E-002   2.8542467692166458E-002   1.3237804041079031E-002
  -9.4251575952118527E-002   2.7852050930657429E-002   1.2721451007216463E-002
  -9.1933517141042975E-002   2.7321951509031508E-002   1.2227730610734781E-002
  -8.9615458329967507E-002   2.6952169427288356E-002   1.1756642851633962E-002
 -0.10616460136885936        3.2206326432456245E-002   6.3497806918474476E-003
 -0.10373214369253886        3.1200752969427956E-002   6.2635237900588300E-003
 -0.10129968601621835        3.0413733117043082E-002   6.3834319813792957E-003
  -9.8867228339897861E-002   2.9845266875301597E-002   6.7095052658088360E-003
  -9.6434770663577349E-002   2.9495354244203721E-002   7.2417436433475386E-003
 -0.11326998209712164        3.5019451071354235E-002  -1.2611858256443842E-003
 -0.11053959309982792        3.3859038246689399E-002  -8.3647768721761828E-004
 -0.10780920410253425        3.2975415303428554E-002  -2.2071999953618415E-005
 -0.10507881510524059        3.2368582241571894E-002   1.1820312361477715E-003
 -0.10234842610794687        3.2038539061119087E-002   2.7758320210864440E-003
  -7.3259862995026764E-002   2.1865799793457513E-002   2.0933404026283353E-002
  -7.1671455815610713E-002   2.1442094640957560E-002   1.7871884932487897E-002
  -7.0083048636194620E-002   2.0946176351163033E-002   1.5085452820182185E-002
  -6.8494641456778554E-002   2.0378044924073704E-002   1.2574107689366350E-002
  -6.6906234277362475E-002   1.9737700359689636E-002   1.0337849540040023E-002
  -8.1890489107117340E-002   2.4408984610372886E-002   1.6320529645945964E-002
  -8.0045208281879304E-002   2.4010592284692975E-002   1.4050566209222945E-002
  -7.8199927456641311E-002   2.3492637303307189E-002   1.2019263082653844E-002
  -7.6354646631403331E-002   2.2855119666215729E-002   1.0226620266239189E-002
  -7.4509365806165365E-002   2.2098039373418560E-002   8.6726377599784243E-003
  -8.9615458329967507E-002   2.6952169427288356E-002   1.1756642851633962E-002
  -8.7549730530243147E-002   2.6579089928428265E-002   1.0230885553572197E-002
  -8.5484002730518843E-002   2.6039098255451424E-002   8.9073618943289502E-003
  -8.3418274930794470E-002   2.5332194408357829E-002   7.7860718739043034E-003
  -8.1352547131070180E-002   2.4458378387147511E-002   6.8670154922980953E-003
  -9.6434770663577349E-002   2.9495354244203721E-002   7.2417436433475386E-003
  -9.4185022560702242E-002   2.9147587572163618E-002   6.4128429655360610E-003
  -9.1935274457827204E-002   2.8585559207595784E-002   5.7497492552074049E-003
  -8.9685526354952125E-002   2.7809269150500044E-002   5.2524625123617219E-003
  -8.7435778252077059E-002   2.6818717400876560E-002   4.9209827369991084E-003
 -0.10234842610794687        3.2038539061119087E-002   2.7758320210864440E-003
  -9.9951084373256616E-002   3.1716085215898998E-002   2.5964384451142297E-003
  -9.7553742638566393E-002   3.1132020159739898E-002   2.5464251652892317E-003
  -9.5156400903876157E-002   3.0286343892642141E-002   2.6257921816116268E-003
  -9.2759059169185920E-002   2.9179056414605276E-002   2.8345394940812452E-003
  -6.6906234277362475E-002   1.9737700359689636E-002   1.0337849540040023E-002
  -6.3828703797566055E-002   1.9037973839005379E-002   7.6779722383720495E-003
  -6.0751173317769663E-002   1.8291696543015185E-002   5.3142245263066989E-003
  -5.7673642837973257E-002   1.7498868471719241E-002   3.2466064038437076E-003
  -5.4596112358176851E-002   1.6659489625117263E-002   1.4751178709833668E-003
  -7.4509365806165365E-002   2.2098039373418560E-002   8.6726377599784243E-003
  -7.1188118819201146E-002   2.1274551410027570E-002   6.6903958493799431E-003
  -6.7866871832236941E-002   2.0437810761154813E-002   4.8994573635144922E-003
  -6.4545624845272778E-002   1.9587817426800339E-002   3.2998223023821480E-003
  -6.1224377858308546E-002   1.8724571406963986E-002   1.8914906659828479E-003
  -8.1352547131070180E-002   2.4458378387147511E-002   6.8670154922980953E-003
  -7.7892409801807672E-002   2.3511128981049775E-002   5.5957070625931651E-003
  -7.4432272472545108E-002   2.2583924979294387E-002   4.4108758927518116E-003
  -7.0972135143282572E-002   2.1676766381881329E-002   3.3125219827741317E-003
  -6.7511997814020036E-002   2.0789653188810625E-002   2.3006453326600701E-003
  -8.7435778252077059E-002   2.6818717400876560E-002   4.9209827369991084E-003
  -8.3941576745385577E-002   2.5747706552072029E-002   4.3939058780116131E-003
  -8.0447375238694191E-002   2.4730039197434127E-002   3.8484801140184731E-003
  -7.6953173732002736E-002   2.3765715336962485E-002   3.2847054450193536E-003
  -7.3458972225311309E-002   2.2854734970656973E-002   2.7025818710145581E-003
  -9.2759059169185920E-002   2.9179056414605276E-002   2.8345394940812452E-003
  -8.9335619649934972E-002   2.7984284123094283E-002   3.0849922956355247E-003
  -8.5912180130684135E-002   2.6876153415573784E-002   3.2122700273147370E-003
  -8.2488740611433270E-002   2.5854664292043382E-002   3.2163726891183166E-003
  -7.9065301092182350E-002   2.4919816752503876E-002   3.0973002810468220E-003
  -5.4596112358176851E-002   1.6659489625117263E-002   1.4751178709833668E-003
  -5.1624569773117468E-002   1.5944386611361716E-002  -1.1406351083814159E-003
  -4.8653027188058071E-002   1.5524386038604607E-002  -4.6634128115166096E-003
  -4.5681484602998666E-002   1.5399487906845834E-002  -9.0932152384226167E-003
  -4.2709942017939290E-002   1.5569692216085507E-002  -1.4430042389099174E-002
  -6.1224377858308546E-002   1.8724571406963986E-002   1.8914906659828479E-003
  -5.8953439674462871E-002   1.7999626732172702E-002   1.1528246188055591E-004
  -5.6682501490617217E-002   1.7564537432953622E-002  -2.1551098208786729E-003
  -5.4411563306771549E-002   1.7419303509306514E-002  -4.9196861822946303E-003
  -5.2140625122925874E-002   1.7563924961231603E-002  -8.1784466223676078E-003
  -6.7511997814020036E-002   2.0789653188810625E-002   2.3006453326600701E-003
  -6.5528823386274360E-002   2.0054866852983771E-002   1.3587348383936187E-003
  -6.3545648958528586E-002   1.9604688827302645E-002   3.3548091058422519E-004
  -6.1562474530782861E-002   1.9439119111767253E-002  -7.6911645076821467E-004
  -5.9579300103037074E-002   1.9558157706377699E-002  -1.9550572456637355E-003
  -7.3458972225311309E-002   2.2854734970656973E-002   2.7025818710145581E-003
  -7.1350720908551712E-002   2.2110106973794799E-002   2.5897220211579808E-003
  -6.9242469591792144E-002   2.1644840221651775E-002   2.8083593828720672E-003
  -6.7134218275032520E-002   2.1458934714228127E-002   3.3584939561569849E-003
  -6.5025966958272993E-002   2.1552390451524017E-002   4.2401257410121587E-003
  -7.9065301092182350E-002   2.4919816752503876E-002   3.0973002810468220E-003
  -7.6419132241295151E-002   2.4165347094605660E-002   3.8082440101736004E-003
  -7.3772963390407953E-002   2.3684991616000878E-002   5.2635255959845861E-003
  -7.1126794539520810E-002   2.3478750316688661E-002   7.4631450384804038E-003
  -6.8480625688633556E-002   2.3546623196669891E-002   1.0407102337660845E-002
  -4.2709942017939290E-002   1.5569692216085507E-002  -1.4430042389099174E-002
  -3.7968941352769875E-002   1.6799302499363622E-002  -2.3404849831121066E-002
  -3.3227940687600502E-002   1.9852622289720179E-002  -3.4421707275220037E-002
  -2.8486940022431136E-002   2.4729651587155066E-002  -4.7480614721395947E-002
  -2.3745939357261714E-002   3.1430390391668839E-002  -6.2581572169649213E-002
  -5.2140625122925874E-002   1.7563924961231603E-002  -8.1784466223676078E-003
  -4.8613841923843479E-002   1.7941164108371710E-002  -1.3333868642555868E-002
  -4.5087058724761146E-002   1.8493783270369824E-002  -1.8875675592841090E-002
  -4.1560275525678703E-002   1.9221782447225985E-002  -2.4803867473223322E-002
  -3.8033492326596391E-002   2.0125161638940181E-002  -3.1118444283702695E-002
  -5.9579300103037074E-002   1.9558157706377699E-002  -1.9550572456637355E-003
  -5.5611069298061734E-002   1.9083025717379770E-002  -4.9394233362387574E-003
  -5.1642838493086318E-002   1.7134944251019690E-002  -6.6545092849308873E-003
  -4.7674607688111048E-002   1.3713913307296738E-002  -7.1003150917400143E-003
  -4.3706376883135584E-002   8.8199328862116344E-003  -6.2768407566660134E-003
  -6.5025966958272993E-002   2.1552390451524017E-002   4.2401257410121587E-003
  -5.8960623475424530E-002   2.0224887326388177E-002   1.7784860878299370E-003
  -5.2895279992576129E-002   1.5776105231669058E-002   2.2417916485105924E-003
  -4.6829936509727728E-002   8.2060441673675183E-003   5.6300424230542115E-003
  -4.0764593026879258E-002  -2.4852958665169678E-003   1.1943238411461082E-002
  -6.8480625688633556E-002   2.3546623196669891E-002   1.0407102337660845E-002
  -5.8662504455932019E-002   2.1366748935395807E-002   6.8198596296504821E-003
  -4.8844383223230425E-002   1.4417266212319091E-002   7.8132272074835640E-003
  -3.9026261990529026E-002   2.6981750274381044E-003   1.3387205071159758E-002
  -2.9208140757827294E-002  -1.3790524619245570E-002   2.3541793220678953E-002
 </DataArray>
 </PointData>
 </Piece>
 <Piece  NumberOfPoints="          1600 "  NumberOfCells="         1024 ">
 <Points>
 <DataArray  type="Float64" NumberOfComponents="3"  format="ascii" >
  0.50000000000000000        0.0000000000000000        0.0000000000000000     
  0.53125000000000000        0.0000000000000000        0.0000000000000000     
  0.56250000000000000        0.0000000000000000        0.0000000000000000     
  0.59375000000000000        0.0000000000000000        0.0000000000000000     
  0.62500000000000000        0.0000000000000000        0.0000000000000000     
  0.50000000000000000        3.1250000000000000E-002   0.0000000000000000     
  0.53125000000000000        3.1250000000000000E-002   0.0000000000000000     
  0.56250000000000000        3.1250000000000000E-002   0.0000000000000000     
  0.59375000000000000        3.1250000000000000E-002   0.0000000000000000     
  0.62500000000000000        3.1250000000000000E-002   0.0000000000000000     
  0.50000000000000000        6.2500000000000000E-002   0.0000000000000000     
  0.53125000000000000        6.2500000000000000E-002   0.0000000000000000     
  0.56250000000000000        6.2500000000000000E-002   0.0000000000000000     
  0.59375000000000000        6.2500000000000000E-002   0.0000000000000000     
  0.62500000000000000        6.2500000000000000E-002   0.0000000000000000     
  0.50000000000000000        9.3750000000000000E-002   0.0000000000000000     
  0.53125000000000000        9.3750000000000000E-002   0.0000000000000000     
  0.56250000000000000        9.3750000000000000E-002   0.0000000000000000     
  0.59375000000000000        9.3750000000000000E-002   0.0000000000000000     
  0.62500000000000000        9.3750000000000000E-002   0.0000000000000000     
  0.50000000000000000       0.12500000000000000        0.0000000000000000     
  0.53125000000000000       0.12500000000000000        0.0000000000000000     
  0.56250000000000000       0.12500000000000000        0.0000000000000000     
  0.59375000000000000       0.12500000000000000        0.0000000000000000     
  0.62500000000000000       0.12500000000000000        0.0000000000000000     
  0.62500000000000000        0.0000000000000000        0.0000000000000000     
  0.65625000000000000        0.0000000000000000        0.0000000000000000     
  0.68750000000000000        0.0000000000000000        0.0000000000000000     
  0.71875000000000000        0.0000000000000000        0.0000000000000000     
  0.75000000000000000        0.0000000000000000        0.0000000000000000     
  0.62500000000000000        3.1250000000000000E-002   0.0000000000000000     
  0.65625000000000000        3.1250000000000000E-002   0.0000000000000000     
  0.68750000000000000        3.1250000000000000E-002   0.0000000000000000     
  0.71875000000000000        3.1250000000000000E-002   0.0000000000000000     
  0.75000000000000000        3.1250000000000000E-002   0.0000000000000000     
  0.62500000000000000        6.2500000000000000E-002   0.0000000000000000     
  0.65625000000000000        6.2500000000000000E-002   0.0000000000000000     
  0.68750000000000000        6.2500000000000000E-002   0.0000000000000000     
  0.71875000000000000        6.2500000000000000E-002   0.0000000000000000     
  0.75000000000000000        6.2500000000000000E-002   0.0000000000000000     
  0.62500000000000000        9.3750000000000000E-002   0.0000000000000000     
  0.65625000000000000        9.3750000000000000E-002   0.0000000000000000     
  0.68750000000000000        9.3750000000000000E-002   0.0000000000000000     
  0.71875000000000000        9.3750000000000000E-002   0.0000000000000000     
  0.75000000000000000        9.3750000000000000E-002   0.0000000000000000     
  0.62500000000000000       0.12500000000000000        0.0000000000000000     
  0.65625000000000000       0.12500000000000000        0.0000000000000000     
  0.68750000000000000       0.12500000000000000        0.0000000000000000     
  0.71875000000000000       0.12500000000000000        0.0000000000000000     
  0.75000000000000000       0.12500000000000000        0.0000000000000000     
  0.75000000000000000        0.0000000000000000        0.0000000000000000     
  0.78125000000000000        0.0000000000000000        0.0000000000000000     
  0.81250000000000000        0.0000000000000000        0.0000000000000000     
  0.84375000000000000        0.0000000000000000        0.0000000000000000     
  0.87500000000000000        0.0000000000000000        0.0000000000000000     
  0.75000000000000000        3.1250000000000000E-002   0.0000000000000000     
  0.78125000000000000        3.1250000000000000E-002   0.0000000000000000     
  0.81250000000000000        3.1250000000000000E-002   0.0000000000000000     
  0.84375000000000000        3.1250000000000000E-002   0.0000000000000000     
  0.87500000000000000        3.1250000000000000E-002   0.0000000000000000     
  0.75000000000000000        6.2500000000000000E-002   0.0000000000000000     
  0.78125000000000000        6.2500000000000000E-002   0.0000000000000000     
  0.81250000000000000        6.2500000000000000E-002   0.0000000000000000     
  0.84375000000000000        6.2500000000000000E-002   0.0000000000000000     
  0.87500000000000000        6.2500000000000000E-002   0.0000000000000000     
  0.75000000000000000        9.3750000000000000E-002   0.0000000000000000     
  0.78125000000000000        9.3750000000000000E-002   0.0000000000000000     
  0.81250000000000000        9.3750000000000000E-002   0.0000000000000000     
  0.84375000000000000        9.3750000000000000E-002   0.0000000000000000     
  0.87500000000000000        9.3750000000000000E-002   0.0000000000000000     
  0.75000000000000000       0.12500000000000000        0.0000000000000000     
  0.78125000000000000       0.12500000000000000        0.0000000000000000     
  0.81250000000000000       0.12500000000000000        0.0000000000000000     
  0.84375000000000000       0.12500000000000000        0.0000000000000000     
  0.87500000000000000       0.12500000000000000        0.0000000000000000     
  0.87500000000000000        0.0000000000000000        0.0000000000000000     
  0.90625000000000000        0.0000000000000000        0.0000000000000000     
  0.93750000000000000        0.0000000000000000        0.0000000000000000     
  0.96875000000000000        0.0000000000000000        0.0000000000000000     
   1.0000000000000000        0.0000000000000000        0.0000000000000000     
  0.87500000000000000        3.1250000000000000E-002   0.0000000000000000     
  0.90625000000000000        3.1250000000000000E-002   0.0000000000000000     
  0.93750000000000000        3.1250000000000000E-002   0.0000000000000000     
  0.96875000000000000        3.1250000000000000E-002   0.0000000000000000     
   1.0000000000000000        3.1250000000000000E-002   0.0000000000000000     
  0.87500000000000000        6.2500000000000000E-002   0.0000000000000000     
  0.90625000000000000        6.2500000000000000E-002   0.0000000000000000     
  0.93750000000000000        6.2500000000000000E-002   0.0000000000000000     
  0.96875000000000000        6.2500000000000000E-002   0.0000000000000000     
   1.0000000000000000        6.2500000000000000E-002   0.0000000000000000     
  0.87500000000000000        9.3750000000000000E-002   0.0000000000000000     
  0.90625000000000000        9.3750000000000000E-002   0.0000000000000000     
  0.93750000000000000        9.3750000000000000E-002   0.0000000000000000     
  0.96875000000000000        9.3750000000000000E-002   0.0000000000000000     
   1.0000000000000000        9.3750000000000000E-002   0.0000000000000000     
  0.87500000000000000       0.12500000000000000        0.0000000000000000     
  0.90625000000000000       0.12500000000000000        0.0000000000000000     
  0.93750000000000000       0.12500000000000000        0.0000000000000000     
  0.96875000000000000       0.12500000000000000        0.0000000000000000     
   1.0000000000000000       0.12500000000000000        0.0000000000000000     
   1.0000000000000000        0.0000000000000000        0.0000000000000000     
   1.0312500000000000        0.0000000000000000        0.0000000000000000     
   1.0625000000000000        0.0000000000000000        0.0000000000000000     
   1.0937500000000000        0.0000000000000000        0.0000000000000000     
   1.1250000000000000        0.0000000000000000        0.0000000000000000     
   1.0000000000000000        3.1250000000000000E-002   0.0000000000000000     
   1.0312500000000000        3.1250000000000000E-002   0.0000000000000000     
   1.0625000000000000        3.1250000000000000E-002   0.0000000000000000     
   1.0937500000000000        3.1250000000000000E-002   0.0000000000000000     
   1.1250000000000000        3.1250000000000000E-002   0.0000000000000000     
   1.0000000000000000        6.2500000000000000E-002   0.0000000000000000     
   1.0312500000000000        6.2500000000000000E-002   0.0000000000000000     
   1.0625000000000000        6.2500000000000000E-002   0.0000000000000000     
   1.0937500000000000        6.2500000000000000E-002   0.0000000000000000     
   1.1250000000000000        6.2500000000000000E-002   0.0000000000000000     
   1.0000000000000000        9.3750000000000000E-002   0.0000000000000000     
   1.0312500000000000        9.3750000000000000E-002   0.0000000000000000     
   1.0625000000000000        9.3750000000000000E-002   0.0000000000000000     
   1.0937500000000000        9.3750000000000000E-002   0.0000000000000000     
   1.1250000000000000        9.3750000000000000E-002   0.0000000000000000     
   1.0000000000000000       0.12500000000000000        0.0000000000000000     
   1.0312500000000000       0.12500000000000000        0.0000000000000000     
   1.0625000000000000       0.12500000000000000        0.0000000000000000     
   1.0937500000000000       0.12500000000000000        0.0000000000000000     
   1.1250000000000000       0.12500000000000000        0.0000000000000000     
   1.1250000000000000        0.0000000000000000        0.0000000000000000     
   1.1562500000000000        0.0000000000000000        0.0000000000000000     
   1.1875000000000000        0.0000000000000000        0.0000000000000000     
   1.2187500000000000        0.0000000000000000        0.0000000000000000     
   1.2500000000000000        0.0000000000000000        0.0000000000000000     
   1.1250000000000000        3.1250000000000000E-002   0.0000000000000000     
   1.1562500000000000        3.1250000000000000E-002   0.0000000000000000     
   1.1875000000000000        3.1250000000000000E-002   0.0000000000000000     
   1.2187500000000000        3.1250000000000000E-002   0.0000000000000000     
   1.2500000000000000        3.1250000000000000E-002   0.0000000000000000     
   1.1250000000000000        6.2500000000000000E-002   0.0000000000000000     
   1.1562500000000000        6.2500000000000000E-002   0.0000000000000000     
   1.1875000000000000        6.2500000000000000E-002   0.0000000000000000     
   1.2187500000000000        6.2500000000000000E-002   0.0000000000000000     
   1.2500000000000000        6.2500000000000000E-002   0.0000000000000000     
   1.1250000000000000        9.3750000000000000E-002   0.0000000000000000     
   1.1562500000000000        9.3750000000000000E-002   0.0000000000000000     
   1.1875000000000000        9.3750000000000000E-002   0.0000000000000000     
   1.2187500000000000        9.3750000000000000E-002   0.0000000000000000     
   1.2500000000000000        9.3750000000000000E-002   0.0000000000000000     
   1.1250000000000000       0.12500000000000000        0.0000000000000000     
   1.1562500000000000       0.12500000000000000        0.0000000000000000     
   1.1875000000000000       0.12500000000000000        0.0000000000000000     
   1.2187500000000000       0.12500000000000000        0.0000000000000000     
   1.2500000000000000       0.12500000000000000        0.0000000000000000     
   1.2500000000000000        0.0000000000000000        0.0000000000000000     
   1.2812500000000000        0.0000000000000000        0.0000000000000000     
   1.3125000000000000        0.0000000000000000        0.0000000000000000     
   1.3437500000000000        0.0000000000000000        0.0000000000000000     
   1.3750000000000000        0.0000000000000000        0.0000000000000000     
   1.2500000000000000        3.1250000000000000E-002   0.0000000000000000     
   1.2812500000000000        3.1250000000000000E-002   0.0000000000000000     
   1.3125000000000000        3.1250000000000000E-002   0.0000000000000000     
   1.3437500000000000        3.1250000000000000E-002   0.0000000000000000     
   1.3750000000000000        3.1250000000000000E-002   0.0000000000000000     
   1.2500000000000000        6.2500000000000000E-002   0.0000000000000000     
   1.2812500000000000        6.2500000000000000E-002   0.0000000000000000     
   1.3125000000000000        6.2500000000000000E-002   0.0000000000000000     
   1.3437500000000000        6.2500000000000000E-002   0.0000000000000000     
   1.3750000000000000        6.2500000000000000E-002   0.0000000000000000     
   1.2500000000000000        9.3750000000000000E-002   0.0000000000000000     
   1.2812500000000000        9.3750000000000000E-002   0.0000000000000000     
   1.3125000000000000        9.3750000000000000E-002   0.0000000000000000     
   1.3437500000000000        9.3750000000000000E-002   0.0000000000000000     
   1.3750000000000000        9.3750000000000000E-002   0.0000000000000000     
   1.2500000000000000       0.12500000000000000        0.0000000000000000     
   1.2812500000000000       0.12500000000000000        0.0000000000000000     
   1.3125000000000000       0.12500000000000000        0.0000000000000000     
   1.3437500000000000       0.12500000000000000        0.0000000000000000     
   1.3750000000000000       0.12500000000000000        0.0000000000000000     
   1.3750000000000000        0.0000000000000000        0.0000000000000000     
   1.4062500000000000        0.0000000000000000        0.0000000000000000     
   1.4375000000000000        0.0000000000000000        0.0000000000000000     
   1.4687500000000000        0.0000000000000000        0.0000000000000000     
   1.5000000000000000        0.0000000000000000        0.0000000000000000     
   1.3750000000000000        3.1250000000000000E-002   0.0000000000000000     
   1.4062500000000000        3.1250000000000000E-002   0.0000000000000000     
   1.4375000000000000        3.1250000000000000E-002   0.0000000000000000     
   1.4687500000000000        3.1250000000000000E-002   0.0000000000000000     
   1.5000000000000000        3.1250000000000000E-002   0.0000000000000000     
   1.3750000000000000        6.2500000000000000E-002   0.0000000000000000     
   1.4062500000000000        6.2500000000000000E-002   0.0000000000000000     
   1.4375000000000000        6.2500000000000000E-002   0.0000000000000000     
   1.4687500000000000        6.2500000000000000E-002   0.0000000000000000     
   1.5000000000000000        6.2500000000000000E-002   0.0000000000000000     
   1.3750000000000000        9.3750000000000000E-002   0.0000000000000000     
   1.4062500000000000        9.3750000000000000E-002   0.0000000000000000     
   1.4375000000000000        9.3750000000000000E-002   0.0000000000000000     
   1.4687500000000000        9.3750000000000000E-002   0.0000000000000000     
   1.5000000000000000        9.3750000000000000E-002   0.0000000000000000     
   1.3750000000000000       0.12500000000000000        0.0000000000000000     
   1.4062500000000000       0.12500000000000000        0.0000000000000000     
   1.4375000000000000       0.12500000000000000        0.0000000000000000     
   1.4687500000000000       0.12500000000000000        0.0000000000000000     
   1.5000000000000000       0.12500000000000000        0.0000000000000000     
  0.50000000000000000       0.12500000000000000        0.0000000000000000     
  0.53125000000000000       0.12500000000000000        0.0000000000000000     
  0.56250000000000000       0.12500000000000000        0.0000000000000000     
  0.59375000000000000       0.12500000000000000        0.0000000000000000     
  0.62500000000000000       0.12500000000000000        0.0000000000000000     
  0.50000000000000000       0.15625000000000000        0.0000000000000000     
  0.53125000000000000       0.15625000000000000        0.0000000000000000     
  0.56250000000000000       0.15625000000000000        0.0000000000000000     
  0.59375000000000000       0.15625000000000000        0.0000000000000000     
  0.62500000000000000       0.15625000000000000        0.0000000000000000     
  0.50000000000000000       0.18750000000000000        0.0000000000000000     
  0.53125000000000000       0.18750000000000000        0.0000000000000000     
  0.56250000000000000       0.18750000000000000        0.0000000000000000     
  0.59375000000000000       0.18750000000000000        0.0000000000000000     
  0.62500000000000000       0.18750000000000000        0.0000000000000000     
  0.50000000000000000       0.21875000000000000        0.0000000000000000     
  0.53125000000000000       0.21875000000000000        0.0000000000000000     
  0.56250000000000000       0.21875000000000000        0.0000000000000000     
  0.59375000000000000       0.21875000000000000        0.0000000000000000     
  0.62500000000000000       0.21875000000000000        0.0000000000000000     
  0.50000000000000000       0.25000000000000000        0.0000000000000000     
  0.53125000000000000       0.25000000000000000        0.0000000000000000     
  0.56250000000000000       0.25000000000000000        0.0000000000000000     
  0.59375000000000000       0.25000000000000000        0.0000000000000000     
  0.62500000000000000       0.25000000000000000        0.0000000000000000     
  0.62500000000000000       0.12500000000000000        0.0000000000000000     
  0.65625000000000000       0.12500000000000000        0.0000000000000000     
  0.68750000000000000       0.12500000000000000        0.0000000000000000     
  0.71875000000000000       0.12500000000000000        0.0000000000000000     
  0.75000000000000000       0.12500000000000000        0.0000000000000000     
  0.62500000000000000       0.15625000000000000        0.0000000000000000     
  0.65625000000000000       0.15625000000000000        0.0000000000000000     
  0.68750000000000000       0.15625000000000000        0.0000000000000000     
  0.71875000000000000       0.15625000000000000        0.0000000000000000     
  0.75000000000000000       0.15625000000000000        0.0000000000000000     
  0.62500000000000000       0.18750000000000000        0.0000000000000000     
  0.65625000000000000       0.18750000000000000        0.0000000000000000     
  0.68750000000000000       0.18750000000000000        0.0000000000000000     
  0.71875000000000000       0.18750000000000000        0.0000000000000000     
  0.75000000000000000       0.18750000000000000        0.0000000000000000     
  0.62500000000000000       0.21875000000000000        0.0000000000000000     
  0.65625000000000000       0.21875000000000000        0.0000000000000000     
  0.68750000000000000       0.21875000000000000        0.0000000000000000     
  0.71875000000000000       0.21875000000000000        0.0000000000000000     
  0.75000000000000000       0.21875000000000000        0.0000000000000000     
  0.62500000000000000       0.25000000000000000        0.0000000000000000     
  0.65625000000000000       0.25000000000000000        0.0000000000000000     
  0.68750000000000000       0.25000000000000000        0.0000000000000000     
  0.71875000000000000       0.25000000000000000        0.0000000000000000     
  0.75000000000000000       0.25000000000000000        0.0000000000000000     
  0.75000000000000000       0.12500000000000000        0.0000000000000000     
  0.78125000000000000       0.12500000000000000        0.0000000000000000     
  0.81250000000000000       0.12500000000000000        0.0000000000000000     
  0.84375000000000000       0.12500000000000000        0.0000000000000000     
  0.87500000000000000       0.12500000000000000        0.0000000000000000     
  0.75000000000000000       0.15625000000000000        0.0000000000000000     
  0.78125000000000000       0.15625000000000000        0.0000000000000000     
  0.81250000000000000       0.15625000000000000        0.0000000000000000     
  0.84375000000000000       0.15625000000000000        0.0000000000000000     
  0.87500000000000000       0.15625000000000000        0.0000000000000000     
  0.75000000000000000       0.18750000000000000        0.0000000000000000     
  0.78125000000000000       0.18750000000000000        0.0000000000000000     
  0.81250000000000000       0.18750000000000000        0.0000000000000000     
  0.84375000000000000       0.18750000000000000        0.0000000000000000     
  0.87500000000000000       0.18750000000000000        0.0000000000000000     
  0.75000000000000000       0.21875000000000000        0.0000000000000000     
  0.78125000000000000       0.21875000000000000        0.0000000000000000     
  0.81250000000000000       0.21875000000000000        0.0000000000000000     
  0.84375000000000000       0.21875000000000000        0.0000000000000000     
  0.87500000000000000       0.21875000000000000        0.0000000000000000     
  0.75000000000000000       0.25000000000000000        0.0000000000000000     
  0.78125000000000000       0.25000000000000000        0.0000000000000000     
  0.81250000000000000       0.25000000000000000        0.0000000000000000     
  0.84375000000000000       0.25000000000000000        0.0000000000000000     
  0.87500000000000000       0.25000000000000000        0.0000000000000000     
  0.87500000000000000       0.12500000000000000        0.0000000000000000     
  0.90625000000000000       0.12500000000000000        0.0000000000000000     
  0.93750000000000000       0.12500000000000000        0.0000000000000000     
  0.96875000000000000       0.12500000000000000        0.0000000000000000     
   1.0000000000000000       0.12500000000000000        0.0000000000000000     
  0.87500000000000000       0.15625000000000000        0.0000000000000000     
  0.90625000000000000       0.15625000000000000        0.0000000000000000     
  0.93750000000000000       0.15625000000000000        0.0000000000000000     
  0.96875000000000000       0.15625000000000000        0.0000000000000000     
   1.0000000000000000       0.15625000000000000        0.0000000000000000     
  0.87500000000000000       0.18750000000000000        0.0000000000000000     
  0.90625000000000000       0.18750000000000000        0.0000000000000000     
  0.93750000000000000       0.18750000000000000        0.0000000000000000     
  0.96875000000000000       0.18750000000000000        0.0000000000000000     
   1.0000000000000000       0.18750000000000000        0.0000000000000000     
  0.87500000000000000       0.21875000000000000        0.0000000000000000     
  0.90625000000000000       0.21875000000000000        0.0000000000000000     
  0.93750000000000000       0.21875000000000000        0.0000000000000000     
  0.96875000000000000       0.21875000000000000        0.0000000000000000     
   1.0000000000000000       0.21875000000000000        0.0000000000000000     
  0.87500000000000000       0.25000000000000000        0.0000000000000000     
  0.90625000000000000       0.25000000000000000        0.0000000000000000     
  0.93750000000000000       0.25000000000000000        0.0000000000000000     
  0.96875000000000000       0.25000000000000000        0.0000000000000000     
   1.0000000000000000       0.25000000000000000        0.0000000000000000     
   1.0000000000000000       0.12500000000000000        0.0000000000000000     
   1.0312500000000000       0.12500000000000000        0.0000000000000000     
   1.0625000000000000       0.12500000000000000        0.0000000000000000     
   1.0937500000000000       0.12500000000000000        0.0000000000000000     
   1.1250000000000000       0.12500000000000000        0.0000000000000000     
   1.0000000000000000       0.15625000000000000        0.0000000000000000     
   1.0312500000000000       0.15625000000000000        0.0000000000000000     
   1.0625000000000000       0.15625000000000000        0.0000000000000000     
   1.0937500000000000       0.15625000000000000        0.0000000000000000     
   1.1250000000000000       0.15625000000000000        0.0000000000000000     
   1.0000000000000000       0.18750000000000000        0.0000000000000000     
   1.0312500000000000       0.18750000000000000        0.0000000000000000     
   1.0625000000000000       0.18750000000000000        0.0000000000000000     
   1.0937500000000000       0.18750000000000000        0.0000000000000000     
   1.1250000000000000       0.18750000000000000        0.0000000000000000     
   1.0000000000000000       0.21875000000000000        0.0000000000000000     
   1.0312500000000000       0.21875000000000000        0.0000000000000000     
   1.0625000000000000       0.21875000000000000        0.0000000000000000     
   1.0937500000000000       0.21875000000000000        0.0000000000000000     
   1.1250000000000000       0.21875000000000000        0.0000000000000000     
   1.0000000000000000       0.25000000000000000        0.0000000000000000     
   1.0312500000000000       0.25000000000000000        0.0000000000000000     
   1.0625000000000000       0.25000000000000000        0.0000000000000000     
   1.0937500000000000       0.25000000000000000        0.0000000000000000     
   1.1250000000000000       0.25000000000000000        0.0000000000000000     
   1.1250000000000000       0.12500000000000000        0.0000000000000000     
   1.1562500000000000       0.12500000000000000        0.0000000000000000     
   1.1875000000000000       0.12500000000000000        0.0000000000000000     
   1.2187500000000000       0.12500000000000000        0.0000000000000000     
   1.2500000000000000       0.12500000000000000        0.0000000000000000     
   1.1250000000000000       0.15625000000000000        0.0000000000000000     
   1.1562500000000000       0.15625000000000000        0.0000000000000000     
   1.1875000000000000       0.15625000000000000        0.0000000000000000     
   1.2187500000000000       0.15625000000000000        0.0000000000000000     
   1.2500000000000000       0.15625000000000000        0.0000000000000000     
   1.1250000000000000       0.18750000000000000        0.0000000000000000     
   1.1562500000000000       0.18750000000000000        0.0000000000000000     
   1.1875000000000000       0.18750000000000000        0.0000000000000000     
   1.2187500000000000       0.18750000000000000        0.0000000000000000     
   1.2500000000000000       0.18750000000000000        0.0000000000000000     
   1.1250000000000000       0.21875000000000000        0.0000000000000000     
   1.1562500000000000       0.21875000000000000        0.0000000000000000     
   1.1875000000000000       0.21875000000000000        0.0000000000000000     
   1.2187500000000000       0.21875000000000000        0.0000000000000000     
   1.2500000000000000       0.21875000000000000        0.0000000000000000     
   1.1250000000000000       0.25000000000000000        0.0000000000000000     
   1.1562500000000000       0.25000000000000000        0.0000000000000000     
   1.1875000000000000       0.25000000000000000        0.0000000000000000     
   1.2187500000000000       0.25000000000000000        0.0000000000000000     
   1.2500000000000000       0.25000000000000000        0.0000000000000000     
   1.2500000000000000       0.12500000000000000        0.0000000000000000     
   1.2812500000000000       0.12500000000000000        0.0000000000000000     
   1.3125000000000000       0.12500000000000000        0.0000000000000000     
   1.3437500000000000       0.12500000000000000        0.0000000000000000     
   1.3750000000000000       0.12500000000000000        0.0000000000000000     
   1.2500000000000000       0.15625000000000000        0.0000000000000000     
   1.2812500000000000       0.15625000000000000        0.0000000000000000     
   1.3125000000000000       0.15625000000000000        0.0000000000000000     
   1.3437500000000000       0.15625000000000000        0.0000000000000000     
   1.3750000000000000       0.15625000000000000        0.0000000000000000     
   1.2500000000000000       0.18750000000000000        0.0000000000000000     
   1.2812500000000000       0.18750000000000000        0.0000000000000000     
   1.3125000000000000       0.18750000000000000        0.0000000000000000     
   1.3437500000000000       0.18750000000000000        0.0000000000000000     
   1.3750000000000000       0.18750000000000000        0.0000000000000000     
   1.2500000000000000       0.21875000000000000        0.0000000000000000     
   1.2812500000000000       0.21875000000000000        0.0000000000000000     
   1.3125000000000000       0.21875000000000000        0.0000000000000000     
   1.3437500000000000       0.21875000000000000        0.0000000000000000     
   1.3750000000000000       0.21875000000000000        0.0000000000000000     
   1.2500000000000000       0.25000000000000000        0.0000000000000000     
   1.2812500000000000       0.25000000000000000        0.0000000000000000     
   1.3125000000000000       0.25000000000000000        0.0000000000000000     
   1.3437500000000000       0.25000000000000000        0.0000000000000000     
   1.3750000000000000       0.25000000000000000        0.0000000000000000     
   1.3750000000000000       0.12500000000000000        0.0000000000000000     
   1.4062500000000000       0.12500000000000000        0.0000000000000000     
   1.4375000000000000       0.12500000000000000        0.0000000000000000     
   1.4687500000000000       0.12500000000000000        0.0000000000000000     
   1.5000000000000000       0.12500000000000000        0.0000000000000000     
   1.3750000000000000       0.15625000000000000        0.0000000000000000     
   1.4062500000000000       0.15625000000000000        0.0000000000000000     
   1.4375000000000000       0.15625000000000000        0.0000000000000000     
   1.4687500000000000       0.15625000000000000        0.0000000000000000     
   1.5000000000000000       0.15625000000000000        0.0000000000000000     
   1.3750000000000000       0.18750000000000000        0.0000000000000000     
   1.4062500000000000       0.18750000000000000        0.0000000000000000     
   1.4375000000000000       0.18750000000000000        0.0000000000000000     
   1.4687500000000000       0.18750000000000000        0.0000000000000000     
   1.5000000000000000       0.18750000000000000        0.0000000000000000     
   1.3750000000000000       0.21875000000000000        0.0000000000000000     
   1.4062500000000000       0.21875000000000000        0.0000000000000000     
   1.4375000000000000       0.21875000000000000        0.0000000000000000     
   1.4687500000000000       0.21875000000000000        0.0000000000000000     
   1.5000000000000000       0.21875000000000000        0.0000000000000000     
   1.3750000000000000       0.25000000000000000        0.0000000000000000     
   1.4062500000000000       0.25000000000000000        0.0000000000000000     
   1.4375000000000000       0.25000000000000000        0.0000000000000000     
   1.4687500000000000       0.25000000000000000        0.0000000000000000     
   1.5000000000000000       0.25000000000000000        0.0000000000000000     
  0.50000000000000000       0.25000000000000000        0.0000000000000000     
  0.53125000000000000       0.25000000000000000        0.0000000000000000     
  0.56250000000000000       0.25000000000000000        0.0000000000000000     
  0.59375000000000000       0.25000000000000000        0.0000000000000000     
  0.62500000000000000       0.25000000000000000        0.0000000000000000     
  0.50000000000000000       0.28125000000000000        0.0000000000000000     
  0.53125000000000000       0.28125000000000000        0.0000000000000000     
  0.56250000000000000       0.28125000000000000        0.0000000000000000     
  0.59375000000000000       0.28125000000000000        0.0000000000000000     
  0.62500000000000000       0.28125000000000000        0.0000000000000000     
  0.50000000000000000       0.31250000000000000        0.0000000000000000     
  0.53125000000000000       0.31250000000000000        0.0000000000000000     
  0.56250000000000000       0.31250000000000000        0.0000000000000000     
  0.59375000000000000       0.31250000000000000        0.0000000000000000     
  0.62500000000000000       0.31250000000000000        0.0000000000000000     
  0.50000000000000000       0.34375000000000000        0.0000000000000000     
  0.53125000000000000       0.34375000000000000        0.0000000000000000     
  0.56250000000000000       0.34375000000000000        0.0000000000000000     
  0.59375000000000000       0.34375000000000000        0.0000000000000000     
  0.62500000000000000       0.34375000000000000        0.0000000000000000     
  0.50000000000000000       0.37500000000000000        0.0000000000000000     
  0.53125000000000000       0.37500000000000000        0.0000000000000000     
  0.56250000000000000       0.37500000000000000        0.0000000000000000     
  0.59375000000000000       0.37500000000000000        0.0000000000000000     
  0.62500000000000000       0.37500000000000000        0.0000000000000000     
  0.62500000000000000       0.25000000000000000        0.0000000000000000     
  0.65625000000000000       0.25000000000000000        0.0000000000000000     
  0.68750000000000000       0.25000000000000000        0.0000000000000000     
  0.71875000000000000       0.25000000000000000        0.0000000000000000     
  0.75000000000000000       0.25000000000000000        0.0000000000000000     
  0.62500000000000000       0.28125000000000000        0.0000000000000000     
  0.65625000000000000       0.28125000000000000        0.0000000000000000     
  0.68750000000000000       0.28125000000000000        0.0000000000000000     
  0.71875000000000000       0.28125000000000000        0.0000000000000000     
  0.75000000000000000       0.28125000000000000        0.0000000000000000     
  0.62500000000000000       0.31250000000000000        0.0000000000000000     
  0.65625000000000000       0.31250000000000000        0.0000000000000000     
  0.68750000000000000       0.31250000000000000        0.0000000000000000     
  0.71875000000000000       0.31250000000000000        0.0000000000000000     
  0.75000000000000000       0.31250000000000000        0.0000000000000000     
  0.62500000000000000       0.34375000000000000        0.0000000000000000     
  0.65625000000000000       0.34375000000000000        0.0000000000000000     
  0.68750000000000000       0.34375000000000000        0.0000000000000000     
  0.71875000000000000       0.34375000000000000        0.0000000000000000     
  0.75000000000000000       0.34375000000000000        0.0000000000000000     
  0.62500000000000000       0.37500000000000000        0.0000000000000000     
  0.65625000000000000       0.37500000000000000        0.0000000000000000     
  0.68750000000000000       0.37500000000000000        0.0000000000000000     
  0.71875000000000000       0.37500000000000000        0.0000000000000000     
  0.75000000000000000       0.37500000000000000        0.0000000000000000     
  0.75000000000000000       0.25000000000000000        0.0000000000000000     
  0.78125000000000000       0.25000000000000000        0.0000000000000000     
  0.81250000000000000       0.25000000000000000        0.0000000000000000     
  0.84375000000000000       0.25000000000000000        0.0000000000000000     
  0.87500000000000000       0.25000000000000000        0.0000000000000000     
  0.75000000000000000       0.28125000000000000        0.0000000000000000     
  0.78125000000000000       0.28125000000000000        0.0000000000000000     
  0.81250000000000000       0.28125000000000000        0.0000000000000000     
  0.84375000000000000       0.28125000000000000        0.0000000000000000     
  0.87500000000000000       0.28125000000000000        0.0000000000000000     
  0.75000000000000000       0.31250000000000000        0.0000000000000000     
  0.78125000000000000       0.31250000000000000        0.0000000000000000     
  0.81250000000000000       0.31250000000000000        0.0000000000000000     
  0.84375000000000000       0.31250000000000000        0.0000000000000000     
  0.87500000000000000       0.31250000000000000        0.0000000000000000     
  0.75000000000000000       0.34375000000000000        0.0000000000000000     
  0.78125000000000000       0.34375000000000000        0.0000000000000000     
  0.81250000000000000       0.34375000000000000        0.0000000000000000     
  0.84375000000000000       0.34375000000000000        0.0000000000000000     
  0.87500000000000000       0.34375000000000000        0.0000000000000000     
  0.75000000000000000       0.37500000000000000        0.0000000000000000     
  0.78125000000000000       0.37500000000000000        0.0000000000000000     
  0.81250000000000000       0.37500000000000000        0.0000000000000000     
  0.84375000000000000       0.37500000000000000        0.0000000000000000     
  0.87500000000000000       0.37500000000000000        0.0000000000000000     
  0.87500000000000000       0.25000000000000000        0.0000000000000000     
  0.90625000000000000       0.25000000000000000        0.0000000000000000     
  0.93750000000000000       0.25000000000000000        0.0000000000000000     
  0.96875000000000000       0.25000000000000000        0.0000000000000000     
   1.0000000000000000       0.25000000000000000        0.0000000000000000     
  0.87500000000000000       0.28125000000000000        0.0000000000000000     
  0.90625000000000000       0.28125000000000000        0.0000000000000000     
  0.93750000000000000       0.28125000000000000        0.0000000000000000     
  0.96875000000000000       0.28125000000000000        0.0000000000000000     
   1.0000000000000000       0.28125000000000000        0.0000000000000000     
  0.87500000000000000       0.31250000000000000        0.0000000000000000     
  0.90625000000000000       0.31250000000000000        0.0000000000000000     
  0.93750000000000000       0.31250000000000000        0.0000000000000000     
  0.96875000000000000       0.31250000000000000        0.0000000000000000     
   1.0000000000000000       0.31250000000000000        0.0000000000000000     
  0.87500000000000000       0.34375000000000000        0.0000000000000000     
  0.90625000000000000       0.34375000000000000        0.0000000000000000     
  0.93750000000000000       0.34375000000000000        0.0000000000000000     
  0.96875000000000000       0.34375000000000000        0.0000000000000000     
   1.0000000000000000       0.34375000000000000        0.0000000000000000     
  0.87500000000000000       0.37500000000000000        0.0000000000000000     
  0.90625000000000000       0.37500000000000000        0.0000000000000000     
  0.93750000000000000       0.37500000000000000        0.0000000000000000     
  0.96875000000000000       0.37500000000000000        0.0000000000000000     
   1.0000000000000000       0.37500000000000000        0.0000000000000000     
   1.0000000000000000       0.25000000000000000        0.0000000000000000     
   1.0312500000000000       0.25000000000000000        0.0000000000000000     
   1.0625000000000000       0.25000000000000000        0.0000000000000000     
   1.0937500000000000       0.25000000000000000        0.0000000000000000     
   1.1250000000000000       0.25000000000000000        0.0000000000000000     
   1.0000000000000000       0.28125000000000000        0.0000000000000000     
   1.0312500000000000       0.28125000000000000        0.0000000000000000     
   1.0625000000000000       0.28125000000000000        0.0000000000000000     
   1.0937500000000000       0.28125000000000000        0.0000000000000000     
   1.1250000000000000       0.28125000000000000        0.0000000000000000     
   1.0000000000000000       0.31250000000000000        0.0000000000000000     
   1.0312500000000000       0.31250000000000000        0.0000000000000000     
   1.0625000000000000       0.31250000000000000        0.0000000000000000     
   1.0937500000000000       0.31250000000000000        0.0000000000000000     
   1.1250000000000000       0.31250000000000000        0.0000000000000000     
   1.0000000000000000       0.34375000000000000        0.0000000000000000     
   1.0312500000000000       0.34375000000000000        0.0000000000000000     
   1.0625000000000000       0.34375000000000000        0.0000000000000000     
   1.0937500000000000       0.34375000000000000        0.0000000000000000     
   1.1250000000000000       0.34375000000000000        0.0000000000000000     
   1.0000000000000000       0.37500000000000000        0.0000000000000000     
   1.0312500000000000       0.37500000000000000        0.0000000000000000     
   1.0625000000000000       0.37500000000000000        0.0000000000000000     
   1.0937500000000000       0.37500000000000000        0.0000000000000000     
   1.1250000000000000       0.37500000000000000        0.0000000000000000     
   1.1250000000000000       0.25000000000000000        0.0000000000000000     
   1.1562500000000000       0.25000000000000000        0.0000000000000000     
   1.1875000000000000       0.25000000000000000        0.0000000000000000     
   1.2187500000000000       0.25000000000000000        0.0000000000000000     
   1.2500000000000000       0.25000000000000000        0.0000000000000000     
   1.1250000000000000       0.28125000000000000        0.0000000000000000     
   1.1562500000000000       0.28125000000000000        0.0000000000000000     
   1.1875000000000000       0.28125000000000000        0.0000000000000000     
   1.2187500000000000       0.28125000000000000        0.0000000000000000     
   1.2500000000000000       0.28125000000000000        0.0000000000000000     
   1.1250000000000000       0.31250000000000000        0.0000000000000000     
   1.1562500000000000       0.31250000000000000        0.0000000000000000     
   1.1875000000000000       0.31250000000000000        0.0000000000000000     
   1.2187500000000000       0.31250000000000000        0.0000000000000000     
   1.2500000000000000       0.31250000000000000        0.0000000000000000     
   1.1250000000000000       0.34375000000000000        0.0000000000000000     
   1.1562500000000000       0.34375000000000000        0.0000000000000000     
   1.1875000000000000       0.34375000000000000        0.0000000000000000     
   1.2187500000000000       0.34375000000000000        0.0000000000000000     
   1.2500000000000000       0.34375000000000000        0.0000000000000000     
   1.1250000000000000       0.37500000000000000        0.0000000000000000     
   1.1562500000000000       0.37500000000000000        0.0000000000000000     
   1.1875000000000000       0.37500000000000000        0.0000000000000000     
   1.2187500000000000       0.37500000000000000        0.0000000000000000     
   1.2500000000000000       0.37500000000000000        0.0000000000000000     
   1.2500000000000000       0.25000000000000000        0.0000000000000000     
   1.2812500000000000       0.25000000000000000        0.0000000000000000     
   1.3125000000000000       0.25000000000000000        0.0000000000000000     
   1.3437500000000000       0.25000000000000000        0.0000000000000000     
   1.3750000000000000       0.25000000000000000        0.0000000000000000     
   1.2500000000000000       0.28125000000000000        0.0000000000000000     
   1.2812500000000000       0.28125000000000000        0.0000000000000000     
   1.3125000000000000       0.28125000000000000        0.0000000000000000     
   1.3437500000000000       0.28125000000000000        0.0000000000000000     
   1.3750000000000000       0.28125000000000000        0.0000000000000000     
   1.2500000000000000       0.31250000000000000        0.0000000000000000     
   1.2812500000000000       0.31250000000000000        0.0000000000000000     
   1.3125000000000000       0.31250000000000000        0.0000000000000000     
   1.3437500000000000       0.31250000000000000        0.0000000000000000     
   1.3750000000000000       0.31250000000000000        0.0000000000000000     
   1.2500000000000000       0.34375000000000000        0.0000000000000000     
   1.2812500000000000       0.34375000000000000        0.0000000000000000     
   1.3125000000000000       0.34375000000000000        0.0000000000000000     
   1.3437500000000000       0.34375000000000000        0.0000000000000000     
   1.3750000000000000       0.34375000000000000        0.0000000000000000     
   1.2500000000000000       0.37500000000000000        0.0000000000000000     
   1.2812500000000000       0.37500000000000000        0.0000000000000000     
   1.3125000000000000       0.37500000000000000        0.0000000000000000     
   1.3437500000000000       0.37500000000000000        0.0000000000000000     
   1.3750000000000000       0.37500000000000000        0.0000000000000000     
   1.3750000000000000       0.25000000000000000        0.0000000000000000     
   1.4062500000000000       0.25000000000000000        0.0000000000000000     
   1.4375000000000000       0.25000000000000000        0.0000000000000000     
   1.4687500000000000       0.25000000000000000        0.0000000000000000     
   1.5000000000000000       0.25000000000000000        0.0000000000000000     
   1.3750000000000000       0.28125000000000000        0.0000000000000000     
   1.4062500000000000       0.28125000000000000        0.0000000000000000     
   1.4375000000000000       0.28125000000000000        0.0000000000000000     
   1.4687500000000000       0.28125000000000000        0.0000000000000000     
   1.5000000000000000       0.28125000000000000        0.0000000000000000     
   1.3750000000000000       0.31250000000000000        0.0000000000000000     
   1.4062500000000000       0.31250000000000000        0.0000000000000000     
   1.4375000000000000       0.31250000000000000        0.0000000000000000     
   1.4687500000000000       0.31250000000000000        0.0000000000000000     
   1.5000000000000000       0.31250000000000000        0.0000000000000000     
   1.3750000000000000       0.34375000000000000        0.0000000000000000     
   1.4062500000000000       0.34375000000000000        0.0000000000000000     
   1.4375000000000000       0.34375000000000000        0.0000000000000000     
   1.4687500000000000       0.34375000000000000        0.0000000000000000     
   1.5000000000000000       0.34375000000000000        0.0000000000000000     
   1.3750000000000000       0.37500000000000000        0.0000000000000000     
   1.4062500000000000       0.37500000000000000        0.0000000000000000     
   1.4375000000000000       0.37500000000000000        0.0000000000000000     
   1.4687500000000000       0.37500000000000000        0.0000000000000000     
   1.5000000000000000       0.37500000000000000        0.0000000000000000     
  0.50000000000000000       0.37500000000000000        0.0000000000000000     
  0.53125000000000000       0.37500000000000000        0.0000000000000000     
  0.56250000000000000       0.37500000000000000        0.0000000000000000     
  0.59375000000000000       0.37500000000000000        0.0000000000000000     
  0.62500000000000000       0.37500000000000000        0.0000000000000000     
  0.50000000000000000       0.40625000000000000        0.0000000000000000     
  0.53125000000000000       0.40625000000000000        0.0000000000000000     
  0.56250000000000000       0.40625000000000000        0.0000000000000000     
  0.59375000000000000       0.40625000000000000        0.0000000000000000     
  0.62500000000000000       0.40625000000000000        0.0000000000000000     
  0.50000000000000000       0.43750000000000000        0.0000000000000000     
  0.53125000000000000       0.43750000000000000        0.0000000000000000     
  0.56250000000000000       0.43750000000000000        0.0000000000000000     
  0.59375000000000000       0.43750000000000000        0.0000000000000000     
  0.62500000000000000       0.43750000000000000        0.0000000000000000     
  0.50000000000000000       0.46875000000000000        0.0000000000000000     
  0.53125000000000000       0.46875000000000000        0.0000000000000000     
  0.56250000000000000       0.46875000000000000        0.0000000000000000     
  0.59375000000000000       0.46875000000000000        0.0000000000000000     
  0.62500000000000000       0.46875000000000000        0.0000000000000000     
  0.50000000000000000       0.50000000000000000        0.0000000000000000     
  0.53125000000000000       0.50000000000000000        0.0000000000000000     
  0.56250000000000000       0.50000000000000000        0.0000000000000000     
  0.59375000000000000       0.50000000000000000        0.0000000000000000     
  0.62500000000000000       0.50000000000000000        0.0000000000000000     
  0.62500000000000000       0.37500000000000000        0.0000000000000000     
  0.65625000000000000       0.37500000000000000        0.0000000000000000     
  0.68750000000000000       0.37500000000000000        0.0000000000000000     
  0.71875000000000000       0.37500000000000000        0.0000000000000000     
  0.75000000000000000       0.37500000000000000        0.0000000000000000     
  0.62500000000000000       0.40625000000000000        0.0000000000000000     
  0.65625000000000000       0.40625000000000000        0.0000000000000000     
  0.68750000000000000       0.40625000000000000        0.0000000000000000     
  0.71875000000000000       0.40625000000000000        0.0000000000000000     
  0.75000000000000000       0.40625000000000000        0.0000000000000000     
  0.62500000000000000       0.43750000000000000        0.0000000000000000     
  0.65625000000000000       0.43750000000000000        0.0000000000000000     
  0.68750000000000000       0.43750000000000000        0.0000000000000000     
  0.71875000000000000       0.43750000000000000        0.0000000000000000     
  0.75000000000000000       0.43750000000000000        0.0000000000000000     
  0.62500000000000000       0.46875000000000000        0.0000000000000000     
  0.65625000000000000       0.46875000000000000        0.0000000000000000     
  0.68750000000000000       0.46875000000000000        0.0000000000000000     
  0.71875000000000000       0.46875000000000000        0.0000000000000000     
  0.75000000000000000       0.46875000000000000        0.0000000000000000     
  0.62500000000000000       0.50000000000000000        0.0000000000000000     
  0.65625000000000000       0.50000000000000000        0.0000000000000000     
  0.68750000000000000       0.50000000000000000        0.0000000000000000     
  0.71875000000000000       0.50000000000000000        0.0000000000000000     
  0.75000000000000000       0.50000000000000000        0.0000000000000000     
  0.75000000000000000       0.37500000000000000        0.0000000000000000     
  0.78125000000000000       0.37500000000000000        0.0000000000000000     
  0.81250000000000000       0.37500000000000000        0.0000000000000000     
  0.84375000000000000       0.37500000000000000        0.0000000000000000     
  0.87500000000000000       0.37500000000000000        0.0000000000000000     
  0.75000000000000000       0.40625000000000000        0.0000000000000000     
  0.78125000000000000       0.40625000000000000        0.0000000000000000     
  0.81250000000000000       0.40625000000000000        0.0000000000000000     
  0.84375000000000000       0.40625000000000000        0.0000000000000000     
  0.87500000000000000       0.40625000000000000        0.0000000000000000     
  0.75000000000000000       0.43750000000000000        0.0000000000000000     
  0.78125000000000000       0.43750000000000000        0.0000000000000000     
  0.81250000000000000       0.43750000000000000        0.0000000000000000     
  0.84375000000000000       0.43750000000000000        0.0000000000000000     
  0.87500000000000000       0.43750000000000000        0.0000000000000000     
  0.75000000000000000       0.46875000000000000        0.0000000000000000     
  0.78125000000000000       0.46875000000000000        0.0000000000000000     
  0.81250000000000000       0.46875000000000000        0.0000000000000000     
  0.84375000000000000       0.46875000000000000        0.0000000000000000     
  0.87500000000000000       0.46875000000000000        0.0000000000000000     
  0.75000000000000000       0.50000000000000000        0.0000000000000000     
  0.78125000000000000       0.50000000000000000        0.0000000000000000     
  0.81250000000000000       0.50000000000000000        0.0000000000000000     
  0.84375000000000000       0.50000000000000000        0.0000000000000000     
  0.87500000000000000       0.50000000000000000        0.0000000000000000     
  0.87500000000000000       0.37500000000000000        0.0000000000000000     
  0.90625000000000000       0.37500000000000000        0.0000000000000000     
  0.93750000000000000       0.37500000000000000        0.0000000000000000     
  0.96875000000000000       0.37500000000000000        0.0000000000000000     
   1.0000000000000000       0.37500000000000000        0.0000000000000000     
  0.87500000000000000       0.40625000000000000        0.0000000000000000     
  0.90625000000000000       0.40625000000000000        0.0000000000000000     
  0.93750000000000000       0.40625000000000000        0.0000000000000000     
  0.96875000000000000       0.40625000000000000        0.0000000000000000     
   1.0000000000000000       0.40625000000000000        0.0000000000000000     
  0.87500000000000000       0.43750000000000000        0.0000000000000000     
  0.90625000000000000       0.43750000000000000        0.0000000000000000     
  0.93750000000000000       0.43750000000000000        0.0000000000000000     
  0.96875000000000000       0.43750000000000000        0.0000000000000000     
   1.0000000000000000       0.43750000000000000        0.0000000000000000     
  0.87500000000000000       0.46875000000000000        0.0000000000000000     
  0.90625000000000000       0.46875000000000000        0.0000000000000000     
  0.93750000000000000       0.46875000000000000        0.0000000000000000     
  0.96875000000000000       0.46875000000000000        0.0000000000000000     
   1.0000000000000000       0.46875000000000000        0.0000000000000000     
  0.87500000000000000       0.50000000000000000        0.0000000000000000     
  0.90625000000000000       0.50000000000000000        0.0000000000000000     
  0.93750000000000000       0.50000000000000000        0.0000000000000000     
  0.96875000000000000       0.50000000000000000        0.0000000000000000     
   1.0000000000000000       0.50000000000000000        0.0000000000000000     
   1.0000000000000000       0.37500000000000000        0.0000000000000000     
   1.0312500000000000       0.37500000000000000        0.0000000000000000     
   1.0625000000000000       0.37500000000000000        0.0000000000000000     
   1.0937500000000000       0.37500000000000000        0.0000000000000000     
   1.1250000000000000       0.37500000000000000        0.0000000000000000     
   1.0000000000000000       0.40625000000000000        0.0000000000000000     
   1.0312500000000000       0.40625000000000000        0.0000000000000000     
   1.0625000000000000       0.40625000000000000        0.0000000000000000     
   1.0937500000000000       0.40625000000000000        0.0000000000000000     
   1.1250000000000000       0.40625000000000000        0.0000000000000000     
   1.0000000000000000       0.43750000000000000        0.0000000000000000     
   1.0312500000000000       0.43750000000000000        0.0000000000000000     
   1.0625000000000000       0.43750000000000000        0.0000000000000000     
   1.0937500000000000       0.43750000000000000        0.0000000000000000     
   1.1250000000000000       0.43750000000000000        0.0000000000000000     
   1.0000000000000000       0.46875000000000000        0.0000000000000000     
   1.0312500000000000       0.46875000000000000        0.0000000000000000     
   1.0625000000000000       0.46875000000000000        0.0000000000000000     
   1.0937500000000000       0.46875000000000000        0.0000000000000000     
   1.1250000000000000       0.46875000000000000        0.0000000000000000     
   1.0000000000000000       0.50000000000000000        0.0000000000000000     
   1.0312500000000000       0.50000000000000000        0.0000000000000000     
   1.0625000000000000       0.50000000000000000        0.0000000000000000     
   1.0937500000000000       0.50000000000000000        0.0000000000000000     
   1.1250000000000000       0.50000000000000000        0.0000000000000000     
   1.1250000000000000       0.37500000000000000        0.0000000000000000     
   1.1562500000000000       0.37500000000000000        0.0000000000000000     
   1.1875000000000000       0.37500000000000000        0.0000000000000000     
   1.2187500000000000       0.37500000000000000        0.0000000000000000     
   1.2500000000000000       0.37500000000000000        0.0000000000000000     
   1.1250000000000000       0.40625000000000000        0.0000000000000000     
   1.1562500000000000       0.40625000000000000        0.0000000000000000     
   1.1875000000000000       0.40625000000000000        0.0000000000000000     
   1.2187500000000000       0.40625000000000000        0.0000000000000000     
   1.2500000000000000       0.40625000000000000        0.0000000000000000     
   1.1250000000000000       0.43750000000000000        0.0000000000000000     
   1.1562500000000000       0.43750000000000000        0.0000000000000000     
   1.1875000000000000       0.43750000000000000        0.0000000000000000     
   1.2187500000000000       0.43750000000000000        0.0000000000000000     
   1.2500000000000000       0.43750000000000000        0.0000000000000000     
   1.1250000000000000       0.46875000000000000        0.0000000000000000     
   1.1562500000000000       0.46875000000000000        0.0000000000000000     
   1.1875000000000000       0.46875000000000000        0.0000000000000000     
   1.2187500000000000       0.46875000000000000        0.0000000000000000     
   1.2500000000000000       0.46875000000000000        0.0000000000000000     
   1.1250000000000000       0.50000000000000000        0.0000000000000000     
   1.1562500000000000       0.50000000000000000        0.0000000000000000     
   1.1875000000000000       0.50000000000000000        0.0000000000000000     
   1.2187500000000000       0.50000000000000000        0.0000000000000000     
   1.2500000000000000       0.50000000000000000        0.0000000000000000     
   1.2500000000000000       0.37500000000000000        0.0000000000000000     
   1.2812500000000000       0.37500000000000000        0.0000000000000000     
   1.3125000000000000       0.37500000000000000        0.0000000000000000     
   1.3437500000000000       0.37500000000000000        0.0000000000000000     
   1.3750000000000000       0.37500000000000000        0.0000000000000000     
   1.2500000000000000       0.40625000000000000        0.0000000000000000     
   1.2812500000000000       0.40625000000000000        0.0000000000000000     
   1.3125000000000000       0.40625000000000000        0.0000000000000000     
   1.3437500000000000       0.40625000000000000        0.0000000000000000     
   1.3750000000000000       0.40625000000000000        0.0000000000000000     
   1.2500000000000000       0.43750000000000000        0.0000000000000000     
   1.2812500000000000       0.43750000000000000        0.0000000000000000     
   1.3125000000000000       0.43750000000000000        0.0000000000000000     
   1.3437500000000000       0.43750000000000000        0.0000000000000000     
   1.3750000000000000       0.43750000000000000        0.0000000000000000     
   1.2500000000000000       0.46875000000000000        0.0000000000000000     
   1.2812500000000000       0.46875000000000000        0.0000000000000000     
   1.3125000000000000       0.46875000000000000        0.0000000000000000     
   1.3437500000000000       0.46875000000000000        0.0000000000000000     
   1.3750000000000000       0.46875000000000000        0.0000000000000000     
   1.2500000000000000       0.50000000000000000        0.0000000000000000     
   1.2812500000000000       0.50000000000000000        0.0000000000000000     
   1.3125000000000000       0.50000000000000000        0.0000000000000000     
   1.3437500000000000       0.50000000000000000        0.0000000000000000     
   1.3750000000000000       0.50000000000000000        0.0000000000000000     
   1.3750000000000000       0.37500000000000000        0.0000000000000000     
   1.4062500000000000       0.37500000000000000        0.0000000000000000     
   1.4375000000000000       0.37500000000000000        0.0000000000000000     
   1.4687500000000000       0.37500000000000000        0.0000000000000000     
   1.5000000000000000       0.37500000000000000        0.0000000000000000     
   1.3750000000000000       0.40625000000000000        0.0000000000000000     
   1.4062500000000000       0.40625000000000000        0.0000000000000000     
   1.4375000000000000       0.40625000000000000        0.0000000000000000     
   1.4687500000000000       0.40625000000000000        0.0000000000000000     
   1.5000000000000000       0.40625000000000000        0.0000000000000000     
   1.3750000000000000       0.43750000000000000        0.0000000000000000     
   1.4062500000000000       0.43750000000000000        0.0000000000000000     
   1.4375000000000000       0.43750000000000000        0.0000000000000000     
   1.4687500000000000       0.43750000000000000        0.0000000000000000     
   1.5000000000000000       0.43750000000000000        0.0000000000000000     
   1.3750000000000000       0.46875000000000000        0.0000000000000000     
   1.4062500000000000       0.46875000000000000        0.0000000000000000     
   1.4375000000000000       0.46875000000000000        0.0000000000000000     
   1.4687500000000000       0.46875000000000000        0.0000000000000000     
   1.5000000000000000       0.46875000000000000        0.0000000000000000     
   1.3750000000000000       0.50000000000000000        0.0000000000000000     
   1.4062500000000000       0.50000000000000000        0.0000000000000000     
   1.4375000000000000       0.50000000000000000        0.0000000000000000     
   1.4687500000000000       0.50000000000000000        0.0000000000000000     
   1.5000000000000000       0.50000000000000000        0.0000000000000000     
  0.50000000000000000       0.50000000000000000        0.0000000000000000     
  0.53125000000000000       0.50000000000000000        0.0000000000000000     
  0.56250000000000000       0.50000000000000000        0.0000000000000000     
  0.59375000000000000       0.50000000000000000        0.0000000000000000     
  0.62500000000000000       0.50000000000000000        0.0000000000000000     
  0.50000000000000000       0.53125000000000000        0.0000000000000000     
  0.53125000000000000       0.53125000000000000        0.0000000000000000     
  0.56250000000000000       0.53125000000000000        0.0000000000000000     
  0.59375000000000000       0.53125000000000000        0.0000000000000000     
  0.62500000000000000       0.53125000000000000        0.0000000000000000     
  0.50000000000000000       0.56250000000000000        0.0000000000000000     
  0.53125000000000000       0.56250000000000000        0.0000000000000000     
  0.56250000000000000       0.56250000000000000        0.0000000000000000     
  0.59375000000000000       0.56250000000000000        0.0000000000000000     
  0.62500000000000000       0.56250000000000000        0.0000000000000000     
  0.50000000000000000       0.59375000000000000        0.0000000000000000     
  0.53125000000000000       0.59375000000000000        0.0000000000000000     
  0.56250000000000000       0.59375000000000000        0.0000000000000000     
  0.59375000000000000       0.59375000000000000        0.0000000000000000     
  0.62500000000000000       0.59375000000000000        0.0000000000000000     
  0.50000000000000000       0.62500000000000000        0.0000000000000000     
  0.53125000000000000       0.62500000000000000        0.0000000000000000     
  0.56250000000000000       0.62500000000000000        0.0000000000000000     
  0.59375000000000000       0.62500000000000000        0.0000000000000000     
  0.62500000000000000       0.62500000000000000        0.0000000000000000     
  0.62500000000000000       0.50000000000000000        0.0000000000000000     
  0.65625000000000000       0.50000000000000000        0.0000000000000000     
  0.68750000000000000       0.50000000000000000        0.0000000000000000     
  0.71875000000000000       0.50000000000000000        0.0000000000000000     
  0.75000000000000000       0.50000000000000000        0.0000000000000000     
  0.62500000000000000       0.53125000000000000        0.0000000000000000     
  0.65625000000000000       0.53125000000000000        0.0000000000000000     
  0.68750000000000000       0.53125000000000000        0.0000000000000000     
  0.71875000000000000       0.53125000000000000        0.0000000000000000     
  0.75000000000000000       0.53125000000000000        0.0000000000000000     
  0.62500000000000000       0.56250000000000000        0.0000000000000000     
  0.65625000000000000       0.56250000000000000        0.0000000000000000     
  0.68750000000000000       0.56250000000000000        0.0000000000000000     
  0.71875000000000000       0.56250000000000000        0.0000000000000000     
  0.75000000000000000       0.56250000000000000        0.0000000000000000     
  0.62500000000000000       0.59375000000000000        0.0000000000000000     
  0.65625000000000000       0.59375000000000000        0.0000000000000000     
  0.68750000000000000       0.59375000000000000        0.0000000000000000     
  0.71875000000000000       0.59375000000000000        0.0000000000000000     
  0.75000000000000000       0.59375000000000000        0.0000000000000000     
  0.62500000000000000       0.62500000000000000        0.0000000000000000     
  0.65625000000000000       0.62500000000000000        0.0000000000000000     
  0.68750000000000000       0.62500000000000000        0.0000000000000000     
  0.71875000000000000       0.62500000000000000        0.0000000000000000     
  0.75000000000000000       0.62500000000000000        0.0000000000000000     
  0.75000000000000000       0.50000000000000000        0.0000000000000000     
  0.78125000000000000       0.50000000000000000        0.0000000000000000     
  0.81250000000000000       0.50000000000000000        0.0000000000000000     
  0.84375000000000000       0.50000000000000000        0.0000000000000000     
  0.87500000000000000       0.50000000000000000        0.0000000000000000     
  0.75000000000000000       0.53125000000000000        0.0000000000000000     
  0.78125000000000000       0.53125000000000000        0.0000000000000000     
  0.81250000000000000       0.53125000000000000        0.0000000000000000     
  0.84375000000000000       0.53125000000000000        0.0000000000000000     
  0.87500000000000000       0.53125000000000000        0.0000000000000000     
  0.75000000000000000       0.56250000000000000        0.0000000000000000     
  0.78125000000000000       0.56250000000000000        0.0000000000000000     
  0.81250000000000000       0.56250000000000000        0.0000000000000000     
  0.84375000000000000       0.56250000000000000        0.0000000000000000     
  0.87500000000000000       0.56250000000000000        0.0000000000000000     
  0.75000000000000000       0.59375000000000000        0.0000000000000000     
  0.78125000000000000       0.59375000000000000        0.0000000000000000     
  0.81250000000000000       0.59375000000000000        0.0000000000000000     
  0.84375000000000000       0.59375000000000000        0.0000000000000000     
  0.87500000000000000       0.59375000000000000        0.0000000000000000     
  0.75000000000000000       0.62500000000000000        0.0000000000000000     
  0.78125000000000000       0.62500000000000000        0.0000000000000000     
  0.81250000000000000       0.62500000000000000        0.0000000000000000     
  0.84375000000000000       0.62500000000000000        0.0000000000000000     
  0.87500000000000000       0.62500000000000000        0.0000000000000000     
  0.87500000000000000       0.50000000000000000        0.0000000000000000     
  0.90625000000000000       0.50000000000000000        0.0000000000000000     
  0.93750000000000000       0.50000000000000000        0.0000000000000000     
  0.96875000000000000       0.50000000000000000        0.0000000000000000     
   1.0000000000000000       0.50000000000000000        0.0000000000000000     
  0.87500000000000000       0.53125000000000000        0.0000000000000000     
  0.90625000000000000       0.53125000000000000        0.0000000000000000     
  0.93750000000000000       0.53125000000000000        0.0000000000000000     
  0.96875000000000000       0.53125000000000000        0.0000000000000000     
   1.0000000000000000       0.53125000000000000        0.0000000000000000     
  0.87500000000000000       0.56250000000000000        0.0000000000000000     
  0.90625000000000000       0.56250000000000000        0.0000000000000000     
  0.93750000000000000       0.56250000000000000        0.0000000000000000     
  0.96875000000000000       0.56250000000000000        0.0000000000000000     
   1.0000000000000000       0.56250000000000000        0.0000000000000000     
  0.87500000000000000       0.59375000000000000        0.0000000000000000     
  0.90625000000000000       0.59375000000000000        0.0000000000000000     
  0.93750000000000000       0.59375000000000000        0.0000000000000000     
  0.96875000000000000       0.59375000000000000        0.0000000000000000     
   1.0000000000000000       0.59375000000000000        0.0000000000000000     
  0.87500000000000000       0.62500000000000000        0.0000000000000000     
  0.90625000000000000       0.62500000000000000        0.0000000000000000     
  0.93750000000000000       0.62500000000000000        0.0000000000000000     
  0.96875000000000000       0.62500000000000000        0.0000000000000000     
   1.0000000000000000       0.62500000000000000        0.0000000000000000     
   1.0000000000000000       0.50000000000000000        0.0000000000000000     
   1.0312500000000000       0.50000000000000000        0.0000000000000000     
   1.0625000000000000       0.50000000000000000        0.0000000000000000     
   1.0937500000000000       0.50000000000000000        0.0000000000000000     
   1.1250000000000000       0.50000000000000000        0.0000000000000000     
   1.0000000000000000       0.53125000000000000        0.0000000000000000     
   1.0312500000000000       0.53125000000000000        0.0000000000000000     
   1.0625000000000000       0.53125000000000000        0.0000000000000000     
   1.0937500000000000       0.53125000000000000        0.0000000000000000     
   1.1250000000000000       0.53125000000000000        0.0000000000000000     
   1.0000000000000000       0.56250000000000000        0.0000000000000000     
   1.0312500000000000       0.56250000000000000        0.0000000000000000     
   1.0625000000000000       0.56250000000000000        0.0000000000000000     
   1.0937500000000000       0.56250000000000000        0.0000000000000000     
   1.1250000000000000       0.56250000000000000        0.0000000000000000     
   1.0000000000000000       0.59375000000000000        0.0000000000000000     
   1.0312500000000000       0.59375000000000000        0.0000000000000000     
   1.0625000000000000       0.59375000000000000        0.0000000000000000     
   1.0937500000000000       0.59375000000000000        0.0000000000000000     
   1.1250000000000000       0.59375000000000000        0.0000000000000000     
   1.0000000000000000       0.62500000000000000        0.0000000000000000     
   1.0312500000000000       0.62500000000000000        0.0000000000000000     
   1.0625000000000000       0.62500000000000000        0.0000000000000000     
   1.0937500000000000       0.62500000000000000        0.0000000000000000     
   1.1250000000000000       0.62500000000000000        0.0000000000000000     
   1.1250000000000000       0.50000000000000000        0.0000000000000000     
   1.1562500000000000       0.50000000000000000        0.0000000000000000     
   1.1875000000000000       0.50000000000000000        0.0000000000000000     
   1.2187500000000000       0.50000000000000000        0.0000000000000000     
   1.2500000000000000       0.50000000000000000        0.0000000000000000     
   1.1250000000000000       0.53125000000000000        0.0000000000000000     
   1.1562500000000000       0.53125000000000000        0.0000000000000000     
   1.1875000000000000       0.53125000000000000        0.0000000000000000     
   1.2187500000000000       0.53125000000000000        0.0000000000000000     
   1.2500000000000000       0.53125000000000000        0.0000000000000000     
   1.1250000000000000       0.56250000000000000        0.0000000000000000     
   1.1562500000000000       0.56250000000000000        0.0000000000000000     
   1.1875000000000000       0.56250000000000000        0.0000000000000000     
   1.2187500000000000       0.56250000000000000        0.0000000000000000     
   1.2500000000000000       0.56250000000000000        0.0000000000000000     
   1.1250000000000000       0.59375000000000000        0.0000000000000000     
   1.1562500000000000       0.59375000000000000        0.0000000000000000     
   1.1875000000000000       0.59375000000000000        0.0000000000000000     
   1.2187500000000000       0.59375000000000000        0.0000000000000000     
   1.2500000000000000       0.59375000000000000        0.0000000000000000     
   1.1250000000000000       0.62500000000000000        0.0000000000000000     
   1.1562500000000000       0.62500000000000000        0.0000000000000000     
   1.1875000000000000       0.62500000000000000        0.0000000000000000     
   1.2187500000000000       0.62500000000000000        0.0000000000000000     
   1.2500000000000000       0.62500000000000000        0.0000000000000000     
   1.2500000000000000       0.50000000000000000        0.0000000000000000     
   1.2812500000000000       0.50000000000000000        0.0000000000000000     
   1.3125000000000000       0.50000000000000000        0.0000000000000000     
   1.3437500000000000       0.50000000000000000        0.0000000000000000     
   1.3750000000000000       0.50000000000000000        0.0000000000000000     
   1.2500000000000000       0.53125000000000000        0.0000000000000000     
   1.2812500000000000       0.53125000000000000        0.0000000000000000     
   1.3125000000000000       0.53125000000000000        0.0000000000000000     
   1.3437500000000000       0.53125000000000000        0.0000000000000000     
   1.3750000000000000       0.53125000000000000        0.0000000000000000     
   1.2500000000000000       0.56250000000000000        0.0000000000000000     
   1.2812500000000000       0.56250000000000000        0.0000000000000000     
   1.3125000000000000       0.56250000000000000        0.0000000000000000     
   1.3437500000000000       0.56250000000000000        0.0000000000000000     
   1.3750000000000000       0.56250000000000000        0.0000000000000000     
   1.2500000000000000       0.59375000000000000        0.0000000000000000     
   1.2812500000000000       0.59375000000000000        0.0000000000000000     
   1.3125000000000000       0.59375000000000000        0.0000000000000000     
   1.3437500000000000       0.59375000000000000        0.0000000000000000     
   1.3750000000000000       0.59375000000000000        0.0000000000000000     
   1.2500000000000000       0.62500000000000000        0.0000000000000000     
   1.2812500000000000       0.62500000000000000        0.0000000000000000     
   1.3125000000000000       0.62500000000000000        0.0000000000000000     
   1.3437500000000000       0.62500000000000000        0.0000000000000000     
   1.3750000000000000       0.62500000000000000        0.0000000000000000     
   1.3750000000000000       0.50000000000000000        0.0000000000000000     
   1.4062500000000000       0.50000000000000000        0.0000000000000000     
   1.4375000000000000       0.50000000000000000        0.0000000000000000     
   1.4687500000000000       0.50000000000000000        0.0000000000000000     
   1.5000000000000000       0.50000000000000000        0.0000000000000000     
   1.3750000000000000       0.53125000000000000        0.0000000000000000     
   1.4062500000000000       0.53125000000000000        0.0000000000000000     
   1.4375000000000000       0.53125000000000000        0.0000000000000000     
   1.4687500000000000       0.53125000000000000        0.0000000000000000     
   1.5000000000000000       0.53125000000000000        0.0000000000000000     
   1.3750000000000000       0.56250000000000000        0.0000000000000000     
   1.4062500000000000       0.56250000000000000        0.0000000000000000     
   1.4375000000000000       0.56250000000000000        0.0000000000000000     
   1.4687500000000000       0.56250000000000000        0.0000000000000000     
   1.5000000000000000       0.56250000000000000        0.0000000000000000     
   1.3750000000000000       0.59375000000000000        0.0000000000000000     
   1.4062500000000000       0.59375000000000000        0.0000000000000000     
   1.4375000000000000       0.59375000000000000        0.0000000000000000     
   1.4687500000000000       0.59375000000000000        0.0000000000000000     
   1.5000000000000000       0.59375000000000000        0.0000000000000000     
   1.3750000000000000       0.62500000000000000        0.0000000000000000     
   1.4062500000000000       0.62500000000000000        0.0000000000000000     
   1.4375000000000000       0.62500000000000000        0.0000000000000000     
   1.4687500000000000       0.62500000000000000        0.0000000000000000     
   1.5000000000000000       0.62500000000000000        0.0000000000000000     
  0.50000000000000000       0.62500000000000000        0.0000000000000000     
  0.53125000000000000       0.62500000000000000        0.0000000000000000     
  0.56250000000000000       0.62500000000000000        0.0000000000000000     
  0.59375000000000000       0.62500000000000000        0.0000000000000000     
  0.62500000000000000       0.62500000000000000        0.0000000000000000     
  0.50000000000000000       0.65625000000000000        0.0000000000000000     
  0.53125000000000000       0.65625000000000000        0.0000000000000000     
  0.56250000000000000       0.65625000000000000        0.0000000000000000     
  0.59375000000000000       0.65625000000000000        0.0000000000000000     
  0.62500000000000000       0.65625000000000000        0.0000000000000000     
  0.50000000000000000       0.68750000000000000        0.0000000000000000     
  0.53125000000000000       0.68750000000000000        0.0000000000000000     
  0.56250000000000000       0.68750000000000000        0.0000000000000000     
  0.59375000000000000       0.68750000000000000        0.0000000000000000     
  0.62500000000000000       0.68750000000000000        0.0000000000000000     
  0.50000000000000000       0.71875000000000000        0.0000000000000000     
  0.53125000000000000       0.71875000000000000        0.0000000000000000     
  0.56250000000000000       0.71875000000000000        0.0000000000000000     
  0.59375000000000000       0.71875000000000000        0.0000000000000000     
  0.62500000000000000       0.71875000000000000        0.0000000000000000     
  0.50000000000000000       0.75000000000000000        0.0000000000000000     
  0.53125000000000000       0.75000000000000000        0.0000000000000000     
  0.56250000000000000       0.75000000000000000        0.0000000000000000     
  0.59375000000000000       0.75000000000000000        0.0000000000000000     
  0.62500000000000000       0.75000000000000000        0.0000000000000000     
  0.62500000000000000       0.62500000000000000        0.0000000000000000     
  0.65625000000000000       0.62500000000000000        0.0000000000000000     
  0.68750000000000000       0.62500000000000000        0.0000000000000000     
  0.71875000000000000       0.62500000000000000        0.0000000000000000     
  0.75000000000000000       0.62500000000000000        0.0000000000000000     
  0.62500000000000000       0.65625000000000000        0.0000000000000000     
  0.65625000000000000       0.65625000000000000        0.0000000000000000     
  0.68750000000000000       0.65625000000000000        0.0000000000000000     
  0.71875000000000000       0.65625000000000000        0.0000000000000000     
  0.75000000000000000       0.65625000000000000        0.0000000000000000     
  0.62500000000000000       0.68750000000000000        0.0000000000000000     
  0.65625000000000000       0.68750000000000000        0.0000000000000000     
  0.68750000000000000       0.68750000000000000        0.0000000000000000     
  0.71875000000000000       0.68750000000000000        0.0000000000000000     
  0.75000000000000000       0.68750000000000000        0.0000000000000000     
  0.62500000000000000       0.71875000000000000        0.0000000000000000     
  0.65625000000000000       0.71875000000000000        0.0000000000000000     
  0.68750000000000000       0.71875000000000000        0.0000000000000000     
  0.71875000000000000       0.71875000000000000        0.0000000000000000     
  0.75000000000000000       0.71875000000000000        0.0000000000000000     
  0.62500000000000000       0.75000000000000000        0.0000000000000000     
  0.65625000000000000       0.75000000000000000        0.0000000000000000     
  0.68750000000000000       0.75000000000000000        0.0000000000000000     
  0.71875000000000000       0.75000000000000000        0.0000000000000000     
  0.75000000000000000       0.75000000000000000        0.0000000000000000     
  0.75000000000000000       0.62500000000000000        0.0000000000000000     
  0.78125000000000000       0.62500000000000000        0.0000000000000000     
  0.81250000000000000       0.62500000000000000        0.0000000000000000     
  0.84375000000000000       0.62500000000000000        0.0000000000000000     
  0.87500000000000000       0.62500000000000000        0.0000000000000000     
  0.75000000000000000       0.65625000000000000        0.0000000000000000     
  0.78125000000000000       0.65625000000000000        0.0000000000000000     
  0.81250000000000000       0.65625000000000000        0.0000000000000000     
  0.84375000000000000       0.65625000000000000        0.0000000000000000     
  0.87500000000000000       0.65625000000000000        0.0000000000000000     
  0.75000000000000000       0.68750000000000000        0.0000000000000000     
  0.78125000000000000       0.68750000000000000        0.0000000000000000     
  0.81250000000000000       0.68750000000000000        0.0000000000000000     
  0.84375000000000000       0.68750000000000000        0.0000000000000000     
  0.87500000000000000       0.68750000000000000        0.0000000000000000     
  0.75000000000000000       0.71875000000000000        0.0000000000000000     
  0.78125000000000000       0.71875000000000000        0.0000000000000000     
  0.81250000000000000       0.71875000000000000        0.0000000000000000     
  0.84375000000000000       0.71875000000000000        0.0000000000000000     
  0.87500000000000000       0.71875000000000000        0.0000000000000000     
  0.75000000000000000       0.75000000000000000        0.0000000000000000     
  0.78125000000000000       0.75000000000000000        0.0000000000000000     
  0.81250000000000000       0.75000000000000000        0.0000000000000000     
  0.84375000000000000       0.75000000000000000        0.0000000000000000     
  0.87500000000000000       0.75000000000000000        0.0000000000000000     
  0.87500000000000000       0.62500000000000000        0.0000000000000000     
  0.90625000000000000       0.62500000000000000        0.0000000000000000     
  0.93750000000000000       0.62500000000000000        0.0000000000000000     
  0.96875000000000000       0.62500000000000000        0.0000000000000000     
   1.0000000000000000       0.62500000000000000        0.0000000000000000     
  0.87500000000000000       0.65625000000000000        0.0000000000000000     
  0.90625000000000000       0.65625000000000000        0.0000000000000000     
  0.93750000000000000       0.65625000000000000        0.0000000000000000     
  0.96875000000000000       0.65625000000000000        0.0000000000000000     
   1.0000000000000000       0.65625000000000000        0.0000000000000000     
  0.87500000000000000       0.68750000000000000        0.0000000000000000     
  0.90625000000000000       0.68750000000000000        0.0000000000000000     
  0.93750000000000000       0.68750000000000000        0.0000000000000000     
  0.96875000000000000       0.68750000000000000        0.0000000000000000     
   1.0000000000000000       0.68750000000000000        0.0000000000000000     
  0.87500000000000000       0.71875000000000000        0.0000000000000000     
  0.90625000000000000       0.71875000000000000        0.0000000000000000     
  0.93750000000000000       0.71875000000000000        0.0000000000000000     
  0.96875000000000000       0.71875000000000000        0.0000000000000000     
   1.0000000000000000       0.71875000000000000        0.0000000000000000     
  0.87500000000000000       0.75000000000000000        0.0000000000000000     
  0.90625000000000000       0.75000000000000000        0.0000000000000000     
  0.93750000000000000       0.75000000000000000        0.0000000000000000     
  0.96875000000000000       0.75000000000000000        0.0000000000000000     
   1.0000000000000000       0.75000000000000000        0.0000000000000000     
   1.0000000000000000       0.62500000000000000        0.0000000000000000     
   1.0312500000000000       0.62500000000000000        0.0000000000000000     
   1.0625000000000000       0.62500000000000000        0.0000000000000000     
   1.0937500000000000       0.62500000000000000        0.0000000000000000     
   1.1250000000000000       0.62500000000000000        0.0000000000000000     
   1.0000000000000000       0.65625000000000000        0.0000000000000000     
   1.0312500000000000       0.65625000000000000        0.0000000000000000     
   1.0625000000000000       0.65625000000000000        0.0000000000000000     
   1.0937500000000000       0.65625000000000000        0.0000000000000000     
   1.1250000000000000       0.65625000000000000        0.0000000000000000     
   1.0000000000000000       0.68750000000000000        0.0000000000000000     
   1.0312500000000000       0.68750000000000000        0.0000000000000000     
   1.0625000000000000       0.68750000000000000        0.0000000000000000     
   1.0937500000000000       0.68750000000000000        0.0000000000000000     
   1.1250000000000000       0.68750000000000000        0.0000000000000000     
   1.0000000000000000       0.71875000000000000        0.0000000000000000     
   1.0312500000000000       0.71875000000000000        0.0000000000000000     
   1.0625000000000000       0.71875000000000000        0.0000000000000000     
   1.0937500000000000       0.71875000000000000        0.0000000000000000     
   1.1250000000000000       0.71875000000000000        0.0000000000000000     
   1.0000000000000000       0.75000000000000000        0.0000000000000000     
   1.0312500000000000       0.75000000000000000        0.0000000000000000     
   1.0625000000000000       0.75000000000000000        0.0000000000000000     
   1.0937500000000000       0.75000000000000000        0.0000000000000000     
   1.1250000000000000       0.75000000000000000        0.0000000000000000     
   1.1250000000000000       0.62500000000000000        0.0000000000000000     
   1.1562500000000000       0.62500000000000000        0.0000000000000000     
   1.1875000000000000       0.62500000000000000        0.0000000000000000     
   1.2187500000000000       0.62500000000000000        0.0000000000000000     
   1.2500000000000000       0.62500000000000000        0.0000000000000000     
   1.1250000000000000       0.65625000000000000        0.0000000000000000     
   1.1562500000000000       0.65625000000000000        0.0000000000000000     
   1.1875000000000000       0.65625000000000000        0.0000000000000000     
   1.2187500000000000       0.65625000000000000        0.0000000000000000     
   1.2500000000000000       0.65625000000000000        0.0000000000000000     
   1.1250000000000000       0.68750000000000000        0.0000000000000000     
   1.1562500000000000       0.68750000000000000        0.0000000000000000     
   1.1875000000000000       0.68750000000000000        0.0000000000000000     
   1.2187500000000000       0.68750000000000000        0.0000000000000000     
   1.2500000000000000       0.68750000000000000        0.0000000000000000     
   1.1250000000000000       0.71875000000000000        0.0000000000000000     
   1.1562500000000000       0.71875000000000000        0.0000000000000000     
   1.1875000000000000       0.71875000000000000        0.0000000000000000     
   1.2187500000000000       0.71875000000000000        0.0000000000000000     
   1.2500000000000000       0.71875000000000000        0.0000000000000000     
   1.1250000000000000       0.75000000000000000        0.0000000000000000     
   1.1562500000000000       0.75000000000000000        0.0000000000000000     
   1.1875000000000000       0.75000000000000000        0.0000000000000000     
   1.2187500000000000       0.75000000000000000        0.0000000000000000     
   1.2500000000000000       0.75000000000000000        0.0000000000000000     
   1.2500000000000000       0.62500000000000000        0.0000000000000000     
   1.2812500000000000       0.62500000000000000        0.0000000000000000     
   1.3125000000000000       0.62500000000000000        0.0000000000000000     
   1.3437500000000000       0.62500000000000000        0.0000000000000000     
   1.3750000000000000       0.62500000000000000        0.0000000000000000     
   1.2500000000000000       0.65625000000000000        0.0000000000000000     
   1.2812500000000000       0.65625000000000000        0.0000000000000000     
   1.3125000000000000       0.65625000000000000        0.0000000000000000     
   1.3437500000000000       0.65625000000000000        0.0000000000000000     
   1.3750000000000000       0.65625000000000000        0.0000000000000000     
   1.2500000000000000       0.68750000000000000        0.0000000000000000     
   1.2812500000000000       0.68750000000000000        0.0000000000000000     
   1.3125000000000000       0.68750000000000000        0.0000000000000000     
   1.3437500000000000       0.68750000000000000        0.0000000000000000     
   1.3750000000000000       0.68750000000000000        0.0000000000000000     
   1.2500000000000000       0.71875000000000000        0.0000000000000000     
   1.2812500000000000       0.71875000000000000        0.0000000000000000     
   1.3125000000000000       0.71875000000000000        0.0000000000000000     
   1.3437500000000000       0.71875000000000000        0.0000000000000000     
   1.3750000000000000       0.71875000000000000        0.0000000000000000     
   1.2500000000000000       0.75000000000000000        0.0000000000000000     
   1.2812500000000000       0.75000000000000000        0.0000000000000000     
   1.3125000000000000       0.75000000000000000        0.0000000000000000     
   1.3437500000000000       0.75000000000000000        0.0000000000000000     
   1.3750000000000000       0.75000000000000000        0.0000000000000000     
   1.3750000000000000       0.62500000000000000        0.0000000000000000     
   1.4062500000000000       0.62500000000000000        0.0000000000000000     
   1.4375000000000000       0.62500000000000000        0.0000000000000000     
   1.4687500000000000       0.62500000000000000        0.0000000000000000     
   1.5000000000000000       0.62500000000000000        0.0000000000000000     
   1.3750000000000000       0.65625000000000000        0.0000000000000000     
   1.4062500000000000       0.65625000000000000        0.0000000000000000     
   1.4375000000000000       0.65625000000000000        0.0000000000000000     
   1.4687500000000000       0.65625000000000000        0.0000000000000000     
   1.5000000000000000       0.65625000000000000        0.0000000000000000     
   1.3750000000000000       0.68750000000000000        0.0000000000000000     
   1.4062500000000000       0.68750000000000000        0.0000000000000000     
   1.4375000000000000       0.68750000000000000        0.0000000000000000     
   1.4687500000000000       0.68750000000000000        0.0000000000000000     
   1.5000000000000000       0.68750000000000000        0.0000000000000000     
   1.3750000000000000       0.71875000000000000        0.0000000000000000     
   1.4062500000000000       0.71875000000000000        0.0000000000000000     
   1.4375000000000000       0.71875000000000000        0.0000000000000000     
   1.4687500000000000       0.71875000000000000        0.0000000000000000     
   1.5000000000000000       0.71875000000000000        0.0000000000000000     
   1.3750000000000000       0.75000000000000000        0.0000000000000000     
   1.4062500000000000       0.75000000000000000        0.0000000000000000     
   1.4375000000000000       0.75000000000000000        0.0000000000000000     
   1.4687500000000000       0.75000000000000000        0.0000000000000000     
   1.5000000000000000       0.75000000000000000        0.0000000000000000     
  0.50000000000000000       0.75000000000000000        0.0000000000000000     
  0.53125000000000000       0.75000000000000000        0.0000000000000000     
  0.56250000000000000       0.75000000000000000        0.0000000000000000     
  0.59375000000000000       0.75000000000000000        0.0000000000000000     
  0.62500000000000000       0.75000000000000000        0.0000000000000000     
  0.50000000000000000       0.78125000000000000        0.0000000000000000     
  0.53125000000000000       0.78125000000000000        0.0000000000000000     
  0.56250000000000000       0.78125000000000000        0.0000000000000000     
  0.59375000000000000       0.78125000000000000        0.0000000000000000     
  0.62500000000000000       0.78125000000000000        0.0000000000000000     
  0.50000000000000000       0.81250000000000000        0.0000000000000000     
  0.53125000000000000       0.81250000000000000        0.0000000000000000     
  0.56250000000000000       0.81250000000000000        0.0000000000000000     
  0.59375000000000000       0.81250000000000000        0.0000000000000000     
  0.62500000000000000       0.81250000000000000        0.0000000000000000     
  0.50000000000000000       0.84375000000000000        0.0000000000000000     
  0.53125000000000000       0.84375000000000000        0.0000000000000000     
  0.56250000000000000       0.84375000000000000        0.0000000000000000     
  0.59375000000000000       0.84375000000000000        0.0000000000000000     
  0.62500000000000000       0.84375000000000000        0.0000000000000000     
  0.50000000000000000       0.87500000000000000        0.0000000000000000     
  0.53125000000000000       0.87500000000000000        0.0000000000000000     
  0.56250000000000000       0.87500000000000000        0.0000000000000000     
  0.59375000000000000       0.87500000000000000        0.0000000000000000     
  0.62500000000000000       0.87500000000000000        0.0000000000000000     
  0.62500000000000000       0.75000000000000000        0.0000000000000000     
  0.65625000000000000       0.75000000000000000        0.0000000000000000     
  0.68750000000000000       0.75000000000000000        0.0000000000000000     
  0.71875000000000000       0.75000000000000000        0.0000000000000000     
  0.75000000000000000       0.75000000000000000        0.0000000000000000     
  0.62500000000000000       0.78125000000000000        0.0000000000000000     
  0.65625000000000000       0.78125000000000000        0.0000000000000000     
  0.68750000000000000       0.78125000000000000        0.0000000000000000     
  0.71875000000000000       0.78125000000000000        0.0000000000000000     
  0.75000000000000000       0.78125000000000000        0.0000000000000000     
  0.62500000000000000       0.81250000000000000        0.0000000000000000     
  0.65625000000000000       0.81250000000000000        0.0000000000000000     
  0.68750000000000000       0.81250000000000000        0.0000000000000000     
  0.71875000000000000       0.81250000000000000        0.0000000000000000     
  0.75000000000000000       0.81250000000000000        0.0000000000000000     
  0.62500000000000000       0.84375000000000000        0.0000000000000000     
  0.65625000000000000       0.84375000000000000        0.0000000000000000     
  0.68750000000000000       0.84375000000000000        0.0000000000000000     
  0.71875000000000000       0.84375000000000000        0.0000000000000000     
  0.75000000000000000       0.84375000000000000        0.0000000000000000     
  0.62500000000000000       0.87500000000000000        0.0000000000000000     
  0.65625000000000000       0.87500000000000000        0.0000000000000000     
  0.68750000000000000       0.87500000000000000        0.0000000000000000     
  0.71875000000000000       0.87500000000000000        0.0000000000000000     
  0.75000000000000000       0.87500000000000000        0.0000000000000000     
  0.75000000000000000       0.75000000000000000        0.0000000000000000     
  0.78125000000000000       0.75000000000000000        0.0000000000000000     
  0.81250000000000000       0.75000000000000000        0.0000000000000000     
  0.84375000000000000       0.75000000000000000        0.0000000000000000     
  0.87500000000000000       0.75000000000000000        0.0000000000000000     
  0.75000000000000000       0.78125000000000000        0.0000000000000000     
  0.78125000000000000       0.78125000000000000        0.0000000000000000     
  0.81250000000000000       0.78125000000000000        0.0000000000000000     
  0.84375000000000000       0.78125000000000000        0.0000000000000000     
  0.87500000000000000       0.78125000000000000        0.0000000000000000     
  0.75000000000000000       0.81250000000000000        0.0000000000000000     
  0.78125000000000000       0.81250000000000000        0.0000000000000000     
  0.81250000000000000       0.81250000000000000        0.0000000000000000     
  0.84375000000000000       0.81250000000000000        0.0000000000000000     
  0.87500000000000000       0.81250000000000000        0.0000000000000000     
  0.75000000000000000       0.84375000000000000        0.0000000000000000     
  0.78125000000000000       0.84375000000000000        0.0000000000000000     
  0.81250000000000000       0.84375000000000000        0.0000000000000000     
  0.84375000000000000       0.84375000000000000        0.0000000000000000     
  0.87500000000000000       0.84375000000000000        0.0000000000000000     
  0.75000000000000000       0.87500000000000000        0.0000000000000000     
  0.78125000000000000       0.87500000000000000        0.0000000000000000     
  0.81250000000000000       0.87500000000000000        0.0000000000000000     
  0.84375000000000000       0.87500000000000000        0.0000000000000000     
  0.87500000000000000       0.87500000000000000        0.0000000000000000     
  0.87500000000000000       0.75000000000000000        0.0000000000000000     
  0.90625000000000000       0.75000000000000000        0.0000000000000000     
  0.93750000000000000       0.75000000000000000        0.0000000000000000     
  0.96875000000000000       0.75000000000000000        0.0000000000000000     
   1.0000000000000000       0.75000000000000000        0.0000000000000000     
  0.87500000000000000       0.78125000000000000        0.0000000000000000     
  0.90625000000000000       0.78125000000000000        0.0000000000000000     
  0.93750000000000000       0.78125000000000000        0.0000000000000000     
  0.96875000000000000       0.78125000000000000        0.0000000000000000     
   1.0000000000000000       0.78125000000000000        0.0000000000000000     
  0.87500000000000000       0.81250000000000000        0.0000000000000000     
  0.90625000000000000       0.81250000000000000        0.0000000000000000     
  0.93750000000000000       0.81250000000000000        0.0000000000000000     
  0.96875000000000000       0.81250000000000000        0.0000000000000000     
   1.0000000000000000       0.81250000000000000        0.0000000000000000     
  0.87500000000000000       0.84375000000000000        0.0000000000000000     
  0.90625000000000000       0.84375000000000000        0.0000000000000000     
  0.93750000000000000       0.84375000000000000        0.0000000000000000     
  0.96875000000000000       0.84375000000000000        0.0000000000000000     
   1.0000000000000000       0.84375000000000000        0.0000000000000000     
  0.87500000000000000       0.87500000000000000        0.0000000000000000     
  0.90625000000000000       0.87500000000000000        0.0000000000000000     
  0.93750000000000000       0.87500000000000000        0.0000000000000000     
  0.96875000000000000       0.87500000000000000        0.0000000000000000     
   1.0000000000000000       0.87500000000000000        0.0000000000000000     
   1.0000000000000000       0.75000000000000000        0.0000000000000000     
   1.0312500000000000       0.75000000000000000        0.0000000000000000     
   1.0625000000000000       0.75000000000000000        0.0000000000000000     
   1.0937500000000000       0.75000000000000000        0.0000000000000000     
   1.1250000000000000       0.75000000000000000        0.0000000000000000     
   1.0000000000000000       0.78125000000000000        0.0000000000000000     
   1.0312500000000000       0.78125000000000000        0.0000000000000000     
   1.0625000000000000       0.78125000000000000        0.0000000000000000     
   1.0937500000000000       0.78125000000000000        0.0000000000000000     
   1.1250000000000000       0.78125000000000000        0.0000000000000000     
   1.0000000000000000       0.81250000000000000        0.0000000000000000     
   1.0312500000000000       0.81250000000000000        0.0000000000000000     
   1.0625000000000000       0.81250000000000000        0.0000000000000000     
   1.0937500000000000       0.81250000000000000        0.0000000000000000     
   1.1250000000000000       0.81250000000000000        0.0000000000000000     
   1.0000000000000000       0.84375000000000000        0.0000000000000000     
   1.0312500000000000       0.84375000000000000        0.0000000000000000     
   1.0625000000000000       0.84375000000000000        0.0000000000000000     
   1.0937500000000000       0.84375000000000000        0.0000000000000000     
   1.1250000000000000       0.84375000000000000        0.0000000000000000     
   1.0000000000000000       0.87500000000000000        0.0000000000000000     
   1.0312500000000000       0.87500000000000000        0.0000000000000000     
   1.0625000000000000       0.87500000000000000        0.0000000000000000     
   1.0937500000000000       0.87500000000000000        0.0000000000000000     
   1.1250000000000000       0.87500000000000000        0.0000000000000000     
   1.1250000000000000       0.75000000000000000        0.0000000000000000     
   1.1562500000000000       0.75000000000000000        0.0000000000000000     
   1.1875000000000000       0.75000000000000000        0.0000000000000000     
   1.2187500000000000       0.75000000000000000        0.0000000000000000     
   1.2500000000000000       0.75000000000000000        0.0000000000000000     
   1.1250000000000000       0.78125000000000000        0.0000000000000000     
   1.1562500000000000       0.78125000000000000        0.0000000000000000     
   1.1875000000000000       0.78125000000000000        0.0000000000000000     
   1.2187500000000000       0.78125000000000000        0.0000000000000000     
   1.2500000000000000       0.78125000000000000        0.0000000000000000     
   1.1250000000000000       0.81250000000000000        0.0000000000000000     
   1.1562500000000000       0.81250000000000000        0.0000000000000000     
   1.1875000000000000       0.81250000000000000        0.0000000000000000     
   1.2187500000000000       0.81250000000000000        0.0000000000000000     
   1.2500000000000000       0.81250000000000000        0.0000000000000000     
   1.1250000000000000       0.84375000000000000        0.0000000000000000     
   1.1562500000000000       0.84375000000000000        0.0000000000000000     
   1.1875000000000000       0.84375000000000000        0.0000000000000000     
   1.2187500000000000       0.84375000000000000        0.0000000000000000     
   1.2500000000000000       0.84375000000000000        0.0000000000000000     
   1.1250000000000000       0.87500000000000000        0.0000000000000000     
   1.1562500000000000       0.87500000000000000        0.0000000000000000     
   1.1875000000000000       0.87500000000000000        0.0000000000000000     
   1.2187500000000000       0.87500000000000000        0.0000000000000000     
   1.2500000000000000       0.87500000000000000        0.0000000000000000     
   1.2500000000000000       0.75000000000000000        0.0000000000000000     
   1.2812500000000000       0.75000000000000000        0.0000000000000000     
   1.3125000000000000       0.75000000000000000        0.0000000000000000     
   1.3437500000000000       0.75000000000000000        0.0000000000000000     
   1.3750000000000000       0.75000000000000000        0.0000000000000000     
   1.2500000000000000       0.78125000000000000        0.0000000000000000     
   1.2812500000000000       0.78125000000000000        0.0000000000000000     
   1.3125000000000000       0.78125000000000000        0.0000000000000000     
   1.3437500000000000       0.78125000000000000        0.0000000000000000     
   1.3750000000000000       0.78125000000000000        0.0000000000000000     
   1.2500000000000000       0.81250000000000000        0.0000000000000000     
   1.2812500000000000       0.81250000000000000        0.0000000000000000     
   1.3125000000000000       0.81250000000000000        0.0000000000000000     
   1.3437500000000000       0.81250000000000000        0.0000000000000000     
   1.3750000000000000       0.81250000000000000        0.0000000000000000     
   1.2500000000000000       0.84375000000000000        0.0000000000000000     
   1.2812500000000000       0.84375000000000000        0.0000000000000000     
   1.3125000000000000       0.84375000000000000        0.0000000000000000     
   1.3437500000000000       0.84375000000000000        0.0000000000000000     
   1.3750000000000000       0.84375000000000000        0.0000000000000000     
   1.2500000000000000       0.87500000000000000        0.0000000000000000     
   1.2812500000000000       0.87500000000000000        0.0000000000000000     
   1.3125000000000000       0.87500000000000000        0.0000000000000000     
   1.3437500000000000       0.87500000000000000        0.0000000000000000     
   1.3750000000000000       0.87500000000000000        0.0000000000000000     
   1.3750000000000000       0.75000000000000000        0.0000000000000000     
   1.4062500000000000       0.75000000000000000        0.0000000000000000     
   1.4375000000000000       0.75000000000000000        0.0000000000000000     
   1.4687500000000000       0.75000000000000000        0.0000000000000000     
   1.5000000000000000       0.75000000000000000        0.0000000000000000     
   1.3750000000000000       0.78125000000000000        0.0000000000000000     
   1.4062500000000000       0.78125000000000000        0.0000000000000000     
   1.4375000000000000       0.78125000000000000        0.0000000000000000     
   1.4687500000000000       0.78125000000000000        0.0000000000000000     
   1.5000000000000000       0.78125000000000000        0.0000000000000000     
   1.3750000000000000       0.81250000000000000        0.0000000000000000     
   1.4062500000000000       0.81250000000000000        0.0000000000000000     
   1.4375000000000000       0.81250000000000000        0.0000000000000000     
   1.4687500000000000       0.81250000000000000        0.0000000000000000     
   1.5000000000000000       0.81250000000000000        0.0000000000000000     
   1.3750000000000000       0.84375000000000000        0.0000000000000000     
   1.4062500000000000       0.84375000000000000        0.0000000000000000     
   1.4375000000000000       0.84375000000000000        0.0000000000000000     
   1.4687500000000000       0.84375000000000000        0.0000000000000000     
   1.5000000000000000       0.84375000000000000        0.0000000000000000     
   1.3750000000000000       0.87500000000000000        0.0000000000000000     
   1.4062500000000000       0.87500000000000000        0.0000000000000000     
   1.4375000000000000       0.87500000000000000        0.0000000000000000     
   1.4687500000000000       0.87500000000000000        0.0000000000000000     
   1.5000000000000000       0.87500000000000000        0.0000000000000000     
  0.50000000000000000       0.87500000000000000        0.0000000000000000     
  0.53125000000000000       0.87500000000000000        0.0000000000000000     
  0.56250000000000000       0.87500000000000000        0.0000000000000000     
  0.59375000000000000       0.87500000000000000        0.0000000000000000     
  0.62500000000000000       0.87500000000000000        0.0000000000000000     
  0.50000000000000000       0.90625000000000000        0.0000000000000000     
  0.53125000000000000       0.90625000000000000        0.0000000000000000     
  0.56250000000000000       0.90625000000000000        0.0000000000000000     
  0.59375000000000000       0.90625000000000000        0.0000000000000000     
  0.62500000000000000       0.90625000000000000        0.0000000000000000     
  0.50000000000000000       0.93750000000000000        0.0000000000000000     
  0.53125000000000000       0.93750000000000000        0.0000000000000000     
  0.56250000000000000       0.93750000000000000        0.0000000000000000     
  0.59375000000000000       0.93750000000000000        0.0000000000000000     
  0.62500000000000000       0.93750000000000000        0.0000000000000000     
  0.50000000000000000       0.96875000000000000        0.0000000000000000     
  0.53125000000000000       0.96875000000000000        0.0000000000000000     
  0.56250000000000000       0.96875000000000000        0.0000000000000000     
  0.59375000000000000       0.96875000000000000        0.0000000000000000     
  0.62500000000000000       0.96875000000000000        0.0000000000000000     
  0.50000000000000000        1.0000000000000000        0.0000000000000000     
  0.53125000000000000        1.0000000000000000        0.0000000000000000     
  0.56250000000000000        1.0000000000000000        0.0000000000000000     
  0.59375000000000000        1.0000000000000000        0.0000000000000000     
  0.62500000000000000        1.0000000000000000        0.0000000000000000     
  0.62500000000000000       0.87500000000000000        0.0000000000000000     
  0.65625000000000000       0.87500000000000000        0.0000000000000000     
  0.68750000000000000       0.87500000000000000        0.0000000000000000     
  0.71875000000000000       0.87500000000000000        0.0000000000000000     
  0.75000000000000000       0.87500000000000000        0.0000000000000000     
  0.62500000000000000       0.90625000000000000        0.0000000000000000     
  0.65625000000000000       0.90625000000000000        0.0000000000000000     
  0.68750000000000000       0.90625000000000000        0.0000000000000000     
  0.71875000000000000       0.90625000000000000        0.0000000000000000     
  0.75000000000000000       0.90625000000000000        0.0000000000000000     
  0.62500000000000000       0.93750000000000000        0.0000000000000000     
  0.65625000000000000       0.93750000000000000        0.0000000000000000     
  0.68750000000000000       0.93750000000000000        0.0000000000000000     
  0.71875000000000000       0.93750000000000000        0.0000000000000000     
  0.75000000000000000       0.93750000000000000        0.0000000000000000     
  0.62500000000000000       0.96875000000000000        0.0000000000000000     
  0.65625000000000000       0.96875000000000000        0.0000000000000000     
  0.68750000000000000       0.96875000000000000        0.0000000000000000     
  0.71875000000000000       0.96875000000000000        0.0000000000000000     
  0.75000000000000000       0.96875000000000000        0.0000000000000000     
  0.62500000000000000        1.0000000000000000        0.0000000000000000     
  0.65625000000000000        1.0000000000000000        0.0000000000000000     
  0.68750000000000000        1.0000000000000000        0.0000000000000000     
  0.71875000000000000        1.0000000000000000        0.0000000000000000     
  0.75000000000000000        1.0000000000000000        0.0000000000000000     
  0.75000000000000000       0.87500000000000000        0.0000000000000000     
  0.78125000000000000       0.87500000000000000        0.0000000000000000     
  0.81250000000000000       0.87500000000000000        0.0000000000000000     
  0.84375000000000000       0.87500000000000000        0.0000000000000000     
  0.87500000000000000       0.87500000000000000        0.0000000000000000     
  0.75000000000000000       0.90625000000000000        0.0000000000000000     
  0.78125000000000000       0.90625000000000000        0.0000000000000000     
  0.81250000000000000       0.90625000000000000        0.0000000000000000     
  0.84375000000000000       0.90625000000000000        0.0000000000000000     
  0.87500000000000000       0.90625000000000000        0.0000000000000000     
  0.75000000000000000       0.93750000000000000        0.0000000000000000     
  0.78125000000000000       0.93750000000000000        0.0000000000000000     
  0.81250000000000000       0.93750000000000000        0.0000000000000000     
  0.84375000000000000       0.93750000000000000        0.0000000000000000     
  0.87500000000000000       0.93750000000000000        0.0000000000000000     
  0.75000000000000000       0.96875000000000000        0.0000000000000000     
  0.78125000000000000       0.96875000000000000        0.0000000000000000     
  0.81250000000000000       0.96875000000000000        0.0000000000000000     
  0.84375000000000000       0.96875000000000000        0.0000000000000000     
  0.87500000000000000       0.96875000000000000        0.0000000000000000     
  0.75000000000000000        1.0000000000000000        0.0000000000000000     
  0.78125000000000000        1.0000000000000000        0.0000000000000000     
  0.81250000000000000        1.0000000000000000        0.0000000000000000     
  0.84375000000000000        1.0000000000000000        0.0000000000000000     
  0.87500000000000000        1.0000000000000000        0.0000000000000000     
  0.87500000000000000       0.87500000000000000        0.0000000000000000     
  0.90625000000000000       0.87500000000000000        0.0000000000000000     
  0.93750000000000000       0.87500000000000000        0.0000000000000000     
  0.96875000000000000       0.87500000000000000        0.0000000000000000     
   1.0000000000000000       0.87500000000000000        0.0000000000000000     
  0.87500000000000000       0.90625000000000000        0.0000000000000000     
  0.90625000000000000       0.90625000000000000        0.0000000000000000     
  0.93750000000000000       0.90625000000000000        0.0000000000000000     
  0.96875000000000000       0.90625000000000000        0.0000000000000000     
   1.0000000000000000       0.90625000000000000        0.0000000000000000     
  0.87500000000000000       0.93750000000000000        0.0000000000000000     
  0.90625000000000000       0.93750000000000000        0.0000000000000000     
  0.93750000000000000       0.93750000000000000        0.0000000000000000     
  0.96875000000000000       0.93750000000000000        0.0000000000000000     
   1.0000000000000000       0.93750000000000000        0.0000000000000000     
  0.87500000000000000       0.96875000000000000        0.0000000000000000     
  0.90625000000000000       0.96875000000000000        0.0000000000000000     
  0.93750000000000000       0.96875000000000000        0.0000000000000000     
  0.96875000000000000       0.96875000000000000        0.0000000000000000     
   1.0000000000000000       0.96875000000000000        0.0000000000000000     
  0.87500000000000000        1.0000000000000000        0.0000000000000000     
  0.90625000000000000        1.0000000000000000        0.0000000000000000     
  0.93750000000000000        1.0000000000000000        0.0000000000000000     
  0.96875000000000000        1.0000000000000000        0.0000000000000000     
   1.0000000000000000        1.0000000000000000        0.0000000000000000     
   1.0000000000000000       0.87500000000000000        0.0000000000000000     
   1.0312500000000000       0.87500000000000000        0.0000000000000000     
   1.0625000000000000       0.87500000000000000        0.0000000000000000     
   1.0937500000000000       0.87500000000000000        0.0000000000000000     
   1.1250000000000000       0.87500000000000000        0.0000000000000000     
   1.0000000000000000       0.90625000000000000        0.0000000000000000     
   1.0312500000000000       0.90625000000000000        0.0000000000000000     
   1.0625000000000000       0.90625000000000000        0.0000000000000000     
   1.0937500000000000       0.90625000000000000        0.0000000000000000     
   1.1250000000000000       0.90625000000000000        0.0000000000000000     
   1.0000000000000000       0.93750000000000000        0.0000000000000000     
   1.0312500000000000       0.93750000000000000        0.0000000000000000     
   1.0625000000000000       0.93750000000000000        0.0000000000000000     
   1.0937500000000000       0.93750000000000000        0.0000000000000000     
   1.1250000000000000       0.93750000000000000        0.0000000000000000     
   1.0000000000000000       0.96875000000000000        0.0000000000000000     
   1.0312500000000000       0.96875000000000000        0.0000000000000000     
   1.0625000000000000       0.96875000000000000        0.0000000000000000     
   1.0937500000000000       0.96875000000000000        0.0000000000000000     
   1.1250000000000000       0.96875000000000000        0.0000000000000000     
   1.0000000000000000        1.0000000000000000        0.0000000000000000     
   1.0312500000000000        1.0000000000000000        0.0000000000000000     
   1.0625000000000000        1.0000000000000000        0.0000000000000000     
   1.0937500000000000        1.0000000000000000        0.0000000000000000     
   1.1250000000000000        1.0000000000000000        0.0000000000000000     
   1.1250000000000000       0.87500000000000000        0.0000000000000000     
   1.1562500000000000       0.87500000000000000        0.0000000000000000     
   1.1875000000000000       0.87500000000000000        0.0000000000000000     
   1.2187500000000000       0.87500000000000000        0.0000000000000000     
   1.2500000000000000       0.87500000000000000        0.0000000000000000     
   1.1250000000000000       0.90625000000000000        0.0000000000000000     
   1.1562500000000000       0.90625000000000000        0.0000000000000000     
   1.1875000000000000       0.90625000000000000        0.0000000000000000     
   1.2187500000000000       0.90625000000000000        0.0000000000000000     
   1.2500000000000000       0.90625000000000000        0.0000000000000000     
   1.1250000000000000       0.93750000000000000        0.0000000000000000     
   1.1562500000000000       0.93750000000000000        0.0000000000000000     
   1.1875000000000000       0.93750000000000000        0.0000000000000000     
   1.2187500000000000       0.93750000000000000        0.0000000000000000     
   1.2500000000000000       0.93750000000000000        0.0000000000000000     
   1.1250000000000000       0.96875000000000000        0.0000000000000000     
   1.1562500000000000       0.96875000000000000        0.0000000000000000     
   1.1875000000000000       0.96875000000000000        0.0000000000000000     
   1.2187500000000000       0.96875000000000000        0.0000000000000000     
   1.2500000000000000       0.96875000000000000        0.0000000000000000     
   1.1250000000000000        1.0000000000000000        0.0000000000000000     
   1.1562500000000000        1.0000000000000000        0.0000000000000000     
   1.1875000000000000        1.0000000000000000        0.0000000000000000     
   1.2187500000000000        1.0000000000000000        0.0000000000000000     
   1.2500000000000000        1.0000000000000000        0.0000000000000000     
   1.2500000000000000       0.87500000000000000        0.0000000000000000     
   1.2812500000000000       0.87500000000000000        0.0000000000000000     
   1.3125000000000000       0.87500000000000000        0.0000000000000000     
   1.3437500000000000       0.87500000000000000        0.0000000000000000     
   1.3750000000000000       0.87500000000000000        0.0000000000000000     
   1.2500000000000000       0.90625000000000000        0.0000000000000000     
   1.2812500000000000       0.90625000000000000        0.0000000000000000     
   1.3125000000000000       0.90625000000000000        0.0000000000000000     
   1.3437500000000000       0.90625000000000000        0.0000000000000000     
   1.3750000000000000       0.90625000000000000        0.0000000000000000     
   1.2500000000000000       0.93750000000000000        0.0000000000000000     
   1.2812500000000000       0.93750000000000000        0.0000000000000000     
   1.3125000000000000       0.93750000000000000        0.0000000000000000     
   1.3437500000000000       0.93750000000000000        0.0000000000000000     
   1.3750000000000000       0.93750000000000000        0.0000000000000000     
   1.2500000000000000       0.96875000000000000        0.0000000000000000     
   1.2812500000000000       0.96875000000000000        0.0000000000000000     
   1.3125000000000000       0.96875000000000000        0.0000000000000000     
   1.3437500000000000       0.96875000000000000        0.0000000000000000     
   1.3750000000000000       0.96875000000000000        0.0000000000000000     
   1.2500000000000000        1.0000000000000000        0.0000000000000000     
   1.2812500000000000        1.0000000000000000        0.0000000000000000     
   1.3125000000000000        1.0000000000000000        0.0000000000000000     
   1.3437500000000000        1.0000000000000000        0.0000000000000000     
   1.3750000000000000        1.0000000000000000        0.0000000000000000     
   1.3750000000000000       0.87500000000000000        0.0000000000000000     
   1.4062500000000000       0.87500000000000000        0.0000000000000000     
   1.4375000000000000       0.87500000000000000        0.0000000000000000     
   1.4687500000000000       0.87500000000000000        0.0000000000000000     
   1.5000000000000000       0.87500000000000000        0.0000000000000000     
   1.3750000000000000       0.90625000000000000        0.0000000000000000     
   1.4062500000000000       0.90625000000000000        0.0000000000000000     
   1.4375000000000000       0.90625000000000000        0.0000000000000000     
   1.4687500000000000       0.90625000000000000        0.0000000000000000     
   1.5000000000000000       0.90625000000000000        0.0000000000000000     
   1.3750000000000000       0.93750000000000000        0.0000000000000000     
   1.4062500000000000       0.93750000000000000        0.0000000000000000     
   1.4375000000000000       0.93750000000000000        0.0000000000000000     
   1.4687500000000000       0.93750000000000000        0.0000000000000000     
   1.5000000000000000       0.93750000000000000        0.0000000000000000     
   1.3750000000000000       0.96875000000000000        0.0000000000000000     
   1.4062500000000000       0.96875000000000000        0.0000000000000000     
   1.4375000000000000       0.96875000000000000        0.0000000000000000     
   1.4687500000000000       0.96875000000000000        0.0000000000000000     
   1.5000000000000000       0.96875000000000000        0.0000000000000000     
   1.3750000000000000        1.0000000000000000        0.0000000000000000     
   1.4062500000000000        1.0000000000000000        0.0000000000000000     
   1.4375000000000000        1.0000000000000000        0.0000000000000000     
   1.4687500000000000        1.0000000000000000        0.0000000000000000     
   1.5000000000000000        1.0000000000000000        0.0000000000000000     
 </DataArray>
 </Points>
 <Cells>
 <DataArray  type="Int32"  Name="connectivity"  format="ascii">
           0           1           6           5
           1           2           7           6
           2           3           8           7
           3           4           9           8
           5           6          11          10
           6           7          12          11
           7           8          13          12
           8           9          14          13
          10          11          16          15
          11          12          17          16
          12          13          18          17
          13          14          19          18
          15          16          21          20
          16          17          22          21
          17          18          23          22
          18          19          24          23
          25          26          31          30
          26          27          32          31
          27          28          33          32
          28          29          34          33
          30          31          36          35
          31          32          37          36
          32          33          38          37
          33          34          39          38
          35          36          41          40
          36          37          42          41
          37          38          43          42
          38          39          44          43
          40          41          46          45
          41          42          47          46
          42          43          48          47
          43          44          49          48
          50          51          56          55
          51          52          57          56
          52          53          58          57
          53          54          59          58
          55          56          61          60
          56          57          62          61
          57          58          63          62
          58          59          64          63
          60          61          66          65
          61          62          67          66
          62          63          68          67
          63          64          69          68
          65          66          71          70
          66          67          72          71
          67          68          73          72
          68          69          74          73
          75          76          81          80
          76          77          82          81
          77          78          83          82
          78          79          84          83
          80          81          86          85
          81          82          87          86
          82          83          88          87
          83          84          89          88
          85          86          91          90
          86          87          92          91
          87          88          93          92
          88          89          94          93
          90          91          96          95
          91          92          97          96
          92          93          98          97
          93          94          99          98
         100         101         106         105
         101         102         107         106
         102         103         108         107
         103         104         109         108
         105         106         111         110
         106         107         112         111
         107         108         113         112
         108         109         114         113
         110         111         116         115
         111         112         117         116
         112         113         118         117
         113         114         119         118
         115         116         121         120
         116         117         122         121
         117         118         123         122
         118         119         124         123
         125         126         131         130
         126         127         132         131
         127         128         133         132
         128         129         134         133
         130         131         136         135
         131         132         137         136
         132         133         138         137
         133         134         139         138
         135         136         141         140
         136         137         142         141
         137         138         143         142
         138         139         144         143
         140         141         146         145
         141         142         147         146
         142         143         148         147
         143         144         149         148
         150         151         156         155
         151         152         157         156
         152         153         158         157
         153         154         159         158
         155         156         161         160
         156         157         162         161
         157         158         163         162
         158         159         164         163
         160         161         166         165
         161         162         167         166
         162         163         168         167
         163         164         169         168
         165         166         171         170
         166         167         172         171
         167         168         173         172
         168         169         174         173
         175         176         181         180
         176         177         182         181
         177         178         183         182
         178         179         184         183
         180         181         186         185
         181         182         187         186
         182         183         188         187
         183         184         189         188
         185         186         191         190
         186         187         192         191
         187         188         193         192
         188         189         194         193
         190         191         196         195
         191         192         197         196
         192         193         198         197
         193         194         199         198
         200         201         206         205
         201         202         207         206
         202         203         208         207
         203         204         209         208
         205         206         211         210
         206         207         212         211
         207         208         213         212
         208         209         214         213
         210         211         216         215
         211         212         217         216
         212         213         218         217
         213         214         219         218
         215         216         221         220
         216         217         222         221
         217         218         223         222
         218         219         224         223
         225         226         231         230
         226         227         232         231
         227         228         233         232
         228         229         234         233
         230         231         236         235
         231         232         237         236
         232         233         238         237
         233         234         239         238
         235         236         241         240
         236         237         242         241
         237         238         243         242
         238         239         244         243
         240         241         246         245
         241         242         247         246
         242         243         248         247
         243         244         249         248
         250         251         256         255
         251         252         257         256
         252         253         258         257
         253         254         259         258
         255         256         261         260
         256         257         262         261
         257         258         263         262
         258         259         264         263
         260         261         266         265
         261         262         267         266
         262         263         268         267
         263         264         269         268
         265         266         271         270
         266         267         272         271
         267         268         273         272
         268         269         274         273
         275         276         281         280
         276         277         282         281
         277         278         283         282
         278         279         284         283
         280         281         286         285
         281         282         287         286
         282         283         288         287
         283         284         289         288
         285         286         291         290
         286         287         292         291
         287         288         293         292
         288         289         294         293
         290         291         296         295
         291         292         297         296
         292         293         298         297
         293         294         299         298
         300         301         306         305
         301         302         307         306
         302         303         308         307
         303         304         309         308
         305         306         311         310
         306         307         312         311
         307         308         313         312
         308         309         314         313
         310         311         316         315
         311         312         317         316
         312         313         318         317
         313         314         319         318
         315         316         321         320
         316         317         322         321
         317         318         323         322
         318         319         324         323
         325         326         331         330
         326         327         332         331
         327         328         333         332
         328         329         334         333
         330         331         336         335
         331         332         337         336
         332         333         338         337
         333         334         339         338
         335         336         341         340
         336         337         342         341
         337         338         343         342
         338         339         344         343
         340         341         346         345
         341         342         347         346
         342         343         348         347
         343         344         349         348
         350         351         356         355
         351         352         357         356
         352         353         358         357
         353         354         359         358
         355         356         361         360
         356         357         362         361
         357         358         363         362
         358         359         364         363
         360         361         366         365
         361         362         367         366
         362         363         368         367
         363         364         369         368
         365         366         371         370
         366         367         372         371
         367         368         373         372
         368         369         374         373
         375         376         381         380
         376         377         382         381
         377         378         383         382
         378         379         384         383
         380         381         386         385
         381         382         387         386
         382         383         388         387
         383         384         389         388
         385         386         391         390
         386         387         392         391
         387         388         393         392
         388         389         394         393
         390         391         396         395
         391         392         397         396
         392         393         398         397
         393         394         399         398
         400         401         406         405
         401         402         407         406
         402         403         408         407
         403         404         409         408
         405         406         411         410
         406         407         412         411
         407         408         413         412
         408         409         414         413
         410         411         416         415
         411         412         417         416
         412         413         418         417
         413         414         419         418
         415         416         421         420
         416         417         422         421
         417         418         423         422
         418         419         424         423
         425         426         431         430
         426         427         432         431
         427         428         433         432
         428         429         434         433
         430         431         436         435
         431         432         437         436
         432         433         438         437
         433         434         439         438
         435         436         441         440
         436         437         442         441
         437         438         443         442
         438         439         444         443
         440         441         446         445
         441         442         447         446
         442         443         448         447
         443         444         449         448
         450         451         456         455
         451         452         457         456
         452         453         458         457
         453         454         459         458
         455         456         461         460
         456         457         462         461
         457         458         463         462
         458         459         464         463
         460         461         466         465
         461         462         467         466
         462         463         468         467
         463         464         469         468
         465         466         471         470
         466         467         472         471
         467         468         473         472
         468         469         474         473
         475         476         481         480
         476         477         482         481
         477         478         483         482
         478         479         484         483
         480         481         486         485
         481         482         487         486
         482         483         488         487
         483         484         489         488
         485         486         491         490
         486         487         492         491
         487         488         493         492
         488         489         494         493
         490         491         496         495
         491         492         497         496
         492         493         498         497
         493         494         499         498
         500         501         506         505
         501         502         507         506
         502         503         508         507
         503         504         509         508
         505         506         511         510
         506         507         512         511
         507         508         513         512
         508         509         514         513
         510         511         516         515
         511         512         517         516
         512         513         518         517
         513         514         519         518
         515         516         521         520
         516         517         522         521
         517         518         523         522
         518         519         524         523
         525         526         531         530
         526         527         532         531
         527         528         533         532
         528         529         534         533
         530         531         536         535
         531         532         537         536
         532         533         538         537
         533         534         539         538
         535         536         541         540
         536         537         542         541
         537         538         543         542
         538         539         544         543
         540         541         546         545
         541         542         547         546
         542         543         548         547
         543         544         549         548
         550         551         556         555
         551         552         557         556
         552         553         558         557
         553         554         559         558
         555         556         561         560
         556         557         562         561
         557         558         563         562
         558         559         564         563
         560         561         566         565
         561         562         567         566
         562         563         568         567
         563         564         569         568
         565         566         571         570
         566         567         572         571
         567         568         573         572
         568         569         574         573
         575         576         581         580
         576         577         582         581
         577         578         583         582
         578         579         584         583
         580         581         586         585
         581         582         587         586
         582         583         588         587
         583         584         589         588
         585         586         591         590
         586         587         592         591
         587         588         593         592
         588         589         594         593
         590         591         596         595
         591         592         597         596
         592         593         598         597
         593         594         599         598
         600         601         606         605
         601         602         607         606
         602         603         608         607
         603         604         609         608
         605         606         611         610
         606         607         612         611
         607         608         613         612
         608         609         614         613
         610         611         616         615
         611         612         617         616
         612         613         618         617
         613         614         619         618
         615         616         621         620
         616         617         622         621
         617         618         623         622
         618         619         624         623
         625         626         631         630
         626         627         632         631
         627         628         633         632
         628         629         634         633
         630         631         636         635
         631         632         637         636
         632         633         638         637
         633         634         639         638
         635         636         641         640
         636         637         642         641
         637         638         643         642
         638         639         644         643
         640         641         646         645
         641         642         647         646
         642         643         648         647
         643         644         649         648
         650         651         656         655
         651         652         657         656
         652         653         658         657
         653         654         659         658
         655         656         661         660
         656         657         662         661
         657         658         663         662
         658         659         664         663
         660         661         666         665
         661         662         667         666
         662         663         668         667
         663         664         669         668
         665         666         671         670
         666         667         672         671
         667         668         673         672
         668         669         674         673
         675         676         681         680
         676         677         682         681
         677         678         683         682
         678         679         684         683
         680         681         686         685
         681         682         687         686
         682         683         688         687
         683         684         689         688
         685         686         691         690
         686         687         692         691
         687         688         693         692
         688         689         694         693
         690         691         696         695
         691         692         697         696
         692         693         698         697
         693         694         699         698
         700         701         706         705
         701         702         707         706
         702         703         708         707
         703         704         709         708
         705         706         711         710
         706         707         712         711
         707         708         713         712
         708         709         714         713
         710         711         716         715
         711         712         717         716
         712         713         718         717
         713         714         719         718
         715         716         721         720
         716         717         722         721
         717         718         723         722
         718         719         724         723
         725         726         731         730
         726         727         732         731
         727         728         733         732
         728         729         734         733
         730         731         736         735
         731         732         737         736
         732         733         738         737
         733         734         739         738
         735         736         741         740
         736         737         742         741
         737         738         743         742
         738         739         744         743
         740         741         746         745
         741         742         747         746
         742         743         748         747
         743         744         749         748
         750         751         756         755
         751         752         757         756
         752         753         758         757
         753         754         759         758
         755         756         761         760
         756         757         762         761
         757         758         763         762
         758         759         764         763
         760         761         766         765
         761         762         767         766
         762         763         768         767
         763         764         769         768
         765         766         771         770
         766         767         772         771
         767         768         773         772
         768         769         774         773
         775         776         781         780
         776         777         782         781
         777         778         783         782
         778         779         784         783
         780         781         786         785
         781         782         787         786
         782         783         788         787
         783         784         789         788
         785         786         791         790
         786         787         792         791
         787         788         793         792
         788         789         794         793
         790         791         796         795
         791         792         797         796
         792         793         798         797
         793         794         799         798
         800         801         806         805
         801         802         807         806
         802         803         808         807
         803         804         809         808
         805         806         811         810
         806         807         812         811
         807         808         813         812
         808         809         814         813
         810         811         816         815
         811         812         817         816
         812         813         818         817
         813         814         819         818
         815         816         821         820
         816         817         822         821
         817         818         823         822
         818         819         824         823
         825         826         831         830
         826         827         832         831
         827         828         833         832
         828         829         834         833
         830         831         836         835
         831         832         837         836
         832         833         838         837
         833         834         839         838
         835         836         841         840
         836         837         842         841
         837         838         843         842
         838         839         844         843
         840         841         846         845
         841         842         847         846
         842         843         848         847
         843         844         849         848
         850         851         856         855
         851         852         857         856
         852         853         858         857
         853         854         859         858
         855         856         861         860
         856         857         862         861
         857         858         863         862
         858         859         864         863
         860         861         866         865
         861         862         867         866
         862         863         868         867
         863         864         869         868
         865         866         871         870
         866         867         872         871
         867         868         873         872
         868         869         874         873
         875         876         881         880
         876         877         882         881
         877         878         883         882
         878         879         884         883
         880         881         886         885
         881         882         887         886
         882         883         888         887
         883         884         889         888
         885         886         891         890
         886         887         892         891
         887         888         893         892
         888         889         894         893
         890         891         896         895
         891         892         897         896
         892         893         898         897
         893         894         899         898
         900         901         906         905
         901         902         907         906
         902         903         908         907
         903         904         909         908
         905         906         911         910
         906         907         912         911
         907         908         913         912
         908         909         914         913
         910         911         916         915
         911         912         917         916
         912         913         918         917
         913         914         919         918
         915         916         921         920
         916         917         922         921
         917         918         923         922
         918         919         924         923
         925         926         931         930
         926         927         932         931
         927         928         933         932
         928         929         934         933
         930         931         936         935
         931         932         937         936
         932         933         938         937
         933         934         939         938
         935         936         941         940
         936         937         942         941
         937         938         943         942
         938         939         944         943
         940         941         946         945
         941         942         947         946
         942         943         948         947
         943         944         949         948
         950         951         956         955
         951         952         957         956
         952         953         958         957
         953         954         959         958
         955         956         961         960
         956         957         962         961
         957         958         963         962
         958         959         964         963
         960         961         966         965
         961         962         967         966
         962         963         968         967
         963         964         969         968
         965         966         971         970
         966         967         972         971
         967         968         973         972
         968         969         974         973
         975         976         981         980
         976         977         982         981
         977         978         983         982
         978         979         984         983
         980         981         986         985
         981         982         987         986
         982         983         988         987
         983         984         989         988
         985         986         991         990
         986         987         992         991
         987         988         993         992
         988         989         994         993
         990         991         996         995
         991         992         997         996
         992         993         998         997
         993         994         999         998
        1000        1001        1006        1005
        1001        1002        1007        1006
        1002        1003        1008        1007
        1003        1004        1009        1008
        1005        1006        1011        1010
        1006        1007        1012        1011
        1007        1008        1013        1012
        1008        1009        1014        1013
        1010        1011        1016        1015
        1011        1012        1017        1016
        1012        1013        1018        1017
        1013        1014        1019        1018
        1015        1016        1021        1020
        1016        1017        1022        1021
        1017        1018        1023        1022
        1018        1019        1024        1023
        1025        1026        1031        1030
        1026        1027        1032        1031
        1027        1028        1033        1032
        1028        1029        1034        1033
        1030        1031        1036        1035
        1031        1032        1037        1036
        1032        1033        1038        1037
        1033        1034        1039        1038
        1035        1036        1041        1040
        1036        1037        1042        1041
        1037        1038        1043        1042
        1038        1039        1044        1043
        1040        1041        1046        1045
        1041        1042        1047        1046
        1042        1043        1048        1047
        1043        1044        1049        1048
        1050        1051        1056        1055
        1051        1052        1057        1056
        1052        1053        1058        1057
        1053        1054        1059        1058
        1055        1056        1061        1060
        1056        1057        1062        1061
        1057        1058        1063        1062
        1058        1059        1064        1063
        1060        1061        1066        1065
        1061        1062        1067        1066
        1062        1063        1068        1067
        1063        1064        1069        1068
        1065        1066        1071        1070
        1066        1067        1072        1071
        1067        1068        1073        1072
        1068        1069        1074        1073
        1075        1076        1081        1080
        1076        1077        1082        1081
        1077        1078        1083        1082
        1078        1079        1084        1083
        1080        1081        1086        1085
        1081        1082        1087        1086
        1082        1083        1088        1087
        1083        1084        1089        1088
        1085        1086        1091        1090
        1086        1087        1092        1091
        1087        1088        1093        1092
        1088        1089        1094        1093
        1090        1091        1096        1095
        1091        1092        1097        1096
        1092        1093        1098        1097
        1093        1094        1099        1098
        1100        1101        1106        1105
        1101        1102        1107        1106
        1102        1103        1108        1107
        1103        1104        1109        1108
        1105        1106        1111        1110
        1106        1107        1112        1111
        1107        1108        1113        1112
        1108        1109        1114        1113
        1110        1111        1116        1115
        1111        1112        1117        1116
        1112        1113        1118        1117
        1113        1114        1119        1118
        1115        1116        1121        1120
        1116        1117        1122        1121
        1117        1118        1123        1122
        1118        1119        1124        1123
        1125        1126        1131        1130
        1126        1127        1132        1131
        1127        1128        1133        1132
        1128        1129        1134        1133
        1130        1131        1136        1135
        1131        1132        1137        1136
        1132        1133        1138        1137
        1133        1134        1139        1138
        1135        1136        1141        1140
        1136        1137        1142        1141
        1137        1138        1143        1142
        1138        1139        1144        1143
        1140        1141        1146        1145
        1141        1142        1147        1146
        1142        1143        1148        1147
        1143        1144        1149        1148
        1150        1151        1156        1155
        1151        1152        1157        1156
        1152        1153        1158        1157
        1153        1154        1159        1158
        1155        1156        1161        1160
        1156        1157        1162        1161
        1157        1158        1163        1162
        1158        1159        1164        1163
        1160        1161        1166        1165
        1161        1162        1167        1166
        1162        1163        1168        1167
        1163        1164        1169        1168
        1165        1166        1171        1170
        1166        1167        1172        1171
        1167        1168        1173        1172
        1168        1169        1174        1173
        1175        1176        1181        1180
        1176        1177        1182        1181
        1177        1178        1183        1182
        1178        1179        1184        1183
        1180        1181        1186        1185
        1181        1182        1187        1186
        1182        1183        1188        1187
        1183        1184        1189        1188
        1185        1186        1191        1190
        1186        1187        1192        1191
        1187        1188        1193        1192
        1188        1189        1194        1193
        1190        1191        1196        1195
        1191        1192        1197        1196
        1192        1193        1198        1197
        1193        1194        1199        1198
        1200        1201        1206        1205
        1201        1202        1207        1206
        1202        1203        1208        1207
        1203        1204        1209        1208
        1205        1206        1211        1210
        1206        1207        1212        1211
        1207        1208        1213        1212
        1208        1209        1214        1213
        1210        1211        1216        1215
        1211        1212        1217        1216
        1212        1213        1218        1217
        1213        1214        1219        1218
        1215        1216        1221        1220
        1216        1217        1222        1221
        1217        1218        1223        1222
        1218        1219        1224        1223
        1225        1226        1231        1230
        1226        1227        1232        1231
        1227        1228        1233        1232
        1228        1229        1234        1233
        1230        1231        1236        1235
        1231        1232        1237        1236
        1232        1233        1238        1237
        1233        1234        1239        1238
        1235        1236        1241        1240
        1236        1237        1242        1241
        1237        1238        1243        1242
        1238        1239        1244        1243
        1240        1241        1246        1245
        1241        1242        1247        1246
        1242        1243        1248        1247
        1243        1244        1249        1248
        1250        1251        1256        1255
        1251        1252        1257        1256
        1252        1253        1258        1257
        1253        1254        1259        1258
        1255        1256        1261        1260
        1256        1257        1262        1261
        1257        1258        1263        1262
        1258        1259        1264        1263
        1260        1261        1266        1265
        1261        1262        1267        1266
        1262        1263        1268        1267
        1263        1264        1269        1268
        1265        1266        1271        1270
        1266        1267        1272        1271
        1267        1268        1273        1272
        1268        1269        1274        1273
        1275        1276        1281        1280
        1276        1277        1282        1281
        1277        1278        1283        1282
        1278        1279        1284        1283
        1280        1281        1286        1285
        1281        1282        1287        1286
        1282        1283        1288        1287
        1283        1284        1289        1288
        1285        1286        1291        1290
        1286        1287        1292        1291
        1287        1288        1293        1292
        1288        1289        1294        1293
        1290        1291        1296        1295
        1291        1292        1297        1296
        1292        1293        1298        1297
        1293        1294        1299        1298
        1300        1301        1306        1305
        1301        1302        1307        1306
        1302        1303        1308        1307
        1303        1304        1309        1308
        1305        1306        1311        1310
        1306        1307        1312        1311
        1307        1308        1313        1312
        1308        1309        1314        1313
        1310        1311        1316        1315
        1311        1312        1317        1316
        1312        1313        1318        1317
        1313        1314        1319        1318
        1315        1316        1321        1320
        1316        1317        1322        1321
        1317        1318        1323        1322
        1318        1319        1324        1323
        1325        1326        1331        1330
        1326        1327        1332        1331
        1327        1328        1333        1332
        1328        1329        1334        1333
        1330        1331        1336        1335
        1331        1332        1337        1336
        1332        1333        1338        1337
        1333        1334        1339        1338
        1335        1336        1341        1340
        1336        1337        1342        1341
        1337        1338        1343        1342
        1338        1339        1344        1343
        1340        1341        1346        1345
        1341        1342        1347        1346
        1342        1343        1348        1347
        1343        1344        1349        1348
        1350        1351        1356        1355
        1351        1352        1357        1356
        1352        1353        1358        1357
        1353        1354        1359        1358
        1355        1356        1361        1360
        1356        1357        1362        1361
        1357        1358        1363        1362
        1358        1359        1364        1363
        1360        1361        1366        1365
        1361        1362        1367        1366
        1362        1363        1368        1367
        1363        1364        1369        1368
        1365        1366        1371        1370
        1366        1367        1372        1371
        1367        1368        1373        1372
        1368        1369        1374        1373
        1375        1376        1381        1380
        1376        1377        1382        1381
        1377        1378        1383        1382
        1378        1379        1384        1383
        1380        1381        1386        1385
        1381        1382        1387        1386
        1382        1383        1388        1387
        1383        1384        1389        1388
        1385        1386        1391        1390
        1386        1387        1392        1391
        1387        1388        1393        1392
        1388        1389        1394        1393
        1390        1391        1396        1395
        1391        1392        1397        1396
        1392        1393        1398        1397
        1393        1394        1399        1398
        1400        1401        1406        1405
        1401        1402        1407        1406
        1402        1403        1408        1407
        1403        1404        1409        1408
        1405        1406        1411        1410
        1406        1407        1412        1411
        1407        1408        1413        1412
        1408        1409        1414        1413
        1410        1411        1416        1415
        1411        1412        1417        1416
        1412        1413        1418        1417
        1413        1414        1419        1418
        1415        1416        1421        1420
        1416        1417        1422        1421
        1417        1418        1423        1422
        1418        1419        1424        1423
        1425        1426        1431        1430
        1426        1427        1432        1431
        1427        1428        1433        1432
        1428        1429        1434        1433
        1430        1431        1436        1435
        1431        1432        1437        1436
        1432        1433        1438        1437
        1433        1434        1439        1438
        1435        1436        1441        1440
        1436        1437        1442        1441
        1437        1438        1443        1442
        1438        1439        1444        1443
        1440        1441        1446        1445
        1441        1442        1447        1446
        1442        1443        1448        1447
        1443        1444        1449        1448
        1450        1451        1456        1455
        1451        1452        1457        1456
        1452        1453        1458        1457
        1453        1454        1459        1458
        1455        1456        1461        1460
        1456        1457        1462        1461
        1457        1458        1463        1462
        1458        1459        1464        1463
        1460        1461        1466        1465
        1461        1462        1467        1466
        1462        1463        1468        1467
        1463        1464        1469        1468
        1465        1466        1471        1470
        1466        1467        1472        1471
        1467        1468        1473        1472
        1468        1469        1474        1473
        1475        1476        1481        1480
        1476        1477        1482        1481
        1477        1478        1483        1482
        1478        1479        1484        1483
        1480        1481        1486        1485
        1481        1482        1487        1486
        1482        1483        1488        1487
        1483        1484        1489        1488
        1485        1486        1491        1490
        1486        1487        1492        1491
        1487        1488        1493        1492
        1488        1489        1494        1493
        1490        1491        1496        1495
        1491        1492        1497        1496
        1492        1493        1498        1497
        1493        1494        1499        1498
        1500        1501        1506        1505
        1501        1502        1507        1506
        1502        1503        1508        1507
        1503        1504        1509        1508
        1505        1506        1511        1510
        1506        1507        1512        1511
        1507        1508        1513        1512
        1508        1509        1514        1513
        1510        1511        1516        1515
        1511        1512        1517        1516
        1512        1513        1518        1517
        1513        1514        1519        1518
        1515        1516        1521        1520
        1516        1517        1522        1521
        1517        1518        1523        1522
        1518        1519        1524        1523
        1525        1526        1531        1530
        1526        1527        1532        1531
        1527        1528        1533        1532
        1528        1529        1534        1533
        1530        1531        1536        1535
        1531        1532        1537        1536
        1532        1533        1538        1537
        1533        1534        1539        1538
        1535        1536        1541        1540
        1536        1537        1542        1541
        1537        1538        1543        1542
        1538        1539        1544        1543
        1540        1541        1546        1545
        1541        1542        1547        1546
        1542        1543        1548        1547
        1543        1544        1549        1548
        1550        1551        1556        1555
        1551        1552        1557        1556
        1552        1553        1558        1557
        1553        1554        1559        1558
        1555        1556        1561        1560
        1556        1557        1562        1561
        1557        1558        1563        1562
        1558        1559        1564        1563
        1560        1561        1566        1565
        1561        1562        1567        1566
        1562        1563        1568        1567
        1563        1564        1569        1568
        1565        1566        1571        1570
        1566        1567        1572        1571
        1567        1568        1573        1572
        1568        1569        1574        1573
        1575        1576        1581        1580
        1576        1577        1582        1581
        1577        1578        1583        1582
        1578        1579        1584        1583
        1580        1581        1586        1585
        1581        1582        1587        1586
        1582        1583        1588        1587
        1583        1584        1589        1588
        1585        1586        1591        1590
        1586        1587        1592        1591
        1587        1588        1593        1592
        1588        1589        1594        1593
        1590        1591        1596        1595
        1591        1592        1597        1596
        1592        1593        1598        1597
        1593        1594        1599        1598
 </DataArray>
 <DataArray  type="Int32"  Name="offsets"  format="ascii"> 
           4
           8
          12
          16
          20
          24
          28
          32
          36
          40
          44
          48
          52
          56
          60
          64
          68
          72
          76
          80
          84
          88
          92
          96
         100
         104
         108
         112
         116
         120
         124
         128
         132
         136
         140
         144
         148
         152
         156
         160
         164
         168
         172
         176
         180
         184
         188
         192
         196
         200
         204
         208
         212
         216
         220
         224
         228
         232
         236
         240
         244
         248
         252
         256
         260
         264
         268
         272
         276
         280
         284
         288
         292
         296
         300
         304
         308
         312
         316
         320
         324
         328
         332
         336
         340
         344
         348
         352
         356
         360
         364
         368
         372
         376
         380
         384
         388
         392
         396
         400
         404
         408
         412
         416
         420
         424
         428
         432
         436
         440
         444
         448
         452
         456
         460
         464
         468
         472
         476
         480
         484
         488
         492
         496
         500
         504
         508
         512
         516
         520
         524
         528
         532
         536
         540
         544
         548
         552
         556
         560
         564
         568
         572
         576
         580
         584
         588
         592
         596
         600
         604
         608
         612
         616
         620
         624
         628
         632
         636
         640
         644
         648
         652
         656
         660
         664
         668
         672
         676
         680
         684
         688
         692
         696
         700
         704
         708
         712
         716
         720
         724
         728
         732
         736
         740
         744
         748
         752
         756
         760
         764
         768
         772
         776
         780
         784
         788
         792
         796
         800
         804
         808
         812
         816
         820
         824
         828
         832
         836
         840
         844
         848
         852
         856
         860
         864
         868
         872
         876
         880
         884
         888
         892
         896
         900
         904
         908
         912
         916
         920
         924
         928
         932
         936
         940
         944
         948
         952
         956
         960
         964
         968
         972
         976
         980
         984
         988
         992
         996
        1000
        1004
        1008
        1012
        1016
        1020
        1024
        1028
        1032
        1036
        1040
        1044
        1048
        1052
        1056
        1060
        1064
        1068
        1072
        1076
        1080
        1084
        1088
        1092
        1096
        1100
        1104
        1108
        1112
        1116
        1120
        1124
        1128
        1132
        1136
        1140
        1144
        1148
        1152
        1156
        1160
        1164
        1168
        1172
        1176
        1180
        1184
        1188
        1192
        1196
        1200
        1204
        1208
        1212
        1216
        1220
        1224
        1228
        1232
        1236
        1240
        1244
        1248
        1252
        1256
        1260
        1264
        1268
        1272
        1276
        1280
        1284
        1288
        1292
        1296
        1300
        1304
        1308
        1312
        1316
        1320
        1324
        1328
        1332
        1336
        1340
        1344
        1348
        1352
        1356
        1360
        1364
        1368
        1372
        1376
        1380
        1384
        1388
        1392
        1396
        1400
        1404
        1408
        1412
        1416
        1420
        1424
        1428
        1432
        1436
        1440
        1444
        1448
        1452
        1456
        1460
        1464
        1468
        1472
        1476
        1480
        1484
        1488
        1492
        1496
        1500
        1504
        1508
        1512
        1516
        1520
        1524
        1528
        1532
        1536
        1540
        1544
        1548
        1552
        1556
        1560
        1564
        1568
        1572
        1576
        1580
        1584
        1588
        1592
        1596
        1600
        1604
        1608
        1612
        1616
        1620
        1624
        1628
        1632
        1636
        1640
        1644
        1648
        1652
        1656
        1660
        1664
        1668
        1672
        1676
        1680
        1684
        1688
        1692
        1696
        1700
        1704
        1708
        1712
        1716
        1720
        1724
        1728
        1732
        1736
        1740
        1744
        1748
        1752
        1756
        1760
        1764
        1768
        1772
        1776
        1780
        1784
        1788
        1792
        1796
        1800
        1804
        1808
        1812
        1816
        1820
        1824
        1828
        1832
        1836
        1840
        1844
        1848
        1852
        1856
        1860
        1864
        1868
        1872
        1876
        1880
        1884
        1888
        1892
        1896
        1900
        1904
        1908
        1912
        1916
        1920
        1924
        1928
        1932
        1936
        1940
        1944
        1948
        1952
        1956
        1960
        1964
        1968
        1972
        1976
        1980
        1984
        1988
        1992
        1996
        2000
        2004
        2008
        2012
        2016
        2020
        2024
        2028
        2032
        2036
        2040
        2044
        2048
        2052
        2056
        2060
        2064
        2068
        2072
        2076
        2080
        2084
        2088
        2092
        2096
        2100
        2104
        2108
        2112
        2116
        2120
        2124
        2128
        2132
        2136
        2140
        2144
        2148
        2152
        2156
        2160
        2164
        2168
        2172
        2176
        2180
        2184
        2188
        2192
        2196
        2200
        2204
        2208
        2212
        2216
        2220
        2224
        2228
        2232
        2236
        2240
        2244
        2248
        2252
        2256
        2260
        2264
        2268
        2272
        2276
        2280
        2284
        2288
        2292
        2296
        2300
        2304
        2308
        2312
        2316
        2320
        2324
        2328
        2332
        2336
        2340
        2344
        2348
        2352
        2356
        2360
        2364
        2368
        2372
        2376
        2380
        2384
        2388
        2392
        2396
        2400
        2404
        2408
        2412
        2416
        2420
        2424
        2428
        2432
        2436
        2440
        2444
        2448
        2452
        2456
        2460
        2464
        2468
        2472
        2476
        2480
        2484
        2488
        2492
        2496
        2500
        2504
        2508
        2512
        2516
        2520
        2524
        2528
        2532
        2536
        2540
        2544
        2548
        2552
        2556
        2560
        2564
        2568
        2572
        2576
        2580
        2584
        2588
        2592
        2596
        2600
        2604
        2608
        2612
        2616
        2620
        2624
        2628
        2632
        2636
        2640
        2644
        2648
        2652
        2656
        2660
        2664
        2668
        2672
        2676
        2680
        2684
        2688
        2692
        2696
        2700
        2704
        2708
        2712
        2716
        2720
        2724
        2728
        2732
        2736
        2740
        2744
        2748
        2752
        2756
        2760
        2764
        2768
        2772
        2776
        2780
        2784
        2788
        2792
        2796
        2800
        2804
        2808
        2812
        2816
        2820
        2824
        2828
        2832
        2836
        2840
        2844
        2848
        2852
        2856
        2860
        2864
        2868
        2872
        2876
        2880
        2884
        2888
        2892
        2896
        2900
        2904
        2908
        2912
        2916
        2920
        2924
        2928
        2932
        2936
        2940
        2944
        2948
        2952
        2956
        2960
        2964
        2968
        2972
        2976
        2980
        2984
        2988
        2992
        2996
        3000
        3004
        3008
        3012
        3016
        3020
        3024
        3028
        3032
        3036
        3040
        3044
        3048
        3052
        3056
        3060
        3064
        3068
        3072
        3076
        3080
        3084
        3088
        3092
        3096
        3100
        3104
        3108
        3112
        3116
        3120
        3124
        3128
        3132
        3136
        3140
        3144
        3148
        3152
        3156
        3160
        3164
        3168
        3172
        3176
        3180
        3184
        3188
        3192
        3196
        3200
        3204
        3208
        3212
        3216
        3220
        3224
        3228
        3232
        3236
        3240
        3244
        3248
        3252
        3256
        3260
        3264
        3268
        3272
        3276
        3280
        3284
        3288
        3292
        3296
        3300
        3304
        3308
        3312
        3316
        3320
        3324
        3328
        3332
        3336
        3340
        3344
        3348
        3352
        3356
        3360
        3364
        3368
        3372
        3376
        3380
        3384
        3388
        3392
        3396
        3400
        3404
        3408
        3412
        3416
        3420
        3424
        3428
        3432
        3436
        3440
        3444
        3448
        3452
        3456
        3460
        3464
        3468
        3472
        3476
        3480
        3484
        3488
        3492
        3496
        3500
        3504
        3508
        3512
        3516
        3520
        3524
        3528
        3532
        3536
        3540
        3544
        3548
        3552
        3556
        3560
        3564
        3568
        3572
        3576
        3580
        3584
        3588
        3592
        3596
        3600
        3604
        3608
        3612
        3616
        3620
        3624
        3628
        3632
        3636
        3640
        3644
        3648
        3652
        3656
        3660
        3664
        3668
        3672
        3676
        3680
        3684
        3688
        3692
        3696
        3700
        3704
        3708
        3712
        3716
        3720
        3724
        3728
        3732
        3736
        3740
        3744
        3748
        3752
        3756
        3760
        3764
        3768
        3772
        3776
        3780
        3784
        3788
        3792
        3796
        3800
        3804
        3808
        3812
        3816
        3820
        3824
        3828
        3832
        3836
        3840
        3844
        3848
        3852
        3856
        3860
        3864
        3868
        3872
        3876
        3880
        3884
        3888
        3892
        3896
        3900
        3904
        3908
        3912
        3916
        3920
        3924
        3928
        3932
        3936
        3940
        3944
        3948
        3952
        3956
        3960
        3964
        3968
        3972
        3976
        3980
        3984
        3988
        3992
        3996
        4000
        4004
        4008
        4012
        4016
        4020
        4024
        4028
        4032
        4036
        4040
        4044
        4048
        4052
        4056
        4060
        4064
        4068
        4072
        4076
        4080
        4084
        4088
        4092
        4096
 </DataArray>
 <DataArray  type="UInt8"  Name="types"  format="ascii">
 9
 9
 9
 9
 9
 9
 9
 9
 9
 9
 9
 9
 9
 9
 9
 9
 9
 9
 9
 9
 9
 9
 9
 9
 9
 9
 9
 9
 9
 9
 9
 9
 9
 9
 9
 9
 9
 9
 9
 9
 9
 9
 9
 9
 9
 9
 9
 9
 9
 9
 9
 9
 9
 9
 9
 9
 9
 9
 9
 9
 9
 9
 9
 9
 9
 9
 9
 9
 9
 9
 9
 9
 9
 9
 9
 9
 9
 9
 9
 9
 9
 9
 9
 9
 9
 9
 9
 9
 9
 9
 9
 9
 9
 9
 9
 9
 9
 9
 9
 9
 9
 9
 9
 9
 9
 9
 9
 9
 9
 9
 9
 9
 9
 9
 9
 9
 9
 9
 9
 9
 9
 9
 9
 9
 9
 9
 9
 9
 9
 9
 9
 9
 9
 9
 9
 9
 9
 9
 9
 9
 9
 9
 9
 9
 9
 9
 9
 9
 9
 9
 9
 9
 9
 9
 9
 9
 9
 9
 9
 9
 9
 9
 9
 9
 9
 9
 9
 9
 9
 9
 9
 9
 9
 9
 9
 9
 9
 9
 9
 9
 9
 9
 9
 9
 9
 9
 9
 9
 9
 9
 9
 9
 9
 9
 9
 9
 9
 9
 9
 9
 9
 9
 9
 9
 9
 9
 9
 9
 9
 9
 9
 9
 9
 9
 9
 9
 9
 9
 9
 9
 9
 9
 9
 9
 9
 9
 9
 9
 9
 9
 9
 9
 9
 9
 9
 9
 9
 9
 9
 9
 9
 9
 9
 9
 9
 9
 9
 9
 9
 9
 9
 9
 9
 9
 9
 9
 9
 9
 9
 9
 9
 9
 9
 9
 9
 9
 9
 9
 9
 9
 9
 9
 9
 9
 9
 9
 9
 9
 9
 9
 9
 9
 9
 9
 9
 9
 9
 9
 9
 9
 9
 9
 9
 9
 9
 9
 9
 9
 9
 9
 9
 9
 9
 9
 9
 9
 9
 9
 9
 9
 9
 9
 9
 9
 9
 9
 9
 9
 9
 9
 9
 9
 9
 9
 9
 9
 9
 9
 9
 9
 9
 9
 9
 9
 9
 9
 9
 9
 9
 9
 9
 9
 9
 9
 9
 9
 9
 9
 9
 9
 9
 9
 9
 9
 9
 9
 9
 9
 9
 9
 9
 9
 9
 9
 9
 9
 9
 9
 9
 9
 9
 9
 9
 9
 9
 9
 9
 9
 9
 9
 9
 9
 9
 9
 9
 9
 9
 9
 9
 9
 9
 9
 9
 9
 9
 9
 9
 9
 9
 9
 9
 9
 9
 9
 9
 9
 9
 9
 9
 9
 9
 9
 9
 9
 9
 9
 9
 9
 9
 9
 9
 9
 9
 9
 9
 9
 9
 9
 9
 9
 9
 9
 9
 9
 9
 9
 9
 9
 9
 9
 9
 9
 9
 9
 9
 9
 9
 9
 9
 9
 9
 9
 9
 9
 9
 9
 9
 9
 9
 9
 9
 9
 9
 9
 9
 9
 9
 9
 9
 9
 9
 9
 9
 9
 9
 9
 9
 9
 9
 9
 9
 9
 9
 9
 9
 9
 9
 9
 9
 9
 9
 9
 9
 9
 9
 9
 9
 9
 9
 9
 9
 9
 9
 9
 9
 9
 9
 9
 9
 9
 9
 9
 9
 9
 9
 9
 9
 9
 9
 9
 9
 9
 9
 9
 9
 9
 9
 9
 9
 9
 9
 9
 9
 9
 9
 9
 9
 9
 9
 9
 9
 9
 9
 9
 9
 9
 9
 9
 9
 9
 9
 9
 9
 9
 9
 9
 9
 9
 9
 9
 9
 9
 9
 9
 9
 9
 9
 9
 9
 9
 9
 9
 9
 9
 9
 9
 9
 9
 9
 9
 9
 9
 9
 9
 9
 9
 9
 9
 9
 9
 9
 9
 9
 9
 9
 9
 9
 9
 9
 9
 9
 9
 9
 9
 9
 9
 9
 9
 9
 9
 9
 9
 9
 9
 9
 9
 9
 9
 9
 9
 9
 9
 9
 9
 9
 9
 9
 9
 9
 9
 9
 9
 9
 9
 9
 9
 9
 9
 9
 9
 9
 9
 9
 9
 9
 9
 9
 9
 9
 9
 9
 9
 9
 9
 9
 9
 9
 9
 9
 9
 9
 9
 9
 9
 9
 9
 9
 9
 9
 9
 9
 9
 9
 9
 9
 9
 9
 9
 9
 9
 9
 9
 9
 9
 9
 9
 9
 9
 9
 9
 9
 9
 9
 9
 9
 9
 9
 9
 9
 9
 9
 9
 9
 9
 9
 9
 9
 9
 9
 9
 9
 9
 9
 9
 9
 9
 9
 9
 9
 9
 9
 9
 9
 9
 9
 9
 9
 9
 9
 9
 9
 9
 9
 9
 9
 9
 9
 9
 9
 9
 9
 9
 9
 9
 9
 9
 9
 9
 9
 9
 9
 9
 9
 9
 9
 9
 9
 9
 9
 9
 9
 9
 9
 9
 9
 9
 9
 9
 9
 9
 9
 9
 9
 9
 9
 9
 9
 9
 9
 9
 9
 9
 9
 9
 9
 9
 9
 9
 9
 9
 9
 9
 9
 9
 9
 9
 9
 9
 9
 9
 9
 9
 9
 9
 9
 9
 9
 9
 9
 9
 9
 9
 9
 9
 9
 9
 9
 9
 9
 9
 9
 9
 9
 9
 9
 9
 9
 9
 9
 9
 9
 9
 9
 9
 9
 9
 9
 9
 9
 9
 9
 9
 9
 9
 9
 9
 9
 9
 9
 9
 9
 9
 9
 9
 9
 9
 9
 9
 9
 9
 9
 9
 9
 9
 9
 9
 9
 9
 9
 9
 9
 9
 9
 9
 9
 9
 9
 9
 9
 9
 9
 9
 9
 9
 9
 9
 9
 9
 9
 9
 9
 9
 9
 9
 9
 9
 9
 9
 9
 9
 9
 9
 9
 9
 9
 9
 9
 9
 9
 9
 9
 9
 9
 9
 9
 9
 9
 9
 9
 9
 9
 9
 9
 9
 9
 9
 9
 9
 9
 9
 9
 9
 9
 9
 9
 9
 9
 9
 9
 9
 9
 9
 9
 9
 9
 9
 9
 9
 9
 9
 9
 9
 9
 9
 9
 9
 9
 9
 9
 9
 9
 9
 9
 9
 9
 9
 9
 9
 9
 9
 9
 9
 9
 9
 9
 9
 9
 9
 9
 9
 9
 9
 9
 9
 9
 9
 9
 9
 9
 9
 9
 9
 9
 9
 9
 9
 9
 9
 9
 9
 9
 9
 9
 9
 9
 9
 9
 9
 9
 9
 9
 9
 9
 9
 9
 9
 9
 9
 9
 9
 9
 9
 9
 9
 </DataArray>
 </Cells> 
 <PointData>
 <DataArray  type="Float64" Name="disp" NumberOfComponents="3" format="ascii">
   6.7853445104802096E-002   5.9890474771968245E-002   0.0000000000000000     
   7.0077103302139843E-002   6.6790573483826665E-002   0.0000000000000000     
   7.2462755964294620E-002   7.3416600520822536E-002   0.0000000000000000     
   7.5010403091266414E-002   7.9768555882955838E-002   0.0000000000000000     
   7.7720044683055239E-002   8.5846439570226585E-002   0.0000000000000000     
   6.0636639395131434E-002   6.0993889000409418E-002   0.0000000000000000     
   6.3481316017908296E-002   6.6971171367065013E-002   0.0000000000000000     
   6.6275163885627222E-002   7.2958034725956467E-002   0.0000000000000000     
   6.9018182998288213E-002   7.8954479077083750E-002   0.0000000000000000     
   7.1710373355891255E-002   8.4960504420446906E-002   0.0000000000000000     
   5.5519570517158126E-002   6.1480330265025321E-002   0.0000000000000000     
   5.8469688827758964E-002   6.6861097080689436E-002   0.0000000000000000     
   6.1273216976717081E-002   7.2438012860326084E-002   0.0000000000000000     
   6.3930154964032496E-002   7.8211077603935281E-002   0.0000000000000000     
   6.6440502789705175E-002   8.4180291311516969E-002   0.0000000000000000     
   5.2502238470882145E-002   6.1349798565815954E-002   0.0000000000000000     
   5.5042221731691834E-002   6.6460350624699932E-002   0.0000000000000000     
   5.7456915237564202E-002   7.1856534923931417E-002   0.0000000000000000     
   5.9746318988499261E-002   7.7538351463510374E-002   0.0000000000000000     
   6.1910432984497020E-002   8.3505800243436845E-002   0.0000000000000000     
   5.1584643256303526E-002   6.0602293902781317E-002   0.0000000000000000     
   5.3198914729706906E-002   6.5768931999096503E-002   0.0000000000000000     
   5.4826258668168572E-002   7.1213600916772424E-002   0.0000000000000000     
   5.6466675071688538E-002   7.6936300655809101E-002   0.0000000000000000     
   5.8120163940266791E-002   8.2937031216206505E-002   0.0000000000000000     
   7.7720044683055239E-002   8.5846439570226585E-002   0.0000000000000000     
   8.0478488757518646E-002   9.1891376748854642E-002   0.0000000000000000     
   8.3172543332514226E-002   9.8144492585059834E-002   0.0000000000000000     
   8.5802208408041952E-002  0.10460578707884222        0.0000000000000000     
   8.8367483984101838E-002  0.11127526023020176        0.0000000000000000     
   7.1710373355891255E-002   8.4960504420446906E-002   0.0000000000000000     
   7.4339811098841815E-002   9.1068623386444503E-002   0.0000000000000000     
   7.6894572367545364E-002   9.7371348605475194E-002   0.0000000000000000     
   7.9374657162001899E-002  0.10386868007753899        0.0000000000000000     
   8.1780065482211436E-002  0.11056061780263593        0.0000000000000000     
   6.6440502789705175E-002   8.4180291311516969E-002   0.0000000000000000     
   6.8843451197454039E-002   9.0339728552484899E-002   0.0000000000000000     
   7.1178190930997975E-002   9.6683463896252653E-002   0.0000000000000000     
   7.3444721990336984E-002  0.10321149734282033        0.0000000000000000     
   7.5643044375471064E-002  0.10992382889218784        0.0000000000000000     
   6.1910432984497020E-002   8.3505800243436845E-002   0.0000000000000000     
   6.3989409053355331E-002   8.9704692246975790E-002   0.0000000000000000     
   6.6023399022872062E-002   9.6080838457392237E-002   0.0000000000000000     
   6.8012402893047191E-002  0.10263423887468612        0.0000000000000000     
   6.9956420663880733E-002  0.10936489349885752        0.0000000000000000     
   5.8120163940266791E-002   8.2937031216206505E-002   0.0000000000000000     
   5.9777684666545698E-002   8.9163514469917243E-002   0.0000000000000000     
   6.1430196643167602E-002   9.5563472288893891E-002   0.0000000000000000     
   6.3077699870132523E-002  0.10213690467313646        0.0000000000000000     
   6.4720194347440432E-002  0.10888381162264493        0.0000000000000000     
   8.8367483984101838E-002  0.11127526023020176        0.0000000000000000     
   9.0843194699563479E-002  0.11811517844643615        0.0000000000000000     
   9.3204165193296482E-002  0.12508780813484310        0.0000000000000000     
   9.5450395465300805E-002  0.13219314929542259        0.0000000000000000     
   9.7581885515576477E-002  0.13943120192817460        0.0000000000000000     
   8.1780065482211436E-002  0.11056061780263593        0.0000000000000000     
   8.4095324147814482E-002  0.11741862668418254        0.0000000000000000     
   8.6304959978451570E-002  0.12441417162559550        0.0000000000000000     
   8.8408972974122743E-002  0.13154725262687478        0.0000000000000000     
   9.0407363134827931E-002  0.13881786968802043        0.0000000000000000     
   7.5643044375471064E-002  0.10992382889218784        0.0000000000000000     
   7.7761114979266605E-002  0.11679877654399835        0.0000000000000000     
   7.9786890694590010E-002  0.12381465829789502        0.0000000000000000     
   8.1720371521441265E-002  0.13097147415387780        0.0000000000000000     
   8.3561557459820426E-002  0.13826922411194678        0.0000000000000000     
   6.9956420663880733E-002  0.10936489349885752        0.0000000000000000     
   7.1840567193919860E-002  0.11625562802588360        0.0000000000000000     
   7.3649957341711772E-002  0.12328926815174167        0.0000000000000000     
   7.5384591107256482E-002  0.13046581387643169        0.0000000000000000     
   7.7044468490553950E-002  0.13778526519995368        0.0000000000000000     
   6.4720194347440432E-002  0.10888381162264493        0.0000000000000000     
   6.6333680791774235E-002  0.11578918112983827        0.0000000000000000     
   6.7894159919816857E-002  0.12283800118713539        0.0000000000000000     
   6.9401631731568283E-002  0.13003027179453636        0.0000000000000000     
   7.0856096227028501E-002  0.13736599295204110        0.0000000000000000     
   9.7581885515576477E-002  0.13943120192817460        0.0000000000000000     
   9.9605455185333952E-002  0.14679085502613037        0.0000000000000000     
  0.10152792431578364       0.15426099758232106        0.0000000000000000     
  0.10334929290692557       0.16184162959674669        0.0000000000000000     
  0.10506956095875972       0.16953275106940724        0.0000000000000000     
   9.0407363134827931E-002  0.13881786968802043        0.0000000000000000     
   9.2306351416894875E-002  0.14621108043612457        0.0000000000000000     
   9.4112158776651231E-002  0.15371194249827946        0.0000000000000000     
   9.5824785214097000E-002  0.16132045587448507        0.0000000000000000     
   9.7444230729232181E-002  0.16903662056474139        0.0000000000000000     
   8.3561557459820426E-002  0.13826922411194678        0.0000000000000000     
   8.5313714201380245E-002  0.14569067715634743        0.0000000000000000     
   8.6980107437773554E-002  0.15321860227132530        0.0000000000000000     
   8.8560737169000342E-002  0.16085299945688045        0.0000000000000000     
   9.0055603395060649E-002  0.16859386871301282        0.0000000000000000     
   7.7044468490553950E-002  0.13778526519995368        0.0000000000000000     
   7.8627543538790035E-002  0.14522964518679890        0.0000000000000000     
   8.0131770299150612E-002  0.15278097690145861        0.0000000000000000     
   8.1557148771635640E-002  0.16043926034393285        0.0000000000000000     
   8.2903678956245147E-002  0.16820449551422159        0.0000000000000000     
   7.0856096227028501E-002  0.13736599295204110        0.0000000000000000     
   7.2247839429124286E-002  0.14482798452747903        0.0000000000000000     
   7.3567147360782417E-002  0.15239906638867939        0.0000000000000000     
   7.4814020022002853E-002  0.16007923853564235        0.0000000000000000     
   7.5988457412785648E-002  0.16786850096836772        0.0000000000000000     
  0.10506956095875972       0.16953275106940724        0.0000000000000000     
  0.10669050220132055       0.17732696832068845        0.0000000000000000     
  0.10821389036464252       0.18521688767097605        0.0000000000000000     
  0.10963972544872565       0.19320250912027001        0.0000000000000000     
  0.11096800745356991       0.20128383266857031        0.0000000000000000     
   9.7444230729232181E-002  0.16903662056474139        0.0000000000000000     
   9.8967411176044573E-002  0.17685613473555073        0.0000000000000000     
  0.10039124240852203       0.18477469655341547        0.0000000000000000     
  0.10171572442666453       0.19279230601833555        0.0000000000000000     
  0.10294085723047208       0.20090896313031104        0.0000000000000000     
   9.0055603395060649E-002  0.16859386871301282        0.0000000000000000     
   9.1459986577907951E-002  0.17643831476780991        0.0000000000000000     
   9.2769167179495793E-002  0.18438344234935919        0.0000000000000000     
   9.3983145199824161E-002  0.19242925145766068        0.0000000000000000     
   9.5101920638893042E-002  0.20057574209271437        0.0000000000000000     
   8.2903678956245147E-002  0.16820449551422159        0.0000000000000000     
   8.4168228406910656E-002  0.17607350841746600        0.0000000000000000     
   8.5347664677563786E-002  0.18404312505880724        0.0000000000000000     
   8.6441987768204512E-002  0.19211334543824535        0.0000000000000000     
   8.7451197678832845E-002  0.20028416955578027        0.0000000000000000     
   7.5988457412785648E-002  0.16786850096836772        0.0000000000000000     
   7.7092136663052716E-002  0.17576171568451904        0.0000000000000000     
   7.8126734902726036E-002  0.18375374468175962        0.0000000000000000     
   7.9092252131805610E-002  0.19184458796008957        0.0000000000000000     
   7.9988688350291437E-002  0.20003424551950882        0.0000000000000000     
  0.11096800745356991       0.20128383266857031        0.0000000000000000     
  0.11220636606072243       0.20945629813683303        0.0000000000000000     
  0.11336243095173033       0.21771534534601408        0.0000000000000000     
  0.11443620212659361       0.22606097429611358        0.0000000000000000     
  0.11542767958531225       0.23449318498713145        0.0000000000000000     
  0.10294085723047208       0.20090896313031104        0.0000000000000000     
  0.10407780315494411       0.20911495725831633        0.0000000000000000     
  0.10513772453508007       0.21740057777132582        0.0000000000000000     
  0.10612062137087996       0.22576582466933953        0.0000000000000000     
  0.10702649366234379       0.23421069795235749        0.0000000000000000     
   9.5101920638893042E-002  0.20057574209271437        0.0000000000000000     
   9.6136484334480438E-002  0.20881036128140554        0.0000000000000000     
   9.7097827124364294E-002  0.21712055605061950        0.0000000000000000     
   9.7985949008544626E-002  0.22550632640035614        0.0000000000000000     
   9.8800849987021405E-002  0.23396767233061566        0.0000000000000000     
   8.7451197678832845E-002  0.20028416955578027        0.0000000000000000     
   8.8382409599331441E-002  0.20854251020610065        0.0000000000000000     
   8.9242738719583048E-002  0.21687528018389507        0.0000000000000000     
   9.0032185039587584E-002  0.22528247948916350        0.0000000000000000     
   9.0750748559345132E-002  0.23376410812190598        0.0000000000000000     
   7.9988688350291437E-002  0.20003424551950882        0.0000000000000000     
   8.0815578949497119E-002  0.20831140403240173        0.0000000000000000     
   8.1572459320736257E-002  0.21666475017115261        0.0000000000000000     
   8.2259329464008879E-002  0.22509428393576147        0.0000000000000000     
   8.2876189379314971E-002  0.23360000532622838        0.0000000000000000     
  0.11542767958531225       0.23449318498713145        0.0000000000000000     
  0.11636783134717599       0.24302486081266056        0.0000000000000000     
  0.11728762543147447       0.25166888516629382        0.0000000000000000     
  0.11818706183820775       0.26042525804803113        0.0000000000000000     
  0.11906614056737580       0.26929397945787270        0.0000000000000000     
  0.10702649366234379       0.23421069795235749        0.0000000000000000     
  0.10786160476823831       0.24275679799345271        0.0000000000000000     
  0.10863221804733031       0.25142572516569828        0.0000000000000000     
  0.10933833349961980       0.26021747946909413        0.0000000000000000     
  0.10997995112510676       0.26913206090364034        0.0000000000000000     
   9.8800849987021405E-002  0.23396767233061566        0.0000000000000000     
   9.9533390947678796E-002  0.24253028210190006        0.0000000000000000     
  0.10017443277840098       0.25121984397471148        0.0000000000000000     
  0.10072397547918788       0.26003635794905000        0.0000000000000000     
  0.10118201905003961       0.26897982402491566        0.0000000000000000     
   9.0750748559345132E-002  0.23376410812190598        0.0000000000000000     
   9.1383189885497498E-002  0.24234531313800262        0.0000000000000000     
   9.1914269624686448E-002  0.25105124159333359        0.0000000000000000     
   9.2343987776912051E-002  0.25988189348789892        0.0000000000000000     
   9.2672344342174279E-002  0.26883726882169856        0.0000000000000000     
   8.2876189379314971E-002  0.23360000532622838        0.0000000000000000     
   8.3411001581694330E-002  0.24220189110176032        0.0000000000000000     
   8.3851728586186752E-002  0.25091991802156449        0.0000000000000000     
   8.4198370392792266E-002  0.25975408608564071        0.0000000000000000     
   8.4450927001510828E-002  0.26870439529398910        0.0000000000000000     
  0.11906614056737580       0.26929397945787270        0.0000000000000000     
  0.11986574869544316       0.27844116467086233        0.0000000000000000     
  0.12052677329887439       0.28803292896204419        0.0000000000000000     
  0.12104921437766947       0.29806927233141822        0.0000000000000000     
  0.12143307193182840       0.30855019477898454        0.0000000000000000     
  0.10997995112510676       0.26913206090364034        0.0000000000000000     
  0.11053863065728205       0.27830228318937900        0.0000000000000000     
  0.11099593182963646       0.28786096004635220        0.0000000000000000     
  0.11135185464217000       0.29780809147455989        0.0000000000000000     
  0.11160639909488265       0.30814367747400206        0.0000000000000000     
  0.10118201905003961       0.26897982402491566        0.0000000000000000     
  0.10155999603415358       0.27814862735294565        0.0000000000000000     
  0.10186933897472741       0.28764115308377747        0.0000000000000000     
  0.10211004787176105       0.29745740121741110        0.0000000000000000     
  0.10228212272525453       0.30759737175384649        0.0000000000000000     
   9.2672344342174279E-002  0.26883726882169856        0.0000000000000000     
   9.2929844826057803E-002  0.27798019716156236        0.0000000000000000     
   9.3146994734147254E-002  0.28737350807432022        0.0000000000000000     
   9.3323794066442645E-002  0.29701720155997208        0.0000000000000000     
   9.3460242822944004E-002  0.30691127761851783        0.0000000000000000     
   8.4450927001510828E-002  0.26870439529398910        0.0000000000000000     
   8.4648177032994681E-002  0.27779699261522905        0.0000000000000000     
   8.4828899107896011E-002  0.28705802501798028        0.0000000000000000     
   8.4993093226214816E-002  0.29648749250224266        0.0000000000000000     
   8.5140759387951098E-002  0.30608539506801613        0.0000000000000000     
   5.1584643256303526E-002   6.0602293902781317E-002   0.0000000000000000     
   5.3198914729706906E-002   6.5768931999096503E-002   0.0000000000000000     
   5.4826258668168572E-002   7.1213600916772424E-002   0.0000000000000000     
   5.6466675071688538E-002   7.6936300655809101E-002   0.0000000000000000     
   5.8120163940266791E-002   8.2937031216206505E-002   0.0000000000000000     
   5.0504745866731149E-002   5.9608365101579852E-002   0.0000000000000000     
   5.1193105708876724E-002   6.4964832140198742E-002   0.0000000000000000     
   5.2043935301198184E-002   7.0552210518045527E-002   0.0000000000000000     
   5.3057234643695536E-002   7.6370500235120223E-002   0.0000000000000000     
   5.4233003736368759E-002   8.2419701291422801E-002   0.0000000000000000     
   4.7000507295473934E-002   5.8738560987870031E-002   0.0000000000000000     
   4.7278132556273826E-002   6.4226041984326271E-002   0.0000000000000000     
   4.7772633169321010E-002   6.9915363406947109E-002   0.0000000000000000     
   4.8484009134615487E-002   7.5806525255732560E-002   0.0000000000000000     
   4.9412260452157242E-002   8.1899527530682581E-002   0.0000000000000000     
   4.1071927542531868E-002   5.7992881561651811E-002   0.0000000000000000     
   4.1453995271898220E-002   6.3552561531479063E-002   0.0000000000000000     
   4.2012352272537051E-002   6.9303059583477156E-002   0.0000000000000000     
   4.2746998544448397E-002   7.5244375717646098E-002   0.0000000000000000     
   4.3657934087632209E-002   8.1376509933985874E-002   0.0000000000000000     
   3.2719006607904964E-002   5.7371326822925228E-002   0.0000000000000000     
   3.3720693855749891E-002   6.2944390781657145E-002   0.0000000000000000     
   3.4763092610846320E-002   6.8715299047635695E-002   0.0000000000000000     
   3.5846202873194254E-002   7.4684051620860864E-002   0.0000000000000000     
   3.6970024642793697E-002   8.0850648501332639E-002   0.0000000000000000     
   5.8120163940266791E-002   8.2937031216206505E-002   0.0000000000000000     
   5.9777684666545698E-002   8.9163514469917243E-002   0.0000000000000000     
   6.1430196643167602E-002   9.5563472288893891E-002   0.0000000000000000     
   6.3077699870132523E-002  0.10213690467313646        0.0000000000000000     
   6.4720194347440432E-002  0.10888381162264493        0.0000000000000000     
   5.4233003736368759E-002   8.2419701291422801E-002   0.0000000000000000     
   5.5505684743061501E-002   8.8669863018535230E-002   0.0000000000000000     
   5.6809719827617379E-002   9.5091034748039455E-002   0.0000000000000000     
   5.8145108990036380E-002  0.10168321647993549        0.0000000000000000     
   5.9511852230318511E-002  0.10844640821422329        0.0000000000000000     
   4.9412260452157242E-002   8.1899527530682581E-002   0.0000000000000000     
   5.0470815988939169E-002   8.8177405690055777E-002   0.0000000000000000     
   5.1573104611954163E-002   9.4623195192110723E-002   0.0000000000000000     
   5.2719126321202223E-002  0.10123689603684737        0.0000000000000000     
   5.3908881116683328E-002  0.10801850822426576        0.0000000000000000     
   4.3657934087632209E-002   8.1376509933985874E-002   0.0000000000000000     
   4.4673078404178695E-002   8.7686142484478910E-002   0.0000000000000000     
   4.5720350996177959E-002   9.4159953621107670E-002   0.0000000000000000     
   4.6799751863630029E-002  0.10079794334387214        0.0000000000000000     
   4.7911281006534898E-002  0.10760011165277233        0.0000000000000000     
   3.6970024642793697E-002   8.0850648501332639E-002   0.0000000000000000     
   3.8112471988780067E-002   8.7196073401804616E-002   0.0000000000000000     
   3.9251458980288770E-002   9.3701310035030322E-002   0.0000000000000000     
   4.0386985617319814E-002  0.10036635840100981        0.0000000000000000     
   4.1519051899873191E-002  0.10719121849974302        0.0000000000000000     
   6.4720194347440432E-002  0.10888381162264493        0.0000000000000000     
   6.6333680791774235E-002  0.11578918112983827        0.0000000000000000     
   6.7894159919816857E-002  0.12283800118713539        0.0000000000000000     
   6.9401631731568283E-002  0.13003027179453636        0.0000000000000000     
   7.0856096227028501E-002  0.13736599295204110        0.0000000000000000     
   5.9511852230318511E-002  0.10844640821422329        0.0000000000000000     
   6.0877009056353265E-002  0.11536674462284040        0.0000000000000000     
   6.2207638976030155E-002  0.12243036037772434        0.0000000000000000     
   6.3503741989349147E-002  0.12963725547887506        0.0000000000000000     
   6.4765318096310281E-002  0.13698742992629256        0.0000000000000000     
   5.3908881116683328E-002  0.10801850822426576        0.0000000000000000     
   5.5107105271180457E-002  0.11495562727186806        0.0000000000000000     
   5.6278535057476514E-002  0.12203584869715643        0.0000000000000000     
   5.7423170475571536E-002  0.12925917250013091        0.0000000000000000     
   5.8541011525465488E-002  0.13662559868079149        0.0000000000000000     
   4.7911281006534898E-002  0.10760011165277233        0.0000000000000000     
   4.9023969436255796E-002  0.11455582907692120        0.0000000000000000     
   5.0106848164155955E-002  0.12165446614543178        0.0000000000000000     
   5.1159917190235403E-002  0.12889602285830404        0.0000000000000000     
   5.2183176514494105E-002  0.13628049921553798        0.0000000000000000     
   4.1519051899873191E-002  0.10719121849974302        0.0000000000000000     
   4.2627601551579290E-002  0.11416735003799987        0.0000000000000000     
   4.3692578296068478E-002  0.12128621272255033        0.0000000000000000     
   4.4713982133340768E-002  0.12854780655339432        0.0000000000000000     
   4.5691813063396147E-002  0.13595213153053187        0.0000000000000000     
   7.0856096227028501E-002  0.13736599295204110        0.0000000000000000     
   7.2247839429124286E-002  0.14482798452747903        0.0000000000000000     
   7.3567147360782417E-002  0.15239906638867939        0.0000000000000000     
   7.4814020022002853E-002  0.16007923853564235        0.0000000000000000     
   7.5988457412785648E-002  0.16786850096836772        0.0000000000000000     
   6.4765318096310281E-002  0.13698742992629256        0.0000000000000000     
   6.5976311925029396E-002  0.14446522806843279        0.0000000000000000     
   6.7120668103622341E-002  0.15205499425375169        0.0000000000000000     
   6.8198386632089117E-002  0.15975672848224917        0.0000000000000000     
   6.9209467510429723E-002  0.16757043075392536        0.0000000000000000     
   5.8541011525465488E-002  0.13662559868079149        0.0000000000000000     
   5.9614671079151776E-002  0.14412090869970529        0.0000000000000000     
   6.0626762008623783E-002  0.15173088401743945        0.0000000000000000     
   6.1577284313881507E-002  0.15945552463399387        0.0000000000000000     
   6.2466237994924956E-002  0.16729483054936867        0.0000000000000000     
   5.2183176514494105E-002  0.13628049921553798        0.0000000000000000     
   5.3162916891491427E-002  0.14379502642129649        0.0000000000000000     
   5.4085429075786749E-002  0.15142673567974266        0.0000000000000000     
   5.4950713067380044E-002  0.15917562699087634        0.0000000000000000     
   5.5758768866271312E-002  0.16704170035469765        0.0000000000000000     
   4.5691813063396147E-002  0.13595213153053187        0.0000000000000000     
   4.6621049362048375E-002  0.14348758123320640        0.0000000000000000     
   4.7496669305111233E-002  0.15114254924066134        0.0000000000000000     
   4.8318672892584714E-002  0.15891703555289660        0.0000000000000000     
   4.9087060124468812E-002  0.16681104016991230        0.0000000000000000     
   7.5988457412785648E-002  0.16786850096836772        0.0000000000000000     
   7.7092136663052716E-002  0.17576171568451904        0.0000000000000000     
   7.8126734902726036E-002  0.18375374468175962        0.0000000000000000     
   7.9092252131805610E-002  0.19184458796008957        0.0000000000000000     
   7.9988688350291437E-002  0.20003424551950882        0.0000000000000000     
   6.9209467510429723E-002  0.16757043075392536        0.0000000000000000     
   7.0160200466262035E-002  0.17548820446722202        0.0000000000000000     
   7.1056875227203858E-002  0.18350215302058109        0.0000000000000000     
   7.1899491793255249E-002  0.19161227641400266        0.0000000000000000     
   7.2688050164416165E-002  0.19981857464748662        0.0000000000000000     
   6.2466237994924956E-002  0.16729483054936867        0.0000000000000000     
   6.3300908936466505E-002  0.17523824266382809        0.0000000000000000     
   6.4088583023218612E-002  0.18327520187763652        0.0000000000000000     
   6.4829260255181223E-002  0.19140570819079392        0.0000000000000000     
   6.5522940632354379E-002  0.19962976160330032        0.0000000000000000     
   5.5758768866271312E-002  0.16704170035469765        0.0000000000000000     
   5.6514262073666180E-002  0.17501183027433725        0.0000000000000000     
   5.7221858290770256E-002  0.18307289125292581        0.0000000000000000     
   5.7881557517583559E-002  0.19122488329046339        0.0000000000000000     
   5.8493359754106071E-002  0.19946780638695003        0.0000000000000000     
   4.9087060124468812E-002  0.16681104016991230        0.0000000000000000     
   4.9800259877861033E-002  0.17480896729874940        0.0000000000000000     
   5.0456701029858837E-002  0.18289522114644902        0.0000000000000000     
   5.1056383580462245E-002  0.19106980171301108        0.0000000000000000     
   5.1599307529671234E-002  0.19933270899843569        0.0000000000000000     
   7.9988688350291437E-002  0.20003424551950882        0.0000000000000000     
   8.0815578949497119E-002  0.20831140403240173        0.0000000000000000     
   8.1572459320736257E-002  0.21666475017115261        0.0000000000000000     
   8.2259329464008879E-002  0.22509428393576147        0.0000000000000000     
   8.2876189379314971E-002  0.23360000532622838        0.0000000000000000     
   7.2688050164416165E-002  0.19981857464748662        0.0000000000000000     
   7.3415020541225187E-002  0.20811220548888165        0.0000000000000000     
   7.4072873124220839E-002  0.21648432670603643        0.0000000000000000     
   7.4661607913403136E-002  0.22493493829895095        0.0000000000000000     
   7.5181224908772104E-002  0.23346404026762529        0.0000000000000000     
   6.5522940632354379E-002  0.19962976160330032        0.0000000000000000     
   6.6159762530763416E-002  0.20794007730411343        0.0000000000000000     
   6.6729864326433616E-002  0.21632937048219086        0.0000000000000000     
   6.7233246019365048E-002  0.22479764113753273        0.0000000000000000     
   6.7669907609557683E-002  0.23334488927013897        0.0000000000000000     
   5.8493359754106071E-002  0.19946780638695003        0.0000000000000000     
   5.9049804918111765E-002  0.20779501947809709        0.0000000000000000     
   5.9543432927374601E-002  0.21619988149961603        0.0000000000000000     
   5.9974243781894587E-002  0.22468239245150676        0.0000000000000000     
   6.0342237481671730E-002  0.23324255233376939        0.0000000000000000     
   5.1599307529671234E-002  0.19933270899843569        0.0000000000000000     
   5.2085147703270274E-002  0.20767703201083260        0.0000000000000000     
   5.2513578927043780E-002  0.21609585975831175        0.0000000000000000     
   5.2884601200991775E-002  0.22458919224087309        0.0000000000000000     
   5.3198214525114237E-002  0.23315702945851668        0.0000000000000000     
   8.2876189379314971E-002  0.23360000532622838        0.0000000000000000     
   8.3411001581694330E-002  0.24220189110176032        0.0000000000000000     
   8.3851728586186752E-002  0.25091991802156449        0.0000000000000000     
   8.4198370392792266E-002  0.25975408608564071        0.0000000000000000     
   8.4450927001510828E-002  0.26870439529398910        0.0000000000000000     
   7.5181224908772104E-002  0.23346404026762529        0.0000000000000000     
   7.5626761247021668E-002  0.24208415099964473        0.0000000000000000     
   7.5993254064845875E-002  0.25080778888259464        0.0000000000000000     
   7.6280703362244684E-002  0.25963495391647506        0.0000000000000000     
   7.6489109139218123E-002  0.26856564610128597        0.0000000000000000     
   6.7669907609557683E-002  0.23334488927013897        0.0000000000000000     
   6.8040404092231818E-002  0.24197622783812708        0.0000000000000000     
   6.8345290462607747E-002  0.25069676979961458        0.0000000000000000     
   6.8584566720685497E-002  0.25950651515460155        0.0000000000000000     
   6.8758232866465027E-002  0.26840546390308784        0.0000000000000000     
   6.0342237481671730E-002  0.23324255233376939        0.0000000000000000     
   6.0651930117324740E-002  0.24187812161720743        0.0000000000000000     
   6.0907837779472403E-002  0.25058686077262443        0.0000000000000000     
   6.1109960468114663E-002  0.25936876980002010        0.0000000000000000     
   6.1258298183251542E-002  0.26822384869939492        0.0000000000000000     
   5.3198214525114237E-002  0.23315702945851668        0.0000000000000000     
   5.3461339322300482E-002  0.24178983233688581        0.0000000000000000     
   5.3680896015439808E-002  0.25047806180162391        0.0000000000000000     
   5.3856884604532203E-002  0.25922171785273096        0.0000000000000000     
   5.3989305089577680E-002  0.26802080049020705        0.0000000000000000     
   8.4450927001510828E-002  0.26870439529398910        0.0000000000000000     
   8.4648177032994681E-002  0.27779699261522905        0.0000000000000000     
   8.4828899107896011E-002  0.28705802501798028        0.0000000000000000     
   8.4993093226214816E-002  0.29648749250224266        0.0000000000000000     
   8.5140759387951098E-002  0.30608539506801613        0.0000000000000000     
   7.6489109139218123E-002  0.26856564610128597        0.0000000000000000     
   7.6658892954842212E-002  0.27759335057931778        0.0000000000000000     
   7.6830476368192999E-002  0.28671155249286095        0.0000000000000000     
   7.7003859379270470E-002  0.29592025184191550        0.0000000000000000     
   7.7179041988074626E-002  0.30521944862648148        0.0000000000000000     
   6.8758232866465027E-002  0.26840546390308784        0.0000000000000000     
   6.8905892891478374E-002  0.27736360791920028        0.0000000000000000     
   6.9067150787257586E-002  0.28635093907706549        0.0000000000000000     
   6.9242006553802582E-002  0.29536745737668341        0.0000000000000000     
   6.9430460191113430E-002  0.30441316281805403        0.0000000000000000     
   6.1258298183251542E-002  0.26822384869939492        0.0000000000000000     
   6.1389176842903188E-002  0.27710776463487669        0.0000000000000000     
   6.1538922365089732E-002  0.28597618477059378        0.0000000000000000     
   6.1707534749811173E-002  0.29482910910654608        0.0000000000000000     
   6.1895013997067497E-002  0.30366653764273360        0.0000000000000000     
   5.3989305089577680E-002  0.26802080049020705        0.0000000000000000     
   5.4108744809116635E-002  0.27682582072634698        0.0000000000000000     
   5.4245791101689478E-002  0.28558728957344592        0.0000000000000000     
   5.4400443967296215E-002  0.29430520703150370        0.0000000000000000     
   5.4572703405936826E-002  0.30297957310052037        0.0000000000000000     
   3.2719006607904964E-002   5.7371326822925228E-002   0.0000000000000000     
   3.3720693855749891E-002   6.2944390781657145E-002   0.0000000000000000     
   3.4763092610846320E-002   6.8715299047635695E-002   0.0000000000000000     
   3.5846202873194254E-002   7.4684051620860864E-002   0.0000000000000000     
   3.6970024642793697E-002   8.0850648501332639E-002   0.0000000000000000     
   2.4388132587602376E-002   5.6854122770777116E-002   0.0000000000000000     
   2.6030448557943835E-002   6.2416514801218008E-002   0.0000000000000000     
   2.7573230086921949E-002   6.8189434998502219E-002   0.0000000000000000     
   2.9016477174536724E-002   7.4172883362629727E-002   0.0000000000000000     
   3.0360189820788155E-002   8.0366859893600581E-002   0.0000000000000000     
   1.8525693577633257E-002   5.6421495404294329E-002   0.0000000000000000     
   2.0335479628595041E-002   6.1983918656519130E-002   0.0000000000000000     
   2.1991140603437098E-002   6.7762820635156235E-002   0.0000000000000000     
   2.3492676502159440E-002   7.3758201340205665E-002   0.0000000000000000     
   2.4840087324762054E-002   7.9970060771667406E-002   0.0000000000000000     
   1.5131689577997610E-002   5.6073444723476883E-002   0.0000000000000000     
   1.6635787067703505E-002   6.1646602347560517E-002   0.0000000000000000     
   1.8016824160391770E-002   6.7435455957597756E-002   0.0000000000000000     
   1.9274800856062403E-002   7.3440005553588594E-002   0.0000000000000000     
   2.0409717154715405E-002   7.9660251135533044E-002   0.0000000000000000     
   1.4206120588695432E-002   5.5809970728324748E-002   0.0000000000000000     
   1.4931370875269230E-002   6.1404565874342176E-002   0.0000000000000000     
   1.5650280757785955E-002   6.7207340965826784E-002   0.0000000000000000     
   1.6362850236245612E-002   7.3218296002778571E-002   0.0000000000000000     
   1.7069079310648196E-002   7.9437430985197566E-002   0.0000000000000000     
   3.6970024642793697E-002   8.0850648501332639E-002   0.0000000000000000     
   3.8112471988780067E-002   8.7196073401804616E-002   0.0000000000000000     
   3.9251458980288770E-002   9.3701310035030322E-002   0.0000000000000000     
   4.0386985617319814E-002  0.10036635840100981        0.0000000000000000     
   4.1519051899873191E-002  0.10719121849974302        0.0000000000000000     
   3.0360189820788155E-002   8.0366859893600581E-002   0.0000000000000000     
   3.1634231609948743E-002   8.6744315600577257E-002   0.0000000000000000     
   3.2868466126290991E-002   9.3278201492722215E-002   0.0000000000000000     
   3.4062893369814898E-002   9.9968517570035498E-002   0.0000000000000000     
   3.5217513340520465E-002  0.10681526383251709        0.0000000000000000     
   2.4840087324762054E-002   7.9970060771667406E-002   0.0000000000000000     
   2.6083592134890178E-002   8.6367986239341207E-002   0.0000000000000000     
   2.7273409996189029E-002   9.2921565053026886E-002   0.0000000000000000     
   2.8409540908658618E-002   9.9630797212724442E-002   0.0000000000000000     
   2.9491984872298933E-002  0.10649568271843385        0.0000000000000000     
   2.0409717154715405E-002   7.9660251135533044E-002   0.0000000000000000     
   2.1460553563604368E-002   8.6067085318096495E-002   0.0000000000000000     
   2.2466290589982889E-002   9.2631400715944348E-002   0.0000000000000000     
   2.3426928233850969E-002   9.9353197329076631E-002   0.0000000000000000     
   2.4342466495208603E-002  0.10623247515749329        0.0000000000000000     
   1.7069079310648196E-002   7.9437430985197566E-002   0.0000000000000000     
   1.7765115896091310E-002   8.5841612836843106E-002   0.0000000000000000     
   1.8447107907672566E-002   9.2407708481474615E-002   0.0000000000000000     
   1.9115055345391950E-002   9.9135717919092037E-002   0.0000000000000000     
   1.9768958209249472E-002  0.10602564114969543        0.0000000000000000     
   4.1519051899873191E-002  0.10719121849974302        0.0000000000000000     
   4.2627601551579290E-002  0.11416735003799987        0.0000000000000000     
   4.3692578296068478E-002  0.12128621272255033        0.0000000000000000     
   4.4713982133340768E-002  0.12854780655339432        0.0000000000000000     
   4.5691813063396147E-002  0.13595213153053187        0.0000000000000000     
   3.5217513340520465E-002  0.10681526383251709        0.0000000000000000     
   3.6323604799024391E-002  0.11381148546239414        0.0000000000000000     
   3.7372446505943409E-002  0.12095022764189389        0.0000000000000000     
   3.8364038461277498E-002  0.12823149037101628        0.0000000000000000     
   3.9298380665026666E-002  0.13565527364976135        0.0000000000000000     
   2.9491984872298933E-002  0.10649568271843385        0.0000000000000000     
   3.0517582360464562E-002  0.11350953065739414        0.0000000000000000     
   3.1483173846510067E-002  0.12066565011684434        0.0000000000000000     
   3.2388759330435467E-002  0.12796404109678444        0.0000000000000000     
   3.3234338812240735E-002  0.13540470359721446        0.0000000000000000     
   2.4342466495208603E-002  0.10623247515749329        0.0000000000000000     
   2.5209534235899774E-002  0.11326148562299981        0.0000000000000000     
   2.6024760317768462E-002  0.12043248014740161        0.0000000000000000     
   2.6788144740814653E-002  0.12774545873069876        0.0000000000000000     
   2.7499687505038367E-002  0.13520042137289112        0.0000000000000000     
   1.9768958209249472E-002  0.10602564114969543        0.0000000000000000     
   2.0399460425330043E-002  0.11306735035921119        0.0000000000000000     
   2.0997205919718580E-002  0.12025071773356578        0.0000000000000000     
   2.1562194692415083E-002  0.12757574327275922        0.0000000000000000     
   2.2094426743419552E-002  0.13504242697679147        0.0000000000000000     
   4.5691813063396147E-002  0.13595213153053187        0.0000000000000000     
   4.6621049362048375E-002  0.14348758123320640        0.0000000000000000     
   4.7496669305111233E-002  0.15114254924066134        0.0000000000000000     
   4.8318672892584714E-002  0.15891703555289660        0.0000000000000000     
   4.9087060124468812E-002  0.16681104016991230        0.0000000000000000     
   3.9298380665026666E-002  0.13565527364976135        0.0000000000000000     
   4.0179238518058477E-002  0.14321098753094880        0.0000000000000000     
   4.1010377421240515E-002  0.15088804206739842        0.0000000000000000     
   4.1791797374572767E-002  0.15868643725911011        0.0000000000000000     
   4.2523498378055233E-002  0.16660617310608389        0.0000000000000000     
   3.3234338812240735E-002  0.13540470359721446        0.0000000000000000     
   3.4027654386757630E-002  0.14297765971003754        0.0000000000000000     
   3.4776448148817869E-002  0.15067293152715672        0.0000000000000000     
   3.5480720098421424E-002  0.15849051904857217        0.0000000000000000     
   3.6140470235568337E-002  0.16643042227428378        0.0000000000000000     
   2.7499687505038367E-002  0.13520042137289112        0.0000000000000000     
   2.8166296968145831E-002  0.14278759777047251        0.0000000000000000     
   2.8794881487843278E-002  0.15049721761993645        0.0000000000000000     
   2.9385441064130713E-002  0.15832928092128284        0.0000000000000000     
   2.9937975697008123E-002  0.16628378767451185        0.0000000000000000     
   2.2094426743419552E-002  0.13504242697679147        0.0000000000000000     
   2.2595166262223083E-002  0.14264080171225380        0.0000000000000000     
   2.3065677438316765E-002  0.15036090034573735        0.0000000000000000     
   2.3505960271700602E-002  0.15820272287724216        0.0000000000000000     
   2.3916014762374593E-002  0.16616626930676826        0.0000000000000000     
   4.9087060124468812E-002  0.16681104016991230        0.0000000000000000     
   4.9800259877861033E-002  0.17480896729874940        0.0000000000000000     
   5.0456701029858837E-002  0.18289522114644902        0.0000000000000000     
   5.1056383580462245E-002  0.19106980171301108        0.0000000000000000     
   5.1599307529671234E-002  0.19933270899843569        0.0000000000000000     
   4.2523498378055233E-002  0.16660617310608389        0.0000000000000000     
   4.3197784731281476E-002  0.17462970837862674        0.0000000000000000     
   4.3806960733845046E-002  0.18273950184704549        0.0000000000000000     
   4.4351026385745937E-002  0.19093555351134014        0.0000000000000000     
   4.4829981686984148E-002  0.19921786337151071        0.0000000000000000     
   3.6140470235568337E-002  0.16643042227428378        0.0000000000000000     
   3.6745719016157939E-002  0.17447410815553135        0.0000000000000000     
   3.7286486896089599E-002  0.18260304364355467        0.0000000000000000     
   3.7762773875363316E-002  0.19081722873835380        0.0000000000000000     
   3.8174579953979076E-002  0.19911666343992865        0.0000000000000000     
   2.9937975697008123E-002  0.16628378767451185        0.0000000000000000     
   3.0444062732490416E-002  0.17434216662946322        0.0000000000000000     
   3.0895279516592506E-002  0.18248584653597658        0.0000000000000000     
   3.1291626049314368E-002  0.19071482739405199        0.0000000000000000     
   3.1633102330656020E-002  0.19902910920368938        0.0000000000000000     
   2.3916014762374593E-002  0.16616626930676826        0.0000000000000000     
   2.4292815880278918E-002  0.17423388380042235        0.0000000000000000     
   2.4633338595353760E-002  0.18238791052431116        0.0000000000000000     
   2.4937582907599117E-002  0.19062834947843471        0.0000000000000000     
   2.5205548817014992E-002  0.19895520066279301        0.0000000000000000     
   5.1599307529671234E-002  0.19933270899843569        0.0000000000000000     
   5.2085147703270274E-002  0.20767703201083260        0.0000000000000000     
   5.2513578927043780E-002  0.21609585975831175        0.0000000000000000     
   5.2884601200991775E-002  0.22458919224087309        0.0000000000000000     
   5.3198214525114237E-002  0.23315702945851668        0.0000000000000000     
   4.4829981686984148E-002  0.19921786337151071        0.0000000000000000     
   4.5250830787518778E-002  0.20757851209086059        0.0000000000000000     
   4.5620577837308905E-002  0.21600958033269313        0.0000000000000000     
   4.5939222836354543E-002  0.22451106809700838        0.0000000000000000     
   4.6206765784655685E-002  0.23308297538380629        0.0000000000000000     
   3.8174579953979076E-002  0.19911666343992865        0.0000000000000000     
   3.8531894072137134E-002  0.20749185690672162        0.0000000000000000     
   3.8844705170037734E-002  0.21593331829717516        0.0000000000000000     
   3.9113013247680871E-002  0.22444104761128927        0.0000000000000000     
   3.9336818305066523E-002  0.23301504484906388        0.0000000000000000     
   3.1633102330656020E-002  0.19902910920368938        0.0000000000000000     
   3.1928337557125347E-002  0.20741706645841573        0.0000000000000000     
   3.2185960925230260E-002  0.21586707365175783        0.0000000000000000     
   3.2405972434970717E-002  0.22437913078371571        0.0000000000000000     
   3.2588372086346760E-002  0.23295323785428942        0.0000000000000000     
   2.5205548817014992E-002  0.19895520066279301        0.0000000000000000     
   2.5440161242483428E-002  0.20735414074594288        0.0000000000000000     
   2.5644345102886476E-002  0.21581084639644116        0.0000000000000000     
   2.5818100398224131E-002  0.22432531761428781        0.0000000000000000     
   2.5961427128496389E-002  0.23289755439948290        0.0000000000000000     
   5.3198214525114237E-002  0.23315702945851668        0.0000000000000000     
   5.3461339322300482E-002  0.24178983233688581        0.0000000000000000     
   5.3680896015439808E-002  0.25047806180162391        0.0000000000000000     
   5.3856884604532203E-002  0.25922171785273096        0.0000000000000000     
   5.3989305089577680E-002  0.26802080049020705        0.0000000000000000     
   4.6206765784655685E-002  0.23308297538380629        0.0000000000000000     
   4.6431354676970821E-002  0.24170920556924758        0.0000000000000000     
   4.6621137508058463E-002  0.25037366202949290        0.0000000000000000     
   4.6776114277918612E-002  0.25907634476454233        0.0000000000000000     
   4.6896284986551240E-002  0.26781725377439580        0.0000000000000000     
   3.9336818305066523E-002  0.23301504484906388        0.0000000000000000     
   3.9524699151147570E-002  0.24163408688637808        0.0000000000000000     
   3.9685234594876835E-002  0.25027695059911087        0.0000000000000000     
   3.9818424636254332E-002  0.25894363598726239        0.0000000000000000     
   3.9924269275280061E-002  0.26763414305083255        0.0000000000000000     
   3.2588372086346760E-002  0.23295323785428942        0.0000000000000000     
   3.2741372744830709E-002  0.24156447628827735        0.0000000000000000     
   3.2873187275894923E-002  0.25018792751047797        0.0000000000000000     
   3.2983815679539397E-002  0.25882359152089135        0.0000000000000000     
   3.3073257955764129E-002  0.26747146831951746        0.0000000000000000     
   2.5961427128496389E-002  0.23289755439948290        0.0000000000000000     
   2.6081375458020258E-002  0.24150037377494532        0.0000000000000000     
   2.6184995551112721E-002  0.25010659276359404        0.0000000000000000     
   2.6272287407773775E-002  0.25871621136542911        0.0000000000000000     
   2.6343251028003431E-002  0.26732922958045047        0.0000000000000000     
   5.3989305089577680E-002  0.26802080049020705        0.0000000000000000     
   5.4108744809116635E-002  0.27682582072634698        0.0000000000000000     
   5.4245791101689478E-002  0.28558728957344592        0.0000000000000000     
   5.4400443967296215E-002  0.29430520703150370        0.0000000000000000     
   5.4572703405936826E-002  0.30297957310052037        0.0000000000000000     
   4.6896284986551240E-002  0.26781725377439580        0.0000000000000000     
   4.7005854894342350E-002  0.27654610658519058        0.0000000000000000     
   4.7129029261677884E-002  0.28521262072306414        0.0000000000000000     
   4.7265808088557848E-002  0.29381679618801632        0.0000000000000000     
   4.7416191374982236E-002  0.30235863298004717        0.0000000000000000     
   3.9924269275280061E-002  0.26763414305083255        0.0000000000000000     
   4.0021765202803969E-002  0.27629695260298681        0.0000000000000000     
   4.0129909109676017E-002  0.28488054545689062        0.0000000000000000     
   4.0248700995896190E-002  0.29338492161254398        0.0000000000000000     
   4.0378140861464511E-002  0.30181008106994683        0.0000000000000000     
   3.3073257955764129E-002  0.26747146831951746        0.0000000000000000     
   3.3156475734501492E-002  0.27607835877973563        0.0000000000000000     
   3.3248430645683870E-002  0.28459106377492538        0.0000000000000000     
   3.3349122689311263E-002  0.29300958330508664        0.0000000000000000     
   3.3458551865383664E-002  0.30133391737021936        0.0000000000000000     
   2.6343251028003431E-002  0.26732922958045047        0.0000000000000000     
   2.6409986489434916E-002  0.27589032511543715        0.0000000000000000     
   2.6484593869701454E-002  0.28434417567716846        0.0000000000000000     
   2.6567073168803041E-002  0.29269078126564430        0.0000000000000000     
   2.6657424386739688E-002  0.30093014188086475        0.0000000000000000     
   1.4206120588695432E-002   5.5809970728324748E-002   0.0000000000000000     
   1.4931370875269230E-002   6.1404565874342176E-002   0.0000000000000000     
   1.5650280757785955E-002   6.7207340965826784E-002   0.0000000000000000     
   1.6362850236245612E-002   7.3218296002778571E-002   0.0000000000000000     
   1.7069079310648196E-002   7.9437430985197566E-002   0.0000000000000000     
   1.3549724438632810E-002   5.5616433282588917E-002   0.0000000000000000     
   1.3468076689274189E-002   6.1234468888440322E-002   0.0000000000000000     
   1.3500145548524878E-002   6.7051162085574531E-002   0.0000000000000000     
   1.3645931016384881E-002   7.3066512873991518E-002   0.0000000000000000     
   1.3905433092854197E-002   7.9280521253691311E-002   0.0000000000000000     
   1.0963238956715828E-002   5.5478192250020326E-002   0.0000000000000000     
   1.0491750147700356E-002   6.1112971041431166E-002   0.0000000000000000     
   1.0175053685513755E-002   6.6939605742572156E-002   0.0000000000000000     
   1.0013149570156024E-002   7.2958096353443344E-002   0.0000000000000000     
   1.0006037801627165E-002   7.9168442874044662E-002   0.0000000000000000     
   6.4466641429444882E-003   5.5395247630618996E-002   0.0000000000000000     
   6.0023912505477320E-003   6.1040072333314724E-002   0.0000000000000000     
   5.6750051687525834E-003   6.6872671936819741E-002   0.0000000000000000     
   5.4645058975590364E-003   7.2893046441134021E-002   0.0000000000000000     
   5.3708934369670960E-003   7.9101195846257605E-002   0.0000000000000000     
  -2.6812120232366787E-012   5.5367599424384920E-002   0.0000000000000000     
  -2.1836829219856746E-012   6.1015772764090953E-002   0.0000000000000000     
  -1.7586383738166234E-012   6.6850360668317177E-002   0.0000000000000000     
  -1.4060789208306113E-012   7.2871363137063577E-002   0.0000000000000000     
  -1.1260033704052486E-012   7.9078780170330154E-002   0.0000000000000000     
   1.7069079310648196E-002   7.9437430985197566E-002   0.0000000000000000     
   1.7765115896091310E-002   8.5841612836843106E-002   0.0000000000000000     
   1.8447107907672566E-002   9.2407708481474615E-002   0.0000000000000000     
   1.9115055345391950E-002   9.9135717919092037E-002   0.0000000000000000     
   1.9768958209249472E-002  0.10602564114969543        0.0000000000000000     
   1.3905433092854197E-002   7.9280521253691311E-002   0.0000000000000000     
   1.4231068240809757E-002   8.5677324358239298E-002   0.0000000000000000     
   1.4575252923128505E-002   9.2241059321200872E-002   0.0000000000000000     
   1.4937987139810434E-002   9.8971726142576058E-002   0.0000000000000000     
   1.5319270890855545E-002  0.10586932482236482        0.0000000000000000     
   1.0006037801627165E-002   7.9168442874044662E-002   0.0000000000000000     
   1.0092199706218448E-002   8.5559975444943301E-002   0.0000000000000000     
   1.0210116610221151E-002   9.2122024206706399E-002   0.0000000000000000     
   1.0359788513635278E-002   9.8854589159333983E-002   0.0000000000000000     
   1.0541215416460826E-002  0.10575767030282603        0.0000000000000000     
   5.3708934369670960E-003   7.9101195846257605E-002   0.0000000000000000     
   5.3485102923173820E-003   8.5489566096955127E-002   0.0000000000000000     
   5.3516989689505129E-003   9.2050603137991197E-002   0.0000000000000000     
   5.3804594668664897E-003   9.8784306969365854E-002   0.0000000000000000     
   5.4347917860653131E-003  0.10569067759107907        0.0000000000000000     
  -1.1260033704052486E-012   7.9078780170330154E-002   0.0000000000000000     
  -8.9344157072623887E-013   8.5466096314274764E-002   0.0000000000000000     
  -6.8341816580885784E-013   9.2026796115055279E-002   0.0000000000000000     
  -4.9593413143506071E-013   9.8760879572671684E-002   0.0000000000000000     
  -3.3099131074854071E-013  0.10566834668712397        0.0000000000000000     
   1.9768958209249472E-002  0.10602564114969543        0.0000000000000000     
   2.0399460425330043E-002  0.11306735035921119        0.0000000000000000     
   2.0997205919718580E-002  0.12025071773356578        0.0000000000000000     
   2.1562194692415083E-002  0.12757574327275922        0.0000000000000000     
   2.2094426743419552E-002  0.13504242697679147        0.0000000000000000     
   1.5319270890855545E-002  0.10586932482236482        0.0000000000000000     
   1.5703679158555927E-002  0.11292106752802918        0.0000000000000000     
   1.6075786925203672E-002  0.12011416642703115        0.0000000000000000     
   1.6435594190798774E-002  0.12744862151937070        0.0000000000000000     
   1.6783100955341239E-002  0.13492443280504787        0.0000000000000000     
   1.0541215416460826E-002  0.10575767030282603        0.0000000000000000     
   1.0738508665377990E-002  0.11281657979145468        0.0000000000000000     
   1.0935779607066969E-002  0.12001662977949200        0.0000000000000000     
   1.1133028241527761E-002  0.12735782026693807        0.0000000000000000     
   1.1330254568760370E-002  0.13484015125379281        0.0000000000000000     
   5.4347917860653131E-003  0.10569067759107907        0.0000000000000000     
   5.5039489457962259E-003  0.11275388714948768        0.0000000000000000     
   5.5771839653084689E-003  0.11995810779094840        0.0000000000000000     
   5.6544968446020439E-003  0.12730333951546127        0.0000000000000000     
   5.7358875836769508E-003  0.13478958232302626        0.0000000000000000     
  -3.3099131074854071E-013  0.10566834668712397        0.0000000000000000     
  -1.8936198095675927E-013  0.11273298960212817        0.0000000000000000     
  -7.1824382379126472E-014  0.11993860046140030        0.0000000000000000     
   2.1624439435277698E-014  0.12728517926494035        0.0000000000000000     
   9.0982343187162584E-014  0.13477272601274828        0.0000000000000000     
   2.2094426743419552E-002  0.13504242697679147        0.0000000000000000     
   2.2595166262223083E-002  0.14264080171225380        0.0000000000000000     
   2.3065677438316765E-002  0.15036090034573735        0.0000000000000000     
   2.3505960271700602E-002  0.15820272287724216        0.0000000000000000     
   2.3916014762374593E-002  0.16616626930676826        0.0000000000000000     
   1.6783100955341239E-002  0.13492443280504787        0.0000000000000000     
   1.7113455358659178E-002  0.14253128398439840        0.0000000000000000     
   1.7421805540580725E-002  0.15025885875775805        0.0000000000000000     
   1.7708151501105870E-002  0.15810715712512680        0.0000000000000000     
   1.7972493240234619E-002  0.16607617908650468        0.0000000000000000     
   1.1330254568760370E-002  0.13484015125379281        0.0000000000000000     
   1.1520357347123927E-002  0.14245305703592340        0.0000000000000000     
   1.1696235334977564E-002  0.15018597190919697        0.0000000000000000     
   1.1857888532321278E-002  0.15803889587361347        0.0000000000000000     
   1.2005316939155075E-002  0.16601182892917296        0.0000000000000000     
   5.7358875836769508E-003  0.13478958232302626        0.0000000000000000     
   5.8158722276173179E-003  0.14240612086682877        0.0000000000000000     
   5.8889668215072761E-003  0.15014223980005403        0.0000000000000000     
   5.9551713653468209E-003  0.15799793912270216        0.0000000000000000     
   6.0144858591359568E-003  0.16597321883477303        0.0000000000000000     
   9.0982343187162584E-014  0.13477272601274828        0.0000000000000000     
   1.3936031148520378E-013  0.14239047547711450        0.0000000000000000     
   1.6986726695394916E-013  0.15012766243032941        0.0000000000000000     
   1.8250258617714954E-013  0.15798428687239285        0.0000000000000000     
   1.7726878992485595E-013  0.16596034880330496        0.0000000000000000     
   2.3916014762374593E-002  0.16616626930676826        0.0000000000000000     
   2.4292815880278918E-002  0.17423388380042235        0.0000000000000000     
   2.4633338595353760E-002  0.18238791052431116        0.0000000000000000     
   2.4937582907599117E-002  0.19062834947843471        0.0000000000000000     
   2.5205548817014992E-002  0.19895520066279301        0.0000000000000000     
   1.7972493240234619E-002  0.16607617908650468        0.0000000000000000     
   1.8217483285409081E-002  0.17414948700496136        0.0000000000000000     
   1.8445774164071369E-002  0.18231064324356644        0.0000000000000000     
   1.8657365876221490E-002  0.19055964780231996        0.0000000000000000     
   1.8852258421859436E-002  0.19889650068122197        0.0000000000000000     
   1.2005316939155075E-002  0.16601182892917296        0.0000000000000000     
   1.2143569773766561E-002  0.17408920357963276        0.0000000000000000     
   1.2277696254443348E-002  0.18225545232875034        0.0000000000000000     
   1.2407696381185435E-002  0.19051057517652567        0.0000000000000000     
   1.2533570153992818E-002  0.19885457212295876        0.0000000000000000     
   6.0144858591359568E-003  0.16597321883477303        0.0000000000000000     
   6.0710753453513538E-003  0.17405303352443663        0.0000000000000000     
   6.1291048664696823E-003  0.18222233777986291        0.0000000000000000     
   6.1885744224909446E-003  0.19048113160105179        0.0000000000000000     
   6.2494840134151384E-003  0.19882941498800330        0.0000000000000000     
   1.7726878992485595E-013  0.16596034880330496        0.0000000000000000     
   1.6346190893912205E-013  0.17404097683937297        0.0000000000000000     
   1.5038057604721544E-013  0.18221129959690407        0.0000000000000000     
   1.3802479124913614E-013  0.19047131707589834        0.0000000000000000     
   1.2639455454488413E-013  0.19882102927635570        0.0000000000000000     
   2.5205548817014992E-002  0.19895520066279301        0.0000000000000000     
   2.5440161242483428E-002  0.20735414074594288        0.0000000000000000     
   2.5644345102886476E-002  0.21581084639644116        0.0000000000000000     
   2.5818100398224131E-002  0.22432531761428781        0.0000000000000000     
   2.5961427128496389E-002  0.23289755439948290        0.0000000000000000     
   1.8852258421859436E-002  0.19889650068122197        0.0000000000000000     
   1.9027286503992717E-002  0.20730427156945674        0.0000000000000000     
   1.9179284825628848E-002  0.21576603015620863        0.0000000000000000     
   1.9308253386767824E-002  0.22428177644147759        0.0000000000000000     
   1.9414192187409644E-002  0.23285151042526367        0.0000000000000000     
   1.2533570153992818E-002  0.19885457212295876        0.0000000000000000     
   1.2649634717434591E-002  0.20726865072911096        0.0000000000000000     
   1.2750207216079838E-002  0.21573401855604371        0.0000000000000000     
   1.2835287649928553E-002  0.22425067560375705        0.0000000000000000     
   1.2904876018980747E-002  0.23281862187225094        0.0000000000000000     
   6.2494840134151384E-003  0.19882941498800330        0.0000000000000000     
   6.3072058828090426E-003  0.20724727822490552        0.0000000000000000     
   6.3571122742394391E-003  0.21571481159594649        0.0000000000000000     
   6.3992031877063236E-003  0.22423201510112625        0.0000000000000000     
   6.4334786232097011E-003  0.23279888874044477        0.0000000000000000     
   1.2639455454488413E-013  0.19882102927635570        0.0000000000000000     
   1.1607663615020858E-013  0.20724015405684049        0.0000000000000000     
   1.0765455367434118E-013  0.21570840927591697        0.0000000000000000     
   1.0113074657217003E-013  0.22422579493358522        0.0000000000000000     
   9.6502233287720784E-014  0.23279231102984516        0.0000000000000000     
   2.5961427128496389E-002  0.23289755439948290        0.0000000000000000     
   2.6081375458020258E-002  0.24150037377494532        0.0000000000000000     
   2.6184995551112721E-002  0.25010659276359404        0.0000000000000000     
   2.6272287407773775E-002  0.25871621136542911        0.0000000000000000     
   2.6343251028003431E-002  0.26732922958045047        0.0000000000000000     
   1.9414192187409644E-002  0.23285151042526367        0.0000000000000000     
   1.9502539946606862E-002  0.24144669386286663        0.0000000000000000     
   1.9578735383412031E-002  0.25003878850958633        0.0000000000000000     
   1.9642778497825149E-002  0.25862779436542271        0.0000000000000000     
   1.9694669289846218E-002  0.26721371143037587        0.0000000000000000     
   1.2904876018980747E-002  0.23281862187225094        0.0000000000000000     
   1.2962698866481191E-002  0.24140835106852573        0.0000000000000000     
   1.3012482735674664E-002  0.24999035689958191        0.0000000000000000     
   1.3054227626561166E-002  0.25856463936541935        0.0000000000000000     
   1.3087933539140699E-002  0.26713119846603817        0.0000000000000000     
   6.4334786232097011E-003  0.23279888874044477        0.0000000000000000     
   6.4618522176432391E-003  0.24138534539192275        0.0000000000000000     
   6.4862376079006167E-003  0.24996129793358077        0.0000000000000000     
   6.5066347939818281E-003  0.25852674636541906        0.0000000000000000     
   6.5230437758868791E-003  0.26708169068743731        0.0000000000000000     
   9.6502233287720784E-014  0.23279231102984516        0.0000000000000000     
   9.3008933887972489E-014  0.24137767683305750        0.0000000000000000     
   8.9887082152517728E-014  0.24995161161158297        0.0000000000000000     
   8.7136407030813379E-014  0.25851411536542163        0.0000000000000000     
   8.4756854312750818E-014  0.26706518809457336        0.0000000000000000     
   2.6343251028003431E-002  0.26732922958045047        0.0000000000000000     
   2.6409986489434916E-002  0.27589032511543715        0.0000000000000000     
   2.6484593869701454E-002  0.28434417567716846        0.0000000000000000     
   2.6567073168803041E-002  0.29269078126564430        0.0000000000000000     
   2.6657424386739688E-002  0.30093014188086475        0.0000000000000000     
   1.9694669289846218E-002  0.26721371143037587        0.0000000000000000     
   1.9744045483763926E-002  0.27573916572871843        0.0000000000000000     
   1.9800544803866973E-002  0.28414678328472309        0.0000000000000000     
   1.9864167250155353E-002  0.29243656409838981        0.0000000000000000     
   1.9934912822629068E-002  0.30060850816971868        0.0000000000000000     
   1.3087933539140699E-002  0.26713119846603817        0.0000000000000000     
   1.3120400733648209E-002  0.27563119473820641        0.0000000000000000     
   1.3158429470318641E-002  0.28400578871869225        0.0000000000000000     
   1.3202019749151996E-002  0.29225498040749565        0.0000000000000000     
   1.3251171570148278E-002  0.30037876980461670        0.0000000000000000     
   6.5230437758868791E-003  0.26708169068743731        0.0000000000000000     
   6.5390522390877566E-003  0.27556641214390115        0.0000000000000000     
   6.5582478690564584E-003  0.28392119197907606        0.0000000000000000     
   6.5806306657929803E-003  0.29214603019296193        0.0000000000000000     
   6.6062006292973256E-003  0.30024092678555875        0.0000000000000000     
   8.4756854312750818E-014  0.26706518809457336        0.0000000000000000     
   8.2576523743882468E-014  0.27554481794580277        0.0000000000000000     
   8.0424924532584985E-014  0.28389299306587451        0.0000000000000000     
   7.8301866943478182E-014  0.29210971345478853        0.0000000000000000     
   7.6206402299661136E-014  0.30019497911254489        0.0000000000000000     
  -2.6812120232366787E-012   5.5367599424384920E-002   0.0000000000000000     
  -2.1836829219856746E-012   6.1015772764090953E-002   0.0000000000000000     
  -1.7586383738166234E-012   6.6850360668317177E-002   0.0000000000000000     
  -1.4060789208306113E-012   7.2871363137063577E-002   0.0000000000000000     
  -1.1260033704052486E-012   7.9078780170330154E-002   0.0000000000000000     
  -6.4466641480190419E-003   5.5395247631397325E-002   0.0000000000000000     
  -6.0023912546918277E-003   6.1040072333810313E-002   0.0000000000000000     
  -5.6750051720993273E-003   6.6872671937094966E-002   0.0000000000000000     
  -5.4645059002415355E-003   7.2893046441251275E-002   0.0000000000000000     
  -5.3708934391184533E-003   7.9101195846279254E-002   0.0000000000000000     
  -1.0963238960926772E-002   5.5478192251735448E-002   0.0000000000000000     
  -1.0491750151174647E-002   6.1112971042523175E-002   0.0000000000000000     
  -1.0175053688348904E-002   6.6939605743183486E-002   0.0000000000000000     
  -1.0013149572449545E-002   7.2958096353716362E-002   0.0000000000000000     
  -1.0006037803476565E-002   7.9168442874121836E-002   0.0000000000000000     
  -1.3549724441404402E-002   5.5616433285399301E-002   0.0000000000000000     
  -1.3468076691632136E-002   6.1234468890229557E-002   0.0000000000000000     
  -1.3500145550507369E-002   6.7051162086582752E-002   0.0000000000000000     
  -1.3645931018030107E-002   7.3066512874458867E-002   0.0000000000000000     
  -1.3905433094200344E-002   7.9280521253857913E-002   0.0000000000000000     
  -1.4206120589451934E-002   5.5809970732388872E-002   0.0000000000000000     
  -1.4931370876064295E-002   6.1404565876929447E-002   0.0000000000000000     
  -1.5650280758574723E-002   6.7207340967292750E-002   0.0000000000000000     
  -1.6362850236983223E-002   7.3218296003478761E-002   0.0000000000000000     
  -1.7069079311289787E-002   7.9437430985487487E-002   0.0000000000000000     
  -1.1260033704052486E-012   7.9078780170330154E-002   0.0000000000000000     
  -8.9344157072623887E-013   8.5466096314274764E-002   0.0000000000000000     
  -6.8341816580885784E-013   9.2026796115055279E-002   0.0000000000000000     
  -4.9593413143506071E-013   9.8760879572671684E-002   0.0000000000000000     
  -3.3099131074854071E-013  0.10566834668712397        0.0000000000000000     
  -5.3708934391184533E-003   7.9101195846279254E-002   0.0000000000000000     
  -5.3485102940254228E-003   8.5489566096920697E-002   0.0000000000000000     
  -5.3516989702577823E-003   9.2050603137917422E-002   0.0000000000000000     
  -5.3804594678155378E-003   9.8784306969269375E-002   0.0000000000000000     
  -5.4347917866986789E-003  0.10569067759097665        0.0000000000000000     
  -1.0006037803476565E-002   7.9168442874121836E-002   0.0000000000000000     
  -1.0092199707689962E-002   8.5559975444911354E-002   0.0000000000000000     
  -1.0210116611349724E-002   9.2122024206596403E-002   0.0000000000000000     
  -1.0359788514455851E-002   9.8854589159176956E-002   0.0000000000000000     
  -1.0541215417008344E-002  0.10575767030265303        0.0000000000000000     
  -1.3905433094200344E-002   7.9280521253857913E-002   0.0000000000000000     
  -1.4231068241887064E-002   8.5677324358246751E-002   0.0000000000000000     
  -1.4575252923959245E-002   9.2241059321092223E-002   0.0000000000000000     
  -1.4937987140416886E-002   9.8971726142394356E-002   0.0000000000000000     
  -1.5319270891259985E-002  0.10586932482215311        0.0000000000000000     
  -1.7069079311289787E-002   7.9437430985487487E-002   0.0000000000000000     
  -1.7765115896616723E-002   8.5841612836926900E-002   0.0000000000000000     
  -1.8447107908086336E-002   9.2407708481404949E-002   0.0000000000000000     
  -1.9115055345698632E-002   9.9135717918921618E-002   0.0000000000000000     
  -1.9768958209453596E-002  0.10602564114947692        0.0000000000000000     
  -3.3099131074854071E-013  0.10566834668712397        0.0000000000000000     
  -1.8936198095675927E-013  0.11273298960212817        0.0000000000000000     
  -7.1824382379126472E-014  0.11993860046140030        0.0000000000000000     
   2.1624439435277698E-014  0.12728517926494035        0.0000000000000000     
   9.0982343187162584E-014  0.13477272601274828        0.0000000000000000     
  -5.4347917866986789E-003  0.10569067759097665        0.0000000000000000     
  -5.5039489461581751E-003  0.11275388714938962        0.0000000000000000     
  -5.5771839654449812E-003  0.11995810779085878        0.0000000000000000     
  -5.6544968445590947E-003  0.12730333951538414        0.0000000000000000     
  -5.7358875835005190E-003  0.13478958232296567        0.0000000000000000     
  -1.0541215417008344E-002  0.10575767030265303        0.0000000000000000     
  -1.0738508665689612E-002  0.11281657979128541        0.0000000000000000     
  -1.0935779607182070E-002  0.12001662977933493        0.0000000000000000     
  -1.1133028241485708E-002  0.12735782026680156        0.0000000000000000     
  -1.1330254568600536E-002  0.13484015125368531        0.0000000000000000     
  -1.5319270891259985E-002  0.10586932482215311        0.0000000000000000     
  -1.5703679158783672E-002  0.11292106752781554        0.0000000000000000     
  -1.6075786925283084E-002  0.12011416642682871        0.0000000000000000     
  -1.6435594190758213E-002  0.12744862151919259        0.0000000000000000     
  -1.6783100955209063E-002  0.13492443280490718        0.0000000000000000     
  -1.9768958209453596E-002  0.10602564114947692        0.0000000000000000     
  -2.0399460425440361E-002  0.11306735035898004        0.0000000000000000     
  -2.0997205919748029E-002  0.12025071773334013        0.0000000000000000     
  -2.1562194692376611E-002  0.12757574327255722        0.0000000000000000     
  -2.2094426743326109E-002  0.13504242697663127        0.0000000000000000     
   9.0982343187162584E-014  0.13477272601274828        0.0000000000000000     
   1.3936031148520378E-013  0.14239047547711450        0.0000000000000000     
   1.6986726695394916E-013  0.15012766243032941        0.0000000000000000     
   1.8250258617714954E-013  0.15798428687239285        0.0000000000000000     
   1.7726878992485595E-013  0.16596034880330496        0.0000000000000000     
  -5.7358875835005190E-003  0.13478958232296567        0.0000000000000000     
  -5.8158722273475268E-003  0.14240612086678558        0.0000000000000000     
  -5.8889668211783916E-003  0.15014223980002603        0.0000000000000000     
  -5.9551713649931134E-003  0.15799793912268709        0.0000000000000000     
  -6.0144858587916914E-003  0.16597321883476868        0.0000000000000000     
  -1.1330254568600536E-002  0.13484015125368531        0.0000000000000000     
  -1.1520357346880920E-002  0.14245305703584696        0.0000000000000000     
  -1.1696235334681226E-002  0.15018597190914731        0.0000000000000000     
  -1.1857888532001461E-002  0.15803889587358630        0.0000000000000000     
  -1.2005316938841621E-002  0.16601182892916402        0.0000000000000000     
  -1.6783100955209063E-002  0.13492443280490718        0.0000000000000000     
  -1.7113455358460813E-002  0.14253128398429860        0.0000000000000000     
  -1.7421805540338637E-002  0.15025885875769307        0.0000000000000000     
  -1.7708151500842543E-002  0.15810715712509057        0.0000000000000000     
  -1.7972493239972520E-002  0.16607617908649103        0.0000000000000000     
  -2.2094426743326109E-002  0.13504242697663127        0.0000000000000000     
  -2.2595166262087216E-002  0.14264080171214058        0.0000000000000000     
  -2.3065677438150627E-002  0.15036090034566341        0.0000000000000000     
  -2.3505960271516354E-002  0.15820272287719980        0.0000000000000000     
  -2.3916014762184391E-002  0.16616626930674971        0.0000000000000000     
   1.7726878992485595E-013  0.16596034880330496        0.0000000000000000     
   1.6346190893912205E-013  0.17404097683937297        0.0000000000000000     
   1.5038057604721544E-013  0.18221129959690407        0.0000000000000000     
   1.3802479124913614E-013  0.19047131707589834        0.0000000000000000     
   1.2639455454488413E-013  0.19882102927635570        0.0000000000000000     
  -6.0144858587916914E-003  0.16597321883476868        0.0000000000000000     
  -6.0710753450330278E-003  0.17405303352444043        0.0000000000000000     
  -6.1291048661760213E-003  0.18222233777987190        0.0000000000000000     
  -6.1885744222206756E-003  0.19048113160106309        0.0000000000000000     
  -6.2494840131669853E-003  0.19882941498801399        0.0000000000000000     
  -1.2005316938841621E-002  0.16601182892916402        0.0000000000000000     
  -1.2143569773474023E-002  0.17408920357963756        0.0000000000000000     
  -1.2277696254170984E-002  0.18225545232876414        0.0000000000000000     
  -1.2407696380932502E-002  0.19051057517654371        0.0000000000000000     
  -1.2533570153758576E-002  0.19885457212297622        0.0000000000000000     
  -1.7972493239972520E-002  0.16607617908649103        0.0000000000000000     
  -1.8217483285159531E-002  0.17414948700496449        0.0000000000000000     
  -1.8445774163834507E-002  0.18231064324358087        0.0000000000000000     
  -1.8657365875997454E-002  0.19055964780234019        0.0000000000000000     
  -1.8852258421648383E-002  0.19889650068124246        0.0000000000000000     
  -2.3916014762184391E-002  0.16616626930674971        0.0000000000000000     
  -2.4292815880089538E-002  0.17423388380042115        0.0000000000000000     
  -2.4633338595166587E-002  0.18238791052432213        0.0000000000000000     
  -2.4937582907415542E-002  0.19062834947845264        0.0000000000000000     
  -2.5205548816836398E-002  0.19895520066281269        0.0000000000000000     
   1.2639455454488413E-013  0.19882102927635570        0.0000000000000000     
   1.1607663615020858E-013  0.20724015405684049        0.0000000000000000     
   1.0765455367434118E-013  0.21570840927591697        0.0000000000000000     
   1.0113074657217003E-013  0.22422579493358522        0.0000000000000000     
   9.6502233287720784E-014  0.23279231102984516        0.0000000000000000     
  -6.2494840131669853E-003  0.19882941498801399        0.0000000000000000     
  -6.3072058825805839E-003  0.20724727822491443        0.0000000000000000     
  -6.3571122740270960E-003  0.21571481159595415        0.0000000000000000     
  -6.3992031875065277E-003  0.22423201510113319        0.0000000000000000     
  -6.4334786230188738E-003  0.23279888874045157        0.0000000000000000     
  -1.2533570153758576E-002  0.19885457212297622        0.0000000000000000     
  -1.2649634717217211E-002  0.20726865072912598        0.0000000000000000     
  -1.2750207215876405E-002  0.21573401855605709        0.0000000000000000     
  -1.2835287649736151E-002  0.22425067560376966        0.0000000000000000     
  -1.2904876018796458E-002  0.23281862187226354        0.0000000000000000     
  -1.8852258421648383E-002  0.19889650068124246        0.0000000000000000     
  -1.9027286503793806E-002  0.20730427156947523        0.0000000000000000     
  -1.9179284825440256E-002  0.21576603015622589        0.0000000000000000     
  -1.9308253386587738E-002  0.22428177644149452        0.0000000000000000     
  -1.9414192187236248E-002  0.23285151042528110        0.0000000000000000     
  -2.5205548816836398E-002  0.19895520066281269        0.0000000000000000     
  -2.5440161242310366E-002  0.20735414074596201        0.0000000000000000     
  -2.5644345102718669E-002  0.21581084639646042        0.0000000000000000     
  -2.5818100398061292E-002  0.22432531761430785        0.0000000000000000     
  -2.5961427128338245E-002  0.23289755439950433        0.0000000000000000     
   9.6502233287720784E-014  0.23279231102984516        0.0000000000000000     
   9.3008933887972489E-014  0.24137767683305750        0.0000000000000000     
   8.9887082152517728E-014  0.24995161161158297        0.0000000000000000     
   8.7136407030813379E-014  0.25851411536542163        0.0000000000000000     
   8.4756854312750818E-014  0.26706518809457336        0.0000000000000000     
  -6.4334786230188738E-003  0.23279888874045157        0.0000000000000000     
  -6.4618522174592352E-003  0.24138534539192971        0.0000000000000000     
  -6.4862376077227182E-003  0.24996129793358818        0.0000000000000000     
  -6.5066347938093159E-003  0.25852674636542694        0.0000000000000000     
  -6.5230437757190351E-003  0.26708169068744597        0.0000000000000000     
  -1.2904876018796458E-002  0.23281862187226354        0.0000000000000000     
  -1.2962698866303232E-002  0.24140835106853900        0.0000000000000000     
  -1.3012482735502390E-002  0.24999035689959609        0.0000000000000000     
  -1.3054227626393931E-002  0.25856463936543472        0.0000000000000000     
  -1.3087933538977857E-002  0.26713119846605504        0.0000000000000000     
  -1.9414192187236248E-002  0.23285151042528110        0.0000000000000000     
  -1.9502539946438979E-002  0.24144669386288534        0.0000000000000000     
  -1.9578735383249137E-002  0.25003878850960665        0.0000000000000000     
  -1.9642778497666713E-002  0.25862779436544509        0.0000000000000000     
  -1.9694669289691713E-002  0.26721371143040057        0.0000000000000000     
  -2.5961427128338245E-002  0.23289755439950433        0.0000000000000000     
  -2.6081375457866478E-002  0.24150037377496869        0.0000000000000000     
  -2.6184995550962948E-002  0.25010659276361991        0.0000000000000000     
  -2.6272287407627659E-002  0.25871621136545780        0.0000000000000000     
  -2.6343251027860608E-002  0.26732922958048255        0.0000000000000000     
   8.4756854312750818E-014  0.26706518809457336        0.0000000000000000     
   8.2576523743882468E-014  0.27554481794580277        0.0000000000000000     
   8.0424924532584985E-014  0.28389299306587451        0.0000000000000000     
   7.8301866943478182E-014  0.29210971345478853        0.0000000000000000     
   7.6206402299661136E-014  0.30019497911254489        0.0000000000000000     
  -6.5230437757190351E-003  0.26708169068744597        0.0000000000000000     
  -6.5390522389241982E-003  0.27556641214391092        0.0000000000000000     
  -6.5582478688971414E-003  0.28392119197908738        0.0000000000000000     
  -6.5806306656378596E-003  0.29214603019297530        0.0000000000000000     
  -6.6062006291463578E-003  0.30024092678557479        0.0000000000000000     
  -1.3087933538977857E-002  0.26713119846605504        0.0000000000000000     
  -1.3120400733489430E-002  0.27563119473822550        0.0000000000000000     
  -1.3158429470163919E-002  0.28400578871871446        0.0000000000000000     
  -1.3202019749001325E-002  0.29225498040752201        0.0000000000000000     
  -1.3251171570001646E-002  0.30037876980464795        0.0000000000000000     
  -1.9694669289691713E-002  0.26721371143040057        0.0000000000000000     
  -1.9744045483613124E-002  0.27573916572874646        0.0000000000000000     
  -1.9800544803719913E-002  0.28414678328475568        0.0000000000000000     
  -1.9864167250012093E-002  0.29243656409842839        0.0000000000000000     
  -1.9934912822489659E-002  0.30060850816976459        0.0000000000000000     
  -2.6343251027860608E-002  0.26732922958048255        0.0000000000000000     
  -2.6409986489295267E-002  0.27589032511547379        0.0000000000000000     
  -2.6484593869565122E-002  0.28434417567721110        0.0000000000000000     
  -2.6567073168670161E-002  0.29269078126569464        0.0000000000000000     
  -2.6657424386610395E-002  0.30093014188092437        0.0000000000000000     
  -1.4206120589451934E-002   5.5809970732388872E-002   0.0000000000000000     
  -1.4931370876064295E-002   6.1404565876929447E-002   0.0000000000000000     
  -1.5650280758574723E-002   6.7207340967292750E-002   0.0000000000000000     
  -1.6362850236983223E-002   7.3218296003478761E-002   0.0000000000000000     
  -1.7069079311289787E-002   7.9437430985487487E-002   0.0000000000000000     
  -1.5131689576840654E-002   5.6073444728540485E-002   0.0000000000000000     
  -1.6635787066993878E-002   6.1646602350794028E-002   0.0000000000000000     
  -1.8016824160013510E-002   6.7435455959446514E-002   0.0000000000000000     
  -1.9274800855899561E-002   7.3440005554497950E-002   0.0000000000000000     
  -2.0409717154652014E-002   7.9660251135948323E-002   0.0000000000000000     
  -1.8525693575341853E-002   5.6421495409690471E-002   0.0000000000000000     
  -2.0335479626943639E-002   6.1983918659994454E-002   0.0000000000000000     
  -2.1991140602286286E-002   6.7762820637177076E-002   0.0000000000000000     
  -2.3492676501369790E-002   7.3758201341238325E-002   0.0000000000000000     
  -2.4840087324194148E-002   7.9970060772178192E-002   0.0000000000000000     
  -2.4388132584955532E-002   5.6854122775838838E-002   0.0000000000000000     
  -2.6030448555913587E-002   6.2416514804530754E-002   0.0000000000000000     
  -2.7573230085393044E-002   6.8189435000484439E-002   0.0000000000000000     
  -2.9016477173393913E-002   7.4172883363699885E-002   0.0000000000000000     
  -3.0360189819916193E-002   8.0366859894177078E-002   0.0000000000000000     
  -3.2719006605681694E-002   5.7371326826985578E-002   0.0000000000000000     
  -3.3720693853903701E-002   6.2944390784402893E-002   0.0000000000000000     
  -3.4763092609333780E-002   6.8715299049368586E-002   0.0000000000000000     
  -3.5846202871971933E-002   7.4684051621882630E-002   0.0000000000000000     
  -3.6970024641818144E-002   8.0850648501945011E-002   0.0000000000000000     
  -1.7069079311289787E-002   7.9437430985487487E-002   0.0000000000000000     
  -1.7765115896616723E-002   8.5841612836926900E-002   0.0000000000000000     
  -1.8447107908086336E-002   9.2407708481404949E-002   0.0000000000000000     
  -1.9115055345698632E-002   9.9135717918921618E-002   0.0000000000000000     
  -1.9768958209453596E-002  0.10602564114947692        0.0000000000000000     
  -2.0409717154652014E-002   7.9660251135948323E-002   0.0000000000000000     
  -2.1460553563576085E-002   8.6067085318269745E-002   0.0000000000000000     
  -2.2466290589976987E-002   9.2631400715934370E-002   0.0000000000000000     
  -2.3426928233854699E-002   9.9353197328942100E-002   0.0000000000000000     
  -2.4342466495209238E-002  0.10623247515729303        0.0000000000000000     
  -2.4840087324194148E-002   7.9970060772178192E-002   0.0000000000000000     
  -2.6083592134462295E-002   8.6367986239593311E-002   0.0000000000000000     
  -2.7273409995877143E-002   9.2921565053080302E-002   0.0000000000000000     
  -2.8409540908438700E-002   9.9630797212639247E-002   0.0000000000000000     
  -2.9491984872146947E-002  0.10649568271827003        0.0000000000000000     
  -3.0360189819916193E-002   8.0366859894177078E-002   0.0000000000000000     
  -3.1634231609275344E-002   8.6744315600897584E-002   0.0000000000000000     
  -3.2868466125786817E-002   9.3278201492842883E-002   0.0000000000000000     
  -3.4062893369450620E-002   9.9968517570012988E-002   0.0000000000000000     
  -3.5217513340266737E-002  0.10681526383240791        0.0000000000000000     
  -3.6970024641818144E-002   8.0850648501945011E-002   0.0000000000000000     
  -3.8112471988015241E-002   8.7196073402182550E-002   0.0000000000000000     
  -3.9251458979706014E-002   9.3701310035221988E-002   0.0000000000000000     
  -4.0386985616890470E-002  0.10036635840106338        0.0000000000000000     
  -4.1519051899568601E-002  0.10719121849970668        0.0000000000000000     
  -1.9768958209453596E-002  0.10602564114947692        0.0000000000000000     
  -2.0399460425440361E-002  0.11306735035898004        0.0000000000000000     
  -2.0997205919748029E-002  0.12025071773334013        0.0000000000000000     
  -2.1562194692376611E-002  0.12757574327255722        0.0000000000000000     
  -2.2094426743326109E-002  0.13504242697663127        0.0000000000000000     
  -2.4342466495209238E-002  0.10623247515729303        0.0000000000000000     
  -2.5209534235889716E-002  0.11326148562277433        0.0000000000000000     
  -2.6024760317745244E-002  0.12043248014717323        0.0000000000000000     
  -2.6788144740775829E-002  0.12774545873048970        0.0000000000000000     
  -2.7499687504981475E-002  0.13520042137272378        0.0000000000000000     
  -2.9491984872146947E-002  0.10649568271827003        0.0000000000000000     
  -3.0517582360361784E-002  0.11350953065719388        0.0000000000000000     
  -3.1483173846443072E-002  0.12066565011663198        0.0000000000000000     
  -3.2388759330390787E-002  0.12796404109658430        0.0000000000000000     
  -3.3234338812204972E-002  0.13540470359705081        0.0000000000000000     
  -3.5217513340266737E-002  0.10681526383240791        0.0000000000000000     
  -3.6323604798856567E-002  0.11381148546223870        0.0000000000000000     
  -3.7372446505841483E-002  0.12095022764171638        0.0000000000000000     
  -3.8364038461221495E-002  0.12823149037084092        0.0000000000000000     
  -3.9298380664996600E-002  0.13565527364961238        0.0000000000000000     
  -4.1519051899568601E-002  0.10719121849970668        0.0000000000000000     
  -4.2627601551374066E-002  0.11416735003790876        0.0000000000000000     
  -4.3692578295940525E-002  0.12128621272242643        0.0000000000000000     
  -4.4713982133267952E-002  0.12854780655325970        0.0000000000000000     
  -4.5691813063356353E-002  0.13595213153040853        0.0000000000000000     
  -2.2094426743326109E-002  0.13504242697663127        0.0000000000000000     
  -2.2595166262087216E-002  0.14264080171214058        0.0000000000000000     
  -2.3065677438150627E-002  0.15036090034566341        0.0000000000000000     
  -2.3505960271516354E-002  0.15820272287719980        0.0000000000000000     
  -2.3916014762184391E-002  0.16616626930674971        0.0000000000000000     
  -2.7499687504981475E-002  0.13520042137272378        0.0000000000000000     
  -2.8166296968070624E-002  0.14278759777035363        0.0000000000000000     
  -2.8794881487751743E-002  0.15049721761985757        0.0000000000000000     
  -2.9385441064024818E-002  0.15832928092123555        0.0000000000000000     
  -2.9937975696889864E-002  0.16628378767448754        0.0000000000000000     
  -3.3234338812204972E-002  0.13540470359705081        0.0000000000000000     
  -3.4027654386721562E-002  0.14297765970991863        0.0000000000000000     
  -3.4776448148776513E-002  0.15067293152707481        0.0000000000000000     
  -3.5480720098369854E-002  0.15849051904851930        0.0000000000000000     
  -3.6140470235501571E-002  0.16643042227425212        0.0000000000000000     
  -3.9298380664996600E-002  0.13565527364961238        0.0000000000000000     
  -4.0179238518040013E-002  0.14321098753083553        0.0000000000000000     
  -4.1010377421224972E-002  0.15088804206731507        0.0000000000000000     
  -4.1791797374551458E-002  0.15868643725905099        0.0000000000000000     
  -4.2523498378019498E-002  0.16660617310604339        0.0000000000000000     
  -4.5691813063356353E-002  0.13595213153040853        0.0000000000000000     
  -4.6621049362025997E-002  0.14348758123310434        0.0000000000000000     
  -4.7496669305097092E-002  0.15114254924057841        0.0000000000000000     
  -4.8318672892569650E-002  0.15891703555283077        0.0000000000000000     
  -4.9087060124443666E-002  0.16681104016986137        0.0000000000000000     
  -2.3916014762184391E-002  0.16616626930674971        0.0000000000000000     
  -2.4292815880089538E-002  0.17423388380042115        0.0000000000000000     
  -2.4633338595166587E-002  0.18238791052432213        0.0000000000000000     
  -2.4937582907415542E-002  0.19062834947845264        0.0000000000000000     
  -2.5205548816836398E-002  0.19895520066281269        0.0000000000000000     
  -2.9937975696889864E-002  0.16628378767448754        0.0000000000000000     
  -3.0444062732362030E-002  0.17434216662945548        0.0000000000000000     
  -3.0895279516456479E-002  0.18248584653598113        0.0000000000000000     
  -3.1291626049173210E-002  0.19071482739406448        0.0000000000000000     
  -3.1633102330512218E-002  0.19902910920370553        0.0000000000000000     
  -3.6140470235501571E-002  0.16643042227425212        0.0000000000000000     
  -3.6745719016074978E-002  0.17447410815551537        0.0000000000000000     
  -3.7286486895993426E-002  0.18260304364355101        0.0000000000000000     
  -3.7762773875256922E-002  0.19081722873835916        0.0000000000000000     
  -3.8174579953865445E-002  0.19911666343993967        0.0000000000000000     
  -4.2523498378019498E-002  0.16660617310604339        0.0000000000000000     
  -4.3197784731228386E-002  0.17462970837860084        0.0000000000000000     
  -4.3806960733777434E-002  0.18273950184703192        0.0000000000000000     
  -4.4351026385666674E-002  0.19093555351133662        0.0000000000000000     
  -4.4829981686896066E-002  0.19921786337151506        0.0000000000000000     
  -4.9087060124443666E-002  0.16681104016986137        0.0000000000000000     
  -4.9800259877822252E-002  0.17480896729871184        0.0000000000000000     
  -5.0456701029808516E-002  0.18289522114642373        0.0000000000000000     
  -5.1056383580402466E-002  0.19106980171299706        0.0000000000000000     
  -5.1599307529604080E-002  0.19933270899843178        0.0000000000000000     
  -2.5205548816836398E-002  0.19895520066281269        0.0000000000000000     
  -2.5440161242310366E-002  0.20735414074596201        0.0000000000000000     
  -2.5644345102718669E-002  0.21581084639646042        0.0000000000000000     
  -2.5818100398061292E-002  0.22432531761430785        0.0000000000000000     
  -2.5961427128338245E-002  0.23289755439950433        0.0000000000000000     
  -3.1633102330512218E-002  0.19902910920370553        0.0000000000000000     
  -3.1928337556980733E-002  0.20741706645843350        0.0000000000000000     
  -3.2185960925085966E-002  0.21586707365177757        0.0000000000000000     
  -3.2405972434827915E-002  0.22437913078373764        0.0000000000000000     
  -3.2588372086206595E-002  0.23295323785431379        0.0000000000000000     
  -3.8174579953865445E-002  0.19911666343993967        0.0000000000000000     
  -3.8531894072018721E-002  0.20749185690673666        0.0000000000000000     
  -3.8844705169916484E-002  0.21593331829719409        0.0000000000000000     
  -3.9113013247558726E-002  0.22444104761131201        0.0000000000000000     
  -3.9336818304945440E-002  0.23301504484909033        0.0000000000000000     
  -4.4829981686896066E-002  0.19921786337151506        0.0000000000000000     
  -4.5250830787424340E-002  0.20757851209087141        0.0000000000000000     
  -4.5620577837210227E-002  0.21600958033271006        0.0000000000000000     
  -4.5939222836253700E-002  0.22451106809703089        0.0000000000000000     
  -4.6206765784554786E-002  0.23308297538383393        0.0000000000000000     
  -5.1599307529604080E-002  0.19933270899843178        0.0000000000000000     
  -5.2085147703197596E-002  0.20767703201083793        0.0000000000000000     
  -5.2513578926967175E-002  0.21609585975832543        0.0000000000000000     
  -5.2884601200912859E-002  0.22458919224089430        0.0000000000000000     
  -5.3198214525034621E-002  0.23315702945854458        0.0000000000000000     
  -2.5961427128338245E-002  0.23289755439950433        0.0000000000000000     
  -2.6081375457866478E-002  0.24150037377496869        0.0000000000000000     
  -2.6184995550962948E-002  0.25010659276361991        0.0000000000000000     
  -2.6272287407627659E-002  0.25871621136545780        0.0000000000000000     
  -2.6343251027860608E-002  0.26732922958048255        0.0000000000000000     
  -3.2588372086206595E-002  0.23295323785431379        0.0000000000000000     
  -3.2741372744693673E-002  0.24156447628830460        0.0000000000000000     
  -3.2873187275760822E-002  0.25018792751050861        0.0000000000000000     
  -3.2983815679408071E-002  0.25882359152092588        0.0000000000000000     
  -3.3073257955635392E-002  0.26747146831955643        0.0000000000000000     
  -3.9336818304945440E-002  0.23301504484909033        0.0000000000000000     
  -3.9524699151028506E-002  0.24163408688640844        0.0000000000000000     
  -3.9685234594759776E-002  0.25027695059914573        0.0000000000000000     
  -3.9818424636139244E-002  0.25894363598730208        0.0000000000000000     
  -3.9924269275166936E-002  0.26763414305087757        0.0000000000000000     
  -4.6206765784554786E-002  0.23308297538383393        0.0000000000000000     
  -4.6431354676870970E-002  0.24170920556928027        0.0000000000000000     
  -4.6621137507959771E-002  0.25037366202953115        0.0000000000000000     
  -4.6776114277821197E-002  0.25907634476458641        0.0000000000000000     
  -4.6896284986455240E-002  0.26781725377444615        0.0000000000000000     
  -5.3198214525034621E-002  0.23315702945854458        0.0000000000000000     
  -5.3461339322221080E-002  0.24178983233692014        0.0000000000000000     
  -5.3680896015360843E-002  0.25047806180166493        0.0000000000000000     
  -5.3856884604453911E-002  0.25922171785277887        0.0000000000000000     
  -5.3989305089500297E-002  0.26802080049026200        0.0000000000000000     
  -2.6343251027860608E-002  0.26732922958048255        0.0000000000000000     
  -2.6409986489295267E-002  0.27589032511547379        0.0000000000000000     
  -2.6484593869565122E-002  0.28434417567721110        0.0000000000000000     
  -2.6567073168670161E-002  0.29269078126569464        0.0000000000000000     
  -2.6657424386610395E-002  0.30093014188092437        0.0000000000000000     
  -3.3073257955635392E-002  0.26747146831955643        0.0000000000000000     
  -3.3156475734375371E-002  0.27607835877978021        0.0000000000000000     
  -3.3248430645560580E-002  0.28459106377497734        0.0000000000000000     
  -3.3349122689191019E-002  0.29300958330514787        0.0000000000000000     
  -3.3458551865266695E-002  0.30133391737029158        0.0000000000000000     
  -3.9924269275166936E-002  0.26763414305087757        0.0000000000000000     
  -4.0021765202692933E-002  0.27629695260303844        0.0000000000000000     
  -4.0129909109567347E-002  0.28488054545695085        0.0000000000000000     
  -4.0248700995790157E-002  0.29338492161261476        0.0000000000000000     
  -4.0378140861361385E-002  0.30181008107003027        0.0000000000000000     
  -4.6896284986455240E-002  0.26781725377444615        0.0000000000000000     
  -4.7005854894247946E-002  0.27654610658524847        0.0000000000000000     
  -4.7129029261585395E-002  0.28521262072313164        0.0000000000000000     
  -4.7265808088467573E-002  0.29381679618809559        0.0000000000000000     
  -4.7416191374894473E-002  0.30235863298014026        0.0000000000000000     
  -5.3989305089500297E-002  0.26802080049026200        0.0000000000000000     
  -5.4108744809040425E-002  0.27682582072641032        0.0000000000000000     
  -5.4245791101614746E-002  0.28558728957351964        0.0000000000000000     
  -5.4400443967223253E-002  0.29430520703159013        0.0000000000000000     
  -5.4572703405865952E-002  0.30297957310062168        0.0000000000000000     
  -3.2719006605681694E-002   5.7371326826985578E-002   0.0000000000000000     
  -3.3720693853903701E-002   6.2944390784402893E-002   0.0000000000000000     
  -3.4763092609333780E-002   6.8715299049368586E-002   0.0000000000000000     
  -3.5846202871971933E-002   7.4684051621882630E-002   0.0000000000000000     
  -3.6970024641818144E-002   8.0850648501945011E-002   0.0000000000000000     
  -4.1071927541041921E-002   5.7992881564413068E-002   0.0000000000000000     
  -4.1453995270489506E-002   6.3552561533465293E-002   0.0000000000000000     
  -4.2012352271245841E-002   6.9303059584848087E-002   0.0000000000000000     
  -4.2746998543310870E-002   7.5244375718561435E-002   0.0000000000000000     
  -4.3657934086684648E-002   8.1376509934605407E-002   0.0000000000000000     
  -4.7000507294557840E-002   5.8738560989403714E-002   0.0000000000000000     
  -4.7278132555246523E-002   6.4226041985572260E-002   0.0000000000000000     
  -4.7772633168266500E-002   6.9915363407941425E-002   0.0000000000000000     
  -4.8484009133617778E-002   7.5806525256511215E-002   0.0000000000000000     
  -4.9412260451300337E-002   8.1899527531281643E-002   0.0000000000000000     
  -5.0504745866229411E-002   5.9608365101957494E-002   0.0000000000000000     
  -5.1193105708174730E-002   6.4964832140723822E-002   0.0000000000000000     
  -5.2043935300395805E-002   7.0552210518648656E-002   0.0000000000000000     
  -5.3057234642892630E-002   7.6370500235731970E-002   0.0000000000000000     
  -5.4233003735665204E-002   8.2419701291973763E-002   0.0000000000000000     
  -5.1584643256056661E-002   6.0602293902074431E-002   0.0000000000000000     
  -5.3198914729274155E-002   6.5768931998920005E-002   0.0000000000000000     
  -5.4826258667633743E-002   7.1213600916969766E-002   0.0000000000000000     
  -5.6466675071135446E-002   7.6936300656223672E-002   0.0000000000000000     
  -5.8120163939779243E-002   8.2937031216681750E-002   0.0000000000000000     
  -3.6970024641818144E-002   8.0850648501945011E-002   0.0000000000000000     
  -3.8112471988015241E-002   8.7196073402182550E-002   0.0000000000000000     
  -3.9251458979706014E-002   9.3701310035221988E-002   0.0000000000000000     
  -4.0386985616890470E-002  0.10036635840106338        0.0000000000000000     
  -4.1519051899568601E-002  0.10719121849970668        0.0000000000000000     
  -4.3657934086684648E-002   8.1376509934605407E-002   0.0000000000000000     
  -4.4673078403426894E-002   8.7686142484900406E-002   0.0000000000000000     
  -4.5720350995597334E-002   9.4159953621366935E-002   0.0000000000000000     
  -4.6799751863195994E-002  0.10079794334400502        0.0000000000000000     
  -4.7911281006222869E-002  0.10760011165281466        0.0000000000000000     
  -4.9412260451300337E-002   8.1899527531281643E-002   0.0000000000000000     
  -5.0470815988255202E-002   8.8177405690503349E-002   0.0000000000000000     
  -5.1573104611423413E-002   9.4623195192426984E-002   0.0000000000000000     
  -5.2719126320804964E-002  0.10123689603705259        0.0000000000000000     
  -5.3908881116399854E-002  0.10801850822438011        0.0000000000000000     
  -5.4233003735665204E-002   8.2419701291973763E-002   0.0000000000000000     
  -5.5505684742500179E-002   8.8669863018991366E-002   0.0000000000000000     
  -5.6809719827184225E-002   9.5091034748402137E-002   0.0000000000000000     
  -5.8145108989717358E-002  0.10168321648020602        0.0000000000000000     
  -5.9511852230099561E-002  0.10844640821440306        0.0000000000000000     
  -5.8120163939779243E-002   8.2937031216681750E-002   0.0000000000000000     
  -5.9777684666161818E-002   8.9163514470364497E-002   0.0000000000000000     
  -6.1430196642879804E-002   9.5563472289292350E-002   0.0000000000000000     
  -6.3077699869933182E-002  0.10213690467346537        0.0000000000000000     
  -6.4720194347321999E-002  0.10888381162288352        0.0000000000000000     
  -4.1519051899568601E-002  0.10719121849970668        0.0000000000000000     
  -4.2627601551374066E-002  0.11416735003790876        0.0000000000000000     
  -4.3692578295940525E-002  0.12128621272242643        0.0000000000000000     
  -4.4713982133267952E-002  0.12854780655325970        0.0000000000000000     
  -4.5691813063356353E-002  0.13595213153040853        0.0000000000000000     
  -4.7911281006222869E-002  0.10760011165281466        0.0000000000000000     
  -4.9023969436042647E-002  0.11455582907690036        0.0000000000000000     
  -5.0106848164020071E-002  0.12165446614536668        0.0000000000000000     
  -5.1159917190155120E-002  0.12889602285821369        0.0000000000000000     
  -5.2183176514447809E-002  0.13628049921544133        0.0000000000000000     
  -5.3908881116399854E-002  0.10801850822438011        0.0000000000000000     
  -5.5107105270990685E-002  0.11495562727190976        0.0000000000000000     
  -5.6278535057360080E-002  0.12203584869714178        0.0000000000000000     
  -5.7423170475508011E-002  0.12925917250007610        0.0000000000000000     
  -5.8541011525434498E-002  0.13662559868071278        0.0000000000000000     
  -5.9511852230099561E-002  0.10844640821440306        0.0000000000000000     
  -6.0877009056218165E-002  0.11536674462293703        0.0000000000000000     
  -6.2207638975960503E-002  0.12243036037775164        0.0000000000000000     
  -6.3503741989326609E-002  0.12963725547884700        0.0000000000000000     
  -6.4765318096316429E-002  0.13698742992622301        0.0000000000000000     
  -6.4720194347321999E-002  0.10888381162288352        0.0000000000000000     
  -6.6333680791725108E-002  0.11578918112998207        0.0000000000000000     
  -6.7894159919821395E-002  0.12283800118719632        0.0000000000000000     
  -6.9401631731610916E-002  0.13003027179452625        0.0000000000000000     
  -7.0856096227093587E-002  0.13736599295197188        0.0000000000000000     
  -4.5691813063356353E-002  0.13595213153040853        0.0000000000000000     
  -4.6621049362025997E-002  0.14348758123310434        0.0000000000000000     
  -4.7496669305097092E-002  0.15114254924057841        0.0000000000000000     
  -4.8318672892569650E-002  0.15891703555283077        0.0000000000000000     
  -4.9087060124443666E-002  0.16681104016986137        0.0000000000000000     
  -5.2183176514447809E-002  0.13628049921544133        0.0000000000000000     
  -5.3162916891464192E-002  0.14379502642120431        0.0000000000000000     
  -5.4085429075770367E-002  0.15142673567965742        0.0000000000000000     
  -5.4950713067366298E-002  0.15917562699080057        0.0000000000000000     
  -5.5758768866252015E-002  0.16704170035463384        0.0000000000000000     
  -5.8541011525434498E-002  0.13662559868071278        0.0000000000000000     
  -5.9614671079139321E-002  0.14412090869961469        0.0000000000000000     
  -6.0626762008622256E-002  0.15173088401734458        0.0000000000000000     
  -6.1577284313883318E-002  0.15945552463390250        0.0000000000000000     
  -6.2466237994922499E-002  0.16729483054928848        0.0000000000000000     
  -6.4765318096316429E-002  0.13698742992622301        0.0000000000000000     
  -6.5976311925051351E-002  0.14446522806833539        0.0000000000000000     
  -6.7120668103652775E-002  0.15205499425363994        0.0000000000000000     
  -6.8198386632120703E-002  0.15975672848213657        0.0000000000000000     
  -6.9209467510455133E-002  0.16757043075382533        0.0000000000000000     
  -7.0856096227093587E-002  0.13736599295197188        0.0000000000000000     
  -7.2247839429200308E-002  0.14482798452736656        0.0000000000000000     
  -7.3567147360861951E-002  0.15239906638854350        0.0000000000000000     
  -7.4814020022078459E-002  0.16007923853550279        0.0000000000000000     
  -7.5988457412849889E-002  0.16786850096824443        0.0000000000000000     
  -4.9087060124443666E-002  0.16681104016986137        0.0000000000000000     
  -4.9800259877822252E-002  0.17480896729871184        0.0000000000000000     
  -5.0456701029808516E-002  0.18289522114642373        0.0000000000000000     
  -5.1056383580402466E-002  0.19106980171299706        0.0000000000000000     
  -5.1599307529604080E-002  0.19933270899843178        0.0000000000000000     
  -5.5758768866252015E-002  0.16704170035463384        0.0000000000000000     
  -5.6514262073637883E-002  0.17501183027428655        0.0000000000000000     
  -5.7221858290734277E-002  0.18307289125288811        0.0000000000000000     
  -5.7881557517541191E-002  0.19122488329043852        0.0000000000000000     
  -5.8493359754058637E-002  0.19946780638693776        0.0000000000000000     
  -6.2466237994922499E-002  0.16729483054928848        0.0000000000000000     
  -6.3300908936456582E-002  0.17523824266376301        0.0000000000000000     
  -6.4088583023202347E-002  0.18327520187758656        0.0000000000000000     
  -6.4829260255159768E-002  0.19140570819075922        0.0000000000000000     
  -6.5522940632328858E-002  0.19962976160328089        0.0000000000000000     
  -6.9209467510455133E-002  0.16757043075382533        0.0000000000000000     
  -7.0160200466278369E-002  0.17548820446714120        0.0000000000000000     
  -7.1056875227212712E-002  0.18350215302051914        0.0000000000000000     
  -7.1899491793258163E-002  0.19161227641395917        0.0000000000000000     
  -7.2688050164414722E-002  0.19981857464746119        0.0000000000000000     
  -7.5988457412849889E-002  0.16786850096824443        0.0000000000000000     
  -7.7092136663103217E-002  0.17576171568442112        0.0000000000000000     
  -7.8126734902765366E-002  0.18375374468168576        0.0000000000000000     
  -7.9092252131836391E-002  0.19184458796003828        0.0000000000000000     
  -7.9988688350316278E-002  0.20003424551947868        0.0000000000000000     
  -5.1599307529604080E-002  0.19933270899843178        0.0000000000000000     
  -5.2085147703197596E-002  0.20767703201083793        0.0000000000000000     
  -5.2513578926967175E-002  0.21609585975832543        0.0000000000000000     
  -5.2884601200912859E-002  0.22458919224089430        0.0000000000000000     
  -5.3198214525034621E-002  0.23315702945854458        0.0000000000000000     
  -5.8493359754058637E-002  0.19946780638693776        0.0000000000000000     
  -5.9049804918060389E-002  0.20779501947809670        0.0000000000000000     
  -5.9543432927320179E-002  0.21619988149962624        0.0000000000000000     
  -5.9974243781838063E-002  0.22468239245152644        0.0000000000000000     
  -6.0342237481614006E-002  0.23324255233379720        0.0000000000000000     
  -6.5522940632328858E-002  0.19962976160328089        0.0000000000000000     
  -6.6159762530734634E-002  0.20794007730410838        0.0000000000000000     
  -6.6729864326402072E-002  0.21632937048219855        0.0000000000000000     
  -6.7233246019331200E-002  0.22479764113755130        0.0000000000000000     
  -6.7669907609522004E-002  0.23334488927016672        0.0000000000000000     
  -7.2688050164414722E-002  0.19981857464746119        0.0000000000000000     
  -7.3415020541220316E-002  0.20811220548887305        0.0000000000000000     
  -7.4072873124212832E-002  0.21648432670604228        0.0000000000000000     
  -7.4661607913392256E-002  0.22493493829896899        0.0000000000000000     
  -7.5181224908758587E-002  0.23346404026765311        0.0000000000000000     
  -7.9988688350316278E-002  0.20003424551947868        0.0000000000000000     
  -8.0815578949517491E-002  0.20831140403239062        0.0000000000000000     
  -8.1572459320752452E-002  0.21666475017115752        0.0000000000000000     
  -8.2259329464021230E-002  0.22509428393577946        0.0000000000000000     
  -8.2876189379323811E-002  0.23360000532625641        0.0000000000000000     
  -5.3198214525034621E-002  0.23315702945854458        0.0000000000000000     
  -5.3461339322221080E-002  0.24178983233692014        0.0000000000000000     
  -5.3680896015360843E-002  0.25047806180166493        0.0000000000000000     
  -5.3856884604453911E-002  0.25922171785277887        0.0000000000000000     
  -5.3989305089500297E-002  0.26802080049026200        0.0000000000000000     
  -6.0342237481614006E-002  0.23324255233379720        0.0000000000000000     
  -6.0651930117266453E-002  0.24187812161724276        0.0000000000000000     
  -6.0907837779413852E-002  0.25058686077266740        0.0000000000000000     
  -6.1109960468056217E-002  0.25936876980007101        0.0000000000000000     
  -6.1258298183193512E-002  0.26822384869945365        0.0000000000000000     
  -6.7669907609522004E-002  0.23334488927016672        0.0000000000000000     
  -6.8040404092194737E-002  0.24197622783816314        0.0000000000000000     
  -6.8345290462569722E-002  0.25069676979965916        0.0000000000000000     
  -6.8584566720646903E-002  0.25950651515465462        0.0000000000000000     
  -6.8758232866426294E-002  0.26840546390314957        0.0000000000000000     
  -7.5181224908758587E-002  0.23346404026765311        0.0000000000000000     
  -7.5626761247005958E-002  0.24208415099968134        0.0000000000000000     
  -7.5993254064828403E-002  0.25080778888264010        0.0000000000000000     
  -7.6280703362225991E-002  0.25963495391652969        0.0000000000000000     
  -7.6489109139198666E-002  0.26856564610134975        0.0000000000000000     
  -8.2876189379323811E-002  0.23360000532625641        0.0000000000000000     
  -8.3411001581700048E-002  0.24220189110179713        0.0000000000000000     
  -8.3851728586189930E-002  0.25091991802161034        0.0000000000000000     
  -8.4198370392793445E-002  0.25975408608569611        0.0000000000000000     
  -8.4450927001510578E-002  0.26870439529405432        0.0000000000000000     
  -5.3989305089500297E-002  0.26802080049026200        0.0000000000000000     
  -5.4108744809040425E-002  0.27682582072641032        0.0000000000000000     
  -5.4245791101614746E-002  0.28558728957351964        0.0000000000000000     
  -5.4400443967223253E-002  0.29430520703159013        0.0000000000000000     
  -5.4572703405865952E-002  0.30297957310062168        0.0000000000000000     
  -6.1258298183193512E-002  0.26822384869945365        0.0000000000000000     
  -6.1389176842845901E-002  0.27710776463494446        0.0000000000000000     
  -6.1538922365033472E-002  0.28597618477067277        0.0000000000000000     
  -6.1707534749756245E-002  0.29482910910663845        0.0000000000000000     
  -6.1895013997014220E-002  0.30366653764284157        0.0000000000000000     
  -6.8758232866426294E-002  0.26840546390314957        0.0000000000000000     
  -6.8905892891439890E-002  0.27736360791927173        0.0000000000000000     
  -6.9067150787219658E-002  0.28635093907714865        0.0000000000000000     
  -6.9242006553765584E-002  0.29536745737678050        0.0000000000000000     
  -6.9430460191077653E-002  0.30441316281816710        0.0000000000000000     
  -7.6489109139198666E-002  0.26856564610134975        0.0000000000000000     
  -7.6658892954822436E-002  0.27759335057939194        0.0000000000000000     
  -7.6830476368173292E-002  0.28671155249294739        0.0000000000000000     
  -7.7003859379251235E-002  0.29592025184201620        0.0000000000000000     
  -7.7179041988056252E-002  0.30521944862659822        0.0000000000000000     
  -8.4450927001510578E-002  0.26870439529405432        0.0000000000000000     
  -8.4648177032993502E-002  0.27779699261530522        0.0000000000000000     
  -8.4828899107894359E-002  0.28705802501806887        0.0000000000000000     
  -8.4993093226213234E-002  0.29648749250234552        0.0000000000000000     
  -8.5140759387950044E-002  0.30608539506813492        0.0000000000000000     
  -5.1584643256056661E-002   6.0602293902074431E-002   0.0000000000000000     
  -5.3198914729274155E-002   6.5768931998920005E-002   0.0000000000000000     
  -5.4826258667633743E-002   7.1213600916969766E-002   0.0000000000000000     
  -5.6466675071135446E-002   7.6936300656223672E-002   0.0000000000000000     
  -5.8120163939779243E-002   8.2937031216681750E-002   0.0000000000000000     
  -5.2502238470879203E-002   6.1349798564199122E-002   0.0000000000000000     
  -5.5042221731545174E-002   6.6460350623920028E-002   0.0000000000000000     
  -5.7456915237329910E-002   7.1856534923765397E-002   0.0000000000000000     
  -5.9746318988233425E-002   7.7538351463735264E-002   0.0000000000000000     
  -6.1910432984255706E-002   8.3505800243829614E-002   0.0000000000000000     
  -5.5519570517536629E-002   6.1480330262776189E-002   0.0000000000000000     
  -5.8469688827988198E-002   6.6861097079483123E-002   0.0000000000000000     
  -6.1273216976833925E-002   7.2438012859896289E-002   0.0000000000000000     
  -6.3930154964073810E-002   7.8211077604015689E-002   0.0000000000000000     
  -6.6440502789707825E-002   8.4180291311841307E-002   0.0000000000000000     
  -6.0636639396028959E-002   6.0993888997805619E-002   0.0000000000000000     
  -6.3481316018603268E-002   6.6971171365609330E-002   0.0000000000000000     
  -6.6275163886145808E-002   7.2958034725362414E-002   0.0000000000000000     
  -6.9018182998656571E-002   7.8954479077064960E-002   0.0000000000000000     
  -7.1710373356135573E-002   8.4960504420716842E-002   0.0000000000000000     
  -6.7853445106356186E-002   5.9890474769287425E-002   0.0000000000000000     
  -7.0077103303390342E-002   6.6790573482298610E-002   0.0000000000000000     
  -7.2462755965265524E-002   7.3416600520163813E-002   0.0000000000000000     
  -7.5010403091981731E-002   7.9768555882883022E-002   0.0000000000000000     
  -7.7720044683538964E-002   8.5846439570456248E-002   0.0000000000000000     
  -5.8120163939779243E-002   8.2937031216681750E-002   0.0000000000000000     
  -5.9777684666161818E-002   8.9163514470364497E-002   0.0000000000000000     
  -6.1430196642879804E-002   9.5563472289292350E-002   0.0000000000000000     
  -6.3077699869933182E-002  0.10213690467346537        0.0000000000000000     
  -6.4720194347321999E-002  0.10888381162288352        0.0000000000000000     
  -6.1910432984255706E-002   8.3505800243829614E-002   0.0000000000000000     
  -6.3989409053167148E-002   8.9704692247404169E-002   0.0000000000000000     
  -6.6023399022738100E-002   9.6080838457814774E-002   0.0000000000000000     
  -6.8012402892968560E-002  0.10263423887506133        0.0000000000000000     
  -6.9956420663858529E-002  0.10936489349914391        0.0000000000000000     
  -6.6440502789707825E-002   8.4180291311841307E-002   0.0000000000000000     
  -6.8843451197443187E-002   9.0339728552891949E-002   0.0000000000000000     
  -7.1178190930987081E-002   9.6683463896686361E-002   0.0000000000000000     
  -7.3444721990339551E-002  0.10321149734322461        0.0000000000000000     
  -7.5643044375500568E-002  0.10992382889250669        0.0000000000000000     
  -7.1710373356135573E-002   8.4960504420716842E-002   0.0000000000000000     
  -7.4339811098989947E-002   9.1068623386827738E-002   0.0000000000000000     
  -7.6894572367626812E-002   9.7371348605907210E-002   0.0000000000000000     
  -7.9374657162046197E-002  0.10386868007795524        0.0000000000000000     
  -8.1780065482248060E-002  0.11056061780297184        0.0000000000000000     
  -7.7720044683538964E-002   8.5846439570456248E-002   0.0000000000000000     
  -8.0478488757807415E-002   9.1891376749211620E-002   0.0000000000000000     
  -8.3172543332657223E-002   9.8144492585477264E-002   0.0000000000000000     
  -8.5802208408088443E-002  0.10460578707925319        0.0000000000000000     
  -8.8367483984101061E-002  0.11127526023053941        0.0000000000000000     
  -6.4720194347321999E-002  0.10888381162288352        0.0000000000000000     
  -6.6333680791725108E-002  0.11578918112998207        0.0000000000000000     
  -6.7894159919821395E-002  0.12283800118719632        0.0000000000000000     
  -6.9401631731610916E-002  0.13003027179452625        0.0000000000000000     
  -7.0856096227093587E-002  0.13736599295197188        0.0000000000000000     
  -6.9956420663858529E-002  0.10936489349914391        0.0000000000000000     
  -7.1840567193949087E-002  0.11625562802606544        0.0000000000000000     
  -7.3649957341781314E-002  0.12328926815182899        0.0000000000000000     
  -7.5384591107355167E-002  0.13046581387643444        0.0000000000000000     
  -7.7044468490670662E-002  0.13778526519988188        0.0000000000000000     
  -7.5643044375500568E-002  0.10992382889250669        0.0000000000000000     
  -7.7761114979327764E-002  0.11679877654420770        0.0000000000000000     
  -7.9786890694678800E-002  0.12381465829800280        0.0000000000000000     
  -8.1720371521553661E-002  0.13097147415389207        0.0000000000000000     
  -8.3561557459952363E-002  0.13826922411187537        0.0000000000000000     
  -8.1780065482248060E-002  0.11056061780297184        0.0000000000000000     
  -8.4095324147861070E-002  0.11741862668440879        0.0000000000000000     
  -8.6304959978513854E-002  0.12441417162571786        0.0000000000000000     
  -8.8408972974206371E-002  0.13154725262689904        0.0000000000000000     
  -9.0407363134938648E-002  0.13881786968795229        0.0000000000000000     
  -8.8367483984101061E-002  0.11127526023053941        0.0000000000000000     
  -9.0843194699549074E-002  0.11811517844666874        0.0000000000000000     
  -9.3204165193286490E-002  0.12508780813497408        0.0000000000000000     
  -9.5450395465313309E-002  0.13219314929545542        0.0000000000000000     
  -9.7581885515629546E-002  0.13943120192811273        0.0000000000000000     
  -7.0856096227093587E-002  0.13736599295197188        0.0000000000000000     
  -7.2247839429200308E-002  0.14482798452736656        0.0000000000000000     
  -7.3567147360861951E-002  0.15239906638854350        0.0000000000000000     
  -7.4814020022078459E-002  0.16007923853550279        0.0000000000000000     
  -7.5988457412849889E-002  0.16786850096824443        0.0000000000000000     
  -7.7044468490670662E-002  0.13778526519988188        0.0000000000000000     
  -7.8627543538915323E-002  0.14522964518667034        0.0000000000000000     
  -8.0131770299276581E-002  0.15278097690129885        0.0000000000000000     
  -8.1557148771754504E-002  0.16043926034376749        0.0000000000000000     
  -8.2903678956349036E-002  0.16820449551407615        0.0000000000000000     
  -8.3561557459952363E-002  0.13826922411187537        0.0000000000000000     
  -8.5313714201525476E-002  0.14569067715620912        0.0000000000000000     
  -8.6980107437923573E-002  0.15321860227114964        0.0000000000000000     
  -8.8560737169146683E-002  0.16085299945669701        0.0000000000000000     
  -9.0055603395194764E-002  0.16859386871285104        0.0000000000000000     
  -9.0407363134938648E-002  0.13881786968795229        0.0000000000000000     
  -9.2306351417030794E-002  0.14621108043598288        0.0000000000000000     
  -9.4112158776802943E-002  0.15371194249809583        0.0000000000000000     
  -9.5824785214255026E-002  0.16132045587429125        0.0000000000000000     
  -9.7444230729387099E-002  0.16903662056456908        0.0000000000000000     
  -9.7581885515629546E-002  0.13943120192811273        0.0000000000000000     
  -9.9605455185431277E-002  0.14679085502599157        0.0000000000000000     
 -0.10152792431591461       0.15426099758213743        0.0000000000000000     
 -0.10334929290707953       0.16184162959655032        0.0000000000000000     
 -0.10506956095892604       0.16953275106923021        0.0000000000000000     
  -7.5988457412849889E-002  0.16786850096824443        0.0000000000000000     
  -7.7092136663103217E-002  0.17576171568442112        0.0000000000000000     
  -7.8126734902765366E-002  0.18375374468168576        0.0000000000000000     
  -7.9092252131836391E-002  0.19184458796003828        0.0000000000000000     
  -7.9988688350316278E-002  0.20003424551947868        0.0000000000000000     
  -8.2903678956349036E-002  0.16820449551407615        0.0000000000000000     
  -8.4168228406997184E-002  0.17607350841735203        0.0000000000000000     
  -8.5347664677635937E-002  0.18404312505872231        0.0000000000000000     
  -8.6441987768265310E-002  0.19211334543818692        0.0000000000000000     
  -8.7451197678885262E-002  0.20028416955574591        0.0000000000000000     
  -9.0055603395194764E-002  0.16859386871285104        0.0000000000000000     
  -9.1459986578026398E-002  0.17643831476768312        0.0000000000000000     
  -9.2769167179600029E-002  0.18438344234926457        0.0000000000000000     
  -9.3983145199915782E-002  0.19242925145759521        0.0000000000000000     
  -9.5101920638973506E-002  0.20057574209267517        0.0000000000000000     
  -9.7444230729387099E-002  0.16903662056456908        0.0000000000000000     
  -9.8967411176190803E-002  0.17685613473541445        0.0000000000000000     
 -0.10039124240865765       0.18477469655331247        0.0000000000000000     
 -0.10171572442678772       0.19279230601826330        0.0000000000000000     
 -0.10294085723058101       0.20090896313026665        0.0000000000000000     
 -0.10506956095892604       0.16953275106923021        0.0000000000000000     
 -0.10669050220149039       0.17732696832054592        0.0000000000000000     
 -0.10821389036480877       0.18521688767086616        0.0000000000000000     
 -0.10963972544888125       0.19320250912019096        0.0000000000000000     
 -0.11096800745370775       0.20128383266852026        0.0000000000000000     
  -7.9988688350316278E-002  0.20003424551947868        0.0000000000000000     
  -8.0815578949517491E-002  0.20831140403239062        0.0000000000000000     
  -8.1572459320752452E-002  0.21666475017115752        0.0000000000000000     
  -8.2259329464021230E-002  0.22509428393577946        0.0000000000000000     
  -8.2876189379323811E-002  0.23360000532625641        0.0000000000000000     
  -8.7451197678885262E-002  0.20028416955574591        0.0000000000000000     
  -8.8382409599377335E-002  0.20854251020608724        0.0000000000000000     
  -8.9242738719623002E-002  0.21687528018389907        0.0000000000000000     
  -9.0032185039622306E-002  0.22528247948918126        0.0000000000000000     
  -9.0750748559375177E-002  0.23376410812193391        0.0000000000000000     
  -9.5101920638973506E-002  0.20057574209267517        0.0000000000000000     
  -9.6136484334551145E-002  0.20881036128138916        0.0000000000000000     
  -9.7097827124426522E-002  0.21712055605062175        0.0000000000000000     
  -9.7985949008599568E-002  0.22550632640037294        0.0000000000000000     
  -9.8800849987070338E-002  0.23396767233064286        0.0000000000000000     
 -0.10294085723058101       0.20090896313026665        0.0000000000000000     
 -0.10407780315503896       0.20911495725829626        0.0000000000000000     
 -0.10513772453516296       0.21740057777132557        0.0000000000000000     
 -0.10612062137095309       0.22576582466935460        0.0000000000000000     
 -0.10702649366240928       0.23421069795238328        0.0000000000000000     
 -0.11096800745370775       0.20128383266852026        0.0000000000000000     
 -0.11220636606084068       0.20945629813680863        0.0000000000000000     
 -0.11336243095183238       0.21771534534601059        0.0000000000000000     
 -0.11443620212668280       0.22606097429612607        0.0000000000000000     
 -0.11542767958539202       0.23449318498715516        0.0000000000000000     
  -8.2876189379323811E-002  0.23360000532625641        0.0000000000000000     
  -8.3411001581700048E-002  0.24220189110179713        0.0000000000000000     
  -8.3851728586189930E-002  0.25091991802161034        0.0000000000000000     
  -8.4198370392793445E-002  0.25975408608569611        0.0000000000000000     
  -8.4450927001510578E-002  0.26870439529405432        0.0000000000000000     
  -9.0750748559375177E-002  0.23376410812193391        0.0000000000000000     
  -9.1383189885523519E-002  0.24234531313803923        0.0000000000000000     
  -9.1914269624709152E-002  0.25105124159337944        0.0000000000000000     
  -9.2343987776932118E-002  0.25988189348795449        0.0000000000000000     
  -9.2672344342192334E-002  0.26883726882176456        0.0000000000000000     
  -9.8800849987070338E-002  0.23396767233064286        0.0000000000000000     
  -9.9533390947722816E-002  0.24253028210193595        0.0000000000000000     
 -0.10017443277844094       0.25121984397475688        0.0000000000000000     
 -0.10072397547922478       0.26003635794910551        0.0000000000000000     
 -0.10118201905007423       0.26897982402498194        0.0000000000000000     
 -0.10702649366240928       0.23421069795238328        0.0000000000000000     
 -0.10786160476829794       0.24275679799348740        0.0000000000000000     
 -0.10863221804738531       0.25142572516574258        0.0000000000000000     
 -0.10933833349967143       0.26021747946914908        0.0000000000000000     
 -0.10997995112515631       0.26913206090370662        0.0000000000000000     
 -0.11542767958539202       0.23449318498715516        0.0000000000000000     
 -0.11636783134724886       0.24302486081269351        0.0000000000000000     
 -0.11728762543154220       0.25166888516633684        0.0000000000000000     
 -0.11818706183827210       0.26042525804808508        0.0000000000000000     
 -0.11906614056743847       0.26929397945793837        0.0000000000000000     
  -8.4450927001510578E-002  0.26870439529405432        0.0000000000000000     
  -8.4648177032993502E-002  0.27779699261530522        0.0000000000000000     
  -8.4828899107894359E-002  0.28705802501806887        0.0000000000000000     
  -8.4993093226213234E-002  0.29648749250234552        0.0000000000000000     
  -8.5140759387950044E-002  0.30608539506813492        0.0000000000000000     
  -9.2672344342192334E-002  0.26883726882176456        0.0000000000000000     
  -9.2929844826074484E-002  0.27798019716163974        0.0000000000000000     
  -9.3146994734163102E-002  0.28737350807441037        0.0000000000000000     
  -9.3323794066458243E-002  0.29701720156007633        0.0000000000000000     
  -9.3460242822959894E-002  0.30691127761863773        0.0000000000000000     
 -0.10118201905007423       0.26897982402498194        0.0000000000000000     
 -0.10155999603418675       0.27814862735302381        0.0000000000000000     
 -0.10186933897475968       0.28764115308386862        0.0000000000000000     
 -0.10211004787179297       0.29745740121751640        0.0000000000000000     
 -0.10228212272528667       0.30759737175396723        0.0000000000000000     
 -0.10997995112515631       0.26913206090370662        0.0000000000000000     
 -0.11053863065733036       0.27830228318945743        0.0000000000000000     
 -0.11099593182968406       0.28786096004644385        0.0000000000000000     
 -0.11135185464221743       0.29780809147466569        0.0000000000000000     
 -0.11160639909493045       0.30814367747412325        0.0000000000000000     
 -0.11906614056743847       0.26929397945793837        0.0000000000000000     
 -0.11986574869550526       0.27844116467094066        0.0000000000000000     
 -0.12052677329893630       0.28803292896213595        0.0000000000000000     
 -0.12104921437773160       0.29806927233152442        0.0000000000000000     
 -0.12143307193189115       0.30855019477910584        0.0000000000000000     
 </DataArray>
 <DataArray  type="Float64" Name="stress" NumberOfComponents="3" format="ascii">
   5414465782.2284956        4335189098.5478592       -907967687.06187677     
   5068875154.6229887        2146455765.0338874       -461394060.43976045     
   4933553019.8887587        658617407.75749838       -215205019.55552295     
   5008499378.0257902       -128325973.28133655       -169400564.40918338     
   5293714229.0340967       -214374378.08258772       -323980695.00073028     
   6558739673.1732283        3493883175.2867613       -143590466.42533794     
   5970653084.3653030        1858898578.2978439        131716154.27674234     
   5531383576.8590498        719970918.98112905        293083835.97828954     
   5240931150.6544380        77100197.336579800        340512578.67932165     
   5099295805.7514906       -69713586.635780334        274002382.37983602     
   6491709523.4809799        2289186039.8345680        897593997.45468056     
   5908114535.5774221        1282046448.0027452        929940298.73881984     
   5411885217.4058990        566125755.27771497        934793307.75980282     
   5003021568.9664183        141423961.65948963        912153024.51764143     
   4681523590.2589788        7941067.1480555534        862019449.01233304     
   5213375333.1517754        721097692.19129002        2215585704.5781612     
   4881259508.2593327        415899374.14857912        1933278372.9464867     
   4575057941.5293236        197081916.64727592        1709923395.7890260     
   4294770632.9617338        64645319.687396765        1545520773.1057830     
   4040397582.5565653        18589583.268917799        1440070504.8967566     
   2723737102.1855950       -1210381867.6430840        3810384654.9451270     
   2890088002.4110475       -739542643.26465213        3141730376.8997426     
   3020901749.2293086       -387160596.91018808        2618474100.0659423     
   3116178342.6403780       -153235728.57970405        2240615824.4437351     
   3175917782.6442575       -37768038.273185134        2008155550.0331078     
   5293714229.0340967       -214374378.08258772       -323980695.00073028     
   5201606055.5369520       -109308826.47890544       -229521252.85272342     
   5099873914.7223444       -36323165.933422089       -148844724.32181162     
   4988517806.5902510        4582603.5537650585       -81951109.407985851     
   4867537731.1406918        13408481.982747555       -28840408.111237176     
   5099295805.7514906       -69713586.635780334        274002382.37983602     
   4977974033.6631546        3809941.5839920044        286451676.90967548     
   4849094459.6233196        52140796.632102966        297490814.61351514     
   4712657083.6319952        75278978.508581877        307119795.49135977     
   4568661905.6891718        73224487.213385820        315338619.54318601     
   4681523590.2589788        7941067.1480555534        862019449.01233304     
   4566338953.2682524        60527792.090526104        794869122.18432069     
   4445662679.6920090        94809061.747948885        738681395.32139528     
   4319494769.5302477        110784876.12031102        693456268.42355311     
   4187835222.7829709        108455235.20761704        659193741.49078143     
   4040397582.5565653        18589583.268917799        1440070504.8967566     
   3966700814.3522549        60844725.040737629        1295731082.9712119     
   3889578574.9284081        91681629.414107561        1174727017.8018250     
   3809030864.2850180        111100296.38899899        1077058309.3886018     
   3725057682.4220901        119100725.96544552        1002724957.7315383     
   3175917782.6442575       -37768038.273185134        2008155550.0331078     
   3179059616.9151673        4760740.4346338511        1789037559.2703400     
   3180842145.3325162        42758499.630571485        1605627682.0548015     
   3181265367.8963070        76225239.314655900        1457925918.3865108     
   3180329284.6065378        105160959.48687291        1345932268.2654617     
   4867537731.1406918        13408481.982747555       -28840408.111237176     
   4637263822.6513987       -19833793.918152332       -35761691.836730607     
   4410495197.2479630       -41391792.866222858       -37504804.315094180     
   4187231854.9303889       -51265514.861405849       -34069745.546313182     
   3967473795.6986713       -49454959.903735638       -25456515.530408729     
   4568661905.6891718        73224487.213385820        315338619.54318601     
   4356895569.7675314        43322844.589978456        284851976.36776447     
   4147731560.6756859        22095624.732550859        262652840.85628840     
   3941169878.4136419        9542827.6411299706        248741213.00875974     
   3737210522.9813976        5664453.3157093525        243117092.82518297     
   4187835222.7829709        108455235.20761704        659193741.49078143     
   4003460277.7627401        84559371.361841679        604088289.90002799     
   3820784703.3162441        66328076.095173597        560379682.39002955     
   3639808499.4434948        53761349.407665730        528067918.96079648     
   3460531666.1444764        46859191.299263239        507152999.61232221     
   3725057682.4220901        119100725.96544552        1002724957.7315383     
   3576957946.6370249        103875786.39742243        921947248.76004422     
   3429654625.1696434        91305561.221662998        855675720.28613031     
   3283147718.0199380        81390050.438161969        803910372.30979061     
   3137437225.1879067        74129254.046927691        766651204.83102357     
   3180329284.6065378        105160959.48687291        1345932268.2654617     
   3077388576.3903937        101272089.69673049        1238428852.9478295     
   2974341326.2358723        97028080.111987710        1148540954.5445895     
   2871187534.1429720        92428930.732650399        1076268573.0557401     
   2767927200.1116867        87474641.558703780        1021611708.4812806     
   3967473795.6986713       -49454959.903735638       -25456515.530408729     
   3777085875.8348198       -37037907.880166769       -27647422.396106854     
   3584376489.5371308       -32359077.302723885       -23804569.071966819     
   3389345636.8055921       -35418468.171440840       -13927955.557983497     
   3191993317.6402140       -46216080.486299992        1982418.1458354236     
   3737210522.9813976        5664453.3157093525        243117092.82518297     
   3560167680.9372196        11879549.289539099        222399443.55888754     
   3381853401.9200559        13856522.020075321        207344699.20629191     
   3202267685.9299240        11595371.507382631        197952859.76740125     
   3021410532.9668036        5096097.7513949871        194223925.24219504     
   3460531666.1444764        46859191.299263239        507152999.61232221     
   3295774315.4167151        46554455.272367597        469133642.31644338     
   3130795557.1768236        45511694.205048323        436406334.65811741     
   2965595391.4248242        43730908.097363472        408971076.63734478     
   2800173818.1606927        41212096.949233413        386827868.25413936     
   3137437225.1879067        74129254.046927691        766651204.83102357     
   2983905779.2732968        66986810.068324924        712555173.87655437     
   2831202955.3074336        62606439.252190113        663380337.28350437     
   2679328753.2903008        60988141.598497272        619126695.05186713     
   2528283173.2219076        62131917.107279658        579794247.18165243     
   2767927200.1116867        87474641.558703780        1021611708.4812806     
   2624562072.5069780        73176613.677415729        952664038.23922420     
   2483075596.3118649        65140757.161451697        888266707.08245027     
   2343467771.5263543        63367072.010827303        828419715.01094759     
   2205738598.1504455        67855558.225542426        773123062.02472842     
   3191993317.6402140       -46216080.486299992        1982418.1458354236     
   3002294684.3932476       -54205150.847513676        8229461.1240028525     
   2815255387.5876369       -53329766.404200196        10955874.552483950     
   2630875427.2234163       -43589927.156260252        10161658.431245407     
   2449154803.3005805       -24985633.103694201        5846812.7603102848     
   3021410532.9668036        5096097.7513949871        194223925.24219504     
   2827691196.5815845       -4800051.7889475822        187406904.09656107     
   2635547766.9994574       -9443178.6523169279        181457759.12792060     
   2444980244.2204018       -8833282.8387930393        176376490.33628130     
   2255988628.2444134       -2970364.3483792543        172163097.72165081     
   2800173818.1606927        41212096.949233413        386827868.25413936     
   2614972366.4278474        33170444.567029834        365682781.73999310     
   2430263391.8597693        26770382.734047055        349794077.12955600     
   2246046894.4564695        22011911.450332403        339161754.42281330     
   2062322874.2179468        18895030.715872765        333785813.61981183     
   2528283173.2219076        62131917.107279658        579794247.18165243     
   2364138193.9320116        59706338.220341086        543057094.05430841     
   2199402262.1685925        55310917.754990816        515964828.55739176     
   2034075377.9316409        48945655.711195230        498517450.69088733     
   1868157541.2211716        40610552.089005470        490714960.45480704     
   2205738598.1504455        67855558.225542426        773123062.02472842     
   2075188679.0940995        74807629.171069264        719529841.03951955     
   1942964377.9259276        76178426.410496831        679970013.41142309     
   1809065694.6459210        71967949.943826318        654443579.14046514     
   1673492629.2540948        62176199.771067679        642950538.22663105     
   2449154803.3005805       -24985633.103694201        5846812.7603102848     
   2298298550.0504193       -1160027.2786203623       -4747281.0193981677     
   2142120543.1528387        4926399.7217113972       -10909174.137036387     
   1980620782.6077869       -6726352.1028535366       -12638866.592583876     
   1813799268.4152880       -36118282.752244115       -9936358.3860611320     
   2255988628.2444134       -2970364.3483792543        172163097.72165081     
   2113145931.9346883        13844398.370060325        155716768.53149036     
   1966819967.2799575        19048266.605134964        142620400.11956754     
   1817010734.2802510        12641240.356963992        132873992.48590736     
   1663718232.9355516       -5376680.3744947910        126477545.63049640     
   2062322874.2179468        18895030.715872765        333785813.61981183     
   1924401620.8948274        27771316.141428828        313632148.53875309     
   1784835584.5291829        31164991.425242424        295746204.35209626     
   1643624765.1210063        29076056.567295253        280127981.05986893     
   1500769162.6703253        21504511.567627668        266777478.66206649     
   1868157541.2211716        40610552.089005470        490714960.45480704     
   1732065616.9308558        40620726.035574019        468998859.00237983     
   1596167394.9004860        41276574.181947172        448468238.56054169     
   1460462875.1300581        42578096.528128922        429123099.12929094     
   1324952057.6195607        44525293.074091971        410963440.70862383     
   1673492629.2540948        62176199.771067679        642950538.22663105     
   1536137920.0427904        52392628.052511096        621816899.92239118     
   1400815398.3938787        49383014.875268877        600786502.74489379     
   1267525064.3073857        53147360.239419580        579859346.69415426     
   1136266917.7832954        63685664.144912720        559035431.77018797     
   1813799268.4152880       -36118282.752244115       -9936358.3860611320     
   1779316827.7882512       -20770615.091595173       -5451964.4644202003     
   1753477817.4506826        23388486.867271185       -39891562.387396075     
   1736282237.4026191        96359023.124491513       -113255152.15498234     
   1727730087.6440010        198140993.67986387       -225542733.76719823     
   1663718232.9355516       -5376680.3744947910        126477545.63049640     
   1537424989.9868701       -13568065.334000468        140524362.03456470     
   1415753537.3082812       -6353482.7265197039        128303565.25585507     
   1298703874.8998237        16267067.448070705        89815155.294362977     
   1186276002.7614765        54293585.189696193        25059132.150114708     
   1500769162.6703253        21504511.567627668        266777478.66206649     
   1318826199.2909384        622398.55517238379        285694804.19262701     
   1137483386.1623209       -18259213.621376574        291000895.20226318     
   956740723.28445804       -35140324.962080777        282695751.69097275     
   776598210.65735769       -50020935.466909885        260779373.65874827     
   1324952057.6195607        44525293.074091971        410963440.70862383     
   1123520455.7004735        21800776.576033533        430059362.00978339     
   918667364.01278627       -12328705.817346573        448200427.45184994     
   710392782.55651069       -57863154.106026977        465386637.03482789     
   498696711.33163863       -114802568.29002941        481617990.75871587     
   1136266917.7832954        63685664.144912720        559035431.77018797     
   951507759.21547449        49967068.728504568        573618035.48601460     
   759305470.85971713        11438040.685674608        599902162.00459397     
   559660052.71599162       -51901419.983731806        637887811.32593679     
   352571504.78433228       -140051313.27958509        687574983.45003355     
   1727730087.6440010        198140993.67986387       -225542733.76719823     
   1457655717.7251062        184827651.62154156       -97391995.267702103     
   1154780568.1327736        62178377.318425834        59880409.015821397     
   819104638.86704445       -169806829.22934592        246274479.08340046     
   450627929.92788684       -511127968.02187812        461790214.93500179     
   1186276002.7614765        54293585.189696193        25059132.150114708     
   979220581.08625638        12930349.125875950        156238700.83280715     
   733916013.79297733       -155930038.99815154        313245770.22789818     
   450362300.88163853       -452287579.18241161        496080340.33530951     
   128559442.35221922       -876142271.42686212        704742411.15510666     
   776598210.65735769       -50020935.466909885        260779373.65874827     
   623149837.02099693       -122257635.59767252        388631345.58926743     
   426003951.82192969       -340152707.60410100        539016653.16044998     
   185160555.06015262       -703706151.48624051        711935296.37230861     
  -99380353.264353812       -1212917967.2441442        907387275.22482550     
   498696711.33163863       -114802568.29002941        481617990.75871587     
   389443485.52932143       -220736302.54911253        599785939.00163066     
   231044382.21963504       -490489628.49942625        737193057.81351423     
   23499401.402590573       -924062546.14092255        893839347.19437671     
  -233191456.92182502       -1521455055.4736559        1069724807.1442161     
   352571504.78433228       -140051313.27958509        687574983.45003355     
   278101526.61120820       -282505651.72852379        789702481.06989229     
   149037304.98608556       -606940801.68412459        907774984.18704522     
  -34621160.091058493       -1113356763.1464634        1041792492.8015000     
  -272873868.62020165       -1801753536.1154659        1191755006.9132388     
   2723737102.1855950       -1210381867.6430840        3810384654.9451270     
   2890088002.4110475       -739542643.26465213        3141730376.8997426     
   3020901749.2293086       -387160596.91018808        2618474100.0659423     
   3116178342.6403780       -153235728.57970405        2240615824.4437351     
   3175917782.6442575       -37768038.273185134        2008155550.0331078     
   691126216.76505244       -1581845733.2853284        2177681271.5742583     
   1135461025.0928843       -1140536106.6515589        1854669505.1197269     
   1555682829.2267742       -779603160.66427374        1606908035.4734454     
   1951791629.1667178       -499046895.32347059        1434396862.6354060     
   2323787424.9127150       -298867310.62914944        1337135986.6056075     
  -154306699.91304219       -1597156208.3048348        494881197.24871200     
   367590003.93619072       -1245502783.1900313        530840116.46716672     
   876797852.80472231       -936145541.34421682        571901628.09051859     
   1373316846.6925626       -669084482.76738775        618065732.11877167     
   1857146985.5997031       -444319607.45954657        669332428.55192745     
   187438352.15130889       -1256313292.7016113       -1238015568.0314922     
   586474938.94096017       -1054442672.8800647       -829757789.05794239     
   984246819.96316099       -856787738.95001817       -486545122.08282644     
   1380753995.2179172       -663348490.91145420       -208377567.10616064     
   1775996464.7052300       -474124928.76438081        4744875.8720658300     
   1716361372.9581139       -559316986.47564805       -3021009024.2663755     
   1792115830.1072025       -567355775.72165322       -2227124211.4555993     
   1878029730.7020941       -541529753.48165953       -1568432215.0466039     
   1974103074.7427855       -481838919.75566375       -1044933035.0393938     
   2080335862.2292755       -388283274.54366624       -656626671.43397069     
   3175917782.6442575       -37768038.273185134        2008155550.0331078     
   3179059616.9151673        4760740.4346338511        1789037559.2703400     
   3180842145.3325162        42758499.630571485        1605627682.0548015     
   3181265367.8963070        76225239.314655900        1457925918.3865108     
   3180329284.6065378        105160959.48687291        1345932268.2654617     
   2323787424.9127150       -298867310.62914944        1337135986.6056075     
   2406206724.1742535       -224802411.41472185        1242263918.4037409     
   2486865355.1893711       -156606406.35503101        1165388835.7612834     
   2565763317.9580536       -94279295.450107098        1106510738.6782281     
   2642900612.4803290       -37821078.699902296        1065629627.1545827     
   1857146985.5997031       -444319607.45954657        669332428.55192745     
   1968240527.0294828       -353899554.58521366        698238026.78596354     
   2077172037.8199682       -270686270.50852013        727429482.59157145     
   2183941517.9711699       -194679755.22943890        756906795.96874762     
   2288548967.4830818       -125880008.74799562        786669966.91749251     
   1775996464.7052300       -474124928.76438081        4744875.8720658300     
   1865161025.4808509       -382530689.07687759        156959884.41699836     
   1951762193.2243202       -299481092.82988632        291749622.54566443     
   2035799967.9356422       -224976140.02338159        409114090.25805891     
   2117274349.6148124       -159015830.65739560        509053287.55419362     
   2080335862.2292755       -388283274.54366624       -656626671.43397069     
   2096968219.5283589       -310695814.88969111       -381570508.70315361     
   2110635821.4024260       -242990873.31910896       -141650744.37643805     
   2121338667.8514767       -185168449.83190703        63132621.546176314     
   2129076758.8755088       -137228544.42809916        232779589.06468084     
   3180329284.6065378        105160959.48687291        1345932268.2654617     
   3077388576.3903937        101272089.69673049        1238428852.9478295     
   2974341326.2358723        97028080.111987710        1148540954.5445895     
   2871187534.1429720        92428930.732650399        1076268573.0557401     
   2767927200.1116867        87474641.558703780        1021611708.4812806     
   2642900612.4803290       -37821078.699902296        1065629627.1545827     
   2580100840.4261036       -26181451.523573518        1018108298.9196014     
   2517190877.5407805       -14909127.117569685        980265597.67173910     
   2454170723.8243589       -4004105.4819036722        952101523.41101408     
   2391040379.2768316        6533613.3834292889        933616076.13741601     
   2288548967.4830818       -125880008.74799562        786669966.91749251     
   2243213303.2271738       -105514933.11427677        799126468.72364497     
   2197763799.2474513       -85529323.226608396        813324707.58966768     
   2152200455.5439062       -65923179.085012794        829264683.51555908     
   2106523272.1165450       -46696500.689471483        846946396.50131929     
   2117274349.6148124       -159015830.65739560        509053287.55419362     
   2066725964.7936211       -136728355.07535303        581483362.35998106     
   2016060091.3558869       -114832508.21511078        647718284.29837811     
   1965276729.3016186       -93328290.076664209        707758053.36938250     
   1914375878.6308079       -72215700.660005689        761602669.57299340     
   2129076758.8755088       -137228544.42809916        232779589.06468084     
   2050638825.1254222       -119821717.40684342        365178979.82860094     
   1972079753.8660886       -102818682.08309007        483446327.79786426     
   1893399545.0974882       -86219438.456880808        587581632.97247279     
   1814598198.8196361       -70023986.528176904        677584895.35243094     
   2767927200.1116867        87474641.558703780        1021611708.4812806     
   2624562072.5069780        73176613.677415729        952664038.23922420     
   2483075596.3118649        65140757.161451697        888266707.08245027     
   2343467771.5263543        63367072.010827303        828419715.01094759     
   2205738598.1504455        67855558.225542426        773123062.02472842     
   2391040379.2768316        6533613.3834292889        933616076.13741601     
   2260986998.4843254       -496695.11747252941        898853899.37966871     
   2132698017.4288046       -1645671.1617556810        868104022.76594782     
   2006173436.1102657        3086685.2505701780        841366446.29623687     
   1881413254.5287156        13700374.119520903        818641169.97055292     
   2106523272.1165450       -46696500.689471483        846946396.50131929     
   1988244384.0183625       -46920266.045342445        846236419.60983086     
   1871615643.9845448       -41643537.853322744        849000703.92110002     
   1756637052.0150938       -30866316.113418698        855239249.43513322     
   1643308608.1100159       -14588600.825601578        864952056.15192902     
   1914375878.6308079       -72215700.660005689        761602669.57299340     
   1806334229.1090717       -66094099.106212974        794811598.92970753     
   1699828475.9790807       -54852842.913258076        830956750.54792643     
   1594858619.2408442       -38491932.081120968        870038124.42764318     
   1491424658.8943653       -17011366.609804332        912055720.56887376     
   1814598198.8196361       -70023986.528176904        677584895.35243094     
   1715256533.7564621       -58018194.300079465        744579437.33929801     
   1617336513.4124236       -41273586.341534495        813972162.64641082     
   1520838137.7875125       -19790162.652560294        885763071.27377200     
   1425761406.8817484        6432076.7669097185        959952163.22137642     
   2205738598.1504455        67855558.225542426        773123062.02472842     
   2075188679.0940995        74807629.171069264        719529841.03951955     
   1942964377.9259276        76178426.410496831        679970013.41142309     
   1809065694.6459210        71967949.943826318        654443579.14046514     
   1673492629.2540948        62176199.771067679        642950538.22663105     
   1881413254.5287156        13700374.119520903        818641169.97055292     
   1783243052.9057019        32438816.008422852        790336445.56415093     
   1683405875.0835593        45620670.566878557        770185870.99317729     
   1581901721.0622723        53245937.794869900        758189446.25762868     
   1478730590.8418629        55314617.692436934        754347171.35751200     
   1643308608.1100159       -14588600.825601578        864952056.15192902     
   1560720285.2869065        10896860.416643918        861944468.55582404     
   1476472392.1773605        30850420.704110324        861211787.27344036     
   1390564928.7813687        45272080.036743581        862754012.30478430     
   1302997895.0989358        54161838.414580882        866571143.64985693     
   1491424658.8943653       -17011366.609804332        912055720.56887376     
   1407620376.2377243        10181762.395765483        934353910.01453125     
   1322163929.2073469        31867676.822198033        953047762.25222266     
   1235055317.8032086        48046376.669443607        968137277.28192616     
   1146294542.0253251        58717861.937524796        979622455.10366511     
   1425761406.8817484        6432076.7669097185        959952163.22137642     
   1323943325.7581434        30293521.945747674        1007564769.9402783     
   1220480486.1735022        48672438.921136558        1045693795.9295125     
   1115372888.1277895        61568827.692952752        1074339241.1890612     
   1008620531.6210274        68982688.261269182        1093501105.7189345     
   1673492629.2540948        62176199.771067679        642950538.22663105     
   1536137920.0427904        52392628.052511096        621816899.92239118     
   1400815398.3938787        49383014.875268877        600786502.74489379     
   1267525064.3073857        53147360.239419580        579859346.69415426     
   1136266917.7832954        63685664.144912720        559035431.77018797     
   1478730590.8418629        55314617.692436934        754347171.35751200     
   1343393344.6873252        46544344.249460042        742130082.39364600     
   1208939040.5163405        40717210.751663089        731127808.89847147     
   1075367678.3289177        37833217.199065924        721340350.87201095     
   942679258.12504911        37892363.591660619        712767708.31424570     
   1302997895.0989358        54161838.414580882        866571143.64985693     
   1172854038.6924403        47357641.254566491        861929817.51771176     
   1042443878.6906555        39665765.443584919        859614881.19621241     
   911767415.09358358        31086210.981645375        859626334.68536496     
   780824647.90122509        21618977.868745178        861964177.98516071     
   1146294542.0253251        58717861.937524796        979622455.10366511     
   1024520002.0581501        54832519.067863047        981216105.29458702     
   901329912.91683710        46228678.951080948        986247719.63809919     
   776724274.60139084        32906341.587174147        994717298.13420546     
   650703087.11180019        14865506.976141214        1006624840.7829044     
   1008620531.6210274        68982688.261269182        1093501105.7189345     
   898391234.78444219        68968977.689327687        1099988945.7242687     
   785597143.19488060        60405951.274130553        1111026324.2241437     
   670238256.85232723        43293609.015630335        1126613241.2185535     
   552314575.75679970        17631950.913877785        1146749696.7075069     
   1136266917.7832954        63685664.144912720        559035431.77018797     
   951507759.21547449        49967068.728504568        573618035.48601460     
   759305470.85971713        11438040.685674608        599902162.00459397     
   559660052.71599162       -51901419.983731806        637887811.32593679     
   352571504.78433228       -140051313.27958509        687574983.45003355     
   942679258.12504911        37892363.591660619        712767708.31424570     
   785227439.45542908        18931498.748680562        728548107.87944365     
   619250266.69509923       -28447213.063318133        754842385.20048368     
   444747739.84405071       -104243771.84437689        791650540.27736366     
   261719858.90229988       -208458177.59445116        838972573.11008012     
   780824647.90122509        21618977.868745178        861964177.98516071     
   647286897.56717300       -3602137.8696316481        877679778.37983620     
   504141568.83966148       -60848514.919556051        902721611.48344254     
   351388661.71867532       -150120153.28105873        937089677.29596889     
   189028176.20422548       -271417052.95410997        980783975.81741786     
   650703087.11180019        14865506.976141214        1006624840.7829044     
   537686133.55072486       -17633841.126375556        1021013046.9871836     
   413979377.29340279       -85765864.883030683        1043539840.8534695     
   279582818.33986139       -189530564.29375562        1074205222.3817594     
   134496456.69009101       -328927939.35858339        1113009191.5720696     
   552314575.75679970        17631950.913877785        1146749696.7075069     
   456425147.40605891       -23163611.021618217        1158547913.7014892     
   348763692.05632162       -103199262.95376368        1177297073.3105693     
   229330209.70760500       -222475004.88250980        1202997175.5347366     
   98124700.359898925       -380990836.80788743        1235648220.3740032     
   352571504.78433228       -140051313.27958509        687574983.45003355     
   278101526.61120820       -282505651.72852379        789702481.06989229     
   149037304.98608556       -606940801.68412459        907774984.18704522     
  -34621160.091058493       -1113356763.1464634        1041792492.8015000     
  -272873868.62020165       -1801753536.1154659        1191755006.9132388     
   261719858.90229988       -208458177.59445116        838972573.11008012     
   222964557.53800777       -349159940.92623806        887491292.32937145     
   140139578.53588879       -636760629.71744525        947133393.95422733     
   13244921.895929039       -1071260243.9681244        1017898877.9846023     
  -157719412.38187176       -1652658783.6782596        1099787744.4205406     
   189028176.20422548       -271417052.95410997        980783975.81741786     
   172211485.67234012       -414499060.96168578        987972576.75269127     
   121849683.31679958       -669398108.38144863        1001462937.0017715     
   37942769.137598455       -1036114195.2134079        1021255056.5646317     
  -79509256.865255654       -1514647321.4575410        1047348935.4413185     
   134496456.69009101       -328927939.35858339        1113009191.5720696     
   125842311.01418689       -478523011.83490258        1091146334.3398538     
   94167619.328816712       -704853237.67612588        1070763613.3296958     
   39472381.633966029       -1007918616.8822885        1051861028.5415887     
  -38243402.070356965       -1387719149.4533441        1034438579.9755361     
   98124700.359898925       -380990836.80788743        1235648220.3740032     
   83857033.563589513       -541231793.54579926        1197012565.0908518     
   57093386.571958333       -743126017.60143936        1155035422.9380093     
   17833759.385038853       -986673508.97472072        1109716793.9154594     
  -33921847.997185230       -1271874267.6656785        1061056678.0232311     
   1716361372.9581139       -559316986.47564805       -3021009024.2663755     
   1792115830.1072025       -567355775.72165322       -2227124211.4555993     
   1878029730.7020941       -541529753.48165953       -1568432215.0466039     
   1974103074.7427855       -481838919.75566375       -1044933035.0393938     
   2080335862.2292755       -388283274.54366624       -656626671.43397069     
   3269503602.4161682        69012918.839193940       -1210728788.7630534     
   3056129260.7769661       -5214461.8994127512       -756886892.09714448     
   2848652405.6429539       -59783554.287393689       -374984656.98368615     
   2647073037.0141292       -94694358.324757934       -65022083.422683664     
   2451391154.8904896       -109946874.01149035        173000828.58586687     
   3733971443.1858115        370740507.54751468        609941452.95969260     
   3412191602.3278384        284541525.18716681        718768150.38334596     
   3092047291.0344415        203794308.04205799        818908341.10388219     
   2773538509.3056164        128498856.11219585        910362025.12129307     
   2456665257.1413646        58655169.397575855        993129202.43558490     
   3109764895.2670374        345865779.64930832        2441001700.9018493     
   2860302854.7598152        301912185.53807271        2199840915.9858685     
   2608214386.8765516        249203833.50670421        2013246779.2161005     
   2353499491.6172452        187740723.55518961        1881219290.5925400     
   2096158168.9818974        117522855.68353832        1803758450.1151924     
   1396883958.6598549       -5611264.8554188609        4282451955.0634284     
   1400463018.0728998        46897519.153315902        3686331404.7104297     
   1397153693.1692851        76445022.106525838        3208030657.3529739     
   1386955983.9490192        83031244.004227221        2847549712.9910555     
   1369869890.4120955        66656184.846407115        2604888571.6246834     
   2080335862.2292755       -388283274.54366624       -656626671.43397069     
   2096968219.5283589       -310695814.88969111       -381570508.70315361     
   2110635821.4024260       -242990873.31910896       -141650744.37643805     
   2121338667.8514767       -185168449.83190703        63132621.546176314     
   2129076758.8755088       -137228544.42809916        232779589.06468084     
   2451391154.8904896       -109946874.01149035        173000828.58586687     
   2384017747.7947965       -79758351.626420379        325832029.00864702     
   2315328279.8401313       -53956698.771254778        460118025.36314231     
   2245322751.0264959       -32541915.445990205        575858817.64935708     
   2174001161.3538909       -15514001.650626659        673054405.86727893     
   2456665257.1413646        58655169.397575855        993129202.43558490     
   2352689498.0389457        55665778.230166435        1025658917.5440497     
   2249046372.6436000        53785166.086331248        1056234622.9200468     
   2145735880.9553299        53013332.966077209        1084856318.5635786     
   2042758022.9741278        53350278.869395614        1111524004.4746366     
   2096158168.9818974        117522855.68353832        1803758450.1151924     
   2002983470.2608054        95576574.680065155        1717910156.9030571     
   1911790099.8128281        80234721.253643632        1646699048.2942731     
   1822578057.6379669        71497295.404275775        1590125124.2888353     
   1735347343.7362292        69364297.131983757        1548188384.8867488     
   1369869890.4120955        66656184.846407115        2604888571.6246834     
   1334899664.4603758        39974037.723277032        2402585747.0856686     
   1303559461.3478172        25391966.730683565        2231511301.4858208     
   1275849281.0744209        22909971.868634164        2091665234.8251393     
   1251769123.6401863        32528053.137122035        1983047547.1036251     
   2129076758.8755088       -137228544.42809916        232779589.06468084     
   2050638825.1254222       -119821717.40684342        365178979.82860094     
   1972079753.8660886       -102818682.08309007        483446327.79786426     
   1893399545.0974882       -86219438.456880808        587581632.97247279     
   1814598198.8196361       -70023986.528176904        677584895.35243094     
   2174001161.3538909       -15514001.650626659        673054405.86727893     
   2065147095.8149123       -11962476.637045026        747671859.05060816     
   1956147566.2853320       -8895831.5921486616        816221707.96198738     
   1847002572.7651427       -6314066.5159448385        878703952.60141027     
   1737712115.2543476       -4217181.4084284306        935118592.96887803     
   2042758022.9741278        53350278.869395614        1111524004.4746366     
   1926529078.5682588        49958877.751903534        1128331139.1824689     
   1810130343.6904349        46001508.394557238        1147135108.1410511     
   1693561818.3406520        41478170.797351122        1167935911.3503752     
   1576823502.5189109        36388864.960282207        1190733548.8104491     
   1735347343.7362292        69364297.131983757        1548188384.8867488     
   1634784773.3854647        65942345.760013223        1507156820.2241783     
   1534028086.0813942        61873337.877016723        1476186528.3350551     
   1433077281.8240163        57157273.483001649        1455277509.2193758     
   1331932360.6133289        51794152.577949286        1444429762.8771443     
   1251769123.6401863        32528053.137122035        1983047547.1036251     
   1189914180.2665267        35987927.387276411        1884148902.1757405     
   1127840793.4582105        38719656.855236650        1803375968.5440021     
   1065548963.2152357        40723241.541004658        1740728746.2084057     
   1003038689.5375987        41998681.444565237        1696207235.1689553     
   1814598198.8196361       -70023986.528176904        677584895.35243094     
   1715256533.7564621       -58018194.300079465        744579437.33929801     
   1617336513.4124236       -41273586.341534495        813972162.64641082     
   1520838137.7875125       -19790162.652560294        885763071.27377200     
   1425761406.8817484        6432076.7669097185        959952163.22137642     
   1737712115.2543476       -4217181.4084284306        935118592.96887803     
   1644680755.2666519        3879564.3378592730        974537886.40478027     
   1552534726.1147189        14927412.870020986        1017315164.9973780     
   1461274027.7985635        28926364.188099027        1063450428.7466706     
   1370898660.3181739        45876418.292077243        1112943677.6526587     
   1576823502.5189109        36388864.960282207        1190733548.8104491     
   1492844738.5679779        41399251.513139009        1201951894.1647909     
   1409214991.5694456        47573027.907332540        1217488026.5122812     
   1325934261.5233126        54910194.142861128        1237341945.8529129     
   1243002548.4295888        63410750.219744980        1261513652.1866899     
   1331932360.6133289        51794152.577949286        1444429762.8771443     
   1259748483.6604402        54540867.225756168        1426821460.6193323     
   1187377309.7765882        56663258.770358860        1414490747.1911170     
   1114818838.9617696        58161327.211735725        1407437622.5924940     
   1042073071.2159919        59035072.549917459        1405662086.8234630     
   1003038689.5375987        41998681.444565237        1696207235.1689553     
   945391990.54404259        43304411.475728780        1649146585.7683966     
   887021680.73615420        42198105.459118843        1608323327.0338829     
   827927760.11393118        38679763.394723237        1573737458.9654119     
   768110228.67738152        32749385.282572567        1545388981.5629818     
   1425761406.8817484        6432076.7669097185        959952163.22137642     
   1323943325.7581434        30293521.945747674        1007564769.9402783     
   1220480486.1735022        48672438.921136558        1045693795.9295125     
   1115372888.1277895        61568827.692952752        1074339241.1890612     
   1008620531.6210274        68982688.261269182        1093501105.7189345     
   1370898660.3181739        45876418.292077243        1112943677.6526587     
   1248004866.2762792        52936682.393547356        1136783216.9569843     
   1124137216.9805694        56750762.315635920        1157771445.7640028     
   999295712.43102896        57318658.058291852        1175908364.0737152     
   873480352.62766945        54640369.621538371        1191193971.8861158     
   1243002548.4295888        63410750.219744980        1261513652.1866899     
   1117982384.9904566        59354636.300146163        1262362844.4848695     
   992659269.50473762        54288682.225272298        1266992996.5181165     
   867033201.97242045        48212887.995063215        1275404108.2864203     
   741104182.39351952        41127253.609576643        1287596179.7897880     
   1042073071.2159919        59035072.549917459        1405662086.8234630     
   933875881.90067589        49547383.665570945        1384303652.5239410     
   826046643.74599946        41286198.650020063        1373358448.1918483     
   718585356.75197327        34251517.503309697        1372826473.8271849     
   611492020.91858375        28443340.225379139        1382707729.4299543     
   768110228.67738152        32749385.282572567        1545388981.5629818     
   695685357.00693715        23514924.489791572        1502605641.0741868     
   624299339.70437026        17743311.589930534        1476867800.7851958     
   553952176.76967716        15434546.582978994        1468175460.6960082     
   484643868.20285541        16588629.468937129        1476528620.8066232     
   1008620531.6210274        68982688.261269182        1093501105.7189345     
   898391234.78444219        68968977.689327687        1099988945.7242687     
   785597143.19488060        60405951.274130553        1111026324.2241437     
   670238256.85232723        43293609.015630335        1126613241.2185535     
   552314575.75679970        17631950.913877785        1146749696.7075069     
   873480352.62766945        54640369.621538371        1191193971.8861158     
   775430631.12946582        54861089.392316133        1195740306.4797406     
   674774094.58792508        46392425.685291648        1205051907.3754086     
   571510743.00302911        29234378.500419676        1219128774.5731337     
   465640576.37479466        3386947.8377585113        1237970908.0729084     
   741104182.39351952        41127253.609576643        1287596179.7897880     
   655850401.39801168        41767313.272334576        1290151985.2996163     
   567947785.06880081        33577921.822754711        1297688784.9190001     
   477396333.40588462        16559079.260821611        1310206578.6479492     
   384196046.40927470       -9289214.4134252816        1327705366.4864593     
   611492020.91858375        28443340.225379139        1382707729.4299543     
   539650545.59008074        29687649.329399973        1383223982.1839015     
   465118214.63752514        21962439.686576068        1388936956.8549211     
   387895028.06090939        5267711.2968843579        1399846653.4430151     
   307980985.86023659       -20396535.839659542        1415953071.9481790     
   484643868.20285541        16588629.468937129        1476528620.8066232     
   426831063.70569438        18622097.563575417        1474956297.1325996     
   366285383.29410547        11545979.276779220        1478796423.1831634     
   303006826.96810484       -4639725.3913854361        1488048998.9583135     
   236995394.72768706       -29935016.440940529        1502714024.4580534     
   552314575.75679970        17631950.913877785        1146749696.7075069     
   456425147.40605891       -23163611.021618217        1158547913.7014892     
   348763692.05632162       -103199262.95376368        1177297073.3105693     
   229330209.70760500       -222475004.88250980        1202997175.5347366     
   98124700.359898925       -380990836.80788743        1235648220.3740032     
   465640576.37479466        3386947.8377585113        1237970908.0729084     
   387848532.65981972       -33161072.689498782        1238417159.8278315     
   300054055.58914393       -103050537.73575325        1244853332.2086546     
   202257145.16276318       -206281447.30102444        1257279425.2153735     
   94457801.380684078       -342853801.38529539        1275695438.8480089     
   384196046.40927470       -9289214.4134252816        1327705366.4864593     
   321755610.21810144       -42413426.665993139        1318864178.9194860     
   251082334.31450024       -102980437.95999010        1315051889.9892173     
   172176218.69848472       -190990248.29537034        1316268499.6956623     
   85037263.370042890       -306442857.67216462        1322514008.0388176     
   307980985.86023659       -20396535.839659542        1415953071.9481790     
   258146380.08088824       -50920672.951157600        1399888970.9764686     
   201848528.23239791       -102988963.62645750        1387892746.6522706     
   139087430.31477386       -176601407.86553913        1379964398.9755933     
   69863086.328000680       -271758005.66845077        1376103927.9464457     
   236995394.72768706       -29935016.440940529        1502714024.4580534     
   197020842.24818707       -58682811.544958472        1481491535.9987698     
   152352637.34282556       -103076114.73518419        1463375902.1978109     
   102990780.01161833       -163114926.01156092        1448367123.0551836     
   48935270.254548430       -238799245.37414664        1436465198.5708849     
   98124700.359898925       -380990836.80788743        1235648220.3740032     
   83857033.563589513       -541231793.54579926        1197012565.0908518     
   57093386.571958333       -743126017.60143936        1155035422.9380093     
   17833759.385038853       -986673508.97472072        1109716793.9154594     
  -33921847.997185230       -1271874267.6656785        1061056678.0232311     
   94457801.380684078       -342853801.38529539        1275695438.8480089     
   78154378.674533904       -484267084.82346070        1221558403.3313272     
   50563473.493349016       -663305309.84508884        1164852040.9152873     
   11685085.837102771       -879968476.45024538        1105576351.5999067     
  -38480784.294184148       -1134256584.6388650        1043731335.3851563     
   85037263.370042890       -306442857.67216462        1322514008.0388176     
   68904256.097905546       -428366616.40736723        1254285506.2955732     
   42692264.070978671       -583886990.99186003        1184259837.6233151     
   6401287.2892408669       -773003981.42571783        1112437002.0220323     
  -39968674.247285128       -995717587.70888186        1038816999.4917549     
   69863086.328000680       -271758005.66845077        1376103927.9464457     
   56106665.833701238       -373530388.29751998        1295193873.9835870     
   33479758.304854989       -504871061.04174739        1213258813.0620556     
   1982363.7414537072       -665780023.90115607        1130298745.1818440     
  -38385517.856495410       -856257276.87573171        1046313670.3429551     
   48935270.254548430       -238799245.37414664        1436465198.5708849     
   39761607.881901637       -319758400.49398458        1344283506.3953793     
   22925956.194970846       -426257519.99476933        1251848967.2315297     
  -1571684.8062812984       -558296603.87662375        1159161581.0793552     
  -33731315.121811390       -715875652.13941324        1066221347.9388338     
   1396883958.6598549       -5611264.8554188609        4282451955.0634284     
   1400463018.0728998        46897519.153315902        3686331404.7104297     
   1397153693.1692851        76445022.106525838        3208030657.3529739     
   1386955983.9490192        83031244.004227221        2847549712.9910555     
   1369869890.4120955        66656184.846407115        2604888571.6246834     
  -397234972.29139179       -437677830.85966235        2877981041.8856950     
  -144587963.05712473       -323307428.51170552        2582809135.5384912     
   102892757.94388469       -226157986.94126928        2347132398.7491679     
   345207190.71163863       -146229506.14835098        2170950831.5177350     
   582355335.24613786       -83521986.132949919        2054264433.8441851     
  -1228088608.8272069       -580764808.53928316        1467559893.1950283     
  -893015459.59359014       -454525330.79866338        1475345742.9509130     
  -561386502.50982702       -339766493.55756199        1484302128.8270292     
  -233201737.57592136       -236488296.81597996        1494429050.8233757     
   91538835.208127111       -144690740.57392114        1505726508.9399576     
  -1095676950.9475942       -434872197.89427221        51188508.991422653     
  -844819471.53649426       -346756187.70755154        363941226.94770086     
  -595684088.19185245       -264380497.74234664        619539847.58655298     
  -348270800.91366565       -187745127.99866575        817984370.90798187     
  -102579609.70193583       -116850078.47650218        959274796.91198838     
   1.3474525524663359        1.0753689147948817       -1371133110.7251172     
   1.1141609612929959       0.76163141727491435       -751404412.47115040     
  0.89781231899504499       0.50437319156380445       -247154444.97226018     
  0.69840651119511066       0.30359108084608366        141616791.77155116     
  0.51594497904808090       0.15928988897137775        414909297.76028401     
   1369869890.4120955        66656184.846407115        2604888571.6246834     
   1334899664.4603758        39974037.723277032        2402585747.0856686     
   1303559461.3478172        25391966.730683565        2231511301.4858208     
   1275849281.0744209        22909971.868634164        2091665234.8251393     
   1251769123.6401863        32528053.137122035        1983047547.1036251     
   582355335.24613786       -83521986.132949919        2054264433.8441851     
   617489525.49031687       -85125038.576726556        1952352693.2812407     
   655346232.86528397       -77653033.917878449        1867351564.3884318     
   695925457.37103271       -61105972.156422317        1799261047.1657593     
   739227199.00756896       -35483853.292343587        1748081141.6132212     
   91538835.208127111       -144690740.57392114        1505726508.9399576     
   155869535.16526198       -133487070.28322895        1503147095.6933076     
   222015246.54480845       -116233361.91783272        1503160526.8477650     
   289975969.34676224       -92929615.477743417        1505766802.4033284     
   359751703.57112533       -63575830.962957174        1510965922.3599994     
  -102579609.70193583       -116850078.47650218        959274796.91198838     
  -49960306.514788955       -105112057.39622848        1054968954.3218632     
   3566502.3863958605       -90349017.269161642        1138938188.8638158     
   58000817.001611277       -72560958.095325381        1211182500.5378461     
   113342637.33086136       -51747879.874708533        1271701889.3439481     
  0.51594497904808090       0.15928988897137775        414909297.76028401     
  0.45016307531437111        8.4269541894005914E-002   607818269.16691256     
  0.39004243973822211        2.8122170343341149E-002   774684550.43658757     
  0.33557671293774832       -9.1761991777965929E-003   915508141.56931019     
  0.28676685568287497       -2.7622364102990168E-002   1030289042.5650780     
   1251769123.6401863        32528053.137122035        1983047547.1036251     
   1189914180.2665267        35987927.387276411        1884148902.1757405     
   1127840793.4582105        38719656.855236650        1803375968.5440021     
   1065548963.2152357        40723241.541004658        1740728746.2084057     
   1003038689.5375987        41998681.444565237        1696207235.1689553     
   739227199.00756896       -35483853.292343587        1748081141.6132212     
   718718098.30804408       -25124315.553857386        1692513173.4329617     
   698045165.03283691       -15310886.400982767        1649031758.2855072     
   677208399.18193984       -6043565.8337427080        1617636896.1708601     
   656207800.75535655        2677646.1478807926        1598328587.0890176     
   359751703.57112533       -63575830.962957174        1510965922.3599994     
   363333707.65048832       -51493051.104694828        1498792343.5961614     
   366806490.01313275       -39774343.635494754        1492666159.6017907     
   370170050.65906179       -28419708.555344790        1492587370.3768864     
   373424389.58827460       -17429145.864248946        1498555975.9214485     
   113342637.33086136       -51747879.874708533        1271701889.3439481     
   123761008.29384965       -43118279.265266299        1302986412.6653347     
   134124768.39909180       -34670714.848314427        1334279172.4928498     
   144433917.64659399       -26405186.623830453        1365580168.8264904     
   154688456.03634822       -18321694.591835283        1396889401.6662588     
  0.28676685568287497       -2.7622364102990168E-002   1030289042.5650780     
  0.23813268207145868       -3.5559604711348794E-002   1105095380.6404858     
  0.19071923527637691       -3.9427755931926031E-002   1173870796.9586833     
  0.14453561973644405       -3.9196816580035168E-002   1236615291.5196705     
   9.9579227647577651E-002  -3.4874438501865834E-002   1293328864.3234432     
   1003038689.5375987        41998681.444565237        1696207235.1689553     
   945391990.54404259        43304411.475728780        1649146585.7683966     
   887021680.73615420        42198105.459118843        1608323327.0338829     
   827927760.11393118        38679763.394723237        1573737458.9654119     
   768110228.67738152        32749385.282572567        1545388981.5629818     
   656207800.75535655        2677646.1478807926        1598328587.0890176     
   614380148.40302670        4079155.2437292337        1572781675.4256043     
   572009787.93976676        3671637.3031454384        1553143767.6513987     
   529096719.36556840        1455092.3260982931        1539414863.7663941     
   485640942.68043858       -2570479.6873873770        1531594963.7705948     
   373424389.58827460       -17429145.864248946        1498555975.9214485     
   346477535.94334793       -16213332.083852470        1494733855.1491492     
   319168876.89089096       -16203536.328557774        1496492351.4892120     
   291498412.43088967       -17399758.598408133        1503831464.9416425     
   263466142.56335470       -19801998.893372893        1516751195.5064337     
   154688456.03634822       -18321694.591835283        1396889401.6662588     
   141684153.16500247       -17573050.507029213        1415003124.9390309     
   128498947.58951591       -17427415.436022460        1438369078.5473318     
   115132839.30989034       -17884789.378814064        1466987262.4911532     
   101585828.32612516       -18945172.335407123        1500857676.7705073     
   9.9579227647577651E-002  -3.4874438501865834E-002   1293328864.3234432     
   6.7982981881294216E-002  -2.5821469504707747E-002   1333589484.7952514     
   3.5648544555848975E-002  -1.9229832927479464E-002   1378773948.8257532     
   2.5654615794372254E-003  -1.5134722687558434E-002   1428882256.4149373     
  -3.1254486178620658E-002  -1.3493052828896278E-002   1483914407.5628047     
   768110228.67738152        32749385.282572567        1545388981.5629818     
   695685357.00693715        23514924.489791572        1502605641.0741868     
   624299339.70437026        17743311.589930534        1476867800.7851958     
   553952176.76967716        15434546.582978994        1468175460.6960082     
   484643868.20285541        16588629.468937129        1476528620.8066232     
   485640942.68043858       -2570479.6873873770        1531594963.7705948     
   453496465.16031200       -2844072.4099020362        1508388203.2797821     
   422131128.41581792       -520529.21364885569        1497052968.5347316     
   391544932.44695532        4400149.9013808817        1497589259.5354507     
   361737877.25373477        11917964.935211733        1509997076.2819376     
   263466142.56335470       -19801998.893372893        1516751195.5064337     
   256819275.03915814       -15549558.791945979        1512818015.8226521     
   250691834.69834793       -9565694.7458968014        1515582387.4305992     
   245083821.54093641       -1850406.7551863641        1525044310.3302770     
   239995235.56691560        7596305.1801634431        1541203784.5216885     
   101585828.32612516       -18945172.335407123        1500857676.7705073     
   105653786.64347087       -14601534.656350739        1515895078.7028050     
   109981458.55196314       -9392185.0068125576        1532456057.4728019     
   114568844.05161195       -3317123.3867485896        1550540613.0804901     
   119415943.14240901        3623650.2038055956        1570148745.5258818     
  -3.1254486178620658E-002  -1.3493052828896278E-002   1483914407.5628047     
  -2.6751494792259130E-002  -3.1293648990807976E-003   1517619391.9202380     
  -2.3345794162323824E-002   3.5794627335421561E-003   1547673978.6613352     
  -2.1021874717165798E-002   6.6809653047934193E-003   1574078167.7860925     
  -1.9786370344363504E-002   6.1544176348589039E-003   1596831959.2945046     
   484643868.20285541        16588629.468937129        1476528620.8066232     
   426831063.70569438        18622097.563575417        1474956297.1325996     
   366285383.29410547        11545979.276779220        1478796423.1831634     
   303006826.96810484       -4639725.3913854361        1488048998.9583135     
   236995394.72768706       -29935016.440940529        1502714024.4580534     
   361737877.25373477        11917964.935211733        1509997076.2819376     
   317938706.34180576        13311195.743900090        1506093396.9001110     
   272089878.49410921        7872236.7666980475        1507704733.0021660     
   224191393.71066424       -4398911.9963316172        1514831084.5881135     
   174243251.99145609       -23502250.545241244        1527472451.6579497     
   239995235.56691560        7596305.1801634431        1541203784.5216885     
   210502743.26680437        8437212.2108909413        1535765838.2404842     
   179643813.00959024        4723326.0512808785        1535945473.2024701     
   147418444.79527247       -3545353.2986762896        1541742689.4076493     
   113826638.62385350       -16368825.838970073        1553157486.8560171     
   119415943.14240901        3623650.2038055956        1570148745.5258818     
   104523174.48069669        4000146.9645598792        1563973621.1537354     
   88947186.840535954        2099247.1304860562        1563518643.7840798     
   72687980.221931815       -2079049.2983990535        1568783813.4169168     
   55745554.624882579       -8534742.3221010864        1579769130.0522602     
  -1.9786370344363504E-002   6.1544176348589039E-003   1596831959.2945046     
  -1.6527438758233044E-002   4.8772341476843476E-003   1590716745.6398487     
  -1.3046798074135547E-002   4.3376932082858123E-003   1590424244.7469907     
  -9.3595461051806054E-003   4.4875504411357996E-003   1595954456.6159277     
  -5.4562581559119295E-003   5.3575276083649061E-003   1607307381.2466664     
   236995394.72768706       -29935016.440940529        1502714024.4580534     
   197020842.24818707       -58682811.544958472        1481491535.9987698     
   152352637.34282556       -103076114.73518419        1463375902.1978109     
   102990780.01161833       -163114926.01156092        1448367123.0551836     
   48935270.254548430       -238799245.37414664        1436465198.5708849     
   174243251.99145609       -23502250.545241244        1527472451.6579497     
   144460361.22357467       -45003689.795727454        1502252858.8739550     
   111157231.13631622       -78239260.110796750        1480093915.2435887     
   74333861.729692236       -123208961.49041861        1460995620.7668660     
   33990253.003688671       -179912793.93464178        1444957975.4437699     
   113826638.62385350       -16368825.838970073        1553157486.8560171     
   94103393.839900300       -30663513.954200037        1525309771.7048659     
   72033322.843054116       -52780956.112409309        1500476500.2026603     
   47616425.633308686       -82721152.313613743        1478657672.3493917     
   20852702.210666798       -120484102.55780560        1459853288.1450756     
   55745554.624882579       -8534742.3221010864        1579769130.0522602     
   45949940.097161137       -15662284.020396220        1550662274.4915156     
   34980912.463027269       -26701202.740060885        1524523657.0750144     
   22838471.722471982       -41651498.481131390        1501353277.8027687     
   9522617.8754970208       -60513171.243603781        1481151136.6747668     
  -5.4562581559119295E-003   5.3575276083649061E-003   1607307381.2466664     
  -4.6477473884184231E-003   5.6766862273120947E-003   1578310367.2338877     
  -3.7626037816564902E-003   6.2519815332110927E-003   1552235385.8606606     
  -2.8357353095734800E-003   6.9663597235136831E-003   1529082437.1269944     
  -1.8273843976474450E-003   7.9516521572359639E-003   1508851521.0328801     
   48935270.254548430       -238799245.37414664        1436465198.5708849     
   39761607.881901637       -319758400.49398458        1344283506.3953793     
   22925956.194970846       -426257519.99476933        1251848967.2315297     
  -1571684.8062812984       -558296603.87662375        1159161581.0793552     
  -33731315.121811390       -715875652.13941324        1066221347.9388338     
   33990253.003688671       -179912793.93464178        1444957975.4437699     
   29682356.942265585       -239860455.05886352        1345287174.8531017     
   19627968.895175308       -318963089.46863836        1244763312.1065602     
   3827088.8623960316       -417220697.16405165        1143386387.2041497     
  -17720283.156056434       -534633278.14503235        1041156400.1458902     
   20852702.210666798       -120484102.55780560        1459853288.1450756     
   19695671.981831841       -159934739.82997176        1354928126.0226090     
   14707647.095943168       -212155359.29231846        1248549686.5767567     
   5888627.5529848188       -277145960.94489282        1140717969.8075180     
  -6761386.6470288634       -354906544.78765649        1031432975.7148846     
   9522617.8754970208       -60513171.243603781        1481151136.6747668     
   9801553.0005989000       -79981254.807324797        1373206359.9039149     
   8164990.7972660437       -105834329.46582866        1263208090.6421463     
   4612931.2654819265       -138072395.21916816        1151156328.8894672     
  -854625.59474170953       -176695452.06730941        1037051074.6458687     
  -1.8273843976474450E-003   7.9516521572359639E-003   1508851521.0328801     
  -1.4363052871599795E-003   9.0748379506925964E-003   1400121876.4970198     
  -8.5920281878271079E-004   1.0816713825001123E-002   1288738524.3027213     
  -1.1412574182393352E-004   1.3116076448381642E-002   1174701464.4499784     
   8.0997479785564937E-004   1.6017041173230918E-002   1058010696.9387945     
   1.3474525524663359        1.0753689147948817       -1371133110.7251172     
   1.1141609612929959       0.76163141727491435       -751404412.47115040     
  0.89781231899504499       0.50437319156380445       -247154444.97226018     
  0.69840651119511066       0.30359108084608366        141616791.77155116     
  0.51594497904808090       0.15928988897137775        414909297.76028401     
   1095676953.5939844        434872200.33471215        51188509.184763029     
   844819473.70484114        346756189.40637994        363941227.09169513     
   595684089.92722821        264380498.84981871        619539847.69871771     
   348270802.26114458        187745128.66501820        817984371.00584221     
   102579610.70659246        116850078.85199074        959274797.01306868     
   1228088611.1274474        580764811.18013144        1467559893.5326142     
   893015461.45439065        454525332.59879094        1475345743.2028511     
   561386503.98745167        339766494.70450944        1484302129.0283632     
   233201738.72662508        236488297.49727130        1494429051.0091522     
  -91538834.328081727        144690740.97709677        1505726509.1452181     
   397234973.94784504        437677833.61163199        2877981042.3184285     
   144587964.36281210        323307430.33886349        2582809135.8623238     
  -102892756.92151979        226157988.06844017        2347132399.0166736     
  -345207189.90514851        146229506.80035651        2170950831.7814760     
  -582355334.58807898        83521986.534603357        2054264434.1567352     
  -1396883957.9448230        5611267.6292144656        4282451955.5422068     
  -1400463017.5698984       -46897517.373401821        3686331405.0701113     
  -1397153692.7996855       -76445021.058387339        3208030657.6636486     
  -1386955983.6341882       -83031243.425756395        2847549713.3228173     
  -1369869890.0733979       -66656184.475486457        2604888572.0476193     
  0.51594497904808090       0.15928988897137775        414909297.76028401     
  0.45016307531437111        8.4269541894005914E-002   607818269.16691256     
  0.39004243973822211        2.8122170343341149E-002   774684550.43658757     
  0.33557671293774832       -9.1761991777965929E-003   915508141.56931019     
  0.28676685568287497       -2.7622364102990168E-002   1030289042.5650780     
   102579610.70659246        116850078.85199074        959274797.01306868     
   49960307.395141795        105112057.62966387        1054968954.4030668     
  -3566501.6205140725        90349017.393317550        1138938188.9288826     
  -58000816.340380616        72560958.142937735        1211182500.5905163     
  -113342636.76444995        51747879.878546469        1271701889.3879728     
  -91538834.328081727        144690740.97709677        1505726509.1452181     
  -155869534.39156747        133487070.55554849        1503147095.8570781     
  -222015245.86912364        116233362.08710031        1503160526.9775255     
  -289975968.76075178        92929615.571744159        1505766802.5065641     
  -359751703.06645346        63575831.009477660        1510965922.4441941     
  -582355334.58807898        83521986.534603357        2054264434.1567352     
  -617489524.90996397        85125038.861931920        1952352693.5289454     
  -655346232.35578835        77653034.109463185        1867351564.5825171     
  -695925456.92554557        61105972.277218819        1799261047.3174517     
  -739227198.61924160        35483853.365177602        1748081141.7337482     
  -1369869890.0733979       -66656184.475486457        2604888572.0476193     
  -1334899664.1600504       -39974037.451200008        2402585747.4186711     
  -1303559461.0805044       -25391966.539583445        2231511301.7438588     
  -1275849280.8347588       -22909971.740631700        2091665235.0231791     
  -1251769123.4228187       -32528053.054369092        1983047547.2566359     
  0.28676685568287497       -2.7622364102990168E-002   1030289042.5650780     
  0.23813268207145868       -3.5559604711348794E-002   1105095380.6404858     
  0.19071923527637691       -3.9427755931926031E-002   1173870796.9586833     
  0.14453561973644405       -3.9196816580035168E-002   1236615291.5196705     
   9.9579227647577651E-002  -3.4874438501865834E-002   1293328864.3234432     
  -113342636.76444995        51747879.878546469        1271701889.3879728     
  -123761007.82325941        43118279.243962511        1302986412.6948531     
  -134124768.02165964        34670714.810743041        1334279172.5111139     
  -144433917.35965407        26405186.578876831        1365580168.8367579     
  -154688455.83724275        18321694.548362829        1396889401.6717815     
  -359751703.06645346        63575831.009477660        1510965922.4441941     
  -363333707.23088449        51493051.119630575        1498792343.6515958     
  -366806489.67573035        39774343.628403351        1492666159.6349673     
  -370170050.40098506        28419708.535811499        1492587370.3943093     
  -373424389.40665424        17429145.841836557        1498555975.9296265     
  -739227198.61924160        35483853.365177602        1748081141.7337482     
  -718718097.98475063        25124315.591421694        1692513173.5107143     
  -698045164.77149010        15310886.413561732        1649031758.3302372     
  -677208398.97946012        6043565.8316012621        1617636896.1923296     
  -656207800.60866153       -2677646.1544651389        1598328587.0969772     
  -1251769123.4228187       -32528053.054369092        1983047547.2566359     
  -1189914180.0848544       -35987927.340661705        1884148902.2722032     
  -1127840793.3089428       -38719656.833794355        1803375968.5969276     
  -1065548963.0950797       -40723241.533755720        1740728746.2308083     
  -1003038689.4432702       -41998681.440563917        1696207235.1738398     
   9.9579227647577651E-002  -3.4874438501865834E-002   1293328864.3234432     
   6.7982981881294216E-002  -2.5821469504707747E-002   1333589484.7952514     
   3.5648544555848975E-002  -1.9229832927479464E-002   1378773948.8257532     
   2.5654615794372254E-003  -1.5134722687558434E-002   1428882256.4149373     
  -3.1254486178620658E-002  -1.3493052828896278E-002   1483914407.5628047     
  -154688455.83724275        18321694.548362829        1396889401.6717815     
  -141684153.02836487        17573050.474639192        1415003124.9378827     
  -128498947.51670386        17427415.410195872        1438369078.5416870     
  -115132839.30225235        17884789.355052136        1466987262.4831967     
  -101585828.38502276        18945172.309169695        1500857676.7624037     
  -373424389.40665424        17429145.841836557        1498555975.9296265     
  -346477535.81726170        16213332.067338482        1494733855.1441352     
  -319168876.82155728        16203536.313878760        1496492351.4753644     
  -291498412.41953802        17399758.581468865        1503831464.9233112     
  -263466142.61120403        19801998.870108560        1516751195.4879775     
  -656207800.60866153       -2677646.1544651389        1598328587.0969772     
  -614380148.29871273       -4079155.2477401197        1572781675.4140129     
  -572009787.87891746       -3671637.3081941009        1553143767.6267805     
  -529096719.34927809       -1455092.3358325064        1539414863.7352850     
  -485640942.70979947        2570479.6693231761        1531594963.7395189     
  -1003038689.4432702       -41998681.440563917        1696207235.1738398     
  -945391990.47271049       -43304411.470572770        1649146585.7475133     
  -887021680.68878031       -42198105.456011981        1608323326.9959395     
  -827927760.09148061       -38679763.396887809        1573737458.9191127     
  -768110228.68081009       -32749385.293193489        1545388981.5170391     
  -3.1254486178620658E-002  -1.3493052828896278E-002   1483914407.5628047     
  -2.6751494792259130E-002  -3.1293648990807976E-003   1517619391.9202380     
  -2.3345794162323824E-002   3.5794627335421561E-003   1547673978.6613352     
  -2.1021874717165798E-002   6.6809653047934193E-003   1574078167.7860925     
  -1.9786370344363504E-002   6.1544176348589039E-003   1596831959.2945046     
  -101585828.38502276        18945172.309169695        1500857676.7624037     
  -105653786.69533798        14601534.645399421        1515895078.6950288     
  -109981458.59830207        9392185.0061311349        1532456057.4650941     
  -114568844.09392062        3317123.3913481981        1550540613.0725887     
  -119415943.18219236       -3623650.1989440247        1570148745.5175133     
  -263466142.61120403        19801998.870108560        1516751195.4879775     
  -256819275.08269137        15549558.778321445        1512818015.8056378     
  -250691834.73839852        9565694.7391349375        1515582387.4145067     
  -245083821.57831889        1850406.7525724471        1525044310.3145828     
  -239995235.60245630       -7596305.1813832074        1541203784.5058644     
  -485640942.70979947        2570479.6693231761        1531594963.7395189     
  -453496465.18882436        2844072.3956012428        1508388203.2520583     
  -422131128.44363523        520529.20259290934        1497052968.5095806     
  -391544932.47421932       -4400149.9096607268        1497589259.5120845     
  -361737877.28058481       -11917964.941183433        1509997076.2595658     
  -768110228.68081009       -32749385.293193489        1545388981.5170391     
  -695685357.01373386       -23514924.502755225        1502605641.0342996     
  -624299339.71400654       -17743311.603477836        1476867800.7503123     
  -553952176.78161788       -15434546.595330417        1468175460.6650779     
  -484643868.21657884       -16588629.478349954        1476528620.7785995     
  -1.9786370344363504E-002   6.1544176348589039E-003   1596831959.2945046     
  -1.6527438758233044E-002   4.8772341476843476E-003   1590716745.6398487     
  -1.3046798074135547E-002   4.3376932082858123E-003   1590424244.7469907     
  -9.3595461051806054E-003   4.4875504411357996E-003   1595954456.6159277     
  -5.4562581559119295E-003   5.3575276083649061E-003   1607307381.2466664     
  -119415943.18219236       -3623650.1989440247        1570148745.5175133     
  -104523174.51371451       -4000146.9600234441        1563973621.1471574     
  -88947186.866527736       -2099247.1254043169        1563518643.7789762     
  -72687980.240636468        2079049.3048945367        1568783813.4129694     
  -55745554.636035606        8534742.3308937997        1579769130.0491266     
  -239995235.60245630       -7596305.1813832074        1541203784.5058644     
  -210502743.29627535       -8437212.2105445787        1535765838.2280610     
  -179643813.03288892       -4723326.0490228832        1535945473.1928015     
  -147418444.81230050        3545353.3031722829        1541742689.4000874     
  -113826638.63450593        16368825.846056126        1553157486.8499124     
  -361737877.28058481       -11917964.941183433        1509997076.2595658     
  -317938706.36420780       -13311195.746686354        1506093396.8825495     
  -272089878.51212513       -7872236.7664977163        1507704732.9884591     
  -224191393.72434124        4398911.9993568957        1514831084.5772820     
  -174243252.00086409        23502250.550858766        1527472451.6490164     
  -484643868.21657884       -16588629.478349954        1476528620.7785995     
  -426831063.71750212       -18622097.568406701        1474956297.1106274     
  -366285383.30423719       -11545979.277835310        1478796423.1659477     
  -303006826.97677267        4639725.3934009671        1488048998.9445577     
  -236995394.73511091        29935016.445294783        1502714024.4464498     
  -5.4562581559119295E-003   5.3575276083649061E-003   1607307381.2466664     
  -4.6477473884184231E-003   5.6766862273120947E-003   1578310367.2338877     
  -3.7626037816564902E-003   6.2519815332110927E-003   1552235385.8606606     
  -2.8357353095734800E-003   6.9663597235136831E-003   1529082437.1269944     
  -1.8273843976474450E-003   7.9516521572359639E-003   1508851521.0328801     
  -55745554.636035606        8534742.3308937997        1579769130.0491266     
  -45949940.106613412        15662284.030256217        1550662274.4887493     
  -34980912.470673643        26701202.751343191        1524523657.0725892     
  -22838471.728218377        41651498.494151615        1501353277.8006368     
  -9522617.8792410083        60513171.258697614        1481151136.6729074     
  -113826638.63450593        16368825.846056126        1553157486.8499124     
  -94103393.848885357        30663513.962705560        1525309771.6994710     
  -72033322.850284874        52780956.122624353        1500476500.1979079     
  -47616425.638716444        82721152.325768933        1478657672.3452129     
  -20852702.214164414        120484102.57219061        1459853288.1413939     
  -174243252.00086409        23502250.550858766        1527472451.6490164     
  -144460361.23144656        45003689.803087272        1502252858.8660512     
  -111157231.14259121        78239260.120110303        1480093915.2366185     
  -74333861.734313399        123208961.50187322        1460995620.7607129     
  -33990253.006602064        179912793.94841608        1444957975.4383361     
  -236995394.73511091        29935016.445294783        1502714024.4464498     
  -197020842.25430205        58682811.551377371        1481491535.9884884     
  -152352637.34760734        103076114.74375167        1463375902.1887131     
  -102990780.01501901        163114926.02243704        1448367123.0471287     
  -48935270.256541058        238799245.38741776        1436465198.5637317     
  -1.8273843976474450E-003   7.9516521572359639E-003   1508851521.0328801     
  -1.4363052871599795E-003   9.0748379506925964E-003   1400121876.4970198     
  -8.5920281878271079E-004   1.0816713825001123E-002   1288738524.3027213     
  -1.1412574182393352E-004   1.3116076448381642E-002   1174701464.4499784     
   8.0997479785564937E-004   1.6017041173230918E-002   1058010696.9387945     
  -9522617.8792410083        60513171.258697614        1481151136.6729074     
  -9801553.0035637878        79981254.824729025        1373206359.9025462     
  -8164990.7991359681        105834329.48659894        1263208090.6412489     
  -4612931.2659733593        138072395.24424681        1151156328.8890195     
   854625.59594358504        176695452.09774590        1037051074.6458603     
  -20852702.214164414        120484102.57219061        1459853288.1413939     
  -19695671.984609216        159934739.84670454        1354928126.0198562     
  -14707647.097740233        212155359.31226128        1248549686.5749011     
  -5888627.5535556823        277145960.96887350        1140717969.8065052     
   6761386.6479483545        354906544.81654948        1031432975.7147052     
  -33990253.006602064        179912793.94841608        1444957975.4383361     
  -29682356.944570899        239860455.07500017        1345287174.8489547     
  -19627968.896659315        318963089.48784661        1244763312.1036694     
  -3827088.8628564179        417220697.18699825        1143386387.2024598     
   17720283.156824589        534633278.17241448        1041156400.1453336     
  -48935270.256541058        238799245.38741776        1436465198.5637317     
  -39761607.883444205        319758400.50962895        1344283506.3898480     
  -22925956.195901483        426257520.01332843        1251848967.2275534     
   1571684.8061015606        558296603.89856231        1159161581.0768545     
   33731315.122563899        715875652.16532505        1066221347.9377372     
  -1396883957.9448230        5611267.6292144656        4282451955.5422068     
  -1400463017.5698984       -46897517.373401821        3686331405.0701113     
  -1397153692.7996855       -76445021.058387339        3208030657.6636486     
  -1386955983.6341882       -83031243.425756395        2847549713.3228173     
  -1369869890.0733979       -66656184.475486457        2604888572.0476193     
  -3109764895.9116206       -345865778.56394458        2441001700.5113430     
  -2860302855.3002424       -301912184.84766102        2199840915.7021608     
  -2608214387.2777643       -249203833.09437120        2013246779.0741010     
  -2353499491.8441858       -187740723.30407751        1881219290.6271658     
  -2096158168.9995048       -117522855.47678101        1803758450.3613553     
  -3733971444.6838255       -370740507.99872911        609941451.91919219     
  -3412191603.5060167       -284541525.46454513        718768149.62470245     
  -3092047291.9012995       -203794308.17398512        818908340.62682986     
  -2773538509.8696613       -128498856.12704051        910362024.92557096     
  -2456665257.4111161       -58655169.323724985        993129202.52092886     
  -3269503604.2614431       -69012920.675135732       -1210728790.2342525     
  -3056129262.1872263        5214460.7759412527       -756886893.16226065     
  -2848652406.6702867        59783553.702766538       -374984657.67816758     
  -2647073037.7106233        94694358.105344772       -65022083.781968474     
  -2451391155.3082285        109946873.98368466        173000828.52634326     
  -1716361374.6444669        559316983.40683568       -3021009025.9489784     
  -1792115831.3438680        567355773.87378836       -2227124212.6587343     
  -1878029731.5847373        541529752.53587043       -1568432215.8408897     
  -1974103075.3670630        481838919.39309120       -1044933035.4954475     
  -2080335862.6908507        388283274.44543159       -656626671.62240779     
  -1369869890.0733979       -66656184.475486457        2604888572.0476193     
  -1334899664.1600504       -39974037.451200008        2402585747.4186711     
  -1303559461.0805044       -25391966.539583445        2231511301.7438588     
  -1275849280.8347588       -22909971.740631700        2091665235.0231791     
  -1251769123.4228187       -32528053.054369092        1983047547.2566359     
  -2096158168.9995048       -117522855.47678101        1803758450.3613553     
  -2002983470.2681727       -95576574.520681739        1717910157.0980163     
  -1911790099.8076420       -80234721.133918762        1646699048.4485743     
  -1822578057.6178985       -71497295.316446841        1590125124.4130259     
  -1735347343.6989543       -69364297.068306684        1548188384.9913814     
  -2456665257.4111161       -58655169.323724985        993129202.52092886     
  -2352689498.2624817       -55665778.156036854        1025658917.6133718     
  -2249046372.8216343       -53785166.014303565        1056234622.9794785     
  -2145735881.0885735       -53013332.898525953        1084856318.6192417     
  -2042758023.0633004       -53350278.808705688        1111524004.5326710     
  -2451391155.3082285        109946873.98368466        173000828.52634326     
  -2384017748.1429696        79758351.642758012        325832028.96474594     
  -2315328280.1224856        53956698.819250464        460118025.33656883     
  -2245322751.2467799        32541915.513140678        575858817.64181972     
  -2174001161.5158587        15514001.724422574        673054405.88049150     
  -2080335862.6908507        388283274.44543159       -656626671.62240779     
  -2096968219.9096355        310695814.87570620       -381570508.84787309     
  -2110635821.7101915        242990873.36675060       -141650744.48014933     
  -2121338668.0925255        185168449.91853762        63132621.480761655     
  -2129076759.0566223        137228544.53110242        232779589.03485727     
  -1251769123.4228187       -32528053.054369092        1983047547.2566359     
  -1189914180.0848544       -35987927.340661705        1884148902.2722032     
  -1127840793.3089428       -38719656.833794355        1803375968.5969276     
  -1065548963.0950797       -40723241.533755720        1740728746.2308083     
  -1003038689.4432702       -41998681.440563917        1696207235.1738398     
  -1735347343.6989543       -69364297.068306684        1548188384.9913814     
  -1634784773.3505297       -65942345.719869792        1507156820.2924657     
  -1534028086.0468411       -61873337.853893518        1476186528.3767364     
  -1433077281.7878952       -57157273.470392406        1455277509.2441931     
  -1331932360.5736921       -51794152.569362342        1444429762.8948336     
  -2042758023.0633004       -53350278.808705688        1111524004.5326710     
  -1926529078.6357534       -49958877.704943895        1128331139.2227988     
  -1810130343.7356329       -46001508.359277368        1147135108.1701453     
  -1693561818.3629363       -41478170.771696806        1167935911.3747106     
  -1576823502.5176711       -36388864.942209423        1190733548.8364913     
  -2174001161.5158587        15514001.724422574        673054405.88049150     
  -2065147095.9405251        11962476.704115033        747671859.06319892     
  -1956147566.3753107        8895831.6500762701        816221707.97715402     
  -1847002572.8202050        6314066.5623371601        878703952.62235749     
  -1737712115.2752199        4217181.4408665895        935118592.99880731     
  -2129076759.0566223        137228544.53110242        232779589.03485727     
  -2050638825.2648439        119821717.50731635        365178979.81367058     
  -1972079753.9658728        102818682.17417228        483446327.79775983     
  -1893399545.1597013        86219438.531693935        587581632.98713160     
  -1814598198.8463359        70023986.579865932        677584895.38178444     
  -1003038689.4432702       -41998681.440563917        1696207235.1738398     
  -945391990.47271049       -43304411.470572770        1649146585.7475133     
  -887021680.68878031       -42198105.456011981        1608323326.9959395     
  -827927760.09148061       -38679763.396887809        1573737458.9191127     
  -768110228.68081009       -32749385.293193489        1545388981.5170391     
  -1331932360.5736921       -51794152.569362342        1444429762.8948336     
  -1259748483.6256931       -54540867.220789313        1426821460.6151848     
  -1187377309.7467635       -56663258.769120276        1414490747.1714509     
  -1114818838.9369061       -58161327.214356542        1407437622.5636315     
  -1042073071.1961246       -59035072.556512177        1405662086.7917278     
  -1576823502.5176711       -36388864.942209423        1190733548.8364913     
  -1492844738.5603347       -41399251.505492032        1201951894.1740007     
  -1409214991.5545132       -47573027.907158136        1217488026.5085907     
  -1325934261.5002027       -54910194.147196352        1237341945.8402593     
  -1243002548.3974071       -63410750.225618005        1261513652.1690118     
  -1737712115.2752199        4217181.4408665895        935118592.99880731     
  -1644680755.2766469       -3879564.3247016668        974537886.42396164     
  -1552534726.1120286       -14927412.870122612        1017315165.0073615     
  -1461274027.7813637       -28926364.195390642        1063450428.7490059     
  -1370898660.2846551       -45876418.300505161        1112943677.6488936     
  -1814598198.8463359        70023986.579865932        677584895.38178444     
  -1715256533.7746239        58018194.321582556        744579437.36506712     
  -1617336513.4193115        41273586.341981053        813972162.66775787     
  -1520838137.7803957        19790162.641051710        885763071.28986168     
  -1425761406.8578777       -6432076.7812047005        959952163.23137093     
  -768110228.68081009       -32749385.293193489        1545388981.5170391     
  -695685357.01373386       -23514924.502755225        1502605641.0342996     
  -624299339.71400654       -17743311.603477836        1476867800.7503123     
  -553952176.78161788       -15434546.595330417        1468175460.6650779     
  -484643868.21657884       -16588629.478349954        1476528620.7785995     
  -1042073071.1961246       -59035072.556512177        1405662086.7917278     
  -933875881.88661361       -49547383.675544202        1384303652.4952967     
  -826046643.73715210       -41286198.661406338        1373358448.1657109     
  -718585356.74773932       -34251517.514091939        1372826473.8029709     
  -611492020.91837490       -28443340.233616471        1382707729.4070706     
  -1243002548.3974071       -63410750.225618005        1261513652.1690118     
  -1117982384.9651999       -59354636.310026944        1262362844.4674008     
  -992659269.48574305       -54288682.236940891        1266992996.5007248     
  -867033201.95904589       -48212888.006388754        1275404108.2689838     
  -741104182.38510835       -41127253.618360907        1287596179.7721732     
  -1370898660.2846551       -45876418.300505161        1112943677.6488936     
  -1248004866.2494891       -52936682.406209528        1136783216.9506118     
  -1124137216.9597890       -56750762.330129027        1157771445.7553551     
  -999295712.41554666       -57318658.072237372        1175908364.0631227     
  -873480352.61677301       -54640369.632586360        1191193971.8739114     
  -1425761406.8578777       -6432076.7812047005        959952163.23137093     
  -1323943325.7395043       -30293521.964150071        1007564769.9449284     
  -1220480486.1592844       -48672438.940940261        1045693795.9295971     
  -1115372888.1172476       -61568827.711674690        1074339241.1853828     
  -1008620531.6133758       -68982688.276293278        1093501105.7122836     
  -484643868.21657884       -16588629.478349954        1476528620.7785995     
  -426831063.71750212       -18622097.568406701        1474956297.1106274     
  -366285383.30423719       -11545979.277835310        1478796423.1659477     
  -303006826.97677267        4639725.3934009671        1488048998.9445577     
  -236995394.73511091        29935016.445294783        1502714024.4464498     
  -611492020.91837490       -28443340.233616471        1382707729.4070706     
  -539650545.59088731       -29687649.333638757        1383223982.1650364     
  -465118214.63956279       -21962439.687544987        1388936956.8392541     
  -387895028.06440604       -5267711.2953407466        1399846653.4297221     
  -307980985.86542523        20396535.842944071        1415953071.9364450     
  -741104182.38510835       -41127253.618360907        1287596179.7721732     
  -655850401.39216340       -41767313.277213097        1290151985.2839870     
  -567947785.06575322       -33577921.824514121        1297688784.9050112     
  -477396333.40587491       -16559079.260253072        1310206578.6352532     
  -384196046.41252804        9289214.4155668169        1327705366.4747033     
  -873480352.61677301       -54640369.632586360        1191193971.8739114     
  -775430631.12134314       -54861089.399171054        1195740306.4674802     
  -674774094.58280456       -46392425.688734829        1205051907.3632171     
  -571510743.00117064       -29234378.501310170        1219128774.5611327     
  -465640576.37642413       -3386947.8368434906        1237970908.0612264     
  -1008620531.6133758       -68982688.276293278        1093501105.7122836     
  -898391234.77842057       -68968977.699494898        1099988945.7155089     
  -785597143.19072568       -60405951.280231535        1111026324.2138762     
  -670238256.85028768       -43293609.018494070        1126613241.2073810     
  -552314575.75711620       -17631950.914305836        1146749696.6960239     
  -236995394.73511091        29935016.445294783        1502714024.4464498     
  -197020842.25430205        58682811.551377371        1481491535.9884884     
  -152352637.34760734        103076114.74375167        1463375902.1887131     
  -102990780.01501901        163114926.02243704        1448367123.0471287     
  -48935270.256541058        238799245.38741776        1436465198.5637317     
  -307980985.86542523        20396535.842944071        1415953071.9364450     
  -258146380.08507067        50920672.956649154        1399888970.9659674     
  -201848528.23558328        102988963.63413374        1387892746.6428912     
  -139087430.31695908        176601407.87540317        1379964398.9672072     
  -69863086.329190105        271758005.68049401        1376103927.9389226     
  -384196046.41252804        9289214.4155668169        1327705366.4747033     
  -321755610.22061116        42413426.670490995        1318864178.9088399     
  -251082334.31630462        102980437.96671133        1315051889.9795833     
  -172176218.69961986        190990248.30419284        1316268499.6869268     
  -85037263.370550990        306442857.68295676        1322514008.0308676     
  -465640576.37642413       -3386947.8368434906        1237970908.0612264     
  -387848532.66091949        33161072.692915037        1238417159.8170993     
  -300054055.58978504        103050537.74144495        1244853332.1987829     
  -202257145.16301742        206281447.30874830        1257279425.2062681     
  -94457801.380624250        342853801.39480579        1275695438.8395689     
  -552314575.75711620       -17631950.914305836        1146749696.6960239     
  -456425147.40600729        23163611.023888528        1158547913.6907516     
  -348763692.05601639        103199262.95836164        1177297073.3004928     
  -229330209.70715755        222475004.88905972        1202997175.5252571     
  -98124700.359408855        380990836.81605470        1235648220.3650308     
  -48935270.256541058        238799245.38741776        1436465198.5637317     
  -39761607.883444205        319758400.50962895        1344283506.3898480     
  -22925956.195901483        426257520.01332843        1251848967.2275534     
   1571684.8061015606        558296603.89856231        1159161581.0768545     
   33731315.122563899        715875652.16532505        1066221347.9377372     
  -69863086.329190105        271758005.68049401        1376103927.9389226     
  -56106665.834672019        373530388.31169713        1295193873.9778214     
  -33479758.305495709        504871061.05843329        1213258813.0579841     
  -1982363.7416313589        665780023.92078578        1130298745.1794193     
   38385517.856897086        856257276.89870059        1046313670.3421378     
  -85037263.370550990        306442857.68295676        1322514008.0308676     
  -68904256.098381072        428366616.42001766        1254285506.2894647     
  -42692264.071331918        583886991.00667882        1184259837.6190190     
  -6401287.2893857658        773003981.44300628        1112437002.0195274     
   39968674.247443259        995717587.72892654        1038816999.4909914     
  -94457801.380624250        342853801.39480579        1275695438.8395689     
  -78154378.674577504        484267084.83457375        1221558403.3247950     
  -50563473.493418396        663305309.85804939        1164852040.9106441     
  -11685085.837150633        879968476.46521533        1105576351.5971382     
   38480784.294211090        1134256584.6560326        1043731335.3842628     
  -98124700.359408855        380990836.81605470        1235648220.3650308     
  -83857033.563245267        541231793.55541492        1197012565.0837932     
  -57093386.571753561        743126017.61253858        1155035422.9328699     
  -17833759.384936154        986673508.98741961        1109716793.9122670     
   33921847.997191727        1271874267.6799891        1061056678.0219808     
  -1716361374.6444669        559316983.40683568       -3021009025.9489784     
  -1792115831.3438680        567355773.87378836       -2227124212.6587343     
  -1878029731.5847373        541529752.53587043       -1568432215.8408897     
  -1974103075.3670630        481838919.39309120       -1044933035.4954475     
  -2080335862.6908507        388283274.44543159       -656626671.62240779     
  -187438353.08413923        1256313289.9961724       -1238015569.1454628     
  -586474939.62524545        1054442671.2350075       -829757789.87365615     
  -984246820.48299932        856787738.08502889       -486545122.64734513     
  -1380753995.6573913        663348490.54623890       -208377567.46653283     
  -1775996465.1484361        474124928.61863005        4744875.6687852480     
   154306699.48191714        1597156205.8872263        494881196.65808672     
  -367590004.25259376        1245502781.6924324        530840116.00707674     
  -876797853.07893181        936145540.52488041        571901627.73747289     
  -1373316846.9971013        669084482.38456988        618065731.84927726     
  -1857146986.0070930        444319607.27150714        669332428.34248924     
  -691126216.94629967        1581845731.0799990        2177681271.4616680     
  -1135461025.2259185        1140536105.2460642        1854669504.9834614     
  -1555682829.3725533        779603159.85542250        1606908035.3135607     
  -1951791629.3861866        499046894.90808964        1434396862.4519780     
  -2323787425.2668371        298867310.40405631        1337135986.3987072     
  -2723737102.3687935        1210381865.5744886        3810384655.2652812     
  -2890088002.5452204        739542641.89590323        3141730377.0554948     
  -3020901749.3638368        387160596.07667410        2618474100.0809255     
  -3116178342.8246498        153235728.11679614        2240615824.3415713     
  -3175917782.9276547        37768038.016283512        2008155549.8374362     
  -2080335862.6908507        388283274.44543159       -656626671.62240779     
  -2096968219.9096355        310695814.87570620       -381570508.84787309     
  -2110635821.7101915        242990873.36675060       -141650744.48014933     
  -2121338668.0925255        185168449.91853762        63132621.480761655     
  -2129076759.0566223        137228544.53110242        232779589.03485727     
  -1775996465.1484361        474124928.61863005        4744875.6687852480     
  -1865161025.8459275        382530689.03418899        156959884.25412601     
  -1951762193.5201170        299481092.86075807        291749622.41990012     
  -2035799968.1710038        224976140.09833324        409114090.16610652     
  -2117274349.7985919        159015830.74690592        509053287.49275047     
  -1857146986.0070930        444319607.27150714        669332428.34248924     
  -1968240527.3625908        353899554.51855874        698238026.61122096     
  -2077172038.0897093        270686270.52686584        727429482.44763148     
  -2183941518.1884575        194679755.29641962        756906795.85172451     
  -2288548967.6588264        125880008.82723176        786669966.82349563     
  -2323787425.2668371        298867310.40405631        1337135986.3987072     
  -2406206724.4596257        224802411.32882452        1242263918.2234149     
  -2486865355.4189730        156606406.36507189        1165388835.6030514     
  -2565763318.1448679        94279295.512825727        1106510738.5376122     
  -2642900612.6373153        37821078.772073507        1065629627.0271039     
  -3175917782.9276547        37768038.016283512        2008155549.8374362     
  -3179059617.1370392       -4760740.5350399017        1789037559.0907094     
  -3180842145.5079050       -42758499.624619842        1605627681.8861518     
  -3181265368.0402470       -76225239.252449989        1457925918.2237723     
  -3180329284.7340651       -105160959.41854620        1345932268.1035628     
  -2129076759.0566223        137228544.53110242        232779589.03485727     
  -2050638825.2648439        119821717.50731635        365178979.81367058     
  -1972079753.9658728        102818682.17417228        483446327.79775983     
  -1893399545.1597013        86219438.531693935        587581632.98713160     
  -1814598198.8463359        70023986.579865932        677584895.38178444     
  -2117274349.7985919        159015830.74690592        509053287.49275047     
  -2066725964.9373908        136728355.15976393        581483362.31462550     
  -2016060091.4614825        114832508.28829646        647718284.26847506     
  -1965276729.3708737        93328290.132515073        707758053.35429871     
  -1914375878.6655538        72215700.692422628        761602669.57209706     
  -2288548967.6588264        125880008.82723176        786669966.82349563     
  -2243213303.3662133        105514933.18532550        799126468.64719450     
  -2197763799.3513885        85529323.284131527        813324707.52956498     
  -2152200455.6143532        65923179.123640537        829264683.47060168     
  -2106523272.1551015        46696500.703873873        846946396.47030950     
  -2642900612.6373153        37821078.772073507        1065629627.0271039     
  -2580100840.5513158        26181451.584001422        1018108298.8113883     
  -2517190877.6355853        14909127.161684513        980265597.58103442     
  -2454170723.8901415        4004105.5050849915        952101523.33604538     
  -2391040379.3149729       -6533613.3857620955        933616076.07641590     
  -3180329284.7340651       -105160959.41854620        1345932268.1035628     
  -3077388576.4926920       -101272089.64420164        1238428852.8071918     
  -2974341326.3140821       -97028080.079065681        1148540954.4228792     
  -2871187534.1982455       -92428930.723187566        1076268572.9506235     
  -2767927200.1451778       -87474641.576514840        1021611708.3904263     
  -1814598198.8463359        70023986.579865932        677584895.38178444     
  -1715256533.7746239        58018194.321582556        744579437.36506712     
  -1617336513.4193115        41273586.341981053        813972162.66775787     
  -1520838137.7803957        19790162.641051710        885763071.28986168     
  -1425761406.8578777       -6432076.7812047005        959952163.23137093     
  -1914375878.6655538        72215700.692422628        761602669.57209706     
  -1806334229.1370029        66094099.108817458        794811598.93024874     
  -1699828475.9971058        54852842.896376371        830956750.54932249     
  -1594858619.2458575        38491932.055112362        870038124.42932749     
  -1491424658.8832462        17011366.585034192        912055720.57025266     
  -2106523272.1551015        46696500.703873873        846946396.47030950     
  -1988244384.0510945        46920266.030525088        846236419.58570337     
  -1871615644.0079911        41643537.820845127        849000703.90353847     
  -1756637052.0257847        30866316.074837089        855239249.42381322     
  -1643308608.1044736        14588600.792508841        864952056.14653659     
  -2391040379.3149729       -6533613.3857620955        933616076.07641590     
  -2260986998.5168986        496695.08671903610        898853899.33142710     
  -2132698017.4519649        1645671.1153903008        868104022.73039353     
  -2006173436.1201861       -3086685.2997822762        841366446.27332509     
  -1881413254.5215504       -13700374.158778191        818641169.96020460     
  -2767927200.1451778       -87474641.576514840        1021611708.3904263     
  -2624562072.5344019       -73176613.722586513        952664038.16742527     
  -2483075596.3290296       -65140757.219994307        888266707.02990186     
  -2343467771.5290575       -63367072.068741798        828419714.97785187     
  -2205738598.1344838       -67855558.268808722        773123062.01127505     
  -1425761406.8578777       -6432076.7812047005        959952163.23137093     
  -1323943325.7395043       -30293521.964150071        1007564769.9449284     
  -1220480486.1592844       -48672438.940940261        1045693795.9295971     
  -1115372888.1172476       -61568827.711674690        1074339241.1853828     
  -1008620531.6133758       -68982688.276293278        1093501105.7122836     
  -1491424658.8832462        17011366.585034192        912055720.57025266     
  -1407620376.2288396       -10181762.419575751        934353910.01352024     
  -1322163929.2003157       -31867676.843787730        953047762.24915969     
  -1235055317.7976906       -48046376.687666833        968137277.27716863     
  -1146294542.0209510       -58717861.951162159        979622455.09755325     
  -1643308608.1044736        14588600.792508841        864952056.14653659     
  -1560720285.2818732       -10896860.444117427        861944468.55050325     
  -1476472392.1728804       -30850420.726107717        861211787.26810229     
  -1390564928.7775004       -45272080.053468645        862754012.29932511     
  -1302997895.0957305       -54161838.426199198        866571143.64418006     
  -1881413254.5215504       -13700374.158778191        818641169.96020460     
  -1783243052.8985920       -32438816.037764788        790336445.55587101     
  -1683405875.0769708       -45620670.587879062        770185870.98642313     
  -1581901721.0566750       -53245937.809070230        758189446.25185931     
  -1478730590.8377144       -55314617.701390803        754347171.35218763     
  -2205738598.1344838       -67855558.268808722        773123062.01127505     
  -2075188679.0790076       -74807629.200521111        719529841.02962875     
  -1942964377.9125941       -76178426.429115295        679970013.40413022     
  -1809065694.6352181       -71967949.954500198        654443579.13476586     
  -1673492629.2469037       -62176199.776750743        642950538.22154534     
  -1008620531.6133758       -68982688.276293278        1093501105.7122836     
  -898391234.77842057       -68968977.699494898        1099988945.7155089     
  -785597143.19072568       -60405951.280231535        1111026324.2138762     
  -670238256.85028768       -43293609.018494070        1126613241.2073810     
  -552314575.75711620       -17631950.914305836        1146749696.6960239     
  -1146294542.0209510       -58717861.951162159        979622455.09755325     
  -1024520002.0540545       -54832519.076564789        981216105.28670132     
  -901329912.91331792       -46228678.955801398        986247719.62886345     
  -776724274.59873676       -32906341.588897765        994717298.12404203     
  -650703087.11030054       -14865506.975826204        1006624840.7722201     
  -1302997895.0957305       -54161838.426199198        866571143.64418006     
  -1172854038.6886835       -47357641.261314988        861929817.51054633     
  -1042443878.6866907       -39665765.446604609        859614881.18779504     
  -911767415.08974457       -31086210.982048959        859626334.67593360     
  -780824647.89784729       -21618977.867665231        861964177.97495472     
  -1478730590.8377144       -55314617.701390803        754347171.35218763     
  -1343393344.6823056       -46544344.253775358        742130082.38704658     
  -1208939040.5108469       -40717210.752643347        731127808.89067543     
  -1075367678.3233302       -37833217.197980165        721340350.86306071     
  -942679258.11975706       -37892363.589811504        712767708.30420649     
  -1673492629.2469037       -62176199.776750743        642950538.22154534     
  -1536137920.0349221       -52392628.053927541        621816899.91620374     
  -1400815398.3857872       -49383014.873920500        600786502.73749447     
  -1267525064.2994809       -53147360.236681819        579859346.68542600     
  -1136266917.7760205       -63685664.142257333        559035431.75998080     
  -552314575.75711620       -17631950.914305836        1146749696.6960239     
  -456425147.40600729        23163611.023888528        1158547913.6907516     
  -348763692.05601639        103199262.95836164        1177297073.3004928     
  -229330209.70715755        222475004.88905972        1202997175.5252571     
  -98124700.359408855        380990836.81605470        1235648220.3650308     
  -650703087.11030054       -14865506.975826204        1006624840.7722201     
  -537686133.54929829        17633841.128534675        1021013046.9771774     
  -413979377.29211402        85765864.886840820        1043539840.8440661     
  -279582818.33872753        189530564.29914242        1074205222.3728957     
  -134496456.68917704        328927939.36534238        1113009191.5636690     
  -780824647.89784729       -21618977.867665231        861964177.97495472     
  -647286897.56430161        3602137.8716820478        877679778.37031436     
  -504141568.83726877        60848514.922655314        902721611.47454131     
  -351388661.71674222        150120153.28526494        937089677.28763127     
  -189028176.20273280        271417052.95950043        980783975.80958831     
  -942679258.11975706       -37892363.589811504        712767708.30420649     
  -785227439.45102811       -18931498.746691614        728548107.87016547     
  -619250266.69151855        28447213.065708399        754842385.19191360     
  -444747739.84120190        104243771.84745401        791650540.26945531     
  -261719858.90009439        208458177.59851345        838972573.10278344     
  -1136266917.7760205       -63685664.142257333        559035431.75998080     
  -951507759.20947671       -49967068.726591974        573618035.47673488     
  -759305470.85483253       -11438040.683931142        599902161.99619424     
  -559660052.71208537        51901419.985739291        637887811.31837487     
  -352571504.78124166        140051313.28240407        687574983.44326973     
  -98124700.359408855        380990836.81605470        1235648220.3650308     
  -83857033.563245267        541231793.55541492        1197012565.0837932     
  -57093386.571753561        743126017.61253858        1155035422.9328699     
  -17833759.384936154        986673508.98741961        1109716793.9122670     
   33921847.997191727        1271874267.6799891        1061056678.0219808     
  -134496456.68917704        328927939.36534238        1113009191.5636690     
  -125842311.01347485        478523011.84293330        1091146334.3334064     
  -94167619.328330696        704853237.68535042        1070763613.3251926     
  -39472381.633734763        1007918616.8926127        1051861028.5390334     
   38243402.070310414        1387719149.4646742        1034438579.9748808     
  -189028176.20273280        271417052.95950043        980783975.80958831     
  -172211485.67115185        414499060.96821070        987972576.74679351     
  -121849683.31599423        669398108.38884950        1001462936.9977682     
  -37942769.137259007        1036114195.2214012        1021255056.5625004     
   79509256.865049779        1514647321.4658723        1047348935.4410033     
  -261719858.90009439        208458177.59851345        838972573.10278344     
  -222964557.53626788        349159940.93125981        887491292.32393849     
  -140139578.53474522        636760629.72301579        947133393.95058119     
  -13244921.895519495        1071260243.9737756        1017898877.9827132     
   157719412.38140965        1652658783.6835365        1099787744.4203272     
  -352571504.78124166        140051313.28240407        687574983.44326973     
  -278101526.60882401        282505651.73209679        789702481.06484246     
  -149037304.98458454        606940801.68786228        907774984.18363512     
   34621160.091478348        1113356763.1497226        1041792492.7996463     
   272873868.61938620        1801753536.1176994        1191755006.9128594     
  -2723737102.3687935        1210381865.5744886        3810384655.2652812     
  -2890088002.5452204        739542641.89590323        3141730377.0554948     
  -3020901749.3638368        387160596.07667410        2618474100.0809255     
  -3116178342.8246498        153235728.11679614        2240615824.3415713     
  -3175917782.9276547        37768038.016283512        2008155549.8374362     
  -5213375333.2775030       -721097693.70956898        2215585705.0476408     
  -4881259508.3412075       -415899375.16176915        1933278373.2377460     
  -4575057941.6020622       -197081917.27113342        1709923395.9194057     
  -4294770633.0600719       -64645320.037678957        1545520773.0926187     
  -4040397582.7152367       -18589583.461399794        1440070504.7573845     
  -6491709523.4395247       -2289186040.7696204        897593997.99061084     
  -5908114535.5152540       -1282046448.6328392        929940299.09982717     
  -5411885217.3431053       -566125755.66978383        934793307.95692432     
  -5003021568.9230652       -141423961.88042831        912153024.56191742     
  -4681523590.2551384       -7941067.2647874355        862019448.91480589     
  -6558739672.8548689       -3493883175.6056747       -143590465.90579841     
  -5970653084.0673695       -1858898578.5173473        131716154.64172810     
  -5531383576.5869570       -719970919.11927581        293083836.19348359     
  -5240931150.4136133       -77100197.411454678        340512578.74946970     
  -5099295805.5473394        69713586.606140852        274002382.30968773     
  -5414465781.5235062       -4335189098.2177038       -907967686.64159238     
  -5068875153.9975462       -2146455764.8152726       -461394060.13653380     
  -4933553019.3336153       -658617407.61960757       -215205019.37091100     
  -5008499377.5317230        128325973.36926293       -169400564.34471974     
  -5293714228.5918598        214374378.15137005       -323980695.05796009     
  -3175917782.9276547        37768038.016283512        2008155549.8374362     
  -3179059617.1370392       -4760740.5350399017        1789037559.0907094     
  -3180842145.5079050       -42758499.624619842        1605627681.8861518     
  -3181265368.0402470       -76225239.252449989        1457925918.2237723     
  -3180329284.7340651       -105160959.41854620        1345932268.1035628     
  -4040397582.7152367       -18589583.461399794        1440070504.7573845     
  -3966700814.4782209       -60844725.117122412        1295731082.8444746     
  -3889578575.0328360       -91681629.411600351        1174727017.6799474     
  -3809030864.3790789       -111100296.34484386        1077058309.2637973     
  -3725057682.5169430       -119100725.91683125        1002724957.5960304     
  -4681523590.2551384       -7941067.2647874355        862019448.91480589     
  -4566338953.2682657       -60527792.133855343        794869122.10053408     
  -4445662679.7031755       -94809061.742196321        738681395.24085116     
  -4319494769.5598660       -110784876.08980393        693456268.33575964     
  -4187835222.8383331       -108455235.17667198        659193741.38525331     
  -5099295805.5473394        69713586.606140852        274002382.30968773     
  -4977974033.5071707       -3809941.5852622986        286451676.85887975     
  -4849094459.5189304       -52140796.616440296        297490814.56887472     
  -4712657083.5826206       -75278978.487374306        307119795.43965816     
  -4568661905.6982365       -73224487.198075533        315338619.47124135     
  -5293714228.5918598        214374378.15137005       -323980695.05796009     
  -5201606055.1949291        109308826.52868795       -229521252.88047943     
  -5099873914.4800901        36323165.965723991       -148844724.33599481     
  -4988517806.4473305       -4582603.5375094414       -81951109.424502373     
  -4867537731.0966434       -13408481.981003761       -28840408.146011923     
  -3180329284.7340651       -105160959.41854620        1345932268.1035628     
  -3077388576.4926920       -101272089.64420164        1238428852.8071918     
  -2974341326.3140821       -97028080.079065681        1148540954.4228792     
  -2871187534.1982455       -92428930.723187566        1076268572.9506235     
  -2767927200.1451778       -87474641.576514840        1021611708.3904263     
  -3725057682.5169430       -119100725.91683125        1002724957.5960304     
  -3576957946.7130508       -103875786.35730577        921947248.64581275     
  -3429654625.2280760       -91305561.194175363        855675720.18890166     
  -3283147718.0620289       -81390050.427462935        803910372.22528672     
  -3137437225.2148962       -74129254.057144642        766651204.75497949     
  -4187835222.8383331       -108455235.17667198        659193741.38525331     
  -4003460277.8112254       -84559371.333762884        604088289.81568360     
  -3820784703.3591924       -66328076.074431658        560379682.32066035     
  -3639808499.4822302       -53761349.398663759        528067918.90018755     
  -3460531666.1803446       -46859191.306498051        507152999.55425167     
  -4568661905.6982365       -73224487.198075533        315338619.47124135     
  -4356895569.7872162       -43322844.573562384        284851976.31680471     
  -4147731560.7074208       -22095624.719806671        262652840.81816554     
  -3941169878.4588575       -9542827.6368188858        248741212.97530389     
  -3737210523.0415139       -5664453.3245656490        243117092.78823665     
  -4867537731.0966434       -13408481.981003761       -28840408.146011923     
  -4637263822.6410217        19833793.923300505       -35761691.850820616     
  -4410495197.2727718        41391792.869669914       -37504804.318595231     
  -4187231854.9919028        51265514.858127594       -34069745.549334802     
  -3967473795.7984123        49454959.888634920       -25456515.543044776     
  -2767927200.1451778       -87474641.576514840        1021611708.3904263     
  -2624562072.5344019       -73176613.722586513        952664038.16742527     
  -2483075596.3290296       -65140757.219994307        888266707.02990186     
  -2343467771.5290575       -63367072.068741798        828419714.97785187     
  -2205738598.1344838       -67855558.268808722        773123062.01127505     
  -3137437225.2148962       -74129254.057144642        766651204.75497949     
  -2983905779.2912321       -66986810.098497510        712555173.81851935     
  -2831202955.3132358       -62606439.292068839        663380337.24387443     
  -2679328753.2809076       -60988141.637875319        619126695.03103983     
  -2528283173.1942492       -62131917.135909081        579794247.18001723     
  -3460531666.1803446       -46859191.306498051        507152999.55425167     
  -3295774315.4399691       -46554455.291981816        469133642.27402157     
  -3130795557.1855292       -45511694.230570436        436406334.63194144     
  -2965595391.4170322       -43730908.122301340        408971076.62800843     
  -2800173818.1344686       -41212096.967155576        386827868.26222843     
  -3737210523.0415139       -5664453.3245656490        243117092.78823665     
  -3560167680.9806051       -11879549.303028822        222399443.53392416     
  -3381853401.9459152       -13856522.035519123        207344699.19409874     
  -3202267685.9374175       -11595371.522007227        197952859.76875186     
  -3021410532.9551272       -5096097.7625087500        194223925.25789177     
  -3967473795.7984123        49454959.888634920       -25456515.543044776     
  -3777085875.9131556        37037907.868336678       -27647422.401763868     
  -3584376489.5943775        32359077.293135643       -23804569.069659691     
  -3389345636.8420639        35418468.163038492       -13927955.546718789     
  -3191993317.6562409        46216080.477974892        1982418.1670312891     
  -2205738598.1344838       -67855558.268808722        773123062.01127505     
  -2075188679.0790076       -74807629.200521111        719529841.02962875     
  -1942964377.9125941       -76178426.429115295        679970013.40413022     
  -1809065694.6352181       -71967949.954500198        654443579.13476586     
  -1673492629.2469037       -62176199.776750743        642950538.22154534     
  -2528283173.1942492       -62131917.135909081        579794247.18001723     
  -2364138193.9076624       -59706338.240764022        543057094.05155945     
  -2199402262.1480212       -55310917.768768668        515964828.55391860     
  -2034075377.9153295       -48945655.719928980        498517450.68710059     
  -1868157541.2095809       -40610552.094241261        490714960.45110649     
  -2800173818.1344686       -41212096.967155576        386827868.26222843     
  -2614972366.4033890       -33170444.581111908        365682781.74273962     
  -2430263391.8371620       -26770382.744550109        349794077.12875438     
  -2246046894.4357653       -22011911.457441688        339161754.42026955     
  -2062322874.1992149       -18895030.719818830        333785813.61728692     
  -3021410532.9551272       -5096097.7625087500        194223925.25789177     
  -2827691196.5662022        4800051.7784126997        187406904.10317805     
  -2635547766.9800091        9443178.6435502768        181457759.12863773     
  -2444980244.1965528        8833282.8329000473        176376490.33428076     
  -2255988628.2158165        2970364.3465232849        172163097.72010431     
  -3191993317.6562409        46216080.477974892        1982418.1670312891     
  -3002294684.3960762        54205150.837818980        8229461.1328688376     
  -2815255387.5765557        53329766.395550728        10955874.553563856     
  -2630875427.1976485        43589927.151224852        10161658.429130113     
  -2449154803.2593813        24985633.104756355        5846812.7595519172     
  -1673492629.2469037       -62176199.776750743        642950538.22154534     
  -1536137920.0349221       -52392628.053927541        621816899.91620374     
  -1400815398.3857872       -49383014.873920500        600786502.73749447     
  -1267525064.2994809       -53147360.236681819        579859346.68542600     
  -1136266917.7760205       -63685664.142257333        559035431.75998080     
  -1868157541.2095809       -40610552.094241261        490714960.45110649     
  -1732065616.9194071       -40620726.037235260        468998858.99796289     
  -1596167394.8895216       -41276574.181201696        448468238.55506647     
  -1460462875.1199512       -42578096.526214123        429123099.12240821     
  -1324952057.6106830       -44525293.072231352        410963440.69999069     
  -2062322874.1992149       -18895030.719818830        333785813.61728692     
  -1924401620.8776627       -27771316.142634273        313632148.53597325     
  -1784835584.5138872       -31164991.424697161        295746204.34850717     
  -1643624765.1078901       -29076056.566013277        280127981.05489212     
  -1500769162.6596346       -21504511.566492140        266777478.65512845     
  -2255988628.2158165        2970364.3465232849        172163097.72010431     
  -2113145931.9097269       -13844398.370172501        155716768.53023735     
  -1966819967.2588835       -19048266.604356050        142620400.11782628     
  -1817010734.2632701       -12641240.355984926        132873992.48287509     
  -1663718232.9228892        5376680.3749694824        126477545.62538701     
  -2449154803.2593813        24985633.104756355        5846812.7595519172     
  -2298298550.0156069        1160027.2800645828       -4747281.0192495687     
  -2142120543.1245112       -4926399.7202243805       -10909174.136980662     
  -1980620782.5861368        6726352.1037390232       -12638866.593638321     
  -1813799268.4004500        36118282.752099276       -9936358.3892355151     
  -1136266917.7760205       -63685664.142257333        559035431.75998080     
  -951507759.20947671       -49967068.726591974        573618035.47673488     
  -759305470.85483253       -11438040.683931142        599902161.99619424     
  -559660052.71208537        51901419.985739291        637887811.31837487     
  -352571504.78124166        140051313.28240407        687574983.44326973     
  -1324952057.6106830       -44525293.072231352        410963440.69999069     
  -1123520455.6930203       -21800776.574658573        430059362.00224584     
  -918667364.00665045        12328705.818606973        448200427.44528097     
  -710392782.55157828        57863154.107568115        465386637.02908993     
  -498696711.32778412        114802568.29222485        481617990.75369614     
  -1500769162.6596346       -21504511.566492140        266777478.65512845     
  -1318826199.2820883       -622398.55436760187        285694804.18691880     
  -1137483386.1552260        18259213.622144520        291000895.19757241     
  -956740723.27906048        35140324.963000178        282695751.68706495     
  -776598210.65356767        50020935.468280017        260779373.65541247     
  -1663718232.9228892        5376680.3749694824        126477545.62538701     
  -1537424989.9766922        13568065.334265232        140524362.03077433     
  -1415753537.3005745        6353482.7266234756        128303565.25307284     
  -1298703874.8945262       -16267067.447909534        89815155.292287871     
  -1186276002.7585602       -54293585.189390838        25059132.148426633     
  -1813799268.4004500        36118282.752099276       -9936358.3892355151     
  -1779316827.7768266        20770615.091218829       -5451964.4662302909     
  -1753477817.4426777       -23388486.867910624       -39891562.388216570     
  -1736282237.3980076       -96359023.125307143       -113255152.15524191     
  -1727730087.6427958       -198140993.68088806       -225542733.76726484     
  -352571504.78124166        140051313.28240407        687574983.44326973     
  -278101526.60882401        282505651.73209679        789702481.06484246     
  -149037304.98458454        606940801.68786228        907774984.18363512     
   34621160.091478348        1113356763.1497226        1041792492.7996463     
   272873868.61938620        1801753536.1176994        1191755006.9128594     
  -498696711.32778412        114802568.29222485        481617990.75369614     
  -389443485.52634954        220736302.55196583        599785938.99784708     
  -231044382.21770632        490489628.50239956        737193057.81094801     
  -23499401.401842058        924062546.14352441        893839347.19298732     
   233191456.92120942        1521455055.4753232        1069724807.1439893     
  -776598210.65356767        50020935.468280017        260779373.65541247     
  -623149837.01812518        122257635.59960988        388631345.58674061     
  -426003951.82011950        340152707.60614955        539016653.15876150     
  -185160555.05952004        703706151.48802567        711935296.37147236     
   99380353.263656616        1212917967.2451341        907387275.22485363     
  -1186276002.7585602       -54293585.189390838        25059132.148426633     
  -979220581.08418560       -12930349.125063241        156238700.83154422     
  -733916013.79184997        155930038.99913090        313245770.22708917     
  -450362300.88156140        452287579.18316782        496080340.33503926     
  -128559442.35330045        876142271.42711723        704742411.15543008     
  -1727730087.6427958       -198140993.68088806       -225542733.76726484     
  -1457655717.7245119       -184827651.62200272       -97391995.267755911     
  -1154780568.1329062       -62178377.318745375        59880409.015916198     
  -819104638.86793339        169806829.22910255        246274479.08374956     
  -450627929.92964667        511127968.02129698        461790214.93571919     
 </DataArray>
 <DataArray  type="Float64" Name="VM" NumberOfComponents="1" format="ascii">
   5206802008.5038309     
   4478761527.8725386     
   4654389110.3115845     
   5082356125.4730968     
   5433147695.4388008     
   5689522845.8955479     
   5296924681.7464485     
   5233528588.4564972     
   5236131529.0109959     
   5156394070.9861937     
   5910918659.4989929     
   5618660879.8950109     
   5400621071.2919483     
   5180612690.2455854     
   4910069498.9928503     
   6218228957.4869766     
   5760403605.9772167     
   5370274603.8476448     
   5033636892.6314754     
   4740406951.6925840     
   7465763438.7902746     
   6375600723.6072636     
   5569069461.6680479     
   5027189704.8565931     
   4722911656.0216055     
   5433147695.4388008     
   5272122480.2554092     
   5124621072.8958426     
   4988248035.1817350     
   4861104027.5763569     
   5156394070.9861937     
   5000743734.1677189     
   4850680616.9126577     
   4705635707.0584021     
   4565283216.1492310     
   4910069498.9928503     
   4740693556.7676468     
   4581306246.4397945     
   4431074186.7496624     
   4289422210.9265265     
   4740406951.6925840     
   4531426014.9442186     
   4349778708.0828838     
   4192617171.6990547     
   4057456674.8926411     
   4722911656.0216055     
   4437710468.2851791     
   4209239570.9035311     
   4032419976.2181435     
   3902013290.4883013     
   4861104027.5763569     
   4647625239.9547338     
   4431812191.4343481     
   4213511789.4138675     
   3992674476.1686935     
   4565283216.1492310     
   4363379964.0165844     
   4161667711.4386573     
   3959913855.6750808     
   3758047776.0463820     
   4289422210.9265265     
   4097692324.2884555     
   3910427857.6053162     
   3727194972.0805359     
   3547806361.1059990     
   4057456674.8926411     
   3870893850.2470794     
   3695167631.9175978     
   3529487693.7603951     
   3373380176.7344103     
   3902013290.4883013     
   3710800585.5543847     
   3539062745.6433949     
   3385549038.7502809     
   3249310820.3220129     
   3992674476.1686935     
   3796042415.2887335     
   3600901139.5848560     
   3407278343.1968102     
   3215352309.7757425     
   3758047776.0463820     
   3575056138.0378928     
   3394000468.7706242     
   3214821504.4660287     
   3037551476.9171238     
   3547806361.1059990     
   3372109399.2589593     
   3198877270.5310211     
   3027994759.4116702     
   2859401722.9051547     
   3373380176.7344103     
   3198672104.1801853     
   3026978463.7866912     
   2858158224.0678601     
   2692113148.7686262     
   3249310820.3220129     
   3069907267.9222698     
   2893995773.9332500     
   2721432630.7334924     
   2552131133.6565652     
   3215352309.7757425     
   3029794477.9574986     
   2842358873.7307234     
   2652997369.2888513     
   2461763549.0395255     
   3037551476.9171238     
   2848648390.2050962     
   2658922697.1110983     
   2468386035.9709253     
   2277084763.1731896     
   2859401722.9051547     
   2674623833.4076848     
   2491767528.3311648     
   2311030825.8391232     
   2132792515.4068434     
   2692113148.7686262     
   2517199482.4473872     
   2348922681.5174332     
   2187660419.9719639     
   2034256233.5818870     
   2552131133.6565652     
   2389546791.0245881     
   2240531056.4849601     
   2105372299.3430452     
   1985081416.9125624     
   2461763549.0395255     
   2298893488.1526918     
   2139745026.6340210     
   1984113279.0046990     
   1832206272.4865806     
   2277084763.1731896     
   2123455979.9836314     
   1972891493.3775601     
   1825290397.0770333     
   1680750504.1236489     
   2132792515.4068434     
   1986389954.7916117     
   1842113565.1666162     
   1699991975.3506358     
   1560130726.9536219     
   2034256233.5818870     
   1895052339.9297814     
   1756969285.2266858     
   1620191617.4585831     
   1484977921.3295465     
   1985081416.9125624     
   1855249623.4395947     
   1725798145.9372652     
   1597119095.4929869     
   1469815056.6941571     
   1832206272.4865806     
   1789817440.0779762     
   1743271147.8577209     
   1701509564.3168664     
   1683622738.9222188     
   1680750504.1236489     
   1563317262.7201958     
   1436237732.8840983     
   1299988674.9494252     
   1160894160.2137661     
   1560130726.9536219     
   1408313409.4452028     
   1252603675.4862373     
   1090852188.8974478     
   921124686.96575010     
   1484977921.3295465     
   1339079174.0446770     
   1207509242.9742746     
   1094927295.7398205     
   1007470778.6854315     
   1469815056.6941571     
   1359202936.3228478     
   1283603705.1664479     
   1251264505.5946829     
   1269479110.5828295     
   1683622738.9222188     
   1384905040.5235214     
   1129751706.9734235     
   1010351269.2835584     
   1155160801.3226376     
   1160894160.2137661     
   1009757431.9015951     
   985776436.47677708     
   1161624140.3140934     
   1544919017.3199756     
   921124686.96575010     
   965686513.76213408     
   1146170356.5672326     
   1476597778.3609104     
   1957181962.8059649     
   1007470778.6854315     
   1168582293.4667737     
   1427461827.4713564     
   1809144843.1560693     
   2333955207.2479630     
   1269479110.5828295     
   1451414889.4123521     
   1718491298.2447569     
   2111447607.2607994     
   2662698722.1405106     
   7465763438.7902746     
   6375600723.6072636     
   5569069461.6680479     
   5027189704.8565931     
   4722911656.0216055     
   4277853853.3077822     
   3768889168.7814412     
   3462254425.5632715     
   3347395554.5895891     
   3398177703.3771973     
   1750139653.2238619     
   1729048193.2716360     
   1856654993.9239411     
   2097272978.4635282     
   2411555381.7121997     
   2539091404.1662135     
   2034625364.0651667     
   1804521018.7568998     
   1841927665.8359191     
   2054524185.6879144     
   5621228379.8886557     
   4408013810.2658262     
   3495310853.1278315     
   2890693088.2524590     
   2565111416.4144888     
   4722911656.0216055     
   4437710468.2851791     
   4209239570.9035311     
   4032419976.2181435     
   3902013290.4883013     
   3398177703.3771973     
   3318274691.2363067     
   3266936994.0769820     
   3241454363.6567245     
   3239291734.3629928     
   2411555381.7121997     
   2481609183.3645110     
   2556880450.9197073     
   2636549573.6889672     
   2719914268.4590573     
   2054524185.6879144     
   2100606085.7103906     
   2176909273.5343566     
   2270512102.6357698     
   2371122644.2508798     
   2565111416.4144888     
   2362649997.8206682     
   2255413083.3955545     
   2222414739.6333222     
   2237527348.3113546     
   3902013290.4883013     
   3710800585.5543847     
   3539062745.6433949     
   3385549038.7502809     
   3249310820.3220129     
   3239291734.3629928     
   3136046894.6171403     
   3042492931.9153018     
   2958426721.3555927     
   2883818923.3862190     
   2719914268.4590573     
   2682469229.1955032     
   2647630161.6168418     
   2615574947.9646382     
   2586492358.4294086     
   2371122644.2508798     
   2363683481.4111423     
   2359620935.9443660     
   2357372074.0400600     
   2355507161.1882997     
   2237527348.3113546     
   2205732296.2698240     
   2191711188.5083790     
   2188926677.7842984     
   2191369264.3884234     
   3249310820.3220129     
   3069907267.9222698     
   2893995773.9332500     
   2721432630.7334924     
   2552131133.6565652     
   2883818923.3862190     
   2745359807.4777231     
   2610120120.6897750     
   2478354584.8575530     
   2350456884.2289252     
   2586492358.4294086     
   2489368279.5098481     
   2396878508.7578664     
   2309815987.8764896     
   2229142382.2636065     
   2355507161.1882997     
   2298211531.6317167     
   2248807121.6404710     
   2208470929.7895846     
   2178427181.1705537     
   2191369264.3884234     
   2169834737.9096766     
   2161454655.8894119     
   2167294761.0555592     
   2188193506.3345737     
   2552131133.6565652     
   2389546791.0245881     
   2240531056.4849601     
   2105372299.3430452     
   1985081416.9125624     
   2350456884.2289252     
   2235409774.6923041     
   2130421861.6564744     
   2036067791.9960091     
   1953209516.3409109     
   2229142382.2636065     
   2155876712.6152492     
   2088164243.1760540     
   2026277392.8757925     
   1970533150.9375019     
   2178427181.1705537     
   2141545802.2533989     
   2105207548.7046437     
   2068864307.3741829     
   2032021521.3818922     
   2188193506.3345737     
   2181558392.0610623     
   2170936297.0984526     
   2154481286.6273737     
   2130664365.1701934     
   1985081416.9125624     
   1855249623.4395947     
   1725798145.9372652     
   1597119095.4929869     
   1469815056.6941571     
   1953209516.3409109     
   1842991011.8649657     
   1737127078.8492670     
   1636507892.5454509     
   1542229907.5576212     
   1970533150.9375019     
   1884424254.8938777     
   1806578675.4828959     
   1738049217.7615762     
   1679946610.0387583     
   2032021521.3818922     
   1970996185.4566672     
   1921176489.8043723     
   1883404306.4076459     
   1858451820.6930335     
   2130664365.1701934     
   2092804206.7378531     
   2067968927.9458239     
   2056659624.3320103     
   2059302914.4576952     
   1469815056.6941571     
   1359202936.3228478     
   1283603705.1664479     
   1251264505.5946829     
   1269479110.5828295     
   1542229907.5576212     
   1481358173.2704866     
   1453016572.6841106     
   1461219090.9475775     
   1509349090.3266003     
   1679946610.0387583     
   1652964095.1745582     
   1653256317.8439479     
   1683202828.4339333     
   1745427156.9460280     
   1858451820.6930335     
   1851027209.0854430     
   1865788360.4755735     
   1904948412.9014878     
   1971519949.1952171     
   2059302914.4576952     
   2060614648.0265110     
   2079991238.7346969     
   2120074132.0623851     
   2184638793.8957458     
   1269479110.5828295     
   1451414889.4123521     
   1718491298.2447569     
   2111447607.2607994     
   2662698722.1405106     
   1509349090.3266003     
   1616291598.6559241     
   1790397599.7350380     
   2066474551.9679606     
   2474691767.5569968     
   1745427156.9460280     
   1789166622.6709163     
   1885017549.7625618     
   2059895869.3677249     
   2338988910.8531318     
   1971519949.1952171     
   1968969266.0398767     
   2002913908.6474342     
   2092003304.3867369     
   2254849312.3474040     
   2184638793.8957458     
   2154963385.3168087     
   2144817940.6527226     
   2164683081.2687011     
   2225577305.0773697     
   5621228379.8886557     
   4408013810.2658262     
   3495310853.1278315     
   2890693088.2524590     
   2565111416.4144888     
   3855693349.0929952     
   3327840534.2001424     
   2951361998.5011683     
   2698019492.4170661     
   2526008227.2063255     
   3716415278.5399036     
   3507561570.3522220     
   3314208735.9221392     
   3136703419.6977077     
   2975477329.0890260     
   5156565474.4953270     
   4682608596.6562309     
   4286536550.2698441     
   3968540890.1475573     
   3731216669.6803212     
   7548333512.0010815     
   6531840129.4843483     
   5720617006.4365053     
   5112826861.1437263     
   4705954703.8563538     
   2565111416.4144888     
   2362649997.8206682     
   2255413083.3955545     
   2222414739.6333222     
   2237527348.3113546     
   2526008227.2063255     
   2489688108.1072502     
   2474613026.5384703     
   2471930514.6473060     
   2473712976.7200274     
   2975477329.0890260     
   2926296448.8614845     
   2878720520.2431393     
   2832663052.5636005     
   2788042632.3968291     
   3731216669.6803212     
   3561360033.2049179     
   3412160652.3495975     
   3283608833.3315477     
   3175930176.4436827     
   4705954703.8563538     
   4364338268.8125811     
   4075014128.6560807     
   3837222556.4097037     
   3650301237.2668295     
   2237527348.3113546     
   2205732296.2698240     
   2191711188.5083790     
   2188926677.7842984     
   2191369264.3884234     
   2473712976.7200274     
   2442686948.5331888     
   2417156930.3352981     
   2395721681.9339862     
   2377042232.7116332     
   2788042632.3968291     
   2727115037.5919309     
   2672672097.8661504     
   2625233152.2938070     
   2585315617.6524987     
   3175930176.4436827     
   3063271641.1921878     
   2966401024.8207083     
   2885925249.5502863     
   2822564819.3154249     
   3650301237.2668295     
   3467624489.3169465     
   3314566202.4571848     
   3191248982.9589844     
   3097915614.3240018     
   2191369264.3884234     
   2169834737.9096766     
   2161454655.8894119     
   2167294761.0555592     
   2188193506.3345737     
   2377042232.7116332     
   2355372893.8479209     
   2343544753.4442916     
   2342364108.6222057     
   2352553240.8686829     
   2585315617.6524987     
   2550012102.7855701     
   2523477906.6655779     
   2506263106.7951508     
   2498901082.1729436     
   2822564819.3154249     
   2762008619.6369839     
   2710746604.6409974     
   2669083442.8467894     
   2637335828.6690812     
   3097915614.3240018     
   3002291629.4271593     
   2917407972.9472384     
   2843393257.9661136     
   2780394220.3985348     
   2188193506.3345737     
   2181558392.0610623     
   2170936297.0984526     
   2154481286.6273737     
   2130664365.1701934     
   2352553240.8686829     
   2317559373.2255597     
   2285697628.6229572     
   2256741124.3428550     
   2230483230.8420677     
   2498901082.1729436     
   2442893776.1507330     
   2397966489.0046296     
   2364790857.4625182     
   2343962253.7741485     
   2637335828.6690812     
   2564604805.1465325     
   2511631653.6615963     
   2479290830.9005570     
   2468396369.0481715     
   2780394220.3985348     
   2691030140.4393191     
   2631045962.3389382     
   2600993807.9258857     
   2601446825.9496679     
   2130664365.1701934     
   2092804206.7378531     
   2067968927.9458239     
   2056659624.3320103     
   2059302914.4576952     
   2230483230.8420677     
   2202531742.1712704     
   2186919803.5725317     
   2183940549.5234404     
   2193848541.9790411     
   2343962253.7741485     
   2323352660.2336054     
   2314435180.4675150     
   2317369209.8430820     
   2332309240.1359754     
   2468396369.0481715     
   2452755362.1155434     
   2448272816.0809016     
   2455027279.2826939     
   2473119357.6979232     
   2601446825.9496679     
   2588642749.6090760     
   2586616661.1744814     
   2595401703.5157294     
   2615072790.8182230     
   2059302914.4576952     
   2060614648.0265110     
   2079991238.7346969     
   2120074132.0623851     
   2184638793.8957458     
   2193848541.9790411     
   2182983921.0769372     
   2186447355.3036556     
   2206226766.2483940     
   2245228892.5035520     
   2332309240.1359754     
   2310233861.9191003     
   2299475657.1991820     
   2301454799.4393082     
   2318259590.1995487     
   2473119357.6979232     
   2441607021.8323336     
   2418858523.0105066     
   2405826600.9548273     
   2403893753.6870089     
   2615072790.8182230     
   2576484840.8859439     
   2544395217.5047302     
   2519387799.2000508     
   2502279410.0561571     
   2184638793.8957458     
   2154963385.3168087     
   2144817940.6527226     
   2164683081.2687011     
   2225577305.0773697     
   2245228892.5035520     
   2180615763.4311609     
   2132301679.1829157     
   2109895915.8236535     
   2124263869.9049175     
   2318259590.1995487     
   2222039250.6683712     
   2138945580.0208826     
   2077275283.3322563     
   2047114010.6959381     
   2403893753.6870089     
   2279520117.7487879     
   2165388991.8466401     
   2068166470.1493318     
   1996521721.2522697     
   2502279410.0561571     
   2353260496.6270051     
   2212096504.2978268     
   2083695470.7813621     
   1974829666.6135645     
   7548333512.0010815     
   6531840129.4843483     
   5720617006.4365053     
   5112826861.1437263     
   4705954703.8563538     
   5002381552.6390705     
   4482342702.3963013     
   4075793893.8906269     
   3785513583.2019768     
   3613137172.2318573     
   2755622410.3708072     
   2669851479.7570353     
   2617119443.3532567     
   2599060377.7211604     
   2616141538.5621181     
   959689093.33014286     
   968696579.92901301     
   1191107968.6664846     
   1448602751.2433240     
   1665177014.5226049     
   2374872211.7158661     
   1301470619.4314740     
   428084056.00844091     
   245287478.55322874     
   718643984.25353563     
   4705954703.8563538     
   4364338268.8125811     
   4075014128.6560807     
   3837222556.4097037     
   3650301237.2668295     
   3613137172.2318573     
   3446178539.0267549     
   3308686128.4999189     
   3200405026.1201935     
   3121107114.1612058     
   2616141538.5621181     
   2615582965.8786836     
   2620511639.1734924     
   2630906748.8644381     
   2646769491.9655247     
   1665177014.5226049     
   1829527706.8085358     
   1974851510.6214039     
   2100887177.1448944     
   2207502372.3142009     
   718643984.25353563     
   1052772123.9656681     
   1341793001.1948242     
   1585706615.9410057     
   1784512968.2042089     
   3650301237.2668295     
   3467624489.3169465     
   3314566202.4571848     
   3191248982.9589844     
   3097915614.3240018     
   3121107114.1612058     
   3021431244.1450801     
   2942126167.4841971     
   2883225256.1522236     
   2844788493.4014163     
   2646769491.9655247     
   2625358555.7539845     
   2614359439.5128565     
   2613772148.7958198     
   2623598303.2716708     
   2207502372.3142009     
   2261820751.0034714     
   2316191797.7598653     
   2370611690.5714884     
   2425076980.0223994     
   1784512968.2042089     
   1914081346.4789891     
   2033203861.8538089     
   2141880514.3286679     
   2240111303.9035587     
   3097915614.3240018     
   3002291629.4271593     
   2917407972.9472384     
   2843393257.9661136     
   2780394220.3985348     
   2844788493.4014163     
   2792113903.4643521     
   2749886389.4581833     
   2718192402.9611464     
   2697119104.1357889     
   2623598303.2716708     
   2613161878.5654273     
   2612617665.3414340     
   2621997960.1255813     
   2641330394.1217685     
   2425076980.0223994     
   2455519204.7515101     
   2495149678.3252158     
   2543971196.3570237     
   2601984715.3392138     
   2240111303.9035587     
   2309844744.1049781     
   2388106531.5185757     
   2474896666.1443319     
   2570215147.9822478     
   2780394220.3985348     
   2691030140.4393191     
   2631045962.3389382     
   2600993807.9258857     
   2601446825.9496679     
   2697119104.1357889     
   2651916632.3295593     
   2627150064.9769821     
   2622961057.6361923     
   2639499699.0966654     
   2641330394.1217685     
   2633637484.9662108     
   2637480968.5258231     
   2652885872.7351027     
   2679880530.2042818     
   2601984715.3392138     
   2628066267.0069461     
   2656780345.6111512     
   2688130510.3664422     
   2722120832.3548360     
   2570215147.9822478     
   2628593893.3576365     
   2680649964.5937028     
   2726383361.6904402     
   2765794084.6478395     
   2601446825.9496679     
   2588642749.6090760     
   2586616661.1744814     
   2595401703.5157294     
   2615072790.8182230     
   2639499699.0966654     
   2627162352.2588210     
   2625161633.8611836     
   2633516085.7976832     
   2652267793.2160645     
   2679880530.2042818     
   2668021114.0237093     
   2666239145.8781695     
   2674542760.7146616     
   2692950461.3850431     
   2722120832.3548360     
   2710823389.6944151     
   2709520425.3040509     
   2718213925.8207369     
   2736908419.2624149     
   2765794084.6478395     
   2755202223.8988361     
   2754695597.4911470     
   2764274205.4247665     
   2783938047.6997061     
   2615072790.8182230     
   2576484840.8859439     
   2544395217.5047302     
   2519387799.2000508     
   2502279410.0561571     
   2652267793.2160645     
   2607620818.5488305     
   2568892400.4714432     
   2536412659.8009171     
   2510647303.8841472     
   2692950461.3850431     
   2644312942.8124433     
   2601166238.3555641     
   2563656477.4986510     
   2531991023.2847137     
   2736908419.2624149     
   2686398491.2409759     
   2641095945.5961361     
   2601036849.7954721     
   2566272557.0309572     
   2783938047.6997061     
   2733713746.1617866     
   2688550553.6169453     
   2648448470.0651975     
   2613407495.5065289     
   2502279410.0561571     
   2353260496.6270051     
   2212096504.2978268     
   2083695470.7813621     
   1974829666.6135645     
   2510647303.8841472     
   2344125946.3456321     
   2180983818.5334182     
   2024273150.7298539     
   1878481526.7007821     
   2531991023.2847137     
   2352999732.8378315     
   2173700871.1104403     
   1995542289.4215250     
   1820759913.2466142     
   2566272557.0309572     
   2379992464.8434305     
   2190711242.8354530     
   1998800856.6518202     
   1804853400.9671865     
   2613407495.5065289     
   2425082226.8815150     
   2232160601.7636514     
   2034642620.1529279     
   1832528282.0493498     
   2374872211.7158661     
   1301470619.4314740     
   428084056.00844091     
   245287478.55322874     
   718643984.25353563     
   959689095.49560547     
   968696581.46160007     
   1191107969.4856799     
   1448602751.6520007     
   1665177014.7387192     
   2755622411.6610222     
   2669851480.6441083     
   2617119443.9427485     
   2599060378.1239405     
   2616141538.8907552     
   5002381553.5765409     
   4482342703.0534477     
   4075793894.3753715     
   3785513583.6215272     
   3613137172.6929460     
   7548333512.9420977     
   6531840130.1653137     
   5720617006.9853582     
   5112826861.6842623     
   4705954704.5112162     
   718643984.25353563     
   1052772123.9656681     
   1341793001.1948242     
   1585706615.9410057     
   1784512968.2042089     
   1665177014.7387192     
   1829527706.9579856     
   1974851510.7208698     
   2100887177.2086170     
   2207502372.3547540     
   2616141538.8907552     
   2615582966.1171980     
   2620511639.3392372     
   2630906748.9752569     
   2646769492.0393405     
   3613137172.6929460     
   3446178539.3691893     
   3308686128.7451077     
   3200405026.2903533     
   3121107114.2789927     
   4705954704.5112162     
   4364338269.3111725     
   4075014129.0246887     
   3837222556.6751022     
   3650301237.4560814     
   1784512968.2042089     
   1914081346.4789891     
   2033203861.8538089     
   2141880514.3286679     
   2240111303.9035587     
   2207502372.3547540     
   2261820751.0232620     
   2316191797.7650981     
   2370611690.5682812     
   2425076980.0167756     
   2646769492.0393405     
   2625358555.7880664     
   2614359439.5191717     
   2613772148.7861195     
   2623598303.2574863     
   3121107114.2789927     
   3021431244.2022767     
   2942126167.4982800     
   2883225256.1403337     
   2844788493.3803101     
   3650301237.4560814     
   3467624489.4203029     
   3314566202.4970503     
   3191248982.9574089     
   3097915614.3027163     
   2240111303.9035587     
   2309844744.1049781     
   2388106531.5185757     
   2474896666.1443319     
   2570215147.9822478     
   2425076980.0167756     
   2455519204.7399859     
   2495149678.3106041     
   2543971196.3421822     
   2601984715.3270020     
   2623598303.2574863     
   2613161878.5385170     
   2612617665.3079658     
   2621997960.0916862     
   2641330394.0935912     
   2844788493.3803101     
   2792113903.4214511     
   2749886389.4033351     
   2718192402.9041829     
   2697119104.0865054     
   3097915614.3027163     
   3002291629.3715363     
   2917407972.8708520     
   2843393257.8825674     
   2780394220.3215122     
   2570215147.9822478     
   2628593893.3576365     
   2680649964.5937028     
   2726383361.6904402     
   2765794084.6478395     
   2601984715.3270020     
   2628066266.9954381     
   2656780345.5997972     
   2688130510.3547020     
   2722120832.3421741     
   2641330394.0935912     
   2633637484.9405193     
   2637480968.5016146     
   2652885872.7113810     
   2679880530.1800618     
   2697119104.0865054     
   2651916632.2859049     
   2627150064.9375682     
   2622961057.5996118     
   2639499699.0615067     
   2780394220.3215122     
   2691030140.3726683     
   2631045962.2809334     
   2600993807.8747740     
   2601446825.9036469     
   2765794084.6478395     
   2755202223.8988361     
   2754695597.4911470     
   2764274205.4247665     
   2783938047.6997061     
   2722120832.3421741     
   2710823389.6843596     
   2709520425.2961388     
   2718213925.8145013     
   2736908419.2573504     
   2679880530.1800618     
   2668021114.0045476     
   2666239145.8630815     
   2674542760.7026644     
   2692950461.3751559     
   2639499699.0615067     
   2627162352.2311182     
   2625161633.8394170     
   2633516085.7803016     
   2652267793.2015243     
   2601446825.9036469     
   2588642749.5730591     
   2586616661.1462960     
   2595401703.4932098     
   2615072790.7991819     
   2783938047.6997061     
   2733713746.1617866     
   2688550553.6169453     
   2648448470.0651975     
   2613407495.5065289     
   2736908419.2573504     
   2686398491.2365165     
   2641095945.5922647     
   2601036849.7921429     
   2566272557.0281796     
   2692950461.3751559     
   2644312942.8037295     
   2601166238.3479619     
   2563656477.4921131     
   2531991023.2792010     
   2652267793.2015243     
   2607620818.5360055     
   2568892400.4602475     
   2536412659.7912564     
   2510647303.8759894     
   2615072790.7991819     
   2576484840.8691373     
   2544395217.4900193     
   2519387799.1873341     
   2502279410.0453682     
   2613407495.5065289     
   2425082226.8815150     
   2232160601.7636514     
   2034642620.1529279     
   1832528282.0493498     
   2566272557.0281796     
   2379992464.8417439     
   2190711242.8349948     
   1998800856.6528261     
   1804853400.9700866     
   2531991023.2792010     
   2352999732.8344011     
   2173700871.1093569     
   1995542289.4231954     
   1820759913.2518013     
   2510647303.8759894     
   2344125946.3403926     
   2180983818.5314856     
   2024273150.7317896     
   1878481526.7074184     
   2502279410.0453682     
   2353260496.6199150     
   2212096504.2948480     
   2083695470.7830825     
   1974829666.6208363     
   7548333512.9420977     
   6531840130.1653137     
   5720617006.9853582     
   5112826861.6842623     
   4705954704.5112162     
   5156565474.5623436     
   4682608596.7354212     
   4286536550.4037023     
   3968540890.3885956     
   3731216670.0985031     
   3716415279.2763109     
   3507561570.8717775     
   3314208736.2971826     
   3136703420.0085268     
   2975477329.4235711     
   3855693351.2815828     
   3327840535.7054844     
   2951361999.4738827     
   2698019493.0232716     
   2526008227.5938835     
   5621228382.4264336     
   4408013812.0583496     
   3495310854.3390789     
   2890693089.0411444     
   2565111416.9137726     
   4705954704.5112162     
   4364338269.3111725     
   4075014129.0246887     
   3837222556.6751022     
   3650301237.4560814     
   3731216670.0985031     
   3561360033.5316353     
   3412160652.6008739     
   3283608833.5235119     
   3175930176.5927458     
   2975477329.4235711     
   2926296449.1403580     
   2878720520.4727778     
   2832663052.7515602     
   2788042632.5517941     
   2526008227.5938835     
   2489688108.4373317     
   2474613026.8144050     
   2471930514.8749599     
   2473712976.9065542     
   2565111416.9137726     
   2362649998.2462115     
   2255413083.7471085     
   2222414739.9164386     
   2237527348.5352583     
   3650301237.4560814     
   3467624489.4203029     
   3314566202.4970503     
   3191248982.9574089     
   3097915614.3027163     
   3175930176.5927458     
   3063271641.2845612     
   2966401024.8709230     
   2885925249.5731316     
   2822564819.3261099     
   2788042632.5517941     
   2727115037.7047791     
   2672672097.9451756     
   2625233152.3483558     
   2585315617.6929917     
   2473712976.9065542     
   2442686948.6799364     
   2417156930.4472985     
   2395721682.0175643     
   2377042232.7741466     
   2237527348.5352583     
   2205732296.4479761     
   2191711188.6456857     
   2188926677.8864455     
   2191369264.4612408     
   3097915614.3027163     
   3002291629.3715363     
   2917407972.8708520     
   2843393257.8825674     
   2780394220.3215122     
   2822564819.3261099     
   2762008619.6160860     
   2710746604.5977044     
   2669083442.7905264     
   2637335828.6095552     
   2585315617.6929917     
   2550012102.7962952     
   2523477906.6520839     
   2506263106.7633843     
   2498901082.1292596     
   2377042232.7741466     
   2355372893.8832726     
   2343544753.4554858     
   2342364108.6125784     
   2352553240.8418431     
   2191369264.4612408     
   2169834737.9598784     
   2161454655.9189243     
   2167294761.0661163     
   2188193506.3275943     
   2780394220.3215122     
   2691030140.3726683     
   2631045962.2809334     
   2600993807.8747740     
   2601446825.9036469     
   2637335828.6095552     
   2564604805.0935402     
   2511631653.6141982     
   2479290830.8577223     
   2468396369.0087399     
   2498901082.1292596     
   2442893776.1103792     
   2397966488.9672632     
   2364790857.4276934     
   2343962253.7412996     
   2352553240.8418431     
   2317559373.1989422     
   2285697628.5966496     
   2256741124.3169045     
   2230483230.8164883     
   2188193506.3275943     
   2181558392.0509949     
   2170936297.0856180     
   2154481286.6122527     
   2130664365.1533854     
   2601446825.9036469     
   2588642749.5730591     
   2586616661.1462960     
   2595401703.4932098     
   2615072790.7991819     
   2468396369.0087399     
   2452755362.0833840     
   2448272816.0545321     
   2455027279.2606220     
   2473119357.6786680     
   2343962253.7412996     
   2323352660.2053690     
   2314435180.4430685     
   2317369209.8216000     
   2332309240.1166263     
   2230483230.8164883     
   2202531742.1475077     
   2186919803.5503945     
   2183940549.5027637     
   2193848541.9597054     
   2130664365.1533854     
   2092804206.7197075     
   2067968927.9267771     
   2056659624.3126004     
   2059302914.4385417     
   2615072790.7991819     
   2576484840.8691373     
   2544395217.4900193     
   2519387799.1873341     
   2502279410.0453682     
   2473119357.6786680     
   2441607021.8151617     
   2418858522.9953423     
   2405826600.9416127     
   2403893753.6757274     
   2332309240.1166263     
   2310233861.9016361     
   2299475657.1835585     
   2301454799.4255142     
   2318259590.1876192     
   2193848541.9597054     
   2182983921.0592313     
   2186447355.2875557     
   2206226766.2339382     
   2245228892.4908109     
   2059302914.4385417     
   2060614648.0086651     
   2079991238.7181416     
   2120074132.0472178     
   2184638793.8820643     
   2502279410.0453682     
   2353260496.6199150     
   2212096504.2948480     
   2083695470.7830825     
   1974829666.6208363     
   2403893753.6757274     
   2279520117.7415609     
   2165388991.8439007     
   2068166470.1517136     
   1996521721.2605362     
   2318259590.1876192     
   2222039250.6607223     
   2138945580.0179954     
   2077275283.3347197     
   2047114010.7042944     
   2245228892.4908109     
   2180615763.4228568     
   2132301679.1795039     
   2109895915.8255966     
   2124263869.9126050     
   2184638793.8820643     
   2154963385.3075919     
   2144817940.6483719     
   2164683081.2696075     
   2225577305.0836492     
   5621228382.4264336     
   4408013812.0583496     
   3495310854.3390789     
   2890693089.0411444     
   2565111416.9137726     
   2539091404.6568298     
   2034625364.3480735     
   1804521018.9738784     
   1841927666.0983872     
   2054524186.0241361     
   1750139650.7818406     
   1729048191.7911274     
   1856654993.1897388     
   2097272978.2257960     
   2411555381.7820210     
   4277853852.2050061     
   3768889168.0034347     
   3462254425.0587192     
   3347395554.3150864     
   3398177703.2939329     
   7465763438.6494513     
   6375600723.4371195     
   5569069461.4828196     
   5027189704.6794415     
   4722911655.8752813     
   2565111416.9137726     
   2362649998.2462115     
   2255413083.7471085     
   2222414739.9164386     
   2237527348.5352583     
   2054524186.0241361     
   2100606086.0045528     
   2176909273.7874289     
   2270512102.8497844     
   2371122644.4275393     
   2411555381.7820210     
   2481609183.4690237     
   2556880451.0396609     
   2636549573.8088770     
   2719914268.5664392     
   3398177703.2939329     
   3318274691.2134180     
   3266936994.0922318     
   3241454363.6899567     
   3239291734.3964667     
   4722911655.8752813     
   4437710468.1908960     
   4209239570.8443704     
   4032419976.1771874     
   3902013290.4489942     
   2237527348.5352583     
   2205732296.4479761     
   2191711188.6456857     
   2188926677.8864455     
   2191369264.4612408     
   2371122644.4275393     
   2363683481.5493202     
   2359620936.0473580     
   2357372074.1110730     
   2355507161.2303681     
   2719914268.5664392     
   2682469229.2786860     
   2647630161.6751413     
   2615574947.9975972     
   2586492358.4368210     
   3239291734.3964667     
   3136046894.6406469     
   3042492931.9247632     
   2958426721.3474727     
   2883818923.3575931     
   3902013290.4489942     
   3710800585.5173655     
   3539062745.6024880     
   3385549038.6999063     
   3249310820.2572889     
   2191369264.4612408     
   2169834737.9598784     
   2161454655.9189243     
   2167294761.0661163     
   2188193506.3275943     
   2355507161.2303681     
   2298211531.6557317     
   2248807121.6490712     
   2208470929.7853947     
   2178427181.1559572     
   2586492358.4368210     
   2489368279.5054970     
   2396878508.7444725     
   2309815987.8569312     
   2229142382.2408113     
   2883818923.3575931     
   2745359807.4444990     
   2610120120.6542597     
   2478354584.8223858     
   2350456884.1969151     
   3249310820.2572889     
   3069907267.8603134     
   2893995773.8756003     
   2721432630.6819782     
   2552131133.6132092     
   2188193506.3275943     
   2181558392.0509949     
   2170936297.0856180     
   2154481286.6122527     
   2130664365.1533854     
   2178427181.1559572     
   2141545802.2385449     
   2105207548.6896682     
   2068864307.3592577     
   2032021521.3671961     
   2229142382.2408113     
   2155876712.5954299     
   2088164243.1588628     
   2026277392.8608427     
   1970533150.9244151     
   2350456884.1969151     
   2235409774.6666245     
   2130421861.6361666     
   2036067791.9801433     
   1953209516.3285241     
   2552131133.6132092     
   2389546790.9909163     
   2240531056.4595447     
   2105372299.3244960     
   1985081416.8994534     
   2130664365.1533854     
   2092804206.7197075     
   2067968927.9267771     
   2056659624.3126004     
   2059302914.4385417     
   2032021521.3671961     
   1970996185.4407988     
   1921176489.7875462     
   1883404306.3901460     
   1858451820.6752055     
   1970533150.9244151     
   1884424254.8798239     
   1806578675.4678311     
   1738049217.7455039     
   1679946610.0217373     
   1953209516.3285241     
   1842991011.8519340     
   1737127078.8353465     
   1636507892.5303402     
   1542229907.5410521     
   1985081416.8994534     
   1855249623.4264233     
   1725798145.9235942     
   1597119095.4783337     
   1469815056.6779554     
   2059302914.4385417     
   2060614648.0086651     
   2079991238.7181416     
   2120074132.0472178     
   2184638793.8820643     
   1858451820.6752055     
   1851027209.0687981     
   1865788360.4600778     
   1904948412.8872015     
   1971519949.1822093     
   1679946610.0217373     
   1652964095.1586690     
   1653256317.8291800     
   1683202828.4203324     
   1745427156.9336820     
   1542229907.5410521     
   1481358173.2549944     
   1453016572.6697493     
   1461219090.9344430     
   1509349090.3148112     
   1469815056.6779554     
   1359202936.3076098     
   1283603705.1523035     
   1251264505.5818219     
   1269479110.5715129     
   2184638793.8820643     
   2154963385.3075919     
   2144817940.6483719     
   2164683081.2696075     
   2225577305.0836492     
   1971519949.1822093     
   1968969266.0312345     
   2002913908.6435666     
   2092003304.3878942     
   2254849312.3533926     
   1745427156.9336820     
   1789166622.6627200     
   1885017549.7588534     
   2059895869.3685575     
   2338988910.8580213     
   1509349090.3148112     
   1616291598.6479778     
   1790397599.7311575     
   2066474551.9680080     
   2474691767.5601931     
   1269479110.5715129     
   1451414889.4044583     
   1718491298.2404397     
   2111447607.2596436     
   2662698722.1415901     
   7465763438.6494513     
   6375600723.4371195     
   5569069461.4828196     
   5027189704.6794415     
   4722911655.8752813     
   6218228957.6265335     
   5760403605.9807653     
   5370274603.7899742     
   5033636892.5576868     
   4740406951.6192207     
   5910918659.5543041     
   5618660879.8284788     
   5400621071.1793299     
   5180612690.1270466     
   4910069498.8823652     
   5689522845.5989904     
   5296924681.4434481     
   5233528588.1697884     
   5236131528.7490396     
   5156394070.7566843     
   5206802007.7411175     
   4478761527.2397852     
   4654389109.7903824     
   5082356125.0190706     
   5433147695.0456495     
   4722911655.8752813     
   4437710468.1908960     
   4209239570.8443704     
   4032419976.1771874     
   3902013290.4489942     
   4740406951.6192207     
   4531426014.9125147     
   4349778708.0774860     
   4192617171.7059669     
   4057456674.8987551     
   4910069498.8823652     
   4740693556.7051992     
   4581306246.4142265     
   4431074186.7510519     
   4289422210.9455490     
   5156394070.7566843     
   5000743734.0031443     
   4850680616.8083115     
   4705635707.0095072     
   4565283216.1507368     
   5433147695.0456495     
   5272122479.9436312     
   5124621072.6714373     
   4988248035.0477991     
   4861104027.5337982     
   3902013290.4489942     
   3710800585.5173655     
   3539062745.6024880     
   3385549038.6999063     
   3249310820.2572889     
   4057456674.8987551     
   3870893850.2521501     
   3695167631.9156423     
   3529487693.7460504     
   3373380176.7028427     
   4289422210.9455490     
   4097692324.3111606     
   3910427857.6268744     
   3727194972.0965877     
   3547806361.1124125     
   4565283216.1507368     
   4363379964.0341949     
   4161667711.4692669     
   3959913855.7158580     
   3758047776.0945592     
   4861104027.5337982     
   4647625239.9472742     
   4431812191.4609909     
   4213511789.4737759     
   3992674476.2609749     
   3249310820.2572889     
   3069907267.8603134     
   2893995773.8756003     
   2721432630.6819782     
   2552131133.6132092     
   3373380176.7028427     
   3198672104.1445026     
   3026978463.7481775     
   2858158224.0280032     
   2692113148.7291307     
   3547806361.1124125     
   3372109399.2545066     
   3198877270.5166397     
   3027994759.3884606     
   2859401722.8744287     
   3758047776.0945592     
   3575056138.0696945     
   3394000468.7864723     
   3214821504.4664974     
   3037551476.9030213     
   3992674476.2609749     
   3796042415.3611832     
   3600901139.6371932     
   3407278343.2288756     
   3215352309.7875552     
   2552131133.6132092     
   2389546790.9909163     
   2240531056.4595447     
   2105372299.3244960     
   1985081416.8994534     
   2692113148.7291307     
   2517199482.4139218     
   2348922681.4899988     
   2187660419.9505262     
   2034256233.5663807     
   2859401722.8744287     
   2674623833.3783407     
   2491767528.3038902     
   2311030825.8145928     
   2132792515.3857553     
   3037551476.9030213     
   2848648390.1858735     
   2658922697.0875568     
   2468386035.9438910     
   2277084763.1435666     
   3215352309.7875552     
   3029794477.9554224     
   2842358873.7152104     
   2652997369.2604828     
   2461763548.9988618     
   1985081416.8994534     
   1855249623.4264233     
   1725798145.9235942     
   1597119095.4783337     
   1469815056.6779554     
   2034256233.5663807     
   1895052339.9154370     
   1756969285.2129822     
   1620191617.4449494     
   1484977921.3153653     
   2132792515.3857553     
   1986389954.7732189     
   1842113565.1504519     
   1699991975.3362043     
   1560130726.9403830     
   2277084763.1435666     
   2123455979.9585419     
   1972891493.3566556     
   1825290397.0600066     
   1680750504.1101778     
   2461763548.9988618     
   2298893488.1186013     
   2139745026.6064346     
   1984113278.9835155     
   1832206272.4717228     
   1469815056.6779554     
   1359202936.3076098     
   1283603705.1523035     
   1251264505.5818219     
   1269479110.5715129     
   1484977921.3153653     
   1339079174.0317764     
   1207509242.9627528     
   1094927295.7297547     
   1007470778.6768985     
   1560130726.9403830     
   1408313409.4338198     
   1252603675.4768333     
   1090852188.8900216     
   921124686.96027052     
   1680750504.1101778     
   1563317262.7092528     
   1436237732.8757906     
   1299988674.9438145     
   1160894160.2108867     
   1832206272.4717228     
   1789817440.0663776     
   1743271147.8494661     
   1701509564.3119733     
   1683622738.9206748     
   1269479110.5715129     
   1451414889.4044583     
   1718491298.2404397     
   2111447607.2596436     
   2662698722.1415901     
   1007470778.6768985     
   1168582293.4606912     
   1427461827.4679992     
   1809144843.1551549     
   2333955207.2487936     
   921124686.96027052     
   965686513.75791883     
   1146170356.5648975     
   1476597778.3604336     
   1957181962.8067729     
   1160894160.2108867     
   1009757431.8993976     
   985776436.47559679     
   1161624140.3141432     
   1544919017.3209701     
   1683622738.9206748     
   1384905040.5227656     
   1129751706.9734247     
   1010351269.2844695     
   1155160801.3242033     
 </DataArray>
 <DataArray  type="Float64" Name="strain" NumberOfComponents="3" format="ascii">
   6.8565150877735626E-002   4.5180822731321846E-002  -3.9345266439347992E-002
   7.3748973751880387E-002   1.0429886977449843E-002  -1.9993742619056287E-002
   7.8932796626025148E-002  -1.3690808303485485E-002  -9.3255508474059945E-003
   8.4116619500169854E-002  -2.7181263111484562E-002  -7.3406911243979467E-003
   8.9300442374314559E-002  -3.0041477446546949E-002  -1.4039163450031644E-002
   9.1842912009786670E-002   2.5437687888913207E-002  -6.2222535450979777E-003
   9.0216391847932509E-002   1.1283775498042159E-003   5.7077000186588345E-003
   8.8589871686078514E-002  -1.5657402567943096E-002   1.2700299559059214E-002
   8.6963351524224408E-002  -2.4919652464329194E-002   1.4755545076103938E-002
   8.5336831362370413E-002  -2.6658372139353792E-002   1.1873436569792895E-002
   9.6749228525510156E-002   5.6945530465045691E-003   3.8895739889702824E-002
   9.2058343352943300E-002  -8.1731318778413553E-003   4.0297412945348859E-002
   8.7367458180376417E-002  -1.7623996832400915E-002   4.0507710002924788E-002
   8.2676573007809534E-002  -2.2658041817173933E-002   3.9526631062431129E-002
   7.7985687835242706E-002  -2.3275266832160635E-002   3.7354176123867766E-002
   8.3284100424906471E-002  -1.4048581795904042E-002   9.6008713865053663E-002
   7.9274828266912650E-002  -1.7474641305487010E-002   8.3775396161014426E-002
   7.5265556108919010E-002  -1.9590591096858685E-002   7.4096680484191130E-002
   7.1256283950925259E-002  -2.0396431170018728E-002   6.6972566834583927E-002
   6.7247011792931508E-002  -1.9892161524967533E-002   6.2403055212192790E-002
   5.1447527707975338E-002  -3.3791716638312708E-002  0.16511666838095551     
   5.1865846589840725E-002  -2.6776150733132775E-002  0.13614164966565551     
   5.2284165471706084E-002  -2.1557185361316344E-002  0.11346721100285750     
   5.2702484353571485E-002  -1.8134820522863623E-002   9.7093352392561866E-002
   5.3120803235436886E-002  -1.6509056217774376E-002   8.7020073834768008E-002
   8.9300442374314559E-002  -3.0041477446546949E-002  -1.4039163450031644E-002
   8.7239978391343731E-002  -2.7829844052333186E-002  -9.9459209569513485E-003
   8.5179514408372847E-002  -2.6104755672502089E-002  -6.4499380539451701E-003
   8.3119050425402019E-002  -2.4866212307055172E-002  -3.5512147410127204E-003
   8.1058586442431135E-002  -2.4114213955991004E-002  -1.2497510181536109E-003
   8.5336831362370413E-002  -2.6658372139353792E-002   1.1873436569792895E-002
   8.2947184186465961E-002  -2.4826371141915909E-002   1.2412905999419271E-002
   8.0557537010561481E-002  -2.3376459020914883E-002   1.2891268633252323E-002
   7.8167889834657014E-002  -2.2308635776350279E-002   1.3308524471292257E-002
   7.5778242658752604E-002  -2.1622901408222761E-002   1.3664673513538061E-002
   7.7985687835242706E-002  -2.3275266832160635E-002   3.7354176123867766E-002
   7.5803010260684908E-002  -2.1822898231499160E-002   3.4444328627987228E-002
   7.3620332686127082E-002  -2.0648162369327566E-002   3.2009527130593796E-002
   7.1437655111569243E-002  -1.9751059245646053E-002   3.0049771631687303E-002
   6.9254977537011431E-002  -1.9131588860454574E-002   2.8565062131267194E-002
   6.7247011792931508E-002  -1.9892161524967533E-002   6.2403055212192790E-002
   6.5807456614000559E-002  -1.8819425321082314E-002   5.6148346928752521E-002
   6.4367901435069597E-002  -1.7919865717740249E-002   5.0904837438079088E-002
   6.2928346256138634E-002  -1.7193482714941772E-002   4.6672526740172748E-002
   6.1488791077207609E-002  -1.6640276312686358E-002   4.3451414835033328E-002
   5.3120803235436886E-002  -1.6509056217774376E-002   8.7020073834768008E-002
   5.2960523246412955E-002  -1.5815952410665274E-002   7.7524960901714735E-002
   5.2800243257389079E-002  -1.5191569066153057E-002   6.9577199555708069E-002
   5.2639963268365175E-002  -1.4635906184237272E-002   6.3176789796748803E-002
   5.2479683279341272E-002  -1.4148963764918143E-002   5.8323731624836672E-002
   8.1058586442431135E-002  -2.4114213955991004E-002  -1.2497510181536109E-003
   7.7386899347114069E-002  -2.3516882345226198E-002  -1.5496733129249929E-003
   7.3715212251797169E-002  -2.2742339200676864E-002  -1.6252081869874146E-003
   7.0043525156480185E-002  -2.1790584522342046E-002  -1.4763556403402378E-003
   6.6371838061163202E-002  -2.0661618310222285E-002  -1.1031156729843783E-003
   7.5778242658752604E-002  -2.1622901408222761E-002   1.3664673513538061E-002
   7.2398311939842308E-002  -2.1062430439004687E-002   1.2343585642603128E-002
   6.9018381220932012E-002  -2.0370397391169248E-002   1.1381623103772498E-002
   6.5638450502021717E-002  -1.9546802264716043E-002   1.0778785897046256E-002
   6.2258519783111421E-002  -1.8591645059645168E-002   1.0535074022424595E-002
   6.9254977537011431E-002  -1.9131588860454574E-002   2.8565062131267194E-002
   6.6301541105903139E-002  -1.8607978532783009E-002   2.6177159229001212E-002
   6.3348104674794861E-002  -1.7998455581661660E-002   2.4283119570234615E-002
   6.0394668243686590E-002  -1.7303020007089713E-002   2.2882943154967847E-002
   5.7441231812578292E-002  -1.6521671809067995E-002   2.1976629983200630E-002
   6.1488791077207609E-002  -1.6640276312686358E-002   4.3451414835033328E-002
   5.9096586845296631E-002  -1.6153526626561415E-002   3.9951047446268581E-002
   5.6704382613385743E-002  -1.5626513772153836E-002   3.7079281212398979E-002
   5.4312178381474820E-002  -1.5059237749463657E-002   3.4836116133424258E-002
   5.1919974149563806E-002  -1.4451698558490739E-002   3.3221552209344356E-002
   5.2479683279341272E-002  -1.4148963764918143E-002   5.8323731624836672E-002
   5.0783449158022909E-002  -1.3699074720339793E-002   5.3665250294405942E-002
   4.9087215036704601E-002  -1.3254571962646233E-002   4.9770108030265547E-002
   4.7390980915386280E-002  -1.2815455491837352E-002   4.6638304832415406E-002
   4.5694746794067931E-002  -1.2381725307913372E-002   4.4269840700855490E-002
   6.6371838061163202E-002  -2.0661618310222285E-002  -1.1031156729843783E-003
   6.3136620803314503E-002  -1.9502727843843548E-002  -1.1980549704979637E-003
   5.9901403545465803E-002  -1.8461200402731054E-002  -1.0315313264518955E-003
   5.6666186287617076E-002  -1.7537035986885309E-002  -6.0354474084595156E-004
   5.3430969029768405E-002  -1.6730234596306071E-002   8.5904786319535020E-005
   6.2258519783111421E-002  -1.8591645059645168E-002   1.0535074022424595E-002
   5.9276730269172628E-002  -1.7602845916527110E-002   9.6373092208851263E-003
   5.6294940755233891E-002  -1.6678324975932357E-002   8.9849369656059830E-003
   5.3313151241295154E-002  -1.5818082237859910E-002   8.5779572565873874E-003
   5.0331361727356416E-002  -1.5022117702310767E-002   8.4163700938284514E-003
   5.7441231812578292E-002  -1.6521671809067995E-002   2.1976629983200630E-002
   5.4696799647250077E-002  -1.5702963989210783E-002   2.0329124500379214E-002
   5.1952367481921821E-002  -1.4895449549133313E-002   1.8910941168518422E-002
   4.9207935316593586E-002  -1.4099128488834729E-002   1.7722079987618274E-002
   4.6463503151265378E-002  -1.3314000808316240E-002   1.6762540957679373E-002
   5.1919974149563806E-002  -1.4451698558490739E-002   3.3221552209344356E-002
   4.9396828937546655E-002  -1.3803082061894401E-002   3.0877390867984023E-002
   4.6873683725529608E-002  -1.3112574122333999E-002   2.8746481282285189E-002
   4.4350538513512526E-002  -1.2380174739809882E-002   2.6828823452247574E-002
   4.1827393301495402E-002  -1.1605883914321546E-002   2.5124417377871605E-002
   4.5694746794067931E-002  -1.2381725307913372E-002   4.4269840700855490E-002
   4.3376818140062556E-002  -1.1903200134577963E-002   4.1282108323699718E-002
   4.1058889486057154E-002  -1.1329698695535129E-002   3.8491557306906177E-002
   3.8740960832051766E-002  -1.0661220990784648E-002   3.5898187650474395E-002
   3.6423032178046377E-002  -9.8977670203265200E-003   3.3501999354404899E-002
   5.3430969029768405E-002  -1.6730234596306071E-002   8.5904786319535020E-005
   5.0309270494125036E-002  -1.5914892602758135E-002   3.5660998204012362E-004
   4.7187571958481611E-002  -1.4965106378008186E-002   4.7475456394097115E-004
   4.4065873422838242E-002  -1.3880875922054753E-002   4.4033853202063433E-004
   4.0944174887194817E-002  -1.2662201234897807E-002   2.5336188628011236E-004
   5.0331361727356416E-002  -1.5022117702310767E-002   8.4163700938284514E-003
   4.7152186868637813E-002  -1.4218456846057048E-002   8.1209658441843136E-003
   4.3973012009919210E-002  -1.3335125145869237E-002   7.8631695622098929E-003
   4.0793837151200663E-002  -1.2372122601748560E-002   7.6429812479055226E-003
   3.7614662292482115E-002  -1.1329449213695053E-002   7.4604009012715355E-003
   4.6463503151265378E-002  -1.3314000808316240E-002   1.6762540957679373E-002
   4.3417020550962304E-002  -1.2522021089355406E-002   1.5846253875399702E-002
   4.0370537950659258E-002  -1.1705143913731397E-002   1.5157743342280761E-002
   3.7324055350356170E-002  -1.0863369281443477E-002   1.4697009358321911E-002
   3.4277572750053081E-002  -9.9966971924918546E-003   1.4464051923525179E-002
   4.1827393301495402E-002  -1.1605883914321546E-002   2.5124417377871605E-002
   3.9103771541098495E-002  -1.0825585332654375E-002   2.3532474075686698E-002
   3.6380149780701587E-002  -1.0075162681593114E-002   2.2358475904153643E-002
   3.3656528020304707E-002  -9.3546159611382837E-003   2.1602422863271784E-002
   3.0932906259907834E-002  -8.6639451712891002E-003   2.1264314953041638E-002
   3.6423032178046377E-002  -9.8977670203265200E-003   3.3501999354404899E-002
   3.4212439839046316E-002  -9.1291495759526775E-003   3.1179626445045849E-002
   3.2001847500046310E-002  -8.4451814494546917E-003   2.9465367247828333E-002
   2.9791255161046221E-002  -7.8458626408325002E-003   2.8359221762753489E-002
   2.7580662822046242E-002  -7.3311931500860128E-003   2.7861189989820678E-002
   4.0944174887194817E-002  -1.2662201234897807E-002   2.5336188628011236E-004
   3.8310775970566757E-002  -1.1510826538229102E-002  -2.0571551084058726E-004
   3.5677377053938752E-002  -1.0628496053735670E-002  -4.7273087927157675E-004
   3.3043978137310720E-002  -1.0015209781419829E-002  -5.4768421901196795E-004
   3.0410579220682687E-002  -9.6709677212805101E-003  -4.3057553006264904E-004
   3.7614662292482115E-002  -1.1329449213695053E-002   7.4604009012715355E-003
   3.5149876873727837E-002  -1.0334989686839102E-002   6.7477266363645816E-003
   3.2685091454973614E-002  -9.5166287263142024E-003   6.1802173385145931E-003
   3.0220306036219363E-002  -8.8743663321185218E-003   5.7578730077226525E-003
   2.7755520617465002E-002  -8.4082025042526709E-003   5.4806936439881770E-003
   3.4277572750053081E-002  -9.9966971924918546E-003   1.4464051923525179E-002
   3.1934503767539979E-002  -9.1591528354503238E-003   1.3590726436679301E-002
   2.9591434785026835E-002  -8.4047613988918746E-003   1.2815668855257506E-002
   2.7248365802513629E-002  -7.7335228828167776E-003   1.2138879179260986E-002
   2.4905296820000616E-002  -7.1454372872244987E-003   1.1560357408689548E-002
   3.0932906259907834E-002  -8.6639451712891002E-003   2.1264314953041638E-002
   2.8664656652003059E-002  -7.9833159840613788E-003   2.0323283890103128E-002
   2.6396407044098364E-002  -7.2928940714699769E-003   1.9433623670956808E-002
   2.4128157436193655E-002  -6.5926794335148080E-003   1.8595334295602606E-002
   2.1859907828288887E-002  -5.8826720701962709E-003   1.7808415764040367E-002
   2.7580662822046242E-002  -7.3311931500860128E-003   2.7861189989820678E-002
   2.5340335527117286E-002  -6.8074791326721007E-003   2.6945398996636949E-002
   2.3100008232188302E-002  -6.1810267440482458E-003   2.6034081785612062E-002
   2.0859680937259331E-002  -5.4518359842132685E-003   2.5127238356746684E-002
   1.8619353642330361E-002  -4.6199068531679321E-003   2.4224868710041481E-002
   3.0410579220682687E-002  -9.6709677212805101E-003  -4.3057553006264904E-004
   2.9759133538595495E-002  -9.2427610571345076E-003  -2.3625179345820868E-004
   2.9107687856508357E-002  -8.3775809727988926E-003  -1.7286343701204965E-003
   2.8456242174421192E-002  -7.0754274682715695E-003  -4.9077232600492349E-003
   2.7804796492334027E-002  -5.3363005435556055E-003  -9.7735184632452565E-003
   2.7755520617465002E-002  -8.4082025042526709E-003   5.4806936439881770E-003
   2.5691590159784505E-002  -7.9132593721676914E-003   6.0893890214978041E-003
   2.3627659702103954E-002  -7.1846590653167342E-003   5.5598211610870529E-003
   2.1563729244423374E-002  -6.2224015836979396E-003   3.8919900627557291E-003
   1.9499798786742795E-002  -5.0264869273124457E-003   1.0858957265049707E-003
   2.4905296820000616E-002  -7.1454372872244987E-003   1.1560357408689548E-002
   2.1977324662073111E-002  -6.5837576872018189E-003   1.2380108181680505E-002
   1.9049352504145564E-002  -5.9917371578345480E-003   1.2610038792098072E-002
   1.6121380346218038E-002  -5.3693756991236366E-003   1.2250149239942151E-002
   1.3193408188290512E-002  -4.7166733110686199E-003   1.1300439525212425E-002
   2.1859907828288887E-002  -5.8826720701962709E-003   1.7808415764040367E-002
   1.8616337045461055E-002  -5.2542560022351414E-003   1.8635905687090615E-002
   1.5372766262633172E-002  -4.7988152503530418E-003   1.9422018522913496E-002
   1.2129195479805314E-002  -4.5163498145496701E-003   2.0166754271509209E-002
   8.8856246969774566E-003  -4.4068596948253491E-003   2.0870112932877688E-002
   1.8619353642330361E-002  -4.6199068531679321E-003   2.4224868710041481E-002
   1.5608627309948719E-002  -3.9247543172689636E-003   2.4856781537727302E-002
   1.2597900977566912E-002  -3.6058933428706752E-003   2.5995760353532404E-002
   9.5871746451851869E-003  -3.6633239299754886E-003   2.7641805157457261E-002
   6.5764483128034623E-003  -4.0970460785814122E-003   2.9794915949501455E-002
   2.7804796492334027E-002  -5.3363005435556055E-003  -9.7735184632452565E-003
   2.3370123703977397E-002  -4.2078177282665052E-003  -4.2203197949337579E-003
   1.8935450915620766E-002  -4.7375965520234375E-003   2.5948177240189274E-003
   1.4500778127264136E-002  -6.9256370148243207E-003   1.0671894093614021E-002
   1.0066105338907505E-002  -1.0771939116670737E-002   2.0010909313850078E-002
   1.9499798786742795E-002  -5.0264869273124457E-003   1.0858957265049707E-003
   1.6255691272474893E-002  -4.6805970866666824E-003   6.7703437027549773E-003
   1.3011583758207046E-002  -6.2684140522674126E-003   1.3573983376542254E-002
   9.7674762439393659E-003  -9.7899378241150525E-003   2.1496814747863413E-002
   6.5233687296712972E-003  -1.5245168402208797E-002   3.0538837816721287E-002
   1.3193408188290512E-002  -4.7166733110686199E-003   1.1300439525212425E-002
   1.0997118795004979E-002  -5.1533764450661934E-003   1.6840691642201588E-002
   8.8008294017193345E-003  -7.7992315525113320E-003   2.3357388303619497E-002
   6.6045400084337458E-003  -1.2654238633404771E-002   3.0850529509466706E-002
   4.4082506151481571E-003  -1.9718397687747302E-002   3.9320115259742439E-002
   8.8856246969774566E-003  -4.4068596948253491E-003   2.0870112932877688E-002
   7.5944062715675859E-003  -5.6261558034651493E-003   2.5990724023403994E-002
   6.3031878461577151E-003  -9.3300490527552793E-003   3.1945032505252283E-002
   5.0119694207477888E-003  -1.5518539442694997E-002   3.8733038378422992E-002
   3.7207509953378626E-003  -2.4191626973285141E-002   4.6354741642916031E-002
   6.5764483128034623E-003  -4.0970460785814122E-003   2.9794915949501455E-002
   6.0475537021627557E-003  -6.0989351618647714E-003   3.4220440846361999E-002
   5.5186590915220490E-003  -1.0860866552999171E-002   3.9336915981438625E-002
   4.9897644808813424E-003  -1.8382840251985763E-002   4.5144341354731665E-002
   4.4608698702406357E-003  -2.8664856258823423E-002   5.1642716966240343E-002
   5.1447527707975338E-002  -3.3791716638312708E-002  0.16511666838095551     
   5.1865846589840725E-002  -2.6776150733132775E-002  0.13614164966565551     
   5.2284165471706084E-002  -2.1557185361316344E-002  0.11346721100285750     
   5.2702484353571485E-002  -1.8134820522863623E-002   9.7093352392561866E-002
   5.3120803235436886E-002  -1.6509056217774376E-002   8.7020073834768008E-002
   1.9427998945844183E-002  -2.9819726638580735E-002   9.4366188434884535E-002
   2.4627030951472534E-002  -2.4686240236323737E-002   8.0369011888521497E-002
   2.9826062957100941E-002  -2.0771800157205103E-002   6.9632681537182634E-002
   3.5025094962729320E-002  -1.8076406401224768E-002   6.2157197380867599E-002
   4.0224126968357671E-002  -1.6600058968382736E-002   5.7942559419576323E-002
   5.4140027096401394E-003  -2.5847736638848706E-002   2.1444851880777521E-002
   1.2354013981553336E-002  -2.2596329739514809E-002   2.3003071713577225E-002
   1.9294025253466456E-002  -1.9986414953093889E-002   2.4782403883922471E-002
   2.6234036525379648E-002  -1.8017992279585941E-002   2.6782848391813441E-002
   3.3174047797292786E-002  -1.6691061718990957E-002   2.9004405237250189E-002
   9.4055389993632048E-003  -2.1875746639116733E-002  -5.3647341281364669E-002
   1.5046795680082995E-002  -2.0506419242705881E-002  -3.5956170859177503E-002
   2.0688052360802775E-002  -1.9201029748982773E-002  -2.1083621956922479E-002
   2.6329309041522558E-002  -1.7959578157947156E-002  -9.0296945746002940E-003
   3.1970565722242404E-002  -1.6782064469599164E-002   2.0561128778951929E-004
   3.1402607815013472E-002  -1.7903756639384705E-002 -0.13091039105154295     
   3.2705376047061641E-002  -1.8416508745896898E-002  -9.6508715829742631E-002
   3.4008144279109864E-002  -1.8415644544871462E-002  -6.7965395985352839E-002
   3.5310912511158074E-002  -1.7901164036308322E-002  -4.5280431518373729E-002
   3.6613680743206256E-002  -1.6873067220207483E-002  -2.8453822428805398E-002
   5.3120803235436886E-002  -1.6509056217774376E-002   8.7020073834768008E-002
   5.2960523246412955E-002  -1.5815952410665274E-002   7.7524960901714735E-002
   5.2800243257389079E-002  -1.5191569066153057E-002   6.9577199555708069E-002
   5.2639963268365175E-002  -1.4635906184237272E-002   6.3176789796748803E-002
   5.2479683279341272E-002  -1.4148963764918143E-002   5.8323731624836672E-002
   4.0224126968357671E-002  -1.6600058968382736E-002   5.7942559419576323E-002
   4.1227457459977829E-002  -1.5777740477783297E-002   5.3831436464162108E-002
   4.2230787951598001E-002  -1.5044433548530703E-002   5.0500182882988950E-002
   4.3234118443218096E-002  -1.4400138180625386E-002   4.7948798676056552E-002
   4.4237448934838330E-002  -1.3844854374066684E-002   4.6177283843365252E-002
   3.3174047797292786E-002  -1.6691061718990957E-002   2.9004405237250189E-002
   3.4573506556750781E-002  -1.5739528544900974E-002   3.0256981160725088E-002
   3.5972965316208735E-002  -1.4897298030908508E-002   3.1521944245634766E-002
   3.7372424075666696E-002  -1.4164370177013165E-002   3.2799294491979061E-002
   3.8771882835124671E-002  -1.3540744983215336E-002   3.4089031899758010E-002
   3.1970565722242404E-002  -1.6782064469599164E-002   2.0561128778951929E-004
   3.2998670536731903E-002  -1.5701316612018880E-002   6.8015949914032627E-003
   3.4026775351221436E-002  -1.4750162513286372E-002   1.2642483643645458E-002
   3.5054880165710942E-002  -1.3928602173401236E-002   1.7728277244515887E-002
   3.6082984980200516E-002  -1.3236635592363988E-002   2.2058975794015057E-002
   3.6613680743206256E-002  -1.6873067220207483E-002  -2.8453822428805398E-002
   3.6502949399921103E-002  -1.5663104679136647E-002  -1.6534722043803324E-002
   3.6392218056635978E-002  -1.4603026995663945E-002  -6.1381989229789824E-003
   3.6281486713350811E-002  -1.3692834169789166E-002   2.7357469336676404E-003
   3.6170755370065644E-002  -1.2932526201512529E-002   1.0087115526136170E-002
   5.2479683279341272E-002  -1.4148963764918143E-002   5.8323731624836672E-002
   5.0783449158022909E-002  -1.3699074720339793E-002   5.3665250294405942E-002
   4.9087215036704601E-002  -1.3254571962646233E-002   4.9770108030265547E-002
   4.7390980915386280E-002  -1.2815455491837352E-002   4.6638304832415406E-002
   4.5694746794067931E-002  -1.2381725307913372E-002   4.4269840700855490E-002
   4.4237448934838330E-002  -1.3844854374066684E-002   4.6177283843365252E-002
   4.3132587931386260E-002  -1.3336861727523408E-002   4.4118026286516066E-002
   4.2027726927934189E-002  -1.2834439839663397E-002   4.2478175899108697E-002
   4.0922865924482160E-002  -1.2337588710486853E-002   4.1257732681143945E-002
   3.9818004921030048E-002  -1.1846308339993672E-002   4.0456696632621358E-002
   3.8771882835124671E-002  -1.3540744983215336E-002   3.4089031899758010E-002
   3.7914463052690944E-002  -1.2974648734707148E-002   3.4628813644691281E-002
   3.7057043270257224E-002  -1.2414307716680728E-002   3.5244070662218935E-002
   3.6199623487823504E-002  -1.1859721929136410E-002   3.5934802952340895E-002
   3.5342203705389777E-002  -1.1310891372073917E-002   3.6701010515057170E-002
   3.6082984980200516E-002  -1.3236635592363988E-002   2.2058975794015057E-002
   3.5129074521937122E-002  -1.2612435741890658E-002   2.5197612368932511E-002
   3.4175164063673671E-002  -1.1994175593697948E-002   2.8067792319596385E-002
   3.3221253605410297E-002  -1.1381855147785828E-002   3.0669515646006576E-002
   3.2267343147146826E-002  -1.0775474404154134E-002   3.3002782348163048E-002
   3.6170755370065644E-002  -1.2932526201512529E-002   1.0087115526136170E-002
   3.4776422339124591E-002  -1.2250222749074502E-002   1.5824422459239373E-002
   3.3382089308183593E-002  -1.1574043470715278E-002   2.0949340871240785E-002
   3.1987756277242541E-002  -1.0903988366435455E-002   2.5461870762140487E-002
   3.0593423246301488E-002  -1.0240057436234462E-002   2.9362012131938675E-002
   4.5694746794067931E-002  -1.2381725307913372E-002   4.4269840700855490E-002
   4.3376818140062556E-002  -1.1903200134577963E-002   4.1282108323699718E-002
   4.1058889486057154E-002  -1.1329698695535129E-002   3.8491557306906177E-002
   3.8740960832051766E-002  -1.0661220990784648E-002   3.5898187650474395E-002
   3.6423032178046377E-002  -9.8977670203265200E-003   3.3501999354404899E-002
   3.9818004921030048E-002  -1.1846308339993672E-002   4.0456696632621358E-002
   3.7685600116992790E-002  -1.1313213244379505E-002   3.8950335639785644E-002
   3.5553195312955518E-002  -1.0690917939839950E-002   3.7617840986524403E-002
   3.3420790508918247E-002  -9.9794224263751591E-003   3.6459212672836930E-002
   3.1288385704880989E-002  -9.1787267039848963E-003   3.5474450698723958E-002
   3.5342203705389777E-002  -1.1310891372073917E-002   3.6701010515057170E-002
   3.3372007730532754E-002  -1.0723226354180854E-002   3.6670244849759337E-002
   3.1401811755675697E-002  -1.0052137184144772E-002   3.6790030503247667E-002
   2.9431615780818658E-002  -9.2976238619657814E-003   3.7060367475522438E-002
   2.7461419805961604E-002  -8.4596863876434392E-003   3.7481255766583593E-002
   3.2267343147146826E-002  -1.0775474404154134E-002   3.3002782348163048E-002
   3.0436040980682262E-002  -1.0133239463982244E-002   3.4441835953620659E-002
   2.8604738814217635E-002  -9.4133564284497040E-003   3.6008125857076814E-002
   2.6773436647753012E-002  -8.6158252975562372E-003   3.7701652058531203E-002
   2.4942134481288444E-002  -7.7406460713018987E-003   3.9522414557984532E-002
   3.0593423246301488E-002  -1.0240057436234462E-002   2.9362012131938675E-002
   2.8877699867441431E-002  -9.5432525737836338E-003   3.2265108951369581E-002
   2.7161976488581402E-002  -8.7745756727543589E-003   3.5272127048011137E-002
   2.5446253109721345E-002  -7.9340267331469011E-003   3.8383066421863454E-002
   2.3730529730861261E-002  -7.0216057549602473E-003   4.1597927072926311E-002
   3.6423032178046377E-002  -9.8977670203265200E-003   3.3501999354404899E-002
   3.4212439839046316E-002  -9.1291495759526775E-003   3.1179626445045849E-002
   3.2001847500046310E-002  -8.4451814494546917E-003   2.9465367247828333E-002
   2.9791255161046221E-002  -7.8458626408325002E-003   2.8359221762753489E-002
   2.7580662822046242E-002  -7.3311931500860128E-003   2.7861189989820678E-002
   3.1288385704880989E-002  -9.1787267039848963E-003   3.5474450698723958E-002
   2.9558523468386250E-002  -8.3755683310547946E-003   3.4247912641113210E-002
   2.7828661231891594E-002  -7.6566848659698206E-003   3.3374721076371017E-002
   2.6098798995396855E-002  -7.0220763087301963E-003   3.2854876004497241E-002
   2.4368936758902199E-002  -6.4717426593353666E-003   3.2688377425492188E-002
   2.7461419805961604E-002  -8.4596863876434392E-003   3.7481255766583593E-002
   2.5957520452698557E-002  -7.6219870861571337E-003   3.7350926970752374E-002
   2.4453621099435455E-002  -6.8681882824849633E-003   3.7319177448515747E-002
   2.2949721746172429E-002  -6.1982899766277848E-003   3.7386007199873984E-002
   2.1445822392909361E-002  -5.6122921685849980E-003   3.7551416224827133E-002
   2.4942134481288444E-002  -7.7406460713018987E-003   3.9522414557984532E-002
   2.3409430791983241E-002  -6.8684058412591953E-003   4.0488669433963023E-002
   2.1876727102678122E-002  -6.0796916990000990E-003   4.1298736364262983E-002
   2.0344023413372925E-002  -5.3745036445253160E-003   4.1952615348883469E-002
   1.8811319724067795E-002  -4.7528416778345461E-003   4.2450306387825487E-002
   2.3730529730861261E-002  -7.0216057549602473E-003   4.1597927072926311E-002
   2.1914254486240320E-002  -6.1148245963615899E-003   4.3661140030745393E-002
   2.0097979241619351E-002  -5.2911951155152348E-003   4.5313397823612211E-002
   1.8281703996998397E-002  -4.5507173124230693E-003   4.6554700451525988E-002
   1.6465428752377442E-002  -3.8933911870839832E-003   4.7385047914487166E-002
   2.7580662822046242E-002  -7.3311931500860128E-003   2.7861189989820678E-002
   2.5340335527117286E-002  -6.8074791326721007E-003   2.6945398996636949E-002
   2.3100008232188302E-002  -6.1810267440482458E-003   2.6034081785612062E-002
   2.0859680937259331E-002  -5.4518359842132685E-003   2.5127238356746684E-002
   1.8619353642330361E-002  -4.6199068531679321E-003   2.4224868710041481E-002
   2.4368936758902199E-002  -6.4717426593353666E-003   3.2688377425492188E-002
   2.2157167356874785E-002  -5.9412276526122909E-003   3.2158970237057993E-002
   1.9945397954847358E-002  -5.3660750233873178E-003   3.1682205052267098E-002
   1.7733628552819965E-002  -4.7462847716601558E-003   3.1258081871120474E-002
   1.5521859150792516E-002  -4.0818568974309022E-003   3.0886600693617317E-002
   2.1445822392909361E-002  -5.6122921685849980E-003   3.7551416224827133E-002
   1.9310779105267836E-002  -5.0749761725527587E-003   3.7350292092434179E-002
   1.7175735817626332E-002  -4.5511233027268616E-003   3.7249978185169202E-002
   1.5040692529984832E-002  -4.0407335591071611E-003   3.7250474503032482E-002
   1.2905649242343359E-002  -3.5438069416937057E-003   3.7351781046023630E-002
   1.8811319724067795E-002  -4.7528416778345461E-003   4.2450306387825487E-002
   1.6801170772296519E-002  -4.2087246924930322E-003   4.2519364562765435E-002
   1.4791021820525213E-002  -3.7361715820661695E-003   4.2737401184317632E-002
   1.2780872868753977E-002  -3.3351823465540519E-003   4.3104416252482236E-002
   1.0770723916982632E-002  -3.0057569859566480E-003   4.3620409767259193E-002
   1.6465428752377442E-002  -3.8933911870839832E-003   4.7385047914487166E-002
   1.4628342357960733E-002  -3.3424732124334167E-003   4.7666187648051639E-002
   1.2791255963544024E-002  -2.9212198614055607E-003   4.8144474049712893E-002
   1.0954169569127301E-002  -2.6296311340011300E-003   4.8819907119470651E-002
   9.1170831747106051E-003  -2.4677070302193682E-003   4.9692486857325302E-002
   1.8619353642330361E-002  -4.6199068531679321E-003   2.4224868710041481E-002
   1.5608627309948719E-002  -3.9247543172689636E-003   2.4856781537727302E-002
   1.2597900977566912E-002  -3.6058933428706752E-003   2.5995760353532404E-002
   9.5871746451851869E-003  -3.6633239299754886E-003   2.7641805157457261E-002
   6.5764483128034623E-003  -4.0970460785814122E-003   2.9794915949501455E-002
   1.5521859150792516E-002  -4.0818568974309022E-003   3.0886600693617317E-002
   1.2992466497180416E-002  -3.6106122181324696E-003   3.1570418008109224E-002
   1.0463073843568246E-002  -3.5703715511974654E-003   3.2709836692020960E-002
   7.9336811899560628E-003  -3.9611348966265350E-003   3.4304856745352427E-002
   5.4042885363439208E-003  -4.7829022544190192E-003   3.6355478168103472E-002
   1.2905649242343359E-002  -3.5438069416937057E-003   3.7351781046023630E-002
   1.0806125648801040E-002  -3.2964701189963919E-003   3.8032790396459570E-002
   8.7066020552588053E-003  -3.5348497595242417E-003   3.9117936497615843E-002
   6.6070784617165493E-003  -4.2589458632776890E-003   4.0607219349491984E-002
   4.5075548681743072E-003  -5.4687584302562930E-003   4.2500638952088110E-002
   1.0770723916982632E-002  -3.0057569859566480E-003   4.3620409767259193E-002
   9.0496047648106273E-003  -2.9823280198598839E-003   4.4243898702777958E-002
   7.3284856126385328E-003  -3.4993279678508585E-003   4.5220059770317012E-002
   5.6073664604664678E-003  -4.5567568299285672E-003   4.6548892969876243E-002
   3.8862473082944340E-003  -6.1546146060935114E-003   4.8230398301456354E-002
   9.1170831747106051E-003  -2.4677070302193682E-003   4.9692486857325302E-002
   7.7229038452090726E-003  -2.6681859207239311E-003   5.0203742927064532E-002
   6.3287245157075123E-003  -3.4638061761776695E-003   5.1016206510124673E-002
   4.9345451862059658E-003  -4.8545677965798548E-003   5.2129877606505254E-002
   3.5403658567044194E-003  -6.8404707819309518E-003   5.3544756216206801E-002
   6.5764483128034623E-003  -4.0970460785814122E-003   2.9794915949501455E-002
   6.0475537021627557E-003  -6.0989351618647714E-003   3.4220440846361999E-002
   5.5186590915220490E-003  -1.0860866552999171E-002   3.9336915981438625E-002
   4.9897644808813424E-003  -1.8382840251985763E-002   4.5144341354731665E-002
   4.4608698702406357E-003  -2.8664856258823423E-002   5.1642716966240343E-002
   5.4042885363439208E-003  -4.7829022544190192E-003   3.6355478168103472E-002
   5.4618756635979870E-003  -6.9341551364606735E-003   3.8457956000939431E-002
   5.5194627908520394E-003  -1.1313375054636865E-002   4.1042447071349852E-002
   5.5770499181061056E-003  -1.7920562008948385E-002   4.4108951379332767E-002
   5.6346370453601025E-003  -2.6755715999394969E-002   4.7657468924890090E-002
   4.5075548681743072E-003  -5.4687584302562930E-003   4.2500638952088110E-002
   4.9426867326807650E-003  -7.7693751110564646E-003   4.2812144992616624E-002
   5.3778185971872366E-003  -1.1765883556274809E-002   4.3396727270076763E-002
   5.8129504616936806E-003  -1.7458283765911457E-002   4.4254385784467373E-002
   6.2480823262001106E-003  -2.4846575739966070E-002   4.5385120535790469E-002
   3.8862473082944340E-003  -6.1546146060935114E-003   4.8230398301456354E-002
   4.4899869094109611E-003  -8.6045950856526443E-003   4.7283007821393663E-002
   5.0937265105275749E-003  -1.2218392057912850E-002   4.6399756577620153E-002
   5.6974661116442095E-003  -1.6996005522874637E-002   4.5580644570135512E-002
   6.3012057127607712E-003  -2.2937435480537283E-002   4.4825671798939898E-002
   3.5403658567044194E-003  -6.8404707819309518E-003   5.3544756216206801E-002
   4.1037761937888217E-003  -9.4398150602479358E-003   5.1870544487270243E-002
   4.6671865308731686E-003  -1.2670900559550446E-002   5.0051534993980407E-002
   5.2305968679575848E-003  -1.6533727279837207E-002   4.8087727736336572E-002
   5.7940072050419733E-003  -2.1028295221108717E-002   4.5979122714340015E-002
   3.1402607815013472E-002  -1.7903756639384705E-002 -0.13091039105154295     
   3.2705376047061641E-002  -1.8416508745896898E-002  -9.6508715829742631E-002
   3.4008144279109864E-002  -1.8415644544871462E-002  -6.7965395985352839E-002
   3.5310912511158074E-002  -1.7901164036308322E-002  -4.5280431518373729E-002
   3.6613680743206256E-002  -1.6873067220207483E-002  -2.8453822428805398E-002
   5.4146662112740163E-002  -1.5197302698094273E-002  -5.2464914179732314E-002
   5.0961559989113170E-002  -1.5367554002208378E-002  -3.2798431990876259E-002
   4.7776457865486205E-002  -1.5239654599671332E-002  -1.6249335135959733E-002
   4.4591355741859282E-002  -1.4813604490483280E-002  -2.8176236149829587E-003
   4.1406253618232275E-002  -1.4089403674643952E-002   7.4967025720542313E-003
   6.0379154848692621E-002  -1.2490848756803813E-002   2.6430796294920011E-002
   5.5447152412861481E-002  -1.2318599258519747E-002   3.1146619849944990E-002
   5.0515149977030403E-002  -1.2063664654471243E-002   3.5486028114501564E-002
   4.5583147541199298E-002  -1.1726044944658152E-002   3.9449021088589366E-002
   4.0651145105368200E-002  -1.1305740129080560E-002   4.3035598772208680E-002
   5.0100086022870749E-002  -9.7843948155133809E-003  0.10577674037241347     
   4.6162153318306559E-002  -9.2696445148311990E-003   9.5326439692720977E-002
   4.2224220613742341E-002  -8.8876747092710220E-003   8.7240693766031024E-002
   3.8286287909178145E-002  -8.6384853988330668E-003   8.1519502592343404E-002
   3.4348355204613934E-002  -8.5220765835171824E-003   7.8162866171658338E-002
   2.3309455635274673E-002  -7.0779408742229211E-003  0.18557291805274856     
   2.3106562705448419E-002  -6.2206897711425679E-003  0.15974102753745195     
   2.2903669775622124E-002  -5.7116847640709956E-003  0.13901466181862887     
   2.2700776845795849E-002  -5.5509258530079750E-003  0.12339382089627907     
   2.2497883915969560E-002  -5.7384130379536935E-003  0.11287850477040295     
   3.6613680743206256E-002  -1.6873067220207483E-002  -2.8453822428805398E-002
   3.6502949399921103E-002  -1.5663104679136647E-002  -1.6534722043803324E-002
   3.6392218056635978E-002  -1.4603026995663945E-002  -6.1381989229789824E-003
   3.6281486713350811E-002  -1.3692834169789166E-002   2.7357469336676404E-003
   3.6170755370065644E-002  -1.2932526201512529E-002   1.0087115526136170E-002
   4.1406253618232275E-002  -1.4089403674643952E-002   7.4967025720542313E-003
   4.0132420888045375E-002  -1.3249394599414321E-002   1.4119387923708038E-002
   3.8858588157858462E-002  -1.2475919712054903E-002   1.9938447765736167E-002
   3.7584755427671555E-002  -1.1768979012565652E-002   2.4953882098138806E-002
   3.6310922697484649E-002  -1.1128572500946565E-002   2.9165690920915421E-002
   4.0651145105368200E-002  -1.1305740129080560E-002   4.3035598772208680E-002
   3.8933162742831595E-002  -1.0835684519691954E-002   4.4445219760242155E-002
   3.7215180380295011E-002  -1.0348812428445812E-002   4.5770166993202029E-002
   3.5497198017758441E-002  -9.8451238553420289E-003   4.7010440471088405E-002
   3.3779215655221823E-002  -9.3246188003807129E-003   4.8166040193900916E-002
   3.4348355204613934E-002  -8.5220765835171824E-003   7.8162866171658338E-002
   3.2905174964279763E-002  -8.4219744399696081E-003   7.4442773465799139E-002
   3.1461994723945584E-002  -8.2217051448367461E-003   7.1356958759418498E-002
   3.0018814483611406E-002  -7.9212686981185720E-003   6.8905422052516194E-002
   2.8575634243277234E-002  -7.5206650998147495E-003   6.7088163345092447E-002
   2.2497883915969560E-002  -5.7384130379536935E-003  0.11287850477040295     
   2.2048457552389877E-002  -6.0082643602472618E-003  0.10411204904037896     
   2.1599031188810201E-002  -6.0945978612276935E-003   9.6698823064385570E-002
   2.1149604825230508E-002  -5.9974135408948671E-003   9.0638826842422707E-002
   2.0700178461650828E-002  -5.7167113992488972E-003   8.5932060374490415E-002
   3.6170755370065644E-002  -1.2932526201512529E-002   1.0087115526136170E-002
   3.4776422339124591E-002  -1.2250222749074502E-002   1.5824422459239373E-002
   3.3382089308183593E-002  -1.1574043470715278E-002   2.0949340871240785E-002
   3.1987756277242541E-002  -1.0903988366435455E-002   2.5461870762140487E-002
   3.0593423246301488E-002  -1.0240057436234462E-002   2.9362012131938675E-002
   3.6310922697484649E-002  -1.1128572500946565E-002   2.9165690920915421E-002
   3.4478930646767103E-002  -1.0525110089691980E-002   3.2399113892193021E-002
   3.2646938596049613E-002  -9.9290016912958051E-003   3.5369607345019455E-002
   3.0814946545332102E-002  -9.3402473057581266E-003   3.8077171279394445E-002
   2.8982954494614604E-002  -8.7588469330788787E-003   4.0521805695318047E-002
   3.3779215655221823E-002  -9.3246188003807129E-003   4.8166040193900916E-002
   3.1859023587378132E-002  -8.7999974303095696E-003   4.8894349364573653E-002
   2.9938831519534463E-002  -8.2839599118762208E-003   4.9709188019445544E-002
   2.8018639451690780E-002  -7.7765062450807429E-003   5.0610556158516257E-002
   2.6098447383847104E-002  -7.2776364299231844E-003   5.1598453781786124E-002
   2.8575634243277234E-002  -7.5206650998147495E-003   6.7088163345092447E-002
   2.6916701160957679E-002  -7.0748847709271034E-003   6.5310128876381060E-002
   2.5257768078638151E-002  -6.6389181324566920E-003   6.3968082894519052E-002
   2.3598834996318596E-002  -6.2127651844033870E-003   6.3062025399506283E-002
   2.1939901913999069E-002  -5.7964259267674900E-003   6.2591956391342921E-002
   2.0700178461650828E-002  -5.7167113992488972E-003   8.5932060374490415E-002
   1.9651963367505729E-002  -5.3497721115446928E-003   8.1646452427615424E-002
   1.8603748273360657E-002  -4.9938763530371078E-003   7.8146291970240089E-002
   1.7555533179215571E-002  -4.6490241237261004E-003   7.5431579002364246E-002
   1.6507318085070485E-002  -4.3152154236119067E-003   7.3502313523988061E-002
   3.0593423246301488E-002  -1.0240057436234462E-002   2.9362012131938675E-002
   2.8877699867441431E-002  -9.5432525737836338E-003   3.2265108951369581E-002
   2.7161976488581402E-002  -8.7745756727543589E-003   3.5272127048011137E-002
   2.5446253109721345E-002  -7.9340267331469011E-003   3.8383066421863454E-002
   2.3730529730861261E-002  -7.0216057549602473E-003   4.1597927072926311E-002
   2.8982954494614604E-002  -8.7588469330788787E-003   4.0521805695318047E-002
   2.7391948099421567E-002  -8.1587443707022700E-003   4.2229975077540477E-002
   2.5800941704228544E-002  -7.5138834160732443E-003   4.4083657149886379E-002
   2.4209935309035563E-002  -6.8242640691911667E-003   4.6082851912355727E-002
   2.2618928913842512E-002  -6.0898863300562489E-003   4.8227559364948547E-002
   2.6098447383847104E-002  -7.2776364299231844E-003   5.1598453781786124E-002
   2.4673749385233937E-002  -6.7742361676209062E-003   5.2084582080474270E-002
   2.3249051386620763E-002  -6.2531911593916856E-003   5.2757814482198850E-002
   2.1824353388007568E-002  -5.7145014052355433E-003   5.3618150986959559E-002
   2.0399655389394422E-002  -5.1581669051521950E-003   5.4665591594756563E-002
   2.1939901913999069E-002  -5.7964259267674900E-003   6.2591956391342921E-002
   2.0723103724878556E-002  -5.3897279645395979E-003   6.1828929960171072E-002
   1.9506305535758009E-002  -4.9924989027102934E-003   6.1294599044948404E-002
   1.8289507346637483E-002  -4.6047387412799200E-003   6.0988963645674743E-002
   1.7072709157516946E-002  -4.2264474802480023E-003   6.0912023762350068E-002
   1.6507318085070485E-002  -4.3152154236119067E-003   7.3502313523988061E-002
   1.5540011118355401E-002  -4.0052197614580676E-003   7.1463018716630522E-002
   1.4572704151640310E-002  -3.7318066460287902E-003   6.9694010838134923E-002
   1.3605397184925237E-002  -3.4949760773242688E-003   6.8195289888501182E-002
   1.2638090218210163E-002  -3.2947280553440317E-003   6.6966855867729214E-002
   2.3730529730861261E-002  -7.0216057549602473E-003   4.1597927072926311E-002
   2.1914254486240320E-002  -6.1148245963615899E-003   4.3661140030745393E-002
   2.0097979241619351E-002  -5.2911951155152348E-003   4.5313397823612211E-002
   1.8281703996998397E-002  -4.5507173124230693E-003   4.6554700451525988E-002
   1.6465428752377442E-002  -3.8933911870839832E-003   4.7385047914487166E-002
   2.2618928913842512E-002  -6.0898863300562489E-003   4.8227559364948547E-002
   2.0535397692636917E-002  -5.3577462914889407E-003   4.9260606068135981E-002
   1.8451866471431308E-002  -4.6748400463089146E-003   5.0170095983106788E-002
   1.6368335250225692E-002  -4.0411675945169478E-003   5.0956029109860995E-002
   1.4284804029020132E-002  -3.4567289361127074E-003   5.1618405448398352E-002
   2.0399655389394422E-002  -5.1581669051521950E-003   5.4665591594756563E-002
   1.8336266568340212E-002  -4.6006679866165134E-003   5.4702389927677675E-002
   1.6272877747285933E-002  -4.0584849771024833E-003   5.4903029849118379E-002
   1.4209488926231691E-002  -3.5316178766110484E-003   5.5267511359078217E-002
   1.2146100105177443E-002  -3.0200666851413205E-003   5.5795834457557481E-002
   1.7072709157516946E-002  -4.2264474802480023E-003   6.0912023762350068E-002
   1.5316861113350077E-002  -3.8435896817438642E-003   5.9986491609370779E-002
   1.3561013069183224E-002  -3.4421299078963297E-003   5.9512199421646761E-002
   1.1805165025016339E-002  -3.0220681587047049E-003   5.9489147199178014E-002
   1.0049316980849501E-002  -2.5834044341699336E-003   5.9917334941964683E-002
   1.2638090218210163E-002  -3.2947280553440317E-003   6.6966855867729214E-002
   1.1477181327666661E-002  -3.0865113768714925E-003   6.5112911113214766E-002
   1.0316272437123186E-002  -2.8257748386896764E-003   6.3997604700691824E-002
   9.1553635465797256E-003  -2.5125184407987361E-003   6.3620936630160357E-002
   7.9944546560362373E-003  -2.1467421831986577E-003   6.3982906901620340E-002
   1.6465428752377442E-002  -3.8933911870839832E-003   4.7385047914487166E-002
   1.4628342357960733E-002  -3.3424732124334167E-003   4.7666187648051639E-002
   1.2791255963544024E-002  -2.9212198614055607E-003   4.8144474049712893E-002
   1.0954169569127301E-002  -2.6296311340011300E-003   4.8819907119470651E-002
   9.1170831747106051E-003  -2.4677070302193682E-003   4.9692486857325302E-002
   1.4284804029020132E-002  -3.4567289361127074E-003   5.1618405448398352E-002
   1.2649538405196184E-002  -2.9628016657753942E-003   5.1815413280788758E-002
   1.1014272781372292E-002  -2.6006633781847643E-003   5.2218915986267711E-002
   9.3790071575483858E-003  -2.3703140733414840E-003   5.2828913564835794E-002
   7.7437415337244520E-003  -2.2717537512446651E-003   5.3645406016492703E-002
   1.2146100105177443E-002  -3.0200666851413205E-003   5.5795834457557481E-002
   1.0722003456938523E-002  -2.5831301191178158E-003   5.5906586029650041E-002
   9.2979068086995742E-003  -2.2801068949647590E-003   5.6233180679823344E-002
   7.8738101604606363E-003  -2.1109970126823967E-003   5.6775618408077801E-002
   6.4497135122217053E-003  -2.0758004722701284E-003   5.7533899214413237E-002
   1.0049316980849501E-002  -2.5834044341699336E-003   5.9917334941964683E-002
   8.8457375131876792E-003  -2.2034585724604039E-003   5.9939705894635736E-002
   7.6421580455258726E-003  -1.9595504117446913E-003   6.0187268130379917E-002
   6.4385785778640686E-003  -1.8516799520231410E-003   6.0660021649197322E-002
   5.2349991102022403E-003  -1.8798471932955085E-003   6.1357966451087757E-002
   7.9944546560362373E-003  -2.1467421831986577E-003   6.3982906901620340E-002
   7.0207405739436957E-003  -1.8237870258022149E-003   6.3914772875745984E-002
   6.0470264918511957E-003  -1.6389939285242072E-003   6.4081178337937084E-002
   5.0733124097586749E-003  -1.5923628913636148E-003   6.4482123288193582E-002
   4.0995983276661541E-003  -1.6838939143207776E-003   6.5117607726515647E-002
   9.1170831747106051E-003  -2.4677070302193682E-003   4.9692486857325302E-002
   7.7229038452090726E-003  -2.6681859207239311E-003   5.0203742927064532E-002
   6.3287245157075123E-003  -3.4638061761776695E-003   5.1016206510124673E-002
   4.9345451862059658E-003  -4.8545677965798548E-003   5.2129877606505254E-002
   3.5403658567044194E-003  -6.8404707819309518E-003   5.3544756216206801E-002
   7.7437415337244520E-003  -2.2717537512446651E-003   5.3645406016492703E-002
   6.6299475744444891E-003  -2.4919272081240784E-003   5.3664743592539366E-002
   5.5161536151644985E-003  -3.2177792402082739E-003   5.3943644395708368E-002
   4.4023596558845079E-003  -4.4493098474975568E-003   5.4482108425999515E-002
   3.2885656966045451E-003  -6.1865190299916772E-003   5.5280135683413723E-002
   6.4497135122217053E-003  -2.0758004722701284E-003   5.7533899214413237E-002
   5.5746606369649898E-003  -2.3156684955237261E-003   5.7150781086511060E-002
   4.6996077617082882E-003  -2.9717523042390032E-003   5.6985581899532747E-002
   3.8245548864515970E-003  -4.0440518984152622E-003   5.7038301653478694E-002
   2.9495020111948711E-003  -5.5325672780529578E-003   5.7308940348348769E-002
   5.2349991102022403E-003  -1.8798471932955085E-003   6.1357966451087757E-002
   4.5570430327705920E-003  -2.1394097829237346E-003   6.0661855408980309E-002
   3.8790869553389194E-003  -2.7257253682696145E-003   6.0142019021598395E-002
   3.2011308779072599E-003  -3.6387939493328549E-003   5.9798457288942376E-002
   2.5231748004755986E-003  -4.8786155261141828E-003   5.9631170211012649E-002
   4.0995983276661541E-003  -1.6838939143207776E-003   6.5117607726515647E-002
   3.5770947618612436E-003  -1.9631510703235766E-003   6.4197966559946695E-002
   3.0545911960563471E-003  -2.4796984323005311E-003   6.3412955761905143E-002
   2.5320876302514436E-003  -3.2335360002507738E-003   6.2762575332391296E-002
   2.0095840644465401E-003  -4.2246637741751858E-003   6.2246825271405015E-002
   3.5403658567044194E-003  -6.8404707819309518E-003   5.3544756216206801E-002
   4.1037761937888217E-003  -9.4398150602479358E-003   5.1870544487270243E-002
   4.6671865308731686E-003  -1.2670900559550446E-002   5.0051534993980407E-002
   5.2305968679575848E-003  -1.6533727279837207E-002   4.8087727736336572E-002
   5.7940072050419733E-003  -2.1028295221108717E-002   4.5979122714340015E-002
   3.2885656966045451E-003  -6.1865190299916772E-003   5.5280135683413723E-002
   3.7239084020262020E-003  -8.4618899737636810E-003   5.2934197477690847E-002
   4.1592511074479283E-003  -1.1307905864884893E-002   5.0476921772995786E-002
   4.5945938128696059E-003  -1.4724566703356270E-002   4.7908308569329289E-002
   5.0299365182912559E-003  -1.8711872489176828E-002   4.5228357866690105E-002
   2.9495020111948711E-003  -5.5325672780529578E-003   5.7308940348348769E-002
   3.2902373503352622E-003  -7.4839648872789821E-003   5.4352371939474842E-002
   3.6309726894756117E-003  -9.9449111702192283E-003   5.1317926297010319E-002
   3.9717080286159369E-003  -1.2915406126874834E-002   4.8205603420954729E-002
   4.3124433677563245E-003  -1.6395449757244940E-002   4.5015403311309377E-002
   2.5231748004755986E-003  -4.8786155261141828E-003   5.9631170211012649E-002
   2.8027630387159538E-003  -6.5060398007938391E-003   5.6125067872622100E-002
   3.0823512769563195E-003  -8.5819164755533972E-003   5.2574548566022408E-002
   3.3619395151966757E-003  -1.1106245550393204E-002   4.8979612291213240E-002
   3.6415277534370682E-003  -1.4079027025313051E-002   4.5340259048194720E-002
   2.0095840644465401E-003  -4.2246637741751858E-003   6.2246825271405015E-002
   2.2614854671682838E-003  -5.5281147143092513E-003   5.8252285277133109E-002
   2.5133868698900275E-003  -7.2189217808876771E-003   5.4246788580032956E-002
   2.7652882726117642E-003  -9.2970849739123229E-003   5.0230335180105390E-002
   3.0171896753335425E-003  -1.1762604293381163E-002   4.6202925077349466E-002
   2.3309455635274673E-002  -7.0779408742229211E-003  0.18557291805274856     
   2.3106562705448419E-002  -6.2206897711425679E-003  0.15974102753745195     
   2.2903669775622124E-002  -5.7116847640709956E-003  0.13901466181862887     
   2.2700776845795849E-002  -5.5509258530079750E-003  0.12339382089627907     
   2.2497883915969560E-002  -5.7384130379536935E-003  0.11287850477040295     
  -4.4321937172248846E-003  -5.3084556528707472E-003  0.12471251181504678     
  -7.9326224172688448E-004  -4.6655173265761352E-003  0.11192172920666796     
   2.8456692337710913E-003  -4.2837635720739120E-003  0.10170907061246395     
   6.4846007092690654E-003  -4.1631943893640430E-003   9.4074536032435194E-002
   1.0123532184767046E-002  -4.3038097784465212E-003   8.9018125466581360E-002
  -1.7564319437757034E-002  -3.5389704315186843E-003   6.3594262038451227E-002
  -1.2610964339233185E-002  -3.1103448820097718E-003   6.3931648861206225E-002
  -7.6576092407093076E-003  -2.8558423800768978E-003   6.4319758915837938E-002
  -2.7042541421854567E-003  -2.7754629257200590E-003   6.4758592202346282E-002
   2.2491009563383908E-003  -2.8692065189393212E-003   6.5248148720731494E-002
  -1.6086921526321876E-002  -1.7694852101665659E-003   2.2181687229616484E-003
  -1.2346543587070481E-002  -1.5551724374433876E-003   1.5770786501067037E-002
  -8.6061656478191410E-003  -1.4279211880798490E-003   2.6846726728750627E-002
  -4.8657877085677651E-003  -1.3877314620761010E-003   3.5445989406012547E-002
  -1.1254097693164196E-003  -1.4346032594320240E-003   4.1568574532852828E-002
   1.7080697967131186E-011   1.1185552484249683E-011  -5.9415768131421742E-002
   1.4761192268508694E-011   7.1230521481169262E-012  -3.2560857873749849E-002
   1.2441672692098393E-011   3.9171582644215164E-012  -1.0710025948797941E-002
   1.0122153115688093E-011   1.5678187914591746E-012   6.1367276434338841E-003
   7.8026335392777924E-012   7.5106587615891840E-014   1.7979402902945640E-002
   2.2497883915969560E-002  -5.7384130379536935E-003  0.11287850477040295     
   2.2048457552389877E-002  -6.0082643602472618E-003  0.10411204904037896     
   2.1599031188810201E-002  -6.0945978612276935E-003   9.6698823064385570E-002
   2.1149604825230508E-002  -5.9974135408948671E-003   9.0638826842422707E-002
   2.0700178461650828E-002  -5.7167113992488972E-003   8.5932060374490415E-002
   1.0123532184767046E-002  -4.3038097784465212E-003   8.9018125466581360E-002
   1.0717117284388913E-002  -4.5061982703970271E-003   8.4601950042187096E-002
   1.1310702384010791E-002  -4.5709483962910608E-003   8.0918567790165374E-002
   1.1904287483632656E-002  -4.4980601561288684E-003   7.7967978710516236E-002
   1.2497872583254535E-002  -4.2875335499102385E-003   7.5750182803239585E-002
   2.2491009563383908E-003  -2.8692065189393212E-003   6.5248148720731494E-002
   3.2652609375038444E-003  -3.0041321805467924E-003   6.5136374146710002E-002
   4.2814209186693049E-003  -3.0472989313545876E-003   6.5136956163403148E-002
   5.2975808998347541E-003  -2.9987067713628680E-003   6.5249894770810904E-002
   6.3137408810002085E-003  -2.8583557005715798E-003   6.5475189968933312E-002
  -1.1254097693164196E-003  -1.4346032594320240E-003   4.1568574532852828E-002
  -3.0711148826534015E-004  -1.5020660906965300E-003   4.5715321353947402E-002
   5.1118679278573925E-004  -1.5236494664180068E-003   4.9353988184098682E-002
   1.3294850738368150E-003  -1.4993533865968129E-003   5.2484575023306661E-002
   2.1477833548878989E-003  -1.4291778512327824E-003   5.5107081871571081E-002
   7.8026335392777924E-012   7.5106587615891840E-014   1.7979402902945640E-002
   7.0813702124361555E-012  -8.4632301167175683E-013   2.6338791663899547E-002
   6.3600964772536628E-012  -1.4815093596354245E-012   3.3569663852252130E-002
   5.6388262115181220E-012  -1.8308202176520183E-012   3.9672019468003444E-002
   4.9175594152295332E-012  -1.8942070134642108E-012   4.4645858511153380E-002
   2.0700178461650828E-002  -5.7167113992488972E-003   8.5932060374490415E-002
   1.9651963367505729E-002  -5.3497721115446928E-003   8.1646452427615424E-002
   1.8603748273360657E-002  -4.9938763530371078E-003   7.8146291970240089E-002
   1.7555533179215571E-002  -4.6490241237261004E-003   7.5431579002364246E-002
   1.6507318085070485E-002  -4.3152154236119067E-003   7.3502313523988061E-002
   1.2497872583254535E-002  -4.2875335499102385E-003   7.5750182803239585E-002
   1.2104256549570022E-002  -4.0123290841045101E-003   7.3342237515428343E-002
   1.1710640515885530E-002  -3.7454072651805642E-003   7.1458042859038645E-002
   1.1317024482201045E-002  -3.4867680931387444E-003   7.0097598834070601E-002
   1.0923408448516539E-002  -3.2364115679787697E-003   6.9260905440524101E-002
   6.3137408810002085E-003  -2.8583557005715798E-003   6.5475189968933312E-002
   6.3130270496982790E-003  -2.6748860566640220E-003   6.4947668222500324E-002
   6.3123132183963530E-003  -2.4969381773239097E-003   6.4682200249410932E-002
   6.3115993870944201E-003  -2.3245120625510554E-003   6.4678786049665080E-002
   6.3108855557924871E-003  -2.1576077123455217E-003   6.4937425623262768E-002
   2.1477833548878989E-003  -1.4291778512327824E-003   5.5107081871571081E-002
   2.2782748678904924E-003  -1.3374430292236866E-003   5.6462744548831170E-002
   2.4087663808931023E-003  -1.2484690894673661E-003   5.7818764141356831E-002
   2.5392578938957188E-003  -1.1622560319634774E-003   5.9175140649147917E-002
   2.6697494068983136E-003  -1.0788038567123293E-003   6.0531874072204547E-002
   4.9175594152295332E-012  -1.8942070134642108E-012   4.4645858511153380E-002
   4.1466760580810558E-012  -1.7833234888797733E-012   4.7887466494421049E-002
   3.3757927009325783E-012  -1.6107254419139849E-012   5.0867734534876280E-002
   2.6049110785075769E-012  -1.3759583750161397E-012   5.3586662632519058E-002
   1.8340259866356234E-012  -1.0791367799356522E-012   5.6044250787349204E-002
   1.6507318085070485E-002  -4.3152154236119067E-003   7.3502313523988061E-002
   1.5540011118355401E-002  -4.0052197614580676E-003   7.1463018716630522E-002
   1.4572704151640310E-002  -3.7318066460287902E-003   6.9694010838134923E-002
   1.3605397184925237E-002  -3.4949760773242688E-003   6.8195289888501182E-002
   1.2638090218210163E-002  -3.2947280553440317E-003   6.6966855867729214E-002
   1.0923408448516539E-002  -3.2364115679787697E-003   6.9260905440524101E-002
   1.0219273363831799E-002  -3.0039148212863132E-003   6.8153872601776189E-002
   9.5151382791470521E-003  -2.7988549846464095E-003   6.7302896598227274E-002
   8.8110031944623156E-003  -2.6212320580595375E-003   6.6707977429877080E-002
   8.1068681097775791E-003  -2.4710460415253155E-003   6.6369115096725773E-002
   6.3108855557924871E-003  -2.1576077123455217E-003   6.4937425623262768E-002
   5.8556922594750621E-003  -2.0026098811142812E-003   6.4771800389796463E-002
   5.4004989631576388E-003  -1.8659033232637512E-003   6.4848001897865853E-002
   4.9453056668402025E-003  -1.7474880387945840E-003   6.5166030147471174E-002
   4.4901123705227766E-003  -1.6473640277063217E-003   6.5725885138612133E-002
   2.6697494068983136E-003  -1.0788038567123293E-003   6.0531874072204547E-002
   2.4492678052851873E-003  -1.0013049409421659E-003   6.1316802080691339E-002
   2.2287862036720440E-003  -9.3295166188128720E-004   6.2329326737051050E-002
   2.0083046020589095E-003  -8.7374401952968611E-004   6.3569448041283311E-002
   1.7878230004457884E-003  -8.2368201388741125E-004   6.5037165993388657E-002
   1.8340259866356234E-012  -1.0791367799356522E-012   5.6044250787349204E-002
   1.2621570455451092E-012  -7.7027273448493361E-013   5.7788877674460892E-002
   6.9029157390154694E-013  -4.9873993823723595E-013   5.9746871115782640E-002
   1.1843130642841260E-013  -2.6507268602316003E-013   6.1918231111313948E-002
  -4.5344283883252956E-013  -6.8611782921834674E-014   6.4302957661054871E-002
   1.2638090218210163E-002  -3.2947280553440317E-003   6.6966855867729214E-002
   1.1477181327666661E-002  -3.0865113768714925E-003   6.5112911113214766E-002
   1.0316272437123186E-002  -2.8257748386896764E-003   6.3997604700691824E-002
   9.1553635465797256E-003  -2.5125184407987361E-003   6.3620936630160357E-002
   7.9944546560362373E-003  -2.1467421831986577E-003   6.3982906901620340E-002
   8.1068681097775791E-003  -2.4710460415253155E-003   6.6369115096725773E-002
   7.5724947813880436E-003  -2.3148835326332606E-003   6.5363488808790560E-002
   7.0381214529985428E-003  -2.1193311289732369E-003   6.4872295303171706E-002
   6.5037481246090177E-003  -1.8843888305450952E-003   6.4895534579869532E-002
   5.9693747962195204E-003  -1.6100566373484781E-003   6.5433206638883967E-002
   4.4901123705227766E-003  -1.6473640277063217E-003   6.5725885138612133E-002
   4.3580690446123650E-003  -1.5432556883948900E-003   6.5555447352314930E-002
   4.2260257187019500E-003  -1.4128874192566865E-003   6.5675236788659302E-002
   4.0939823927915384E-003  -1.2562592202911213E-003   6.6085253447645334E-002
   3.9619390668811094E-003  -1.0733710914985206E-003   6.6785497329273164E-002
   1.7878230004457884E-003  -8.2368201388741125E-004   6.5037165993388657E-002
   1.8339041173396015E-003  -7.7162784415653329E-004   6.5688786743788224E-002
   1.8799852342334484E-003  -7.0644370954002500E-004   6.6406429157154750E-002
   1.9260663511272754E-003  -6.2812961003720288E-004   6.7190093233487902E-002
   1.9721474680211223E-003  -5.3668554564861859E-004   6.8039778972788206E-002
  -4.5344283883252956E-013  -6.8611782921834674E-014   6.4302957661054871E-002
  -4.3021142204224816E-013   8.1601392309949006E-014   6.5763506983210318E-002
  -4.0699388303977457E-013   1.7638668303732175E-013   6.7065872408657856E-002
  -3.8376940514339708E-013   2.1645879533238599E-013   6.8210053937397347E-002
  -3.6054492724701959E-013   2.0150547896946591E-013   6.9196051569428541E-002
   7.9944546560362373E-003  -2.1467421831986577E-003   6.3982906901620340E-002
   7.0207405739436957E-003  -1.8237870258022149E-003   6.3914772875745984E-002
   6.0470264918511957E-003  -1.6389939285242072E-003   6.4081178337937084E-002
   5.0733124097586749E-003  -1.5923628913636148E-003   6.4482123288193582E-002
   4.0995983276661541E-003  -1.6838939143207776E-003   6.5117607726515647E-002
   5.9693747962195204E-003  -1.6100566373484781E-003   6.5433206638883967E-002
   5.2324224603105957E-003  -1.3678402693106939E-003   6.5264047199004804E-002
   4.4954701244016640E-003  -1.2292454463589120E-003   6.5333871763427198E-002
   3.7585177884927289E-003  -1.1942721684921817E-003   6.5642680332151593E-002
   3.0215654525838076E-003  -1.2629204357113011E-003   6.6190472905177822E-002
   3.9619390668811094E-003  -1.0733710914985206E-003   6.6785497329273164E-002
   3.4661929933922850E-003  -9.1189351281917297E-004   6.6549852990420988E-002
   2.9704469199034328E-003  -8.1949696419326978E-004   6.6557637172107040E-002
   2.4747008464145893E-003  -7.9618144562096718E-004   6.6808849874331472E-002
   1.9789547729257423E-003  -8.4194695710210210E-004   6.7303491097094076E-002
   1.9721474680211223E-003  -5.3668554564861859E-004   6.8039778972788206E-002
   1.7220521731888122E-003  -4.5594675632748549E-004   6.7772190249995201E-002
   1.4719568783565021E-003  -4.0974848202791209E-004   6.7752474563976789E-002
   1.2218615835241924E-003  -3.9809072274964337E-004   6.7980631914733067E-002
   9.7176628869188181E-004  -4.2097347849276434E-004   6.8456662302264604E-002
  -3.6054492724701959E-013   2.0150547896946591E-013   6.9196051569428541E-002
  -2.9984348337563915E-013   1.6392442958590436E-013   6.8931058977726778E-002
  -2.3913510061035481E-013   1.3752887717544127E-013   6.8918383939036265E-002
  -1.7843018729202242E-013   1.2159023787816636E-013   6.9158026453356863E-002
  -1.1772527397369004E-013   1.1657341758564144E-013   6.9649986520688878E-002
   4.0995983276661541E-003  -1.6838939143207776E-003   6.5117607726515647E-002
   3.5770947618612436E-003  -1.9631510703235766E-003   6.4197966559946695E-002
   3.0545911960563471E-003  -2.4796984323005311E-003   6.3412955761905143E-002
   2.5320876302514436E-003  -3.2335360002507738E-003   6.2762575332391296E-002
   2.0095840644465401E-003  -4.2246637741751858E-003   6.2246825271405015E-002
   3.0215654525838076E-003  -1.2629204357113011E-003   6.6190472905177822E-002
   2.6326911360382149E-003  -1.4723633027133309E-003   6.5097623884538047E-002
   2.2438168194925875E-003  -1.8597738241948603E-003   6.4137402993888842E-002
   1.8549425029469636E-003  -2.4251520001554380E-003   6.3309810233230859E-002
   1.4660681864013536E-003  -3.1684978305958067E-003   6.2614845602563363E-002
   1.9789547729257423E-003  -8.4194695710210210E-004   6.7303491097094076E-002
   1.7217074671026719E-003  -9.8157553510283546E-004   6.6096756773877524E-002
   1.4644601612796154E-003  -1.2398492160887592E-003   6.5020648342115281E-002
   1.2072128554565468E-003  -1.6167680000601058E-003   6.4075165801806971E-002
   9.4996554963347468E-004  -2.1123318870167607E-003   6.3260309152953276E-002
   9.7176628869188181E-004  -4.2097347849276434E-004   6.8456662302264604E-002
   8.4414375505466668E-004  -4.9078776749240938E-004   6.7195365227965681E-002
   7.1652122141742554E-004  -6.1992460798281773E-004   6.6062691806583959E-002
   5.8889868778019003E-004  -8.0838399996454972E-004   6.5058642038119979E-002
   4.6127615414296927E-004  -1.0561659434375481E-003   6.4183215922573228E-002
  -1.1772527397369004E-013   1.1657341758564144E-013   6.9649986520688878E-002
  -1.0584588761020086E-013   1.1785017406396037E-013   6.8393449246801796E-002
  -9.3969970693663640E-014   1.2301271112846734E-013   6.7263533387295293E-002
  -8.2094053777126419E-014   1.3028467193976212E-013   6.6260238942169758E-002
  -7.0214667413637244E-014   1.4166445794216997E-013   6.5383565911424801E-002
   2.0095840644465401E-003  -4.2246637741751858E-003   6.2246825271405015E-002
   2.2614854671682838E-003  -5.5281147143092513E-003   5.8252285277133109E-002
   2.5133868698900275E-003  -7.2189217808876771E-003   5.4246788580032956E-002
   2.7652882726117642E-003  -9.2970849739123229E-003   5.0230335180105390E-002
   3.0171896753335425E-003  -1.1762604293381163E-002   4.6202925077349466E-002
   1.4660681864013536E-003  -3.1684978305958067E-003   6.2614845602563363E-002
   1.6940082243320775E-003  -4.1460860356923868E-003   5.8295777576967744E-002
   1.9219482622627806E-003  -5.4141913356198501E-003   5.3939743524617612E-002
   2.1498883001935254E-003  -6.9728137303795082E-003   4.9546743445513158E-002
   2.3778283381242216E-003  -8.8219532199702577E-003   4.5116777339655245E-002
   9.4996554963347468E-004  -2.1123318870167607E-003   6.3260309152953276E-002
   1.1279348988470564E-003  -2.7640573570753557E-003   5.8713552127646396E-002
   1.3059042480606450E-003  -3.6094608903516900E-003   5.4103819751659454E-002
   1.4838735972742111E-003  -4.6485424868464714E-003   4.9431112024992452E-002
   1.6618429464878015E-003  -5.8813021465591309E-003   4.4695428947645000E-002
   4.6127615414296927E-004  -1.0561659434375481E-003   6.4183215922573228E-002
   5.6326549071327239E-004  -1.3820286784584079E-003   5.9505608929169652E-002
   6.6525482728357725E-004  -1.8047304450834745E-003   5.4739017261159678E-002
   7.6724416385387300E-004  -2.3242712433135457E-003   4.9883440918543583E-002
   8.6923350042418523E-004  -2.9406510731481150E-003   4.4938879901320977E-002
  -7.0214667413637244E-014   1.4166445794216997E-013   6.5383565911424801E-002
  -6.9312611206129304E-014   1.5842882561400984E-013   6.0671947981537522E-002
  -6.8403616104717457E-014   1.8457457784393227E-013   5.5845336053117922E-002
  -6.7482477938973773E-014   2.1917190284881372E-013   5.0903730126165725E-002
  -6.6585625901893764E-014   2.6290081223123707E-013   4.5847130200681097E-002
   1.7080697967131186E-011   1.1185552484249683E-011  -5.9415768131421742E-002
   1.4761192268508694E-011   7.1230521481169262E-012  -3.2560857873749849E-002
   1.2441672692098393E-011   3.9171582644215164E-012  -1.0710025948797941E-002
   1.0122153115688093E-011   1.5678187914591746E-012   6.1367276434338841E-003
   7.8026335392777924E-012   7.5106587615891840E-014   1.7979402902945640E-002
   1.6086921558226178E-002   1.7694852376086145E-003   2.2181687313397314E-003
   1.2346543614715454E-002   1.5551724549154600E-003   1.5770786507306789E-002
   8.6061656712047088E-003   1.4279211978608375E-003   2.6846726733611104E-002
   4.8657877276939848E-003   1.3877314664445806E-003   3.5445989410253162E-002
   1.1254097841832539E-003   1.4346032606668835E-003   4.1568574537232977E-002
   1.7564319462890131E-002   3.5389704640316211E-003   6.3594262053079956E-002
   1.2610964361245890E-002   3.1103449027078955E-003   6.3931648872123548E-002
   7.6576092596016485E-003   2.8558423918045653E-003   6.4319758924562404E-002
   2.7042541579573951E-003   2.7754629313213961E-003   6.4758592210396593E-002
  -2.2491009436868461E-003   2.8692065212586881E-003   6.5248148729626115E-002
   4.4321937310725906E-003   5.3084556904546415E-003  0.12471251183379857     
   7.9326225435255061E-004   4.6655173505003311E-003  0.11192172922070071     
  -2.8456692223675310E-003   4.2837635857482688E-003  0.10170907062405585     
  -6.4846006990875917E-003   4.1631943961983513E-003   9.4074536043863968E-002
  -1.0123532175807666E-002   4.3038097818504512E-003   8.9018125480125193E-002
  -2.3309455637226459E-002   7.0779409168776897E-003  0.18557291807349563     
  -2.3106562705964631E-002   6.2206897982927944E-003  0.15974102755303815     
  -2.2903669774702824E-002   5.7116847796919723E-003  0.13901466183209144     
  -2.2700776843441021E-002   5.5509258610750012E-003  0.12339382091065543     
  -2.2497883912179197E-002   5.7384130424422142E-003  0.11287850478873018     
   7.8026335392777924E-012   7.5106587615891840E-014   1.7979402902945640E-002
   7.0813702124361555E-012  -8.4632301167175683E-013   2.6338791663899547E-002
   6.3600964772536628E-012  -1.4815093596354245E-012   3.3569663852252130E-002
   5.6388262115181220E-012  -1.8308202176520183E-012   3.9672019468003444E-002
   4.9175594152295332E-012  -1.8942070134642108E-012   4.4645858511153380E-002
   1.1254097841832539E-003   1.4346032606668835E-003   4.1568574537232977E-002
   3.0711150177071059E-004   1.5020660901853555E-003   4.5715321357466226E-002
  -5.1118678064182230E-004   1.5236494646578627E-003   4.9353988186918246E-002
  -1.3294850630543656E-003   1.4993533840841986E-003   5.2484575025589036E-002
  -2.1477833454668985E-003   1.4291778484646911E-003   5.5107081873478819E-002
  -2.2491009436868461E-003   2.8692065212586881E-003   6.5248148729626115E-002
  -3.2652609259705336E-003   3.0041321812169786E-003   6.5136374153806714E-002
  -4.2814209082542290E-003   3.0472989307972903E-003   6.5136956169026108E-002
  -5.2975808905379165E-003   2.9987067699994950E-003   6.5249894775284450E-002
  -6.3137408728216118E-003   2.8583556988235614E-003   6.5475189972581740E-002
  -1.0123532175807666E-002   4.3038097818504512E-003   8.9018125480125193E-002
  -1.0717117276142392E-002   4.5061982722486849E-003   8.4601950052920968E-002
  -1.1310702376477123E-002   4.5709483969366624E-003   8.0918567798575744E-002
  -1.1904287476811853E-002   4.4980601559147081E-003   7.7967978717089576E-002
  -1.2497872577146582E-002   4.2875335491825012E-003   7.5750182808462421E-002
  -2.2497883912179197E-002   5.7384130424422142E-003  0.11287850478873018     
  -2.2048457548744842E-002   6.0082643632802524E-003  0.10411204905480909     
  -2.1599031185310490E-002   6.0945978630761316E-003   9.6698823075567208E-002
  -2.1149604821876153E-002   5.9974135418299317E-003   9.0638826851004425E-002
  -2.0700178458441798E-002   5.7167113995412744E-003   8.5932060381120889E-002
   4.9175594152295332E-012  -1.8942070134642108E-012   4.4645858511153380E-002
   4.1466760580810558E-012  -1.7833234888797733E-012   4.7887466494421049E-002
   3.3757927009325783E-012  -1.6107254419139849E-012   5.0867734534876280E-002
   2.6049110785075769E-012  -1.3759583750161397E-012   5.3586662632519058E-002
   1.8340259866356234E-012  -1.0791367799356522E-012   5.6044250787349204E-002
  -2.1477833454668985E-003   1.4291778484646911E-003   5.5107081873478819E-002
  -2.2782748599408029E-003   1.3374430265156723E-003   5.6462744550110300E-002
  -2.4087663744147090E-003   1.2484690869540155E-003   5.7818764142148274E-002
  -2.5392578888886186E-003   1.1622560297795508E-003   5.9175140649592846E-002
  -2.6697494033625264E-003   1.0788038549922607E-003   6.0531874072443870E-002
  -6.3137408728216118E-003   2.8583556988235614E-003   6.5475189972581740E-002
  -6.3130270427795608E-003   2.6748860548149317E-003   6.4947668224902486E-002
  -6.3123132127375229E-003   2.4969381755187078E-003   6.4682200250848587E-002
  -6.3115993826954753E-003   2.3245120609351171E-003   6.4678786050420073E-002
  -6.3108855526534200E-003   2.1576077110638803E-003   6.4937425623617151E-002
  -1.2497872577146582E-002   4.2875335491825012E-003   7.5750182808462421E-002
  -1.2104256544369620E-002   4.0123290831141148E-003   7.3342237518797621E-002
  -1.1710640511592645E-002   3.7454072640834800E-003   7.1458042860976942E-002
  -1.1317024478815675E-002   3.4867680920906549E-003   7.0097598835000954E-002
  -1.0923408446038700E-002   3.2364115671355553E-003   6.9260905440869019E-002
  -2.0700178458441798E-002   5.7167113995412744E-003   8.5932060381120889E-002
  -1.9651963364710930E-002   5.3497721114132424E-003   8.1646452431795469E-002
  -1.8603748270980075E-002   4.9938763526481411E-003   7.8146291972533533E-002
  -1.7555533177249217E-002   4.6490241232461371E-003   7.5431579003335025E-002
  -1.6507318083518352E-002   4.3152154232069528E-003   7.3502313524199725E-002
   1.8340259866356234E-012  -1.0791367799356522E-012   5.6044250787349204E-002
   1.2621570455451092E-012  -7.7027273448493361E-013   5.7788877674460892E-002
   6.9029157390154694E-013  -4.9873993823723595E-013   5.9746871115782640E-002
   1.1843130642841260E-013  -2.6507268602316003E-013   6.1918231111313948E-002
  -4.5344283883252956E-013  -6.8611782921834674E-014   6.4302957661054871E-002
  -2.6697494033625264E-003   1.0788038549922607E-003   6.0531874072443870E-002
  -2.4492678028459440E-003   1.0013049397191442E-003   6.1316802080641580E-002
  -2.2287862023293772E-003   9.3295166108678385E-004   6.2329326736806440E-002
  -2.0083046018127999E-003   8.7374401909546401E-004   6.3569448040938531E-002
  -1.7878230012962279E-003   8.2368201374460881E-004   6.5037165993037493E-002
  -6.3108855526534200E-003   2.1576077110638803E-003   6.4937425623617151E-002
  -5.8556922572910548E-003   2.0026098802086167E-003   6.4771800389579193E-002
  -5.4004989619286818E-003   1.8659033226724325E-003   6.4848001897265792E-002
  -4.9453056665663114E-003   1.7474880384555046E-003   6.5166030146676823E-002
  -4.4901123712039435E-003   1.6473640275578294E-003   6.5725885137812357E-002
  -1.0923408446038700E-002   3.2364115671355553E-003   6.9260905440869019E-002
  -1.0219273362073178E-002   3.0039148206978949E-003   6.8153872601273896E-002
  -9.5151382781076543E-003   2.7988549842580188E-003   6.7302896597160489E-002
  -8.8110031941421394E-003   2.6212320578158487E-003   6.6707977428529019E-002
  -8.1068681101766071E-003   2.4710460413710500E-003   6.6369115095379155E-002
  -1.6507318083518352E-002   4.3152154232069528E-003   7.3502313524199725E-002
  -1.5540011117192311E-002   4.0052197611873397E-003   7.1463018715725579E-002
  -1.4572704150866280E-002   3.7318066458437021E-003   6.9694010836490711E-002
  -1.3605397184540237E-002   3.4949760771759396E-003   6.8195289886494884E-002
  -1.2638090218214201E-002   3.2947280551841596E-003   6.6966855865738362E-002
  -4.5344283883252956E-013  -6.8611782921834674E-014   6.4302957661054871E-002
  -4.3021142204224816E-013   8.1601392309949006E-014   6.5763506983210318E-002
  -4.0699388303977457E-013   1.7638668303732175E-013   6.7065872408657856E-002
  -3.8376940514339708E-013   2.1645879533238599E-013   6.8210053937397347E-002
  -3.6054492724701959E-013   2.0150547896946591E-013   6.9196051569428541E-002
  -1.7878230012962279E-003   8.2368201374460881E-004   6.5037165993037493E-002
  -1.8339041181492967E-003   7.7162784423334685E-004   6.5688786743451244E-002
  -1.8799852350023568E-003   7.0644370976036264E-004   6.6406429156820740E-002
  -1.9260663518554178E-003   6.2812961032540637E-004   6.7190093233145509E-002
  -1.9721474687084857E-003   5.3668554592856133E-004   6.8039778972425580E-002
  -4.4901123712039435E-003   1.6473640275578294E-003   6.5725885137812357E-002
  -4.3580690452697966E-003   1.5432556883854809E-003   6.5555447351577645E-002
  -4.2260257193356496E-003   1.4128874193442414E-003   6.5675236787961958E-002
  -4.0939823934015105E-003   1.2562592204344684E-003   6.6085253446965253E-002
  -3.9619390674673557E-003   1.0733710916558947E-003   6.6785497328587462E-002
  -8.1068681101766071E-003   2.4710460413710500E-003   6.6369115095379155E-002
  -7.5724947817917459E-003   2.3148835325374761E-003   6.5363488807589187E-002
  -7.0381214534068846E-003   2.1193311289280578E-003   6.4872295302081828E-002
  -6.5037481250220181E-003   1.8843888305434178E-003   6.4895534578856995E-002
  -5.9693747966371637E-003   1.6100566373832004E-003   6.5433206637914521E-002
  -1.2638090218214201E-002   3.2947280551841596E-003   6.6966855865738362E-002
  -1.1477181327715122E-002   3.0865113766894159E-003   6.5112911111486316E-002
  -1.0316272437216053E-002   2.8257748385120685E-003   6.3997604699180199E-002
  -9.1553635467169787E-003   2.5125184406525822E-003   6.3620936628820041E-002
  -7.9944546562178975E-003   2.1467421831103950E-003   6.3982906900405978E-002
  -3.6054492724701959E-013   2.0150547896946591E-013   6.9196051569428541E-002
  -2.9984348337563915E-013   1.6392442958590436E-013   6.8931058977726778E-002
  -2.3913510061035481E-013   1.3752887717544127E-013   6.8918383939036265E-002
  -1.7843018729202242E-013   1.2159023787816636E-013   6.9158026453356863E-002
  -1.1772527397369004E-013   1.1657341758564144E-013   6.9649986520688878E-002
  -1.9721474687084857E-003   5.3668554592856133E-004   6.8039778972425580E-002
  -1.7220521737617914E-003   4.5594675656818184E-004   6.7772190249710151E-002
  -1.4719568788151075E-003   4.0974848224256677E-004   6.7752474563755632E-002
  -1.2218615838684140E-003   3.9809072295142467E-004   6.7980631914562009E-002
  -9.7176628892172920E-004   4.2097347869507473E-004   6.8456662302128823E-002
  -3.9619390674673557E-003   1.0733710916558947E-003   6.6785497328587462E-002
  -3.4661929938851997E-003   9.1189351297230048E-004   6.6549852989882641E-002
  -2.9704469203030342E-003   8.1949696434739649E-004   6.6557637171688069E-002
  -2.4747008467208695E-003   7.9618144578104053E-004   6.6808849874003789E-002
  -1.9789547731387126E-003   8.4194695727346502E-004   6.7303491096829537E-002
  -5.9693747966371637E-003   1.6100566373832004E-003   6.5433206637914521E-002
  -5.2324224606700321E-003   1.3678402693762665E-003   6.5264047198243816E-002
  -4.4954701247029299E-003   1.2292454464523303E-003   6.5333871762833229E-002
  -3.7585177887358052E-003   1.1942721686109877E-003   6.5642680331682218E-002
  -3.0215654527686949E-003   1.2629204358519663E-003   6.6190472904790715E-002
  -7.9944546562178975E-003   2.1467421831103950E-003   6.3982906900405978E-002
  -7.0207405741163353E-003   1.8237870257807320E-003   6.3914772874793857E-002
  -6.0470264920147766E-003   1.6389939285572641E-003   6.4081178337191069E-002
  -5.0733124099132162E-003   1.5923628914405463E-003   6.4482123287597504E-002
  -4.0995983278116557E-003   1.6838939144304677E-003   6.5117607726012827E-002
  -1.1772527397369004E-013   1.1657341758564144E-013   6.9649986520688878E-002
  -1.0584588761020086E-013   1.1785017406396037E-013   6.8393449246801796E-002
  -9.3969970693663640E-014   1.2301271112846734E-013   6.7263533387295293E-002
  -8.2094053777126419E-014   1.3028467193976212E-013   6.6260238942169758E-002
  -7.0214667413637244E-014   1.4166445794216997E-013   6.5383565911424801E-002
  -9.7176628892172920E-004   4.2097347869507473E-004   6.8456662302128823E-002
  -8.4414375526150470E-004   4.9078776770400401E-004   6.7195365227845805E-002
  -7.1652122160127674E-004   6.1992460820908812E-004   6.6062691806478863E-002
  -5.8889868794106438E-004   8.0838400021028545E-004   6.5058642038027595E-002
  -4.6127615428083815E-004   1.0561659437078319E-003   6.4183215922492654E-002
  -1.9789547731387126E-003   8.4194695727346502E-004   6.7303491096829537E-002
  -1.7217074672949504E-003   9.8157553528951946E-004   6.6096756773643739E-002
  -1.4644601614512030E-003   1.2398492162951635E-003   6.5020648341909348E-002
  -1.2072128556074521E-003   1.6167680002897311E-003   6.4075165801625894E-002
  -9.4996554976369343E-004   2.1123318872739993E-003   6.3260309152793737E-002
  -3.0215654527686949E-003   1.2629204358519663E-003   6.6190472904790715E-002
  -2.6326911362062125E-003   1.4723633028753541E-003   6.5097623884195557E-002
  -2.2438168196437383E-003   1.8597738243814610E-003   6.4137402993586806E-002
  -1.8549425030812564E-003   2.4251520003694543E-003   6.3309810232964225E-002
  -1.4660681865187814E-003   3.1684978308399447E-003   6.2614845602327898E-002
  -4.0995983278116557E-003   1.6838939144304677E-003   6.5117607726012827E-002
  -3.5770947619952545E-003   1.9631510704611332E-003   6.4197966559501163E-002
  -3.0545911961788810E-003   2.4796984324672311E-003   6.3412955761510903E-002
  -2.5320876303625024E-003   3.2335360004490457E-003   6.2762575332042242E-002
  -2.0095840645461063E-003   4.2246637744063342E-003   6.2246825271095041E-002
  -7.0214667413637244E-014   1.4166445794216997E-013   6.5383565911424801E-002
  -6.9312611206129304E-014   1.5842882561400984E-013   6.0671947981537522E-002
  -6.8403616104717457E-014   1.8457457784393227E-013   5.5845336053117922E-002
  -6.7482477938973773E-014   2.1917190284881372E-013   5.0903730126165725E-002
  -6.6585625901893764E-014   2.6290081223123707E-013   4.5847130200681097E-002
  -4.6127615428083815E-004   1.0561659437078319E-003   6.4183215922492654E-002
  -5.6326549084970839E-004   1.3820286787633029E-003   5.9505608929110332E-002
  -6.6525482741859425E-004   1.8047304454389956E-003   5.4739017261120793E-002
  -7.6724416398745669E-004   2.3242712437339802E-003   4.9883440918524175E-002
  -8.6923350055633647E-004   2.9406510736493807E-003   4.4938879901320616E-002
  -9.4996554976369343E-004   2.1123318872739993E-003   6.3260309152793737E-002
  -1.1279348989770097E-003   2.7640573573681215E-003   5.8713552127527102E-002
  -1.3059042481903104E-003   3.6094608906930559E-003   5.4103819751579046E-002
  -1.4838735974036289E-003   4.6485424872490036E-003   4.9431112024948556E-002
  -1.6618429466169413E-003   5.8813021470360827E-003   4.4695428947637228E-002
  -1.4660681865187814E-003   3.1684978308399447E-003   6.2614845602327898E-002
  -1.6940082244511824E-003   4.1460860359728569E-003   5.8295777576788041E-002
  -1.9219482623835551E-003   5.4141913359474075E-003   5.3939743524492344E-002
  -2.1498883003159314E-003   6.9728137307642525E-003   4.9546743445439925E-002
  -2.3778283382483289E-003   8.8219532204227846E-003   4.5116777339631126E-002
  -2.0095840645461063E-003   4.2246637744063342E-003   6.2246825271095041E-002
  -2.2614854672722146E-003   5.5281147145777032E-003   5.8252285276893412E-002
  -2.5133868699983332E-003   7.2189217812016482E-003   5.4246788579860650E-002
  -2.7652882727244518E-003   9.2970849742788630E-003   5.0230335179997032E-002
  -3.0171896754505600E-003   1.1762604293809265E-002   4.6202925077301948E-002
  -2.3309455637226459E-002   7.0779409168776897E-003  0.18557291807349563     
  -2.3106562705964631E-002   6.2206897982927944E-003  0.15974102755303815     
  -2.2903669774702824E-002   5.7116847796919723E-003  0.13901466183209144     
  -2.2700776843441021E-002   5.5509258610750012E-003  0.12339382091065543     
  -2.2497883912179197E-002   5.7384130424422142E-003  0.11287850478873018     
  -5.0100086039040620E-002   9.7843948368256939E-003  0.10577674035549153     
  -4.6162153330765732E-002   9.2696445290401941E-003   9.5326439680426978E-002
  -4.2224220622490885E-002   8.8876747181493021E-003   8.7240693759877710E-002
  -3.8286287914216038E-002   8.6384854041529693E-003   8.1519502593843857E-002
  -3.4348355205941178E-002   8.5220765870511750E-003   7.8162866182325402E-002
  -6.0379154871403454E-002   1.2490848756773643E-002   2.6430796249831662E-002
  -5.5447152431110883E-002   1.2318599259787663E-002   3.1146619817070439E-002
  -5.0515149990818395E-002   1.2063664656606743E-002   3.5486028093829294E-002
  -4.5583147550525824E-002   1.1726044947230965E-002   3.9449021080108074E-002
  -4.0651145110233308E-002   1.1305740131660164E-002   4.3035598775906916E-002
  -5.4146662134315036E-002   1.5197302676721619E-002  -5.2464914243484276E-002
  -5.0961560007000146E-002   1.5367553990535153E-002  -3.2798432037031297E-002
  -4.7776457879685284E-002   1.5239654595064211E-002  -1.6249335166053928E-002
  -4.4591355752370450E-002   1.4813604490308864E-002  -2.8176236305519674E-003
  -4.1406253625055567E-002   1.4089403676269222E-002   7.4967025694748744E-003
  -3.1402607827775292E-002   1.7903756596669596E-002 -0.13091039112445574     
  -3.2705376058433405E-002   1.8416508721282476E-002  -9.6508715881878482E-002
  -3.4008144289091644E-002   1.8415644533521527E-002  -6.7965396019771890E-002
  -3.5310912519749840E-002   1.7901164033386836E-002  -4.5280431538136059E-002
  -3.6613680750408009E-002   1.6873067220878113E-002  -2.8453822436971005E-002
  -2.2497883912179197E-002   5.7384130424422142E-003  0.11287850478873018     
  -2.2048457548744842E-002   6.0082643632802524E-003  0.10411204905480909     
  -2.1599031185310490E-002   6.0945978630761316E-003   9.6698823075567208E-002
  -2.1149604821876153E-002   5.9974135418299317E-003   9.0638826851004425E-002
  -2.0700178458441798E-002   5.7167113995412744E-003   8.5932060381120889E-002
  -3.4348355205941178E-002   8.5220765870511750E-003   7.8162866182325402E-002
  -3.2905174965199471E-002   8.4219744426628357E-003   7.4442773474247367E-002
  -3.1461994724457772E-002   8.2217051468062297E-003   7.1356958766104886E-002
  -3.0018814483716072E-002   7.9212686994820439E-003   6.8905422057897792E-002
  -2.8575634242974372E-002   7.5206651006896608E-003   6.7088163349626528E-002
  -4.0651145110233308E-002   1.1305740131660164E-002   4.3035598775906916E-002
  -3.8933162746927846E-002   1.0835684522045128E-002   4.4445219763246113E-002
  -3.7215180383622391E-002   1.0348812430536446E-002   4.5770166995777399E-002
  -3.5497198020316929E-002   9.8451238571341023E-003   4.7010440473500476E-002
  -3.3779215657011481E-002   9.3246188018380749E-003   4.8166040196415738E-002
  -4.1406253625055567E-002   1.4089403676269222E-002   7.4967025694748744E-003
  -4.0132420893929953E-002   1.3249394601427482E-002   1.4119387921805657E-002
  -3.8858588162804346E-002   1.2475919714266603E-002   1.9938447764584651E-002
  -3.7584755431678704E-002   1.1768979014786244E-002   2.4953882097812189E-002
  -3.6310922700553090E-002   1.1128572502986336E-002   2.9165690921487963E-002
  -3.6613680750408009E-002   1.6873067220878113E-002  -2.8453822436971005E-002
  -3.6502949406205791E-002   1.5663104680809947E-002  -1.6534722050074502E-002
  -3.6392218062003615E-002   1.4603026997996801E-002  -6.1381989274731374E-003
  -3.6281486717801445E-002   1.3692834172438256E-002   2.7357469308330051E-003
  -3.6170755373599220E-002   1.2932526204134820E-002   1.0087115524843815E-002
  -2.0700178458441798E-002   5.7167113995412744E-003   8.5932060381120889E-002
  -1.9651963364710930E-002   5.3497721114132424E-003   8.1646452431795469E-002
  -1.8603748270980075E-002   4.9938763526481411E-003   7.8146291972533533E-002
  -1.7555533177249217E-002   4.6490241232461371E-003   7.5431579003335025E-002
  -1.6507318083518352E-002   4.3152154232069528E-003   7.3502313524199725E-002
  -2.8575634242974372E-002   7.5206651006896608E-003   6.7088163349626528E-002
  -2.6916701160576147E-002   7.0748847714214858E-003   6.5310128879340179E-002
  -2.5257768078177884E-002   6.6389181326693136E-003   6.3968082896325246E-002
  -2.3598834995779625E-002   6.2127651844329362E-003   6.3062025400581700E-002
  -2.1939901913381393E-002   5.7964259267124230E-003   6.2591956392109460E-002
  -3.3779215657011481E-002   9.3246188018380749E-003   4.8166040196415738E-002
  -3.1859023588737836E-002   8.7999974314297014E-003   4.8894349366321282E-002
  -2.9938831520464160E-002   8.2839599126902086E-003   4.9709188020706299E-002
  -2.8018639452190457E-002   7.7765062456197354E-003   5.0610556159570788E-002
  -2.6098447383916805E-002   7.2776364302181984E-003   5.1598453782914624E-002
  -3.6310922700553090E-002   1.1128572502986336E-002   2.9165690921487963E-002
  -3.4478930649195993E-002   1.0525110091437875E-002   3.2399113892738619E-002
  -3.2646938597838897E-002   9.9290016927111591E-003   3.5369607345676672E-002
  -3.0814946546481769E-002   9.3402473068066455E-003   3.8077171280302156E-002
  -2.8982954495124669E-002   8.7588469337238767E-003   4.0521805696614982E-002
  -3.6170755373599220E-002   1.2932526204134820E-002   1.0087115524843815E-002
  -3.4776422341950650E-002   1.2250222751446160E-002   1.5824422458592391E-002
  -3.3382089310302072E-002   1.1574043472732234E-002   2.0949340871236261E-002
  -3.1987756278653495E-002   1.0903988367993406E-002   2.5461870762775701E-002
  -3.0593423247004925E-002   1.0240057437229444E-002   2.9362012133210658E-002
  -1.6507318083518352E-002   4.3152154232069528E-003   7.3502313524199725E-002
  -1.5540011117192311E-002   4.0052197611873397E-003   7.1463018715725579E-002
  -1.4572704150866280E-002   3.7318066458437021E-003   6.9694010836490711E-002
  -1.3605397184540237E-002   3.4949760771759396E-003   6.8195289886494884E-002
  -1.2638090218214201E-002   3.2947280551841596E-003   6.6966855865738362E-002
  -2.1939901913381393E-002   5.7964259267124230E-003   6.2591956392109460E-002
  -2.0723103724324270E-002   5.3897279644486429E-003   6.1828929959991341E-002
  -1.9506305535267124E-002   4.9924989025818128E-003   6.1294599044096204E-002
  -1.8289507346209988E-002   4.6047387411119224E-003   6.0988963644424035E-002
  -1.7072709157152848E-002   4.2264474800387530E-003   6.0912023760974876E-002
  -2.6098447383916805E-002   7.2776364302181984E-003   5.1598453782914624E-002
  -2.4673749385144786E-002   6.7742361677101404E-003   5.2084582080873368E-002
  -2.3249051386372763E-002   6.2531911593199305E-003   5.2757814482038930E-002
  -2.1824353387600727E-002   5.7145014050477404E-003   5.3618150986411234E-002
  -2.0399655388828694E-002   5.1581669048934020E-003   5.4665591593990509E-002
  -2.8982954495124669E-002   8.7588469337238767E-003   4.0521805696614982E-002
  -2.7391948099653941E-002   8.1587443709715407E-003   4.2229975078371673E-002
  -2.5800941704183199E-002   7.5138834160581001E-003   4.4083657150318999E-002
  -2.4209935308712443E-002   6.8242640689836409E-003   4.6082851912456924E-002
  -2.2618928913241729E-002   6.0898863297481898E-003   4.8227559364785393E-002
  -3.0593423247004925E-002   1.0240057437229444E-002   2.9362012133210658E-002
  -2.8877699867851644E-002   9.5432525742328300E-003   3.2265108952486243E-002
  -2.7161976488698433E-002   8.7745756727962421E-003   3.5272127048936175E-002
  -2.5446253109545187E-002   7.9340267329195066E-003   3.8383066422560674E-002
  -2.3730529730391942E-002   7.0216057546026445E-003   4.1597927073359409E-002
  -1.2638090218214201E-002   3.2947280551841596E-003   6.6966855865738362E-002
  -1.1477181327715122E-002   3.0865113766894159E-003   6.5112911111486316E-002
  -1.0316272437216053E-002   2.8257748385120685E-003   6.3997604699180199E-002
  -9.1553635467169787E-003   2.5125184406525822E-003   6.3620936628820041E-002
  -7.9944546562178975E-003   2.1467421831103950E-003   6.3982906900405978E-002
  -1.7072709157152848E-002   4.2264474800387530E-003   6.0912023760974876E-002
  -1.5316861113065839E-002   3.8435896815073312E-003   5.9986491608129522E-002
  -1.3561013068978839E-002   3.4421299076623224E-003   5.9512199420514139E-002
  -1.1805165024891862E-002   3.0220681585038309E-003   5.9489147198128742E-002
  -1.0049316980804832E-002   2.5834044340315998E-003   5.9917334940973066E-002
  -2.0399655388828694E-002   5.1581669048934020E-003   5.4665591593990509E-002
  -1.8336266567869866E-002   4.6006679863255517E-003   5.4702389926920697E-002
  -1.6272877746911014E-002   4.0584849768130343E-003   5.4903029848364746E-002
  -1.4209488925952153E-002   3.5316178763554161E-003   5.5267511358322634E-002
  -1.2146100104993335E-002   3.0200666849528601E-003   5.5795834456794174E-002
  -2.2618928913241729E-002   6.0898863297481898E-003   4.8227559364785393E-002
  -2.0535397692127103E-002   5.3577462911439527E-003   4.9260606067859848E-002
  -1.8451866471012508E-002   4.6748400459634618E-003   5.0170095982732060E-002
  -1.6368335249897923E-002   4.0411675942071106E-003   5.0956029109401987E-002
  -1.4284804028783285E-002   3.4567289358740927E-003   5.1618405447869498E-002
  -2.3730529730391942E-002   7.0216057546026445E-003   4.1597927073359409E-002
  -2.1914254485837656E-002   6.1148245959616876E-003   4.3661140030946899E-002
  -2.0097979241283370E-002   5.2911951151140835E-003   4.5313397823615875E-002
  -1.8281703996729085E-002   4.5507173120583264E-003   4.6554700451366587E-002
  -1.6465428752174799E-002   3.8933911867953253E-003   4.7385047914198952E-002
  -7.9944546562178975E-003   2.1467421831103950E-003   6.3982906900405978E-002
  -7.0207405741163353E-003   1.8237870257807320E-003   6.3914772874793857E-002
  -6.0470264920147766E-003   1.6389939285572641E-003   6.4081178337191069E-002
  -5.0733124099132162E-003   1.5923628914405463E-003   6.4482123287597504E-002
  -4.0995983278116557E-003   1.6838939144304677E-003   6.5117607726012827E-002
  -1.0049316980804832E-002   2.5834044340315998E-003   5.9917334940973066E-002
  -8.8457375131799285E-003   2.2034585723937905E-003   5.9939705893818251E-002
  -7.6421580455549882E-003   1.9595504117387308E-003   6.0187268129701016E-002
  -6.4385785779300644E-003   1.8516799520663513E-003   6.0660021648621290E-002
  -5.2349991103051406E-003   1.8798471933761940E-003   6.1357966450579282E-002
  -1.2146100104993335E-002   3.0200666849528601E-003   5.5795834456794174E-002
  -1.0722003456816658E-002   2.5831301190072653E-003   5.5906586028972777E-002
  -9.2979068086399830E-003   2.2801068949201975E-003   5.6233180679217148E-002
  -7.8738101604633164E-003   2.1109970126918232E-003   5.6775618407527637E-002
  -6.4497135122866343E-003   2.0758004723220869E-003   5.7533899213903811E-002
  -1.4284804028783285E-002   3.4567289358740927E-003   5.1618405447869498E-002
  -1.2649538405026532E-002   2.9628016656205319E-003   5.1815413280257475E-002
  -1.1014272781269735E-002   2.6006633781017752E-003   5.2218915985739411E-002
  -9.3790071575129610E-003   2.3703140733173506E-003   5.2828913564315752E-002
  -7.7437415337561852E-003   2.2717537512680630E-003   5.3645406015986476E-002
  -1.6465428752174799E-002   3.8933911867953253E-003   4.7385047914198952E-002
  -1.4628342357809535E-002   3.3424732122338541E-003   4.7666187647672054E-002
  -1.2791255963444270E-002   2.9212198612831031E-003   4.8144474049267971E-002
  -1.0954169569078992E-002   2.6296311339432041E-003   4.8819907118986511E-002
  -9.1170831747137415E-003   2.4677070302138171E-003   4.9692486856827700E-002
  -4.0995983278116557E-003   1.6838939144304677E-003   6.5117607726012827E-002
  -3.5770947619952545E-003   1.9631510704611332E-003   6.4197966559501163E-002
  -3.0545911961788810E-003   2.4796984324672311E-003   6.3412955761510903E-002
  -2.5320876303625024E-003   3.2335360004490457E-003   6.2762575332042242E-002
  -2.0095840645461063E-003   4.2246637744063342E-003   6.2246825271095041E-002
  -5.2349991103051406E-003   1.8798471933761940E-003   6.1357966450579282E-002
  -4.5570430328677573E-003   2.1394097830361725E-003   6.0661855408525256E-002
  -3.8790869554303897E-003   2.7257253684134786E-003   6.0142019021191956E-002
  -3.2011308779930003E-003   3.6387939495081817E-003   5.9798457288578979E-002
  -2.5231748005556387E-003   4.8786155263208508E-003   5.9631170210686646E-002
  -6.4497135122866343E-003   2.0758004723220869E-003   5.7533899213903811E-002
  -5.5746606370293082E-003   2.3156684956112394E-003   5.7150781086049735E-002
  -4.6996077617719673E-003   2.9717523043600452E-003   5.6985581899115276E-002
  -3.8245548865146286E-003   4.0440518985679803E-003   5.7038301653100164E-002
  -2.9495020112573003E-003   5.5325672782353674E-003   5.7308940348004267E-002
  -7.7437415337561852E-003   2.2717537512680630E-003   5.3645406015986476E-002
  -6.6299475744799000E-003   2.4919272081865146E-003   5.3664743592074307E-002
  -5.5161536152036426E-003   3.2177792403063413E-003   5.3943644395280599E-002
  -4.4023596559273652E-003   4.4493098476275587E-003   5.4482108425604948E-002
  -3.2885656966510999E-003   6.1865190301498840E-003   5.5280135683047987E-002
  -9.1170831747137415E-003   2.4677070302138171E-003   4.9692486856827700E-002
  -7.7229038452195642E-003   2.6681859207615122E-003   5.0203742926599237E-002
  -6.3287245157254146E-003   3.4638061762527761E-003   5.1016206509688022E-002
  -4.9345451862312581E-003   4.8545677966867831E-003   5.2129877606094471E-002
  -3.5403658567370877E-003   6.8404707820646227E-003   5.3544756215818001E-002
  -2.0095840645461063E-003   4.2246637744063342E-003   6.2246825271095041E-002
  -2.2614854672722146E-003   5.5281147145777032E-003   5.8252285276893412E-002
  -2.5133868699983332E-003   7.2189217812016482E-003   5.4246788579860650E-002
  -2.7652882727244518E-003   9.2970849742788630E-003   5.0230335179997032E-002
  -3.0171896754505600E-003   1.1762604293809265E-002   4.6202925077301948E-002
  -2.5231748005556387E-003   4.8786155263208508E-003   5.9631170210686646E-002
  -2.8027630388030196E-003   6.5060398010349796E-003   5.6125067872372258E-002
  -3.0823512770504283E-003   8.5819164758347000E-003   5.2574548565845980E-002
  -3.3619395152977849E-003   1.1106245550721254E-002   4.8979612291108171E-002
  -3.6415277535452178E-003   1.4079027025693858E-002   4.5340259048159304E-002
  -2.9495020112573003E-003   5.5325672782353674E-003   5.7308940348004267E-002
  -3.2902373504064397E-003   7.4839648874922005E-003   5.4352371939210137E-002
  -3.6309726895555929E-003   9.9449111704679738E-003   5.1317926296824162E-002
  -3.9717080287047946E-003   1.2915406127163701E-002   4.8205603420846191E-002
  -4.3124433678539131E-003   1.6395449757578229E-002   4.5015403311276292E-002
  -3.2885656966510999E-003   6.1865190301498840E-003   5.5280135683047987E-002
  -3.7239084020824933E-003   8.4618899739491160E-003   5.2934197477407789E-002
  -4.1592511075138868E-003   1.1307905865101248E-002   5.0476921772794572E-002
  -4.5945938129452538E-003   1.4724566703606008E-002   4.7908308569209322E-002
  -5.0299365183766450E-003   1.8711872489462822E-002   4.5228357866651386E-002
  -3.5403658567370877E-003   6.8404707820646227E-003   5.3544756215818001E-002
  -4.1037761938311629E-003   9.4398150604064757E-003   5.1870544486964376E-002
  -4.6671865309252519E-003   1.2670900559734410E-002   5.0051534993757696E-002
  -5.2305968680193687E-003   1.6533727280048344E-002   4.8087727736198238E-002
  -5.7940072051134162E-003   2.1028295221347193E-002   4.5979122714285836E-002
  -3.1402607827775292E-002   1.7903756596669596E-002 -0.13091039112445574     
  -3.2705376058433405E-002   1.8416508721282476E-002  -9.6508715881878482E-002
  -3.4008144289091644E-002   1.8415644533521527E-002  -6.7965396019771890E-002
  -3.5310912519749840E-002   1.7901164033386836E-002  -4.5280431538136059E-002
  -3.6613680750408009E-002   1.6873067220878113E-002  -2.8453822436971005E-002
  -9.4055390013831827E-003   2.1875746598690238E-002  -5.3647341329636722E-002
  -1.5046795683262462E-002   2.0506419218709687E-002  -3.5956170894525102E-002
  -2.0688052365141801E-002   1.9201029737165476E-002  -2.1083621981384956E-002
  -2.6329309047021049E-002   1.7959578154057604E-002  -9.0296945902164222E-003
  -3.1970565728900419E-002   1.6782064469386015E-002   2.0561127898069409E-004
  -5.4140027047375125E-003   2.5847736600710852E-002   2.1444851855183758E-002
  -1.2354013979338725E-002   2.2596329716136843E-002   2.3003071693639993E-002
  -1.9294025253939934E-002   1.9986414940809334E-002   2.4782403868623827E-002
  -2.6234036528541206E-002   1.8017992274728341E-002   2.6782848380135348E-002
  -3.3174047803142419E-002   1.6691061717893918E-002   2.9004405228174532E-002
  -1.9427998937838323E-002   2.9819726602731481E-002   9.4366188430005618E-002
  -2.4627030946662298E-002   2.4686240213563998E-002   8.0369011882616664E-002
  -2.9826062955486333E-002   2.0771800144453140E-002   6.9632681530254301E-002
  -3.5025094964310229E-002   1.8076406395399095E-002   6.2157197372919047E-002
  -4.0224126973134239E-002   1.6600058966401793E-002   5.7942559410610647E-002
  -5.1447527700685669E-002   3.3791716604752109E-002  0.16511666839482886     
  -5.1865846585233188E-002   2.6776150710991153E-002  0.13614164967240477     
  -5.2284165469780652E-002   2.1557185348097085E-002  0.11346721100350676     
  -5.2702484354328144E-002   1.8134820516069849E-002   9.7093352388134768E-002
  -5.3120803238875663E-002   1.6509056214909668E-002   8.7020073826288902E-002
  -3.6613680750408009E-002   1.6873067220878113E-002  -2.8453822436971005E-002
  -3.6502949406205791E-002   1.5663104680809947E-002  -1.6534722050074502E-002
  -3.6392218062003615E-002   1.4603026997996801E-002  -6.1381989274731374E-003
  -3.6281486717801445E-002   1.3692834172438256E-002   2.7357469308330051E-003
  -3.6170755373599220E-002   1.2932526204134820E-002   1.0087115524843815E-002
  -3.1970565728900419E-002   1.6782064469386015E-002   2.0561127898069409E-004
  -3.2998670542603067E-002   1.5701316613132787E-002   6.8015949843454604E-003
  -3.4026775356305737E-002   1.4750162515279885E-002   1.2642483638195673E-002
  -3.5054880170008393E-002   1.3928602175827240E-002   1.7728277240531283E-002
  -3.6082984983711062E-002   1.3236635594774726E-002   2.2058975791352520E-002
  -3.3174047803142419E-002   1.6691061717893918E-002   2.9004405228174532E-002
  -3.4573506561969308E-002   1.5739528545455600E-002   3.0256981153152909E-002
  -3.5972965320796149E-002   1.4897298032562976E-002   3.1521944239397366E-002
  -3.7372424079623059E-002   1.4164370179215948E-002   3.2799294486908062E-002
  -3.8771882838449928E-002   1.3540744985414660E-002   3.4089031895684810E-002
  -4.0224126973134239E-002   1.6600058966401793E-002   5.7942559410610647E-002
  -4.1227457464304555E-002   1.5777740477778537E-002   5.3831436456347984E-002
  -4.2230787955474906E-002   1.5044433549846064E-002   5.0500182876132227E-002
  -4.3234118446645257E-002   1.4400138182604768E-002   4.7948798669963197E-002
  -4.4237448937815622E-002   1.3844854376054469E-002   4.6177283837841171E-002
  -5.3120803238875663E-002   1.6509056214909668E-002   8.7020073826288902E-002
  -5.2960523249608787E-002   1.5815952410101197E-002   7.7524960893930739E-002
  -5.2800243260341981E-002   1.5191569067129193E-002   6.9577199548399915E-002
  -5.2639963271075195E-002   1.4635906185993735E-002   6.3176789789696805E-002
  -5.2479683281808354E-002   1.4148963766694556E-002   5.8323731617821062E-002
  -3.6170755373599220E-002   1.2932526204134820E-002   1.0087115524843815E-002
  -3.4776422341950650E-002   1.2250222751446160E-002   1.5824422458592391E-002
  -3.3382089310302072E-002   1.1574043472732234E-002   2.0949340871236261E-002
  -3.1987756278653495E-002   1.0903988367993406E-002   2.5461870762775701E-002
  -3.0593423247004925E-002   1.0240057437229444E-002   2.9362012133210658E-002
  -3.6082984983711062E-002   1.3236635594774726E-002   2.2058975791352520E-002
  -3.5129074524755333E-002   1.2612435744016354E-002   2.5197612366967104E-002
  -3.4175164065799526E-002   1.1994175595445689E-002   2.8067792318300588E-002
  -3.3221253606843804E-002   1.1381855149062953E-002   3.0669515645352946E-002
  -3.2267343147888011E-002   1.0775474404868146E-002   3.3002782348124204E-002
  -3.8771882838449928E-002   1.3540744985414660E-002   3.4089031895684810E-002
  -3.7914463055363515E-002   1.2974648736586492E-002   3.4628813641378431E-002
  -3.7057043272277136E-002   1.2414307718159136E-002   3.5244070659614483E-002
  -3.6199623489190758E-002   1.1859721930132442E-002   3.5934802950392739E-002
  -3.5342203706104393E-002   1.1310891372506737E-002   3.6701010513713411E-002
  -4.4237448937815622E-002   1.3844854376054469E-002   4.6177283837841171E-002
  -4.3132587933775265E-002   1.3336861729156602E-002   4.4118026281826823E-002
  -4.2027726929734846E-002   1.2834439840872670E-002   4.2478175895178161E-002
  -4.0922865925694454E-002   1.2337588711202125E-002   4.1257732677895301E-002
  -3.9818004921654070E-002   1.1846308340145495E-002   4.0456696629978021E-002
  -5.2479683281808354E-002   1.4148963766694556E-002   5.8323731617821062E-002
  -5.0783449159990529E-002   1.3699074721726767E-002   5.3665250288311650E-002
  -4.9087215038172705E-002   1.3254571963585982E-002   4.9770108024991433E-002
  -4.7390980916354825E-002   1.2815455492271435E-002   4.6638304827860355E-002
  -4.5694746794537056E-002   1.2381725307783975E-002   4.4269840696918472E-002
  -3.0593423247004925E-002   1.0240057437229444E-002   2.9362012133210658E-002
  -2.8877699867851644E-002   9.5432525742328300E-003   3.2265108952486243E-002
  -2.7161976488698433E-002   8.7745756727962421E-003   3.5272127048936175E-002
  -2.5446253109545187E-002   7.9340267329195066E-003   3.8383066422560674E-002
  -2.3730529730391942E-002   7.0216057546026445E-003   4.1597927073359409E-002
  -3.2267343147888011E-002   1.0775474404868146E-002   3.3002782348124204E-002
  -3.0436040981160803E-002   1.0133239464165306E-002   3.4441835953644112E-002
  -2.8604738814433643E-002   9.4133564282584681E-003   3.6008125857137308E-002
  -2.6773436647706522E-002   8.6158252971478277E-003   3.7701652058604193E-002
  -2.4942134480979275E-002   7.7406460708334679E-003   3.9522414558044283E-002
  -3.5342203706104393E-002   1.1310891372506737E-002   3.6701010513713411E-002
  -3.3372007731004204E-002   1.0723226354097559E-002   3.6670244848713812E-002
  -3.1401811755904077E-002   1.0052137183720708E-002   3.6790030502486665E-002
  -2.9431615780803930E-002   9.2976238613762079E-003   3.7060367475031906E-002
  -2.7461419805703768E-002   8.4596863870641803E-003   3.7481255766349919E-002
  -3.9818004921654070E-002   1.1846308340145495E-002   4.0456696629978021E-002
  -3.7685600117381909E-002   1.1313213244029813E-002   3.8950335637695177E-002
  -3.5553195313109701E-002   1.0690917939182996E-002   3.7617840984983719E-002
  -3.3420790508837520E-002   9.9794224256045585E-003   3.6459212671844085E-002
  -3.1288385704565283E-002   9.1787267032947817E-003   3.5474450698275532E-002
  -4.5694746794537056E-002   1.2381725307783975E-002   4.4269840696918472E-002
  -4.3376818140293760E-002   1.1903200133962233E-002   4.1282108320588429E-002
  -4.1058889486050520E-002   1.1329698694645243E-002   3.8491557304629082E-002
  -3.8740960831807253E-002   1.0661220989832926E-002   3.5898187649040250E-002
  -3.6423032177564013E-002   9.8977670195256051E-003   3.3501999353821921E-002
  -2.3730529730391942E-002   7.0216057546026445E-003   4.1597927073359409E-002
  -2.1914254485837656E-002   6.1148245959616876E-003   4.3661140030946899E-002
  -2.0097979241283370E-002   5.2911951151140835E-003   4.5313397823615875E-002
  -1.8281703996729085E-002   4.5507173120583264E-003   4.6554700451366587E-002
  -1.6465428752174799E-002   3.8933911867953253E-003   4.7385047914198952E-002
  -2.4942134480979275E-002   7.7406460708334679E-003   3.9522414558044283E-002
  -2.3409430791716118E-002   6.8684058408179371E-003   4.0488669433919211E-002
  -2.1876727102452989E-002   6.0796916986051164E-003   4.1298736364130256E-002
  -2.0344023413189843E-002   5.3745036441940064E-003   4.1952615348677308E-002
  -1.8811319723926703E-002   4.7528416775853843E-003   4.2450306387560643E-002
  -2.7461419805703768E-002   8.4596863870641803E-003   3.7481255766349919E-002
  -2.5957520452477300E-002   7.6219870856740757E-003   3.7350926970521808E-002
  -2.4453621099250804E-002   6.8681882820959411E-003   3.7319177448284432E-002
  -2.2949721746024328E-002   6.1982899763296899E-003   3.7386007199637424E-002
  -2.1445822392797846E-002   5.6122921683753324E-003   3.7551416224581136E-002
  -3.1288385704565283E-002   9.1787267032947817E-003   3.5474450698275532E-002
  -2.9558523468121045E-002   8.3755683305302142E-003   3.4247912640754413E-002
  -2.7828661231676786E-002   7.6566848655868699E-003   3.3374721076078334E-002
  -2.6098798995232566E-002   7.0220763084655382E-003   3.2854876004247240E-002
  -2.4368936758788286E-002   6.4717426591653915E-003   3.2688377425261463E-002
  -3.6423032177564013E-002   9.8977670195256051E-003   3.3501999353821921E-002
  -3.4212439838647524E-002   9.1291495753863527E-003   3.1179626444617248E-002
  -3.2001847499730993E-002   8.4451814490777155E-003   2.9465367247512309E-002
  -2.9791255160814469E-002   7.8458626406010881E-003   2.8359221762506520E-002
  -2.7580662821897972E-002   7.3311931499553395E-003   2.7861189989600299E-002
  -1.6465428752174799E-002   3.8933911867953253E-003   4.7385047914198952E-002
  -1.4628342357809535E-002   3.3424732122338541E-003   4.7666187647672054E-002
  -1.2791255963444270E-002   2.9212198612831031E-003   4.8144474049267971E-002
  -1.0954169569078992E-002   2.6296311339432041E-003   4.8819907118986511E-002
  -9.1170831747137415E-003   2.4677070302138171E-003   4.9692486856827700E-002
  -1.8811319723926703E-002   4.7528416775853843E-003   4.2450306387560643E-002
  -1.6801170772184751E-002   4.2087246923275257E-003   4.2519364562423723E-002
  -1.4791021820442958E-002   3.7361715819698993E-003   4.2737401183917417E-002
  -1.2780872868701124E-002   3.3351823465120542E-003   4.3104416252041824E-002
  -1.0770723916959213E-002   3.0057569859543998E-003   4.3620409766796209E-002
  -2.1445822392797846E-002   5.6122921683753324E-003   3.7551416224581136E-002
  -1.9310779105171486E-002   5.0749761724215026E-003   3.7350292092123677E-002
  -1.7175735817545154E-002   4.5511233026567094E-003   3.7249978184804453E-002
  -1.5040692529918832E-002   4.0407335590812408E-003   3.7250474502623789E-002
  -1.2905649242292462E-002   3.5438069416948159E-003   3.7351781045581373E-002
  -2.4368936758788286E-002   6.4717426591653915E-003   3.2688377425261463E-002
  -2.2157167356769550E-002   5.9412276525152713E-003   3.2158970236772021E-002
  -1.9945397954750900E-002   5.3660750233435126E-003   3.1682205051929271E-002
  -1.7733628552732271E-002   4.7462847716503147E-003   3.1258081870732632E-002
  -1.5521859150713560E-002   4.0818568974352598E-003   3.0886600693182283E-002
  -2.7580662821897972E-002   7.3311931499553395E-003   2.7861189989600299E-002
  -2.5340335526979063E-002   6.8074791326091511E-003   2.6945398996368830E-002
  -2.3100008232060182E-002   6.1810267440302602E-003   2.6034081785291430E-002
  -2.0859680937141273E-002   5.4518359842193748E-003   2.5127238356368459E-002
  -1.8619353642222392E-002   4.6199068531758147E-003   2.4224868709599168E-002
  -9.1170831747137415E-003   2.4677070302138171E-003   4.9692486856827700E-002
  -7.7229038452195642E-003   2.6681859207615122E-003   5.0203742926599237E-002
  -6.3287245157254146E-003   3.4638061762527761E-003   5.1016206509688022E-002
  -4.9345451862312581E-003   4.8545677966867831E-003   5.2129877606094471E-002
  -3.5403658567370877E-003   6.8404707820646227E-003   5.3544756215818001E-002
  -1.0770723916959213E-002   3.0057569859543998E-003   4.3620409766796209E-002
  -9.0496047647976446E-003   2.9823280198887359E-003   4.4243898702344353E-002
  -7.3284856126361042E-003   3.4993279679079170E-003   4.5220059769909532E-002
  -5.6073664604745048E-003   4.5567568300126787E-003   4.6548892969492148E-002
  -3.8862473083129956E-003   6.1546146062015916E-003   4.8230398301092325E-002
  -1.2905649242292462E-002   3.5438069416948159E-003   3.7351781045581373E-002
  -1.0806125648763439E-002   3.2964701190162093E-003   3.8032790396046956E-002
  -8.7066020552344220E-003   3.5348497595639322E-003   3.9117936497230124E-002
  -6.6070784617053620E-003   4.2589458633381268E-003   4.0607219349130690E-002
  -4.5075548681763819E-003   5.4687584303386716E-003   4.2500638951748826E-002
  -1.5521859150713560E-002   4.0818568974352598E-003   3.0886600693182283E-002
  -1.2992466497117010E-002   3.6106122181436134E-003   3.1570418007707171E-002
  -1.0463073843520517E-002   3.5703715512193993E-003   3.2709836691649591E-002
  -7.9336811899239686E-003   3.9611348966635766E-003   3.4304856745009729E-002
  -5.4042885363274739E-003   4.7829022544756961E-003   3.6355478167787281E-002
  -1.8619353642222392E-002   4.6199068531758147E-003   2.4224868709599168E-002
  -1.5608627309858319E-002   3.9247543172708510E-003   2.4856781537325179E-002
  -1.2597900977494220E-002   3.6058933428753104E-003   2.5995760353168418E-002
  -9.5871746451301199E-003   3.6633239299894149E-003   2.7641805157129579E-002
  -6.5764483127660478E-003   4.0970460786129426E-003   2.9794915949208356E-002
  -3.5403658567370877E-003   6.8404707820646227E-003   5.3544756215818001E-002
  -4.1037761938311629E-003   9.4398150604064757E-003   5.1870544486964376E-002
  -4.6671865309252519E-003   1.2670900559734410E-002   5.0051534993757696E-002
  -5.2305968680193687E-003   1.6533727280048344E-002   4.8087727736198238E-002
  -5.7940072051134162E-003   2.1028295221347193E-002   4.5979122714285836E-002
  -3.8862473083129956E-003   6.1546146062015916E-003   4.8230398301092325E-002
  -4.4899869094392475E-003   8.6045950857829290E-003   4.7283007821114276E-002
  -5.0937265105655966E-003   1.2218392058064159E-002   4.6399756577425011E-002
  -5.6974661116919768E-003   1.6996005523045553E-002   4.5580644570024781E-002
  -6.3012057128181975E-003   2.2937435480726354E-002   4.4825671798911504E-002
  -4.5075548681763819E-003   5.4687584303386716E-003   4.2500638951748826E-002
  -4.9426867326935846E-003   7.7693751111592713E-003   4.2812144992361051E-002
  -5.3778185972108185E-003   1.1765883556394130E-002   4.3396727269903290E-002
  -5.8129504617279899E-003   1.7458283766042984E-002   4.4254385784375017E-002
  -6.2480823262451995E-003   2.4846575740105958E-002   4.5385120535776813E-002
  -5.4042885363274739E-003   4.7829022544756961E-003   3.6355478167787281E-002
  -5.4618756635940969E-003   6.9341551365356691E-003   3.8457956000704001E-002
  -5.5194627908608327E-003   1.1313375054723990E-002   4.1042447071191854E-002
  -5.5770499181275373E-003   1.7920562009040526E-002   4.4108951379250909E-002
  -5.6346370453941898E-003   2.6755715999485230E-002   4.7657468924880847E-002
  -6.5764483127660478E-003   4.0970460786129426E-003   2.9794915949208356E-002
  -6.0475537021408843E-003   6.0989351619123999E-003   3.4220440846143174E-002
  -5.5186590915157208E-003   1.0860866553053961E-002   3.9336915981290854E-002
  -4.9897644808906405E-003   1.8382840252037985E-002   4.5144341354651341E-002
  -4.4608698702653937E-003   2.8664856258864724E-002   5.1642716966223912E-002
  -5.1447527700685669E-002   3.3791716604752109E-002  0.16511666839482886     
  -5.1865846585233188E-002   2.6776150710991153E-002  0.13614164967240477     
  -5.2284165469780652E-002   2.1557185348097085E-002  0.11346721100350676     
  -5.2702484354328144E-002   1.8134820516069849E-002   9.7093352388134768E-002
  -5.3120803238875663E-002   1.6509056214909668E-002   8.7020073826288902E-002
  -8.3284100419410534E-002   1.4048581771228030E-002   9.6008713885397778E-002
  -7.9274828263211278E-002   1.7474641289009885E-002   8.3775396173635663E-002
  -7.5265556107012049E-002   1.9590591086824760E-002   7.4096680489840916E-002
  -7.1256283950812807E-002   2.0396431164672379E-002   6.6972566834013481E-002
  -6.7247011794613620E-002   1.9892161522552854E-002   6.2403055206153329E-002
  -9.6749228520143976E-002  -5.6945530622960483E-003   3.8895739912926469E-002
  -9.2058343348756705E-002   8.1731318670289488E-003   4.0297412960992512E-002
  -8.7367458177369503E-002   1.7623996825552463E-002   4.0507710011466719E-002
  -8.2676573005982273E-002   2.2658041813274854E-002   3.9526631064349754E-002
  -7.7985687834595030E-002   2.3275266830195901E-002   3.7354176119641591E-002
  -9.1842912002886107E-002  -2.5437687895820238E-002  -6.2222535225845976E-003
  -9.0216391841869414E-002  -1.1283775549522784E-003   5.7077000344748843E-003
  -8.8589871680852916E-002   1.5657402564280193E-002   1.2700299568384289E-002
  -8.6963351519836293E-002   2.4919652461877162E-002   1.4755545079143687E-002
  -8.5336831358819698E-002   2.6658372137839045E-002   1.1873436566753135E-002
  -6.8565150867636593E-002  -4.5180822729344206E-002  -3.9345266421135672E-002
  -7.3748973742549406E-002  -1.0429886976933478E-002  -1.9993742605916465E-002
  -7.8932796617462220E-002   1.3690808303007951E-002  -9.3255508394061437E-003
  -8.4116619492375033E-002   2.7181263110479664E-002  -7.3406911216045215E-003
  -8.9300442367287847E-002   3.0041477445482134E-002  -1.4039163452511605E-002
  -5.3120803238875663E-002   1.6509056214909668E-002   8.7020073826288902E-002
  -5.2960523249608787E-002   1.5815952410101197E-002   7.7524960893930739E-002
  -5.2800243260341981E-002   1.5191569067129193E-002   6.9577199548399915E-002
  -5.2639963271075195E-002   1.4635906185993735E-002   6.3176789789696805E-002
  -5.2479683281808354E-002   1.4148963766694556E-002   5.8323731617821062E-002
  -6.7247011794613620E-002   1.9892161522552854E-002   6.2403055206153329E-002
  -6.5807456615718074E-002   1.8819425320439065E-002   5.6148346923260567E-002
  -6.4367901436822597E-002   1.7919865718304173E-002   5.0904837432797723E-002
  -6.2928346257927092E-002   1.7193482716147998E-002   4.6672526734764547E-002
  -6.1488791079031560E-002   1.6640276313970859E-002   4.3451414829161317E-002
  -7.7985687834595030E-002   2.3275266830195901E-002   3.7354176119641591E-002
  -7.5803010260468484E-002   2.1822898230777071E-002   3.4444328624356479E-002
  -7.3620332686341938E-002   2.0648162369479271E-002   3.2009527127103553E-002
  -7.1437655112215406E-002   1.9751059246302598E-002   3.0049771627882919E-002
  -6.9254977538088860E-002   1.9131588861247134E-002   2.8565062126694310E-002
  -8.5336831358819698E-002   2.6658372137839045E-002   1.1873436566753135E-002
  -8.2947184183859865E-002   2.4826371141114814E-002   1.2412905997218122E-002
  -8.0557537008899963E-002   2.3376459020653977E-002   1.2891268631317903E-002
  -7.8167889833940130E-002   2.2308635776456861E-002   1.3308524469051855E-002
  -7.5778242658980227E-002   2.1622901408523257E-002   1.3664673510420458E-002
  -8.9300442367287847E-002   3.0041477445482134E-002  -1.4039163452511605E-002
  -8.7239978385892258E-002   2.7829844051452779E-002  -9.9459209581541086E-003
  -8.5179514404496781E-002   2.6104755671829183E-002  -6.4499380545597756E-003
  -8.3119050423101304E-002   2.4866212306611499E-002  -3.5512147417284361E-003
  -8.1058586441705716E-002   2.4114213955799824E-002  -1.2497510196605166E-003
  -5.2479683281808354E-002   1.4148963766694556E-002   5.8323731617821062E-002
  -5.0783449159990529E-002   1.3699074721726767E-002   5.3665250288311650E-002
  -4.9087215038172705E-002   1.3254571963585982E-002   4.9770108024991433E-002
  -4.7390980916354825E-002   1.2815455492271435E-002   4.6638304827860355E-002
  -4.5694746794537056E-002   1.2381725307783975E-002   4.4269840696918472E-002
  -6.1488791079031560E-002   1.6640276313970859E-002   4.3451414829161317E-002
  -5.9096586846764318E-002   1.6153526627610160E-002   3.9951047441318555E-002
  -5.6704382614497055E-002   1.5626513772904124E-002   3.7079281208185738E-002
  -5.4312178382229834E-002   1.5059237749852430E-002   3.4836116129762423E-002
  -5.1919974149962550E-002   1.4451698558455406E-002   3.3221552206049110E-002
  -6.9254977538088860E-002   1.9131588861247134E-002   2.8565062126694310E-002
  -6.6301541106851616E-002   1.8607978533493413E-002   2.6177159225346289E-002
  -6.3348104675614386E-002   1.7998455582222100E-002   2.4283119567228617E-002
  -6.0394668244377184E-002   1.7303020007433424E-002   2.2882943152341462E-002
  -5.7441231813139912E-002   1.6521671809126753E-002   2.1976629980684240E-002
  -7.5778242658980227E-002   2.1622901408523257E-002   1.3664673510420458E-002
  -7.2398311940252466E-002   2.1062430439376709E-002   1.2343585640394870E-002
  -6.9018381221524649E-002   2.0370397391540326E-002   1.1381623102120507E-002
  -6.5638450502796861E-002   1.9546802265013975E-002   1.0778785895596502E-002
  -6.2258519784069072E-002   1.8591645059798143E-002   1.0535074020823588E-002
  -8.1058586441705716E-002   2.4114213955799824E-002  -1.2497510196605166E-003
  -7.7386899346966853E-002   2.3516882345260115E-002  -1.5496733135355600E-003
  -7.3715212252227880E-002   2.2742339200858358E-002  -1.6252081871391266E-003
  -7.0043525157489017E-002   2.1790584522594976E-002  -1.4763556404711747E-003
  -6.6371838062750044E-002   2.0661618310469310E-002  -1.1031156735319403E-003
  -4.5694746794537056E-002   1.2381725307783975E-002   4.4269840696918472E-002
  -4.3376818140293760E-002   1.1903200133962233E-002   4.1282108320588429E-002
  -4.1058889486050520E-002   1.1329698694645243E-002   3.8491557304629082E-002
  -3.8740960831807253E-002   1.0661220989832926E-002   3.5898187649040250E-002
  -3.6423032177564013E-002   9.8977670195256051E-003   3.3501999353821921E-002
  -5.1919974149962550E-002   1.4451698558455406E-002   3.3221552206049110E-002
  -4.9396828937694717E-002   1.3803082061481203E-002   3.0877390865469173E-002
  -4.6873683725426912E-002   1.3112574121698362E-002   2.8746481280567893E-002
  -4.4350538513159087E-002   1.2380174739106617E-002   2.6828823451345060E-002
  -4.1827393300891275E-002   1.1605883913706094E-002   2.5124417377800745E-002
  -5.7441231813139912E-002   1.6521671809126753E-002   2.1976629980684240E-002
  -5.4696799647539568E-002   1.5702963989000146E-002   2.0329124498540935E-002
  -5.1952367481939300E-002   1.4895449548751473E-002   1.8910941167384128E-002
  -4.9207935316339033E-002   1.4099128488380139E-002   1.7722079987213698E-002
  -4.6463503150738696E-002   1.3314000807886417E-002   1.6762540958029898E-002
  -6.2258519784069072E-002   1.8591645059798143E-002   1.0535074020823588E-002
  -5.9276730269828277E-002   1.7602845916519214E-002   9.6373092198033805E-003
  -5.6294940755587657E-002   1.6678324975804255E-002   8.9849369650776122E-003
  -5.3313151241346925E-002   1.5818082237653634E-002   8.5779572566459135E-003
  -5.0331361727106241E-002   1.5022117702067156E-002   8.4163700945086434E-003
  -6.6371838062750044E-002   2.0661618310469310E-002  -1.1031156735319403E-003
  -6.3136620804560950E-002   1.9502727844038059E-002  -1.1980549707431010E-003
  -5.9901403546371967E-002   1.8461200402857481E-002  -1.0315313263519199E-003
  -5.6666186288182929E-002   1.7537035986927629E-002  -6.0354474035781425E-004
  -5.3430969029993891E-002   1.6730234596247451E-002   8.5904787238022529E-005
  -3.6423032177564013E-002   9.8977670195256051E-003   3.3501999353821921E-002
  -3.4212439838647524E-002   9.1291495753863527E-003   3.1179626444617248E-002
  -3.2001847499730993E-002   8.4451814490777155E-003   2.9465367247512309E-002
  -2.9791255160814469E-002   7.8458626406010881E-003   2.8359221762506520E-002
  -2.7580662821897972E-002   7.3311931499553395E-003   2.7861189989600299E-002
  -4.1827393300891275E-002   1.1605883913706094E-002   2.5124417377800745E-002
  -3.9103771540590554E-002   1.0825585332192245E-002   2.3532474075567578E-002
  -3.6380149780289847E-002   1.0075162681260630E-002   2.2358475904003139E-002
  -3.3656528019989182E-002   9.3546159609111668E-003   2.1602422863107693E-002
  -3.0932906259688475E-002   8.6639451711438831E-003   2.1264314952881280E-002
  -4.6463503150738696E-002   1.3314000807886417E-002   1.6762540958029898E-002
  -4.3417020550484263E-002   1.2522021088998414E-002   1.5846253875518718E-002
  -4.0370537950229948E-002   1.1705143913443308E-002   1.5157743342246024E-002
  -3.7324055349975543E-002   1.0863369281221464E-002   1.4697009358211680E-002
  -3.4277572749721152E-002   9.9966971923324266E-003   1.4464051923415766E-002
  -5.0331361727106241E-002   1.5022117702067156E-002   8.4163700945086434E-003
  -4.7152186868328762E-002   1.4218456845804556E-002   8.1209658444710495E-003
  -4.3973012009551234E-002   1.3335125145625883E-002   7.8631695622409688E-003
  -4.0793837150773712E-002   1.2372122601531097E-002   7.6429812478188332E-003
  -3.7614662291996226E-002   1.1329449213521137E-002   7.4604009012045197E-003
  -5.3430969029993891E-002   1.6730234596247451E-002   8.5904787238022529E-005
  -5.0309270494123703E-002   1.5914892602610697E-002   3.5660998242431630E-004
  -4.7187571958253682E-002   1.4965106377808624E-002   4.7475456398776705E-004
  -4.4065873422383606E-002   1.3880875921841992E-002   4.4033853192897154E-004
  -4.0944174886513474E-002   1.2662201234709514E-002   2.5336188624724976E-004
  -2.7580662821897972E-002   7.3311931499553395E-003   2.7861189989600299E-002
  -2.5340335526979063E-002   6.8074791326091511E-003   2.6945398996368830E-002
  -2.3100008232060182E-002   6.1810267440302602E-003   2.6034081785291430E-002
  -2.0859680937141273E-002   5.4518359842193748E-003   2.5127238356368459E-002
  -1.8619353642222392E-002   4.6199068531758147E-003   2.4224868709599168E-002
  -3.0932906259688475E-002   8.6639451711438831E-003   2.1264314952881280E-002
  -2.8664656651803941E-002   7.9833159839764467E-003   2.0323283889911725E-002
  -2.6396407043919351E-002   7.2928940714275803E-003   1.9433623670719546E-002
  -2.4128157436034782E-002   6.5926794334961875E-003   1.8595334295304355E-002
  -2.1859907828150227E-002   5.8826720701828927E-003   1.7808415763666263E-002
  -3.4277572749721152E-002   9.9966971923324266E-003   1.4464051923415766E-002
  -3.1934503767247872E-002   9.1591528353444085E-003   1.3590726436558842E-002
  -2.9591434784774634E-002   8.4047613988244840E-003   1.2815668855101978E-002
  -2.7248365802301437E-002   7.7335228827725630E-003   1.2138879179045325E-002
  -2.4905296819828115E-002   7.1454372871899707E-003   1.1560357408388899E-002
  -3.7614662291996226E-002   1.1329449213521137E-002   7.4604009012045197E-003
  -3.5149876873311253E-002   1.0334989686712426E-002   6.7477266363102847E-003
  -3.2685091454626281E-002   9.5166287262218180E-003   6.1802173384391396E-003
  -3.0220306035941245E-002   8.8743663320499343E-003   5.7578730075912542E-003
  -2.7755520617256335E-002   8.4082025041972708E-003   5.4806936437667708E-003
  -4.0944174886513474E-002   1.2662201234709514E-002   2.5336188624724976E-004
  -3.8310775969993771E-002   1.1510826538079111E-002  -2.0571551083414796E-004
  -3.5677377053474069E-002   1.0628496053618819E-002  -4.7273087926916202E-004
  -3.3043978136954311E-002   1.0015209781326334E-002  -5.4768421905766057E-004
  -3.0410579220434664E-002   9.6709677212039047E-003  -4.3057553020020567E-004
  -1.8619353642222392E-002   4.6199068531758147E-003   2.4224868709599168E-002
  -1.5608627309858319E-002   3.9247543172708510E-003   2.4856781537325179E-002
  -1.2597900977494220E-002   3.6058933428753104E-003   2.5995760353168418E-002
  -9.5871746451301199E-003   3.6633239299894149E-003   2.7641805157129579E-002
  -6.5764483127660478E-003   4.0970460786129426E-003   2.9794915949208356E-002
  -2.1859907828150227E-002   5.8826720701828927E-003   1.7808415763666263E-002
  -1.8616337045343712E-002   5.2542560022207918E-003   1.8635905686763987E-002
  -1.5372766262537210E-002   4.7988152503433690E-003   1.9422018522628842E-002
  -1.2129195479730813E-002   4.5163498145506936E-003   2.0166754271260565E-002
  -8.8856246969241937E-003   4.4068596948426686E-003   2.0870112932660168E-002
  -2.4905296819828115E-002   7.1454372871899707E-003   1.1560357408388899E-002
  -2.1977324661929636E-002   6.5837576871709824E-003   1.2380108181433147E-002
  -1.9049352504031156E-002   5.9917371578118717E-003   1.2610038791894804E-002
  -1.6121380346132676E-002   5.3693756991119723E-003   1.2250149239772815E-002
  -1.3193408188234196E-002   4.7166733110725056E-003   1.1300439525067874E-002
  -2.7755520617256335E-002   8.4082025041972708E-003   5.4806936437667708E-003
  -2.5691590159616196E-002   7.9132593721212147E-003   6.0893890213335536E-003
  -2.3627659701976025E-002   7.1846590652799303E-003   5.5598211609664897E-003
  -2.1563729244335889E-002   6.2224015836741392E-003   3.8919900626658080E-003
  -1.9499798786695714E-002   5.0264869273029533E-003   1.0858957264318209E-003
  -3.0410579220434664E-002   9.6709677212039047E-003  -4.3057553020020567E-004
  -2.9759133538403204E-002   9.2427610570711138E-003  -2.3625179353664594E-004
  -2.9107687856371744E-002   8.3775809727482109E-003  -1.7286343701560514E-003
  -2.8456242174340257E-002   7.0754274682349183E-003  -4.9077232600604828E-003
  -2.7804796492308825E-002   5.3363005435325128E-003  -9.7735184632481431E-003
  -6.5764483127660478E-003   4.0970460786129426E-003   2.9794915949208356E-002
  -6.0475537021408843E-003   6.0989351619123999E-003   3.4220440846143174E-002
  -5.5186590915157208E-003   1.0860866553053961E-002   3.9336915981290854E-002
  -4.9897644808906405E-003   1.8382840252037985E-002   4.5144341354651341E-002
  -4.4608698702653937E-003   2.8664856258864724E-002   5.1642716966223912E-002
  -8.8856246969241937E-003   4.4068596948426686E-003   2.0870112932660168E-002
  -7.5944062715323224E-003   5.6261558034978454E-003   2.5990724023240042E-002
  -6.3031878461404373E-003   9.3300490527951918E-003   3.1945032505141080E-002
  -5.0119694207483231E-003   1.5518539442734618E-002   3.8733038378362783E-002
  -3.7207509953564588E-003   2.4191626973316005E-002   4.6354741642906205E-002
  -1.3193408188234196E-002   4.7166733110725056E-003   1.1300439525067874E-002
  -1.0997118794966801E-002   5.1533764450841235E-003   1.6840691642092093E-002
  -8.8008294016994060E-003   7.7992315525364231E-003   2.3357388303546334E-002
  -6.6045400084321290E-003   1.2654238633431361E-002   3.0850529509430472E-002
  -4.4082506151647272E-003   1.9718397687767286E-002   3.9320115259743660E-002
  -1.9499798786695714E-002   5.0264869273029533E-003   1.0858957264318209E-003
  -1.6255691272444445E-002   4.6805970866698743E-003   6.7703437027002503E-003
  -1.3011583758193154E-002   6.2684140522780984E-003   1.3573983376507198E-002
  -9.7674762439418621E-003   9.7899378241272719E-003   2.1496814747851700E-002
  -6.5233687296905943E-003   1.5245168402218456E-002   3.0538837816735304E-002
  -2.7804796492308825E-002   5.3363005435325128E-003  -9.7735184632481431E-003
  -2.3370123703965184E-002   4.2078177282558471E-003  -4.2203197949360893E-003
  -1.8935450915621377E-002   4.7375965520187746E-003   2.5948177240230352E-003
  -1.4500778127277736E-002   6.9256370148247093E-003   1.0671894093629147E-002
  -1.0066105338933928E-002   1.0771939116669849E-002   2.0010909313881164E-002
 </DataArray>
 </PointData>
 </Piece>
 </UnstructuredGrid>
 </VTKFile>
