 <VTKFile type="UnstructuredGrid"  version="0.1"   >
 <UnstructuredGrid>
 <Piece  NumberOfPoints="           400 "  NumberOfCells="          256 ">
 <Points>
 <DataArray  type="Float64" NumberOfComponents="3"  format="ascii" >
   0.0000000000000000        0.0000000000000000        0.0000000000000000     
   6.2500000000000000E-002   0.0000000000000000        0.0000000000000000     
  0.12500000000000000        0.0000000000000000        0.0000000000000000     
  0.18750000000000000        0.0000000000000000        0.0000000000000000     
  0.25000000000000000        0.0000000000000000        0.0000000000000000     
   0.0000000000000000        6.2500000000000000E-002   0.0000000000000000     
   6.2500000000000000E-002   6.2500000000000000E-002   0.0000000000000000     
  0.12500000000000000        6.2500000000000000E-002   0.0000000000000000     
  0.18750000000000000        6.2500000000000000E-002   0.0000000000000000     
  0.25000000000000000        6.2500000000000000E-002   0.0000000000000000     
   0.0000000000000000       0.12500000000000000        0.0000000000000000     
   6.2500000000000000E-002  0.12500000000000000        0.0000000000000000     
  0.12500000000000000       0.12500000000000000        0.0000000000000000     
  0.18750000000000000       0.12500000000000000        0.0000000000000000     
  0.25000000000000000       0.12500000000000000        0.0000000000000000     
   0.0000000000000000       0.18750000000000000        0.0000000000000000     
   6.2500000000000000E-002  0.18750000000000000        0.0000000000000000     
  0.12500000000000000       0.18750000000000000        0.0000000000000000     
  0.18750000000000000       0.18750000000000000        0.0000000000000000     
  0.25000000000000000       0.18750000000000000        0.0000000000000000     
   0.0000000000000000       0.25000000000000000        0.0000000000000000     
   6.2500000000000000E-002  0.25000000000000000        0.0000000000000000     
  0.12500000000000000       0.25000000000000000        0.0000000000000000     
  0.18750000000000000       0.25000000000000000        0.0000000000000000     
  0.25000000000000000       0.25000000000000000        0.0000000000000000     
  0.25000000000000000        0.0000000000000000        0.0000000000000000     
  0.31250000000000000        0.0000000000000000        0.0000000000000000     
  0.37500000000000000        0.0000000000000000        0.0000000000000000     
  0.43750000000000000        0.0000000000000000        0.0000000000000000     
  0.50000000000000000        0.0000000000000000        0.0000000000000000     
  0.25000000000000000        6.2500000000000000E-002   0.0000000000000000     
  0.31250000000000000        6.2500000000000000E-002   0.0000000000000000     
  0.37500000000000000        6.2500000000000000E-002   0.0000000000000000     
  0.43750000000000000        6.2500000000000000E-002   0.0000000000000000     
  0.50000000000000000        6.2500000000000000E-002   0.0000000000000000     
  0.25000000000000000       0.12500000000000000        0.0000000000000000     
  0.31250000000000000       0.12500000000000000        0.0000000000000000     
  0.37500000000000000       0.12500000000000000        0.0000000000000000     
  0.43750000000000000       0.12500000000000000        0.0000000000000000     
  0.50000000000000000       0.12500000000000000        0.0000000000000000     
  0.25000000000000000       0.18750000000000000        0.0000000000000000     
  0.31250000000000000       0.18750000000000000        0.0000000000000000     
  0.37500000000000000       0.18750000000000000        0.0000000000000000     
  0.43750000000000000       0.18750000000000000        0.0000000000000000     
  0.50000000000000000       0.18750000000000000        0.0000000000000000     
  0.25000000000000000       0.25000000000000000        0.0000000000000000     
  0.31250000000000000       0.25000000000000000        0.0000000000000000     
  0.37500000000000000       0.25000000000000000        0.0000000000000000     
  0.43750000000000000       0.25000000000000000        0.0000000000000000     
  0.50000000000000000       0.25000000000000000        0.0000000000000000     
  0.50000000000000000        0.0000000000000000        0.0000000000000000     
  0.56250000000000000        0.0000000000000000        0.0000000000000000     
  0.62500000000000000        0.0000000000000000        0.0000000000000000     
  0.68750000000000000        0.0000000000000000        0.0000000000000000     
  0.75000000000000000        0.0000000000000000        0.0000000000000000     
  0.50000000000000000        6.2500000000000000E-002   0.0000000000000000     
  0.56250000000000000        6.2500000000000000E-002   0.0000000000000000     
  0.62500000000000000        6.2500000000000000E-002   0.0000000000000000     
  0.68750000000000000        6.2500000000000000E-002   0.0000000000000000     
  0.75000000000000000        6.2500000000000000E-002   0.0000000000000000     
  0.50000000000000000       0.12500000000000000        0.0000000000000000     
  0.56250000000000000       0.12500000000000000        0.0000000000000000     
  0.62500000000000000       0.12500000000000000        0.0000000000000000     
  0.68750000000000000       0.12500000000000000        0.0000000000000000     
  0.75000000000000000       0.12500000000000000        0.0000000000000000     
  0.50000000000000000       0.18750000000000000        0.0000000000000000     
  0.56250000000000000       0.18750000000000000        0.0000000000000000     
  0.62500000000000000       0.18750000000000000        0.0000000000000000     
  0.68750000000000000       0.18750000000000000        0.0000000000000000     
  0.75000000000000000       0.18750000000000000        0.0000000000000000     
  0.50000000000000000       0.25000000000000000        0.0000000000000000     
  0.56250000000000000       0.25000000000000000        0.0000000000000000     
  0.62500000000000000       0.25000000000000000        0.0000000000000000     
  0.68750000000000000       0.25000000000000000        0.0000000000000000     
  0.75000000000000000       0.25000000000000000        0.0000000000000000     
  0.75000000000000000        0.0000000000000000        0.0000000000000000     
  0.81250000000000000        0.0000000000000000        0.0000000000000000     
  0.87500000000000000        0.0000000000000000        0.0000000000000000     
  0.93750000000000000        0.0000000000000000        0.0000000000000000     
   1.0000000000000000        0.0000000000000000        0.0000000000000000     
  0.75000000000000000        6.2500000000000000E-002   0.0000000000000000     
  0.81250000000000000        6.2500000000000000E-002   0.0000000000000000     
  0.87500000000000000        6.2500000000000000E-002   0.0000000000000000     
  0.93750000000000000        6.2500000000000000E-002   0.0000000000000000     
   1.0000000000000000        6.2500000000000000E-002   0.0000000000000000     
  0.75000000000000000       0.12500000000000000        0.0000000000000000     
  0.81250000000000000       0.12500000000000000        0.0000000000000000     
  0.87500000000000000       0.12500000000000000        0.0000000000000000     
  0.93750000000000000       0.12500000000000000        0.0000000000000000     
   1.0000000000000000       0.12500000000000000        0.0000000000000000     
  0.75000000000000000       0.18750000000000000        0.0000000000000000     
  0.81250000000000000       0.18750000000000000        0.0000000000000000     
  0.87500000000000000       0.18750000000000000        0.0000000000000000     
  0.93750000000000000       0.18750000000000000        0.0000000000000000     
   1.0000000000000000       0.18750000000000000        0.0000000000000000     
  0.75000000000000000       0.25000000000000000        0.0000000000000000     
  0.81250000000000000       0.25000000000000000        0.0000000000000000     
  0.87500000000000000       0.25000000000000000        0.0000000000000000     
  0.93750000000000000       0.25000000000000000        0.0000000000000000     
   1.0000000000000000       0.25000000000000000        0.0000000000000000     
   0.0000000000000000       0.25000000000000000        0.0000000000000000     
   6.2500000000000000E-002  0.25000000000000000        0.0000000000000000     
  0.12500000000000000       0.25000000000000000        0.0000000000000000     
  0.18750000000000000       0.25000000000000000        0.0000000000000000     
  0.25000000000000000       0.25000000000000000        0.0000000000000000     
   0.0000000000000000       0.31250000000000000        0.0000000000000000     
   6.2500000000000000E-002  0.31250000000000000        0.0000000000000000     
  0.12500000000000000       0.31250000000000000        0.0000000000000000     
  0.18750000000000000       0.31250000000000000        0.0000000000000000     
  0.25000000000000000       0.31250000000000000        0.0000000000000000     
   0.0000000000000000       0.37500000000000000        0.0000000000000000     
   6.2500000000000000E-002  0.37500000000000000        0.0000000000000000     
  0.12500000000000000       0.37500000000000000        0.0000000000000000     
  0.18750000000000000       0.37500000000000000        0.0000000000000000     
  0.25000000000000000       0.37500000000000000        0.0000000000000000     
   0.0000000000000000       0.43750000000000000        0.0000000000000000     
   6.2500000000000000E-002  0.43750000000000000        0.0000000000000000     
  0.12500000000000000       0.43750000000000000        0.0000000000000000     
  0.18750000000000000       0.43750000000000000        0.0000000000000000     
  0.25000000000000000       0.43750000000000000        0.0000000000000000     
   0.0000000000000000       0.50000000000000000        0.0000000000000000     
   6.2500000000000000E-002  0.50000000000000000        0.0000000000000000     
  0.12500000000000000       0.50000000000000000        0.0000000000000000     
  0.18750000000000000       0.50000000000000000        0.0000000000000000     
  0.25000000000000000       0.50000000000000000        0.0000000000000000     
  0.25000000000000000       0.25000000000000000        0.0000000000000000     
  0.31250000000000000       0.25000000000000000        0.0000000000000000     
  0.37500000000000000       0.25000000000000000        0.0000000000000000     
  0.43750000000000000       0.25000000000000000        0.0000000000000000     
  0.50000000000000000       0.25000000000000000        0.0000000000000000     
  0.25000000000000000       0.31250000000000000        0.0000000000000000     
  0.31250000000000000       0.31250000000000000        0.0000000000000000     
  0.37500000000000000       0.31250000000000000        0.0000000000000000     
  0.43750000000000000       0.31250000000000000        0.0000000000000000     
  0.50000000000000000       0.31250000000000000        0.0000000000000000     
  0.25000000000000000       0.37500000000000000        0.0000000000000000     
  0.31250000000000000       0.37500000000000000        0.0000000000000000     
  0.37500000000000000       0.37500000000000000        0.0000000000000000     
  0.43750000000000000       0.37500000000000000        0.0000000000000000     
  0.50000000000000000       0.37500000000000000        0.0000000000000000     
  0.25000000000000000       0.43750000000000000        0.0000000000000000     
  0.31250000000000000       0.43750000000000000        0.0000000000000000     
  0.37500000000000000       0.43750000000000000        0.0000000000000000     
  0.43750000000000000       0.43750000000000000        0.0000000000000000     
  0.50000000000000000       0.43750000000000000        0.0000000000000000     
  0.25000000000000000       0.50000000000000000        0.0000000000000000     
  0.31250000000000000       0.50000000000000000        0.0000000000000000     
  0.37500000000000000       0.50000000000000000        0.0000000000000000     
  0.43750000000000000       0.50000000000000000        0.0000000000000000     
  0.50000000000000000       0.50000000000000000        0.0000000000000000     
  0.50000000000000000       0.25000000000000000        0.0000000000000000     
  0.56250000000000000       0.25000000000000000        0.0000000000000000     
  0.62500000000000000       0.25000000000000000        0.0000000000000000     
  0.68750000000000000       0.25000000000000000        0.0000000000000000     
  0.75000000000000000       0.25000000000000000        0.0000000000000000     
  0.50000000000000000       0.31250000000000000        0.0000000000000000     
  0.56250000000000000       0.31250000000000000        0.0000000000000000     
  0.62500000000000000       0.31250000000000000        0.0000000000000000     
  0.68750000000000000       0.31250000000000000        0.0000000000000000     
  0.75000000000000000       0.31250000000000000        0.0000000000000000     
  0.50000000000000000       0.37500000000000000        0.0000000000000000     
  0.56250000000000000       0.37500000000000000        0.0000000000000000     
  0.62500000000000000       0.37500000000000000        0.0000000000000000     
  0.68750000000000000       0.37500000000000000        0.0000000000000000     
  0.75000000000000000       0.37500000000000000        0.0000000000000000     
  0.50000000000000000       0.43750000000000000        0.0000000000000000     
  0.56250000000000000       0.43750000000000000        0.0000000000000000     
  0.62500000000000000       0.43750000000000000        0.0000000000000000     
  0.68750000000000000       0.43750000000000000        0.0000000000000000     
  0.75000000000000000       0.43750000000000000        0.0000000000000000     
  0.50000000000000000       0.50000000000000000        0.0000000000000000     
  0.56250000000000000       0.50000000000000000        0.0000000000000000     
  0.62500000000000000       0.50000000000000000        0.0000000000000000     
  0.68750000000000000       0.50000000000000000        0.0000000000000000     
  0.75000000000000000       0.50000000000000000        0.0000000000000000     
  0.75000000000000000       0.25000000000000000        0.0000000000000000     
  0.81250000000000000       0.25000000000000000        0.0000000000000000     
  0.87500000000000000       0.25000000000000000        0.0000000000000000     
  0.93750000000000000       0.25000000000000000        0.0000000000000000     
   1.0000000000000000       0.25000000000000000        0.0000000000000000     
  0.75000000000000000       0.31250000000000000        0.0000000000000000     
  0.81250000000000000       0.31250000000000000        0.0000000000000000     
  0.87500000000000000       0.31250000000000000        0.0000000000000000     
  0.93750000000000000       0.31250000000000000        0.0000000000000000     
   1.0000000000000000       0.31250000000000000        0.0000000000000000     
  0.75000000000000000       0.37500000000000000        0.0000000000000000     
  0.81250000000000000       0.37500000000000000        0.0000000000000000     
  0.87500000000000000       0.37500000000000000        0.0000000000000000     
  0.93750000000000000       0.37500000000000000        0.0000000000000000     
   1.0000000000000000       0.37500000000000000        0.0000000000000000     
  0.75000000000000000       0.43750000000000000        0.0000000000000000     
  0.81250000000000000       0.43750000000000000        0.0000000000000000     
  0.87500000000000000       0.43750000000000000        0.0000000000000000     
  0.93750000000000000       0.43750000000000000        0.0000000000000000     
   1.0000000000000000       0.43750000000000000        0.0000000000000000     
  0.75000000000000000       0.50000000000000000        0.0000000000000000     
  0.81250000000000000       0.50000000000000000        0.0000000000000000     
  0.87500000000000000       0.50000000000000000        0.0000000000000000     
  0.93750000000000000       0.50000000000000000        0.0000000000000000     
   1.0000000000000000       0.50000000000000000        0.0000000000000000     
   0.0000000000000000       0.50000000000000000        0.0000000000000000     
   6.2500000000000000E-002  0.50000000000000000        0.0000000000000000     
  0.12500000000000000       0.50000000000000000        0.0000000000000000     
  0.18750000000000000       0.50000000000000000        0.0000000000000000     
  0.25000000000000000       0.50000000000000000        0.0000000000000000     
   0.0000000000000000       0.56250000000000000        0.0000000000000000     
   6.2500000000000000E-002  0.56250000000000000        0.0000000000000000     
  0.12500000000000000       0.56250000000000000        0.0000000000000000     
  0.18750000000000000       0.56250000000000000        0.0000000000000000     
  0.25000000000000000       0.56250000000000000        0.0000000000000000     
   0.0000000000000000       0.62500000000000000        0.0000000000000000     
   6.2500000000000000E-002  0.62500000000000000        0.0000000000000000     
  0.12500000000000000       0.62500000000000000        0.0000000000000000     
  0.18750000000000000       0.62500000000000000        0.0000000000000000     
  0.25000000000000000       0.62500000000000000        0.0000000000000000     
   0.0000000000000000       0.68750000000000000        0.0000000000000000     
   6.2500000000000000E-002  0.68750000000000000        0.0000000000000000     
  0.12500000000000000       0.68750000000000000        0.0000000000000000     
  0.18750000000000000       0.68750000000000000        0.0000000000000000     
  0.25000000000000000       0.68750000000000000        0.0000000000000000     
   0.0000000000000000       0.75000000000000000        0.0000000000000000     
   6.2500000000000000E-002  0.75000000000000000        0.0000000000000000     
  0.12500000000000000       0.75000000000000000        0.0000000000000000     
  0.18750000000000000       0.75000000000000000        0.0000000000000000     
  0.25000000000000000       0.75000000000000000        0.0000000000000000     
  0.25000000000000000       0.50000000000000000        0.0000000000000000     
  0.31250000000000000       0.50000000000000000        0.0000000000000000     
  0.37500000000000000       0.50000000000000000        0.0000000000000000     
  0.43750000000000000       0.50000000000000000        0.0000000000000000     
  0.50000000000000000       0.50000000000000000        0.0000000000000000     
  0.25000000000000000       0.56250000000000000        0.0000000000000000     
  0.31250000000000000       0.56250000000000000        0.0000000000000000     
  0.37500000000000000       0.56250000000000000        0.0000000000000000     
  0.43750000000000000       0.56250000000000000        0.0000000000000000     
  0.50000000000000000       0.56250000000000000        0.0000000000000000     
  0.25000000000000000       0.62500000000000000        0.0000000000000000     
  0.31250000000000000       0.62500000000000000        0.0000000000000000     
  0.37500000000000000       0.62500000000000000        0.0000000000000000     
  0.43750000000000000       0.62500000000000000        0.0000000000000000     
  0.50000000000000000       0.62500000000000000        0.0000000000000000     
  0.25000000000000000       0.68750000000000000        0.0000000000000000     
  0.31250000000000000       0.68750000000000000        0.0000000000000000     
  0.37500000000000000       0.68750000000000000        0.0000000000000000     
  0.43750000000000000       0.68750000000000000        0.0000000000000000     
  0.50000000000000000       0.68750000000000000        0.0000000000000000     
  0.25000000000000000       0.75000000000000000        0.0000000000000000     
  0.31250000000000000       0.75000000000000000        0.0000000000000000     
  0.37500000000000000       0.75000000000000000        0.0000000000000000     
  0.43750000000000000       0.75000000000000000        0.0000000000000000     
  0.50000000000000000       0.75000000000000000        0.0000000000000000     
  0.50000000000000000       0.50000000000000000        0.0000000000000000     
  0.56250000000000000       0.50000000000000000        0.0000000000000000     
  0.62500000000000000       0.50000000000000000        0.0000000000000000     
  0.68750000000000000       0.50000000000000000        0.0000000000000000     
  0.75000000000000000       0.50000000000000000        0.0000000000000000     
  0.50000000000000000       0.56250000000000000        0.0000000000000000     
  0.56250000000000000       0.56250000000000000        0.0000000000000000     
  0.62500000000000000       0.56250000000000000        0.0000000000000000     
  0.68750000000000000       0.56250000000000000        0.0000000000000000     
  0.75000000000000000       0.56250000000000000        0.0000000000000000     
  0.50000000000000000       0.62500000000000000        0.0000000000000000     
  0.56250000000000000       0.62500000000000000        0.0000000000000000     
  0.62500000000000000       0.62500000000000000        0.0000000000000000     
  0.68750000000000000       0.62500000000000000        0.0000000000000000     
  0.75000000000000000       0.62500000000000000        0.0000000000000000     
  0.50000000000000000       0.68750000000000000        0.0000000000000000     
  0.56250000000000000       0.68750000000000000        0.0000000000000000     
  0.62500000000000000       0.68750000000000000        0.0000000000000000     
  0.68750000000000000       0.68750000000000000        0.0000000000000000     
  0.75000000000000000       0.68750000000000000        0.0000000000000000     
  0.50000000000000000       0.75000000000000000        0.0000000000000000     
  0.56250000000000000       0.75000000000000000        0.0000000000000000     
  0.62500000000000000       0.75000000000000000        0.0000000000000000     
  0.68750000000000000       0.75000000000000000        0.0000000000000000     
  0.75000000000000000       0.75000000000000000        0.0000000000000000     
  0.75000000000000000       0.50000000000000000        0.0000000000000000     
  0.81250000000000000       0.50000000000000000        0.0000000000000000     
  0.87500000000000000       0.50000000000000000        0.0000000000000000     
  0.93750000000000000       0.50000000000000000        0.0000000000000000     
   1.0000000000000000       0.50000000000000000        0.0000000000000000     
  0.75000000000000000       0.56250000000000000        0.0000000000000000     
  0.81250000000000000       0.56250000000000000        0.0000000000000000     
  0.87500000000000000       0.56250000000000000        0.0000000000000000     
  0.93750000000000000       0.56250000000000000        0.0000000000000000     
   1.0000000000000000       0.56250000000000000        0.0000000000000000     
  0.75000000000000000       0.62500000000000000        0.0000000000000000     
  0.81250000000000000       0.62500000000000000        0.0000000000000000     
  0.87500000000000000       0.62500000000000000        0.0000000000000000     
  0.93750000000000000       0.62500000000000000        0.0000000000000000     
   1.0000000000000000       0.62500000000000000        0.0000000000000000     
  0.75000000000000000       0.68750000000000000        0.0000000000000000     
  0.81250000000000000       0.68750000000000000        0.0000000000000000     
  0.87500000000000000       0.68750000000000000        0.0000000000000000     
  0.93750000000000000       0.68750000000000000        0.0000000000000000     
   1.0000000000000000       0.68750000000000000        0.0000000000000000     
  0.75000000000000000       0.75000000000000000        0.0000000000000000     
  0.81250000000000000       0.75000000000000000        0.0000000000000000     
  0.87500000000000000       0.75000000000000000        0.0000000000000000     
  0.93750000000000000       0.75000000000000000        0.0000000000000000     
   1.0000000000000000       0.75000000000000000        0.0000000000000000     
   0.0000000000000000       0.75000000000000000        0.0000000000000000     
   6.2500000000000000E-002  0.75000000000000000        0.0000000000000000     
  0.12500000000000000       0.75000000000000000        0.0000000000000000     
  0.18750000000000000       0.75000000000000000        0.0000000000000000     
  0.25000000000000000       0.75000000000000000        0.0000000000000000     
   0.0000000000000000       0.81250000000000000        0.0000000000000000     
   6.2500000000000000E-002  0.81250000000000000        0.0000000000000000     
  0.12500000000000000       0.81250000000000000        0.0000000000000000     
  0.18750000000000000       0.81250000000000000        0.0000000000000000     
  0.25000000000000000       0.81250000000000000        0.0000000000000000     
   0.0000000000000000       0.87500000000000000        0.0000000000000000     
   6.2500000000000000E-002  0.87500000000000000        0.0000000000000000     
  0.12500000000000000       0.87500000000000000        0.0000000000000000     
  0.18750000000000000       0.87500000000000000        0.0000000000000000     
  0.25000000000000000       0.87500000000000000        0.0000000000000000     
   0.0000000000000000       0.93750000000000000        0.0000000000000000     
   6.2500000000000000E-002  0.93750000000000000        0.0000000000000000     
  0.12500000000000000       0.93750000000000000        0.0000000000000000     
  0.18750000000000000       0.93750000000000000        0.0000000000000000     
  0.25000000000000000       0.93750000000000000        0.0000000000000000     
   0.0000000000000000        1.0000000000000000        0.0000000000000000     
   6.2500000000000000E-002   1.0000000000000000        0.0000000000000000     
  0.12500000000000000        1.0000000000000000        0.0000000000000000     
  0.18750000000000000        1.0000000000000000        0.0000000000000000     
  0.25000000000000000        1.0000000000000000        0.0000000000000000     
  0.25000000000000000       0.75000000000000000        0.0000000000000000     
  0.31250000000000000       0.75000000000000000        0.0000000000000000     
  0.37500000000000000       0.75000000000000000        0.0000000000000000     
  0.43750000000000000       0.75000000000000000        0.0000000000000000     
  0.50000000000000000       0.75000000000000000        0.0000000000000000     
  0.25000000000000000       0.81250000000000000        0.0000000000000000     
  0.31250000000000000       0.81250000000000000        0.0000000000000000     
  0.37500000000000000       0.81250000000000000        0.0000000000000000     
  0.43750000000000000       0.81250000000000000        0.0000000000000000     
  0.50000000000000000       0.81250000000000000        0.0000000000000000     
  0.25000000000000000       0.87500000000000000        0.0000000000000000     
  0.31250000000000000       0.87500000000000000        0.0000000000000000     
  0.37500000000000000       0.87500000000000000        0.0000000000000000     
  0.43750000000000000       0.87500000000000000        0.0000000000000000     
  0.50000000000000000       0.87500000000000000        0.0000000000000000     
  0.25000000000000000       0.93750000000000000        0.0000000000000000     
  0.31250000000000000       0.93750000000000000        0.0000000000000000     
  0.37500000000000000       0.93750000000000000        0.0000000000000000     
  0.43750000000000000       0.93750000000000000        0.0000000000000000     
  0.50000000000000000       0.93750000000000000        0.0000000000000000     
  0.25000000000000000        1.0000000000000000        0.0000000000000000     
  0.31250000000000000        1.0000000000000000        0.0000000000000000     
  0.37500000000000000        1.0000000000000000        0.0000000000000000     
  0.43750000000000000        1.0000000000000000        0.0000000000000000     
  0.50000000000000000        1.0000000000000000        0.0000000000000000     
  0.50000000000000000       0.75000000000000000        0.0000000000000000     
  0.56250000000000000       0.75000000000000000        0.0000000000000000     
  0.62500000000000000       0.75000000000000000        0.0000000000000000     
  0.68750000000000000       0.75000000000000000        0.0000000000000000     
  0.75000000000000000       0.75000000000000000        0.0000000000000000     
  0.50000000000000000       0.81250000000000000        0.0000000000000000     
  0.56250000000000000       0.81250000000000000        0.0000000000000000     
  0.62500000000000000       0.81250000000000000        0.0000000000000000     
  0.68750000000000000       0.81250000000000000        0.0000000000000000     
  0.75000000000000000       0.81250000000000000        0.0000000000000000     
  0.50000000000000000       0.87500000000000000        0.0000000000000000     
  0.56250000000000000       0.87500000000000000        0.0000000000000000     
  0.62500000000000000       0.87500000000000000        0.0000000000000000     
  0.68750000000000000       0.87500000000000000        0.0000000000000000     
  0.75000000000000000       0.87500000000000000        0.0000000000000000     
  0.50000000000000000       0.93750000000000000        0.0000000000000000     
  0.56250000000000000       0.93750000000000000        0.0000000000000000     
  0.62500000000000000       0.93750000000000000        0.0000000000000000     
  0.68750000000000000       0.93750000000000000        0.0000000000000000     
  0.75000000000000000       0.93750000000000000        0.0000000000000000     
  0.50000000000000000        1.0000000000000000        0.0000000000000000     
  0.56250000000000000        1.0000000000000000        0.0000000000000000     
  0.62500000000000000        1.0000000000000000        0.0000000000000000     
  0.68750000000000000        1.0000000000000000        0.0000000000000000     
  0.75000000000000000        1.0000000000000000        0.0000000000000000     
  0.75000000000000000       0.75000000000000000        0.0000000000000000     
  0.81250000000000000       0.75000000000000000        0.0000000000000000     
  0.87500000000000000       0.75000000000000000        0.0000000000000000     
  0.93750000000000000       0.75000000000000000        0.0000000000000000     
   1.0000000000000000       0.75000000000000000        0.0000000000000000     
  0.75000000000000000       0.81250000000000000        0.0000000000000000     
  0.81250000000000000       0.81250000000000000        0.0000000000000000     
  0.87500000000000000       0.81250000000000000        0.0000000000000000     
  0.93750000000000000       0.81250000000000000        0.0000000000000000     
   1.0000000000000000       0.81250000000000000        0.0000000000000000     
  0.75000000000000000       0.87500000000000000        0.0000000000000000     
  0.81250000000000000       0.87500000000000000        0.0000000000000000     
  0.87500000000000000       0.87500000000000000        0.0000000000000000     
  0.93750000000000000       0.87500000000000000        0.0000000000000000     
   1.0000000000000000       0.87500000000000000        0.0000000000000000     
  0.75000000000000000       0.93750000000000000        0.0000000000000000     
  0.81250000000000000       0.93750000000000000        0.0000000000000000     
  0.87500000000000000       0.93750000000000000        0.0000000000000000     
  0.93750000000000000       0.93750000000000000        0.0000000000000000     
   1.0000000000000000       0.93750000000000000        0.0000000000000000     
  0.75000000000000000        1.0000000000000000        0.0000000000000000     
  0.81250000000000000        1.0000000000000000        0.0000000000000000     
  0.87500000000000000        1.0000000000000000        0.0000000000000000     
  0.93750000000000000        1.0000000000000000        0.0000000000000000     
   1.0000000000000000        1.0000000000000000        0.0000000000000000     
 </DataArray>
 </Points>
 <Cells>
 <DataArray  type="Int32"  Name="connectivity"  format="ascii">
           0           1           6           5
           1           2           7           6
           2           3           8           7
           3           4           9           8
           5           6          11          10
           6           7          12          11
           7           8          13          12
           8           9          14          13
          10          11          16          15
          11          12          17          16
          12          13          18          17
          13          14          19          18
          15          16          21          20
          16          17          22          21
          17          18          23          22
          18          19          24          23
          25          26          31          30
          26          27          32          31
          27          28          33          32
          28          29          34          33
          30          31          36          35
          31          32          37          36
          32          33          38          37
          33          34          39          38
          35          36          41          40
          36          37          42          41
          37          38          43          42
          38          39          44          43
          40          41          46          45
          41          42          47          46
          42          43          48          47
          43          44          49          48
          50          51          56          55
          51          52          57          56
          52          53          58          57
          53          54          59          58
          55          56          61          60
          56          57          62          61
          57          58          63          62
          58          59          64          63
          60          61          66          65
          61          62          67          66
          62          63          68          67
          63          64          69          68
          65          66          71          70
          66          67          72          71
          67          68          73          72
          68          69          74          73
          75          76          81          80
          76          77          82          81
          77          78          83          82
          78          79          84          83
          80          81          86          85
          81          82          87          86
          82          83          88          87
          83          84          89          88
          85          86          91          90
          86          87          92          91
          87          88          93          92
          88          89          94          93
          90          91          96          95
          91          92          97          96
          92          93          98          97
          93          94          99          98
         100         101         106         105
         101         102         107         106
         102         103         108         107
         103         104         109         108
         105         106         111         110
         106         107         112         111
         107         108         113         112
         108         109         114         113
         110         111         116         115
         111         112         117         116
         112         113         118         117
         113         114         119         118
         115         116         121         120
         116         117         122         121
         117         118         123         122
         118         119         124         123
         125         126         131         130
         126         127         132         131
         127         128         133         132
         128         129         134         133
         130         131         136         135
         131         132         137         136
         132         133         138         137
         133         134         139         138
         135         136         141         140
         136         137         142         141
         137         138         143         142
         138         139         144         143
         140         141         146         145
         141         142         147         146
         142         143         148         147
         143         144         149         148
         150         151         156         155
         151         152         157         156
         152         153         158         157
         153         154         159         158
         155         156         161         160
         156         157         162         161
         157         158         163         162
         158         159         164         163
         160         161         166         165
         161         162         167         166
         162         163         168         167
         163         164         169         168
         165         166         171         170
         166         167         172         171
         167         168         173         172
         168         169         174         173
         175         176         181         180
         176         177         182         181
         177         178         183         182
         178         179         184         183
         180         181         186         185
         181         182         187         186
         182         183         188         187
         183         184         189         188
         185         186         191         190
         186         187         192         191
         187         188         193         192
         188         189         194         193
         190         191         196         195
         191         192         197         196
         192         193         198         197
         193         194         199         198
         200         201         206         205
         201         202         207         206
         202         203         208         207
         203         204         209         208
         205         206         211         210
         206         207         212         211
         207         208         213         212
         208         209         214         213
         210         211         216         215
         211         212         217         216
         212         213         218         217
         213         214         219         218
         215         216         221         220
         216         217         222         221
         217         218         223         222
         218         219         224         223
         225         226         231         230
         226         227         232         231
         227         228         233         232
         228         229         234         233
         230         231         236         235
         231         232         237         236
         232         233         238         237
         233         234         239         238
         235         236         241         240
         236         237         242         241
         237         238         243         242
         238         239         244         243
         240         241         246         245
         241         242         247         246
         242         243         248         247
         243         244         249         248
         250         251         256         255
         251         252         257         256
         252         253         258         257
         253         254         259         258
         255         256         261         260
         256         257         262         261
         257         258         263         262
         258         259         264         263
         260         261         266         265
         261         262         267         266
         262         263         268         267
         263         264         269         268
         265         266         271         270
         266         267         272         271
         267         268         273         272
         268         269         274         273
         275         276         281         280
         276         277         282         281
         277         278         283         282
         278         279         284         283
         280         281         286         285
         281         282         287         286
         282         283         288         287
         283         284         289         288
         285         286         291         290
         286         287         292         291
         287         288         293         292
         288         289         294         293
         290         291         296         295
         291         292         297         296
         292         293         298         297
         293         294         299         298
         300         301         306         305
         301         302         307         306
         302         303         308         307
         303         304         309         308
         305         306         311         310
         306         307         312         311
         307         308         313         312
         308         309         314         313
         310         311         316         315
         311         312         317         316
         312         313         318         317
         313         314         319         318
         315         316         321         320
         316         317         322         321
         317         318         323         322
         318         319         324         323
         325         326         331         330
         326         327         332         331
         327         328         333         332
         328         329         334         333
         330         331         336         335
         331         332         337         336
         332         333         338         337
         333         334         339         338
         335         336         341         340
         336         337         342         341
         337         338         343         342
         338         339         344         343
         340         341         346         345
         341         342         347         346
         342         343         348         347
         343         344         349         348
         350         351         356         355
         351         352         357         356
         352         353         358         357
         353         354         359         358
         355         356         361         360
         356         357         362         361
         357         358         363         362
         358         359         364         363
         360         361         366         365
         361         362         367         366
         362         363         368         367
         363         364         369         368
         365         366         371         370
         366         367         372         371
         367         368         373         372
         368         369         374         373
         375         376         381         380
         376         377         382         381
         377         378         383         382
         378         379         384         383
         380         381         386         385
         381         382         387         386
         382         383         388         387
         383         384         389         388
         385         386         391         390
         386         387         392         391
         387         388         393         392
         388         389         394         393
         390         391         396         395
         391         392         397         396
         392         393         398         397
         393         394         399         398
 </DataArray>
 <DataArray  type="Int32"  Name="offsets"  format="ascii"> 
           4
           8
          12
          16
          20
          24
          28
          32
          36
          40
          44
          48
          52
          56
          60
          64
          68
          72
          76
          80
          84
          88
          92
          96
         100
         104
         108
         112
         116
         120
         124
         128
         132
         136
         140
         144
         148
         152
         156
         160
         164
         168
         172
         176
         180
         184
         188
         192
         196
         200
         204
         208
         212
         216
         220
         224
         228
         232
         236
         240
         244
         248
         252
         256
         260
         264
         268
         272
         276
         280
         284
         288
         292
         296
         300
         304
         308
         312
         316
         320
         324
         328
         332
         336
         340
         344
         348
         352
         356
         360
         364
         368
         372
         376
         380
         384
         388
         392
         396
         400
         404
         408
         412
         416
         420
         424
         428
         432
         436
         440
         444
         448
         452
         456
         460
         464
         468
         472
         476
         480
         484
         488
         492
         496
         500
         504
         508
         512
         516
         520
         524
         528
         532
         536
         540
         544
         548
         552
         556
         560
         564
         568
         572
         576
         580
         584
         588
         592
         596
         600
         604
         608
         612
         616
         620
         624
         628
         632
         636
         640
         644
         648
         652
         656
         660
         664
         668
         672
         676
         680
         684
         688
         692
         696
         700
         704
         708
         712
         716
         720
         724
         728
         732
         736
         740
         744
         748
         752
         756
         760
         764
         768
         772
         776
         780
         784
         788
         792
         796
         800
         804
         808
         812
         816
         820
         824
         828
         832
         836
         840
         844
         848
         852
         856
         860
         864
         868
         872
         876
         880
         884
         888
         892
         896
         900
         904
         908
         912
         916
         920
         924
         928
         932
         936
         940
         944
         948
         952
         956
         960
         964
         968
         972
         976
         980
         984
         988
         992
         996
        1000
        1004
        1008
        1012
        1016
        1020
        1024
 </DataArray>
 <DataArray  type="UInt8"  Name="types"  format="ascii">
 9
 9
 9
 9
 9
 9
 9
 9
 9
 9
 9
 9
 9
 9
 9
 9
 9
 9
 9
 9
 9
 9
 9
 9
 9
 9
 9
 9
 9
 9
 9
 9
 9
 9
 9
 9
 9
 9
 9
 9
 9
 9
 9
 9
 9
 9
 9
 9
 9
 9
 9
 9
 9
 9
 9
 9
 9
 9
 9
 9
 9
 9
 9
 9
 9
 9
 9
 9
 9
 9
 9
 9
 9
 9
 9
 9
 9
 9
 9
 9
 9
 9
 9
 9
 9
 9
 9
 9
 9
 9
 9
 9
 9
 9
 9
 9
 9
 9
 9
 9
 9
 9
 9
 9
 9
 9
 9
 9
 9
 9
 9
 9
 9
 9
 9
 9
 9
 9
 9
 9
 9
 9
 9
 9
 9
 9
 9
 9
 9
 9
 9
 9
 9
 9
 9
 9
 9
 9
 9
 9
 9
 9
 9
 9
 9
 9
 9
 9
 9
 9
 9
 9
 9
 9
 9
 9
 9
 9
 9
 9
 9
 9
 9
 9
 9
 9
 9
 9
 9
 9
 9
 9
 9
 9
 9
 9
 9
 9
 9
 9
 9
 9
 9
 9
 9
 9
 9
 9
 9
 9
 9
 9
 9
 9
 9
 9
 9
 9
 9
 9
 9
 9
 9
 9
 9
 9
 9
 9
 9
 9
 9
 9
 9
 9
 9
 9
 9
 9
 9
 9
 9
 9
 9
 9
 9
 9
 9
 9
 9
 9
 9
 9
 9
 9
 9
 9
 9
 9
 9
 9
 9
 9
 9
 9
 9
 9
 9
 9
 9
 9
 9
 9
 9
 9
 9
 9
 </DataArray>
 </Cells> 
 <PointData>
 <DataArray  type="Float64" Name="disp" NumberOfComponents="3" format="ascii">
   0.0000000000000000        0.0000000000000000        0.0000000000000000     
   1.0696174939262811E-002   6.3577866444135007E-003   0.0000000000000000     
   2.0518245134463358E-002   1.2953007699934904E-002   0.0000000000000000     
   2.9466210585601643E-002   1.9785663166564209E-002   0.0000000000000000     
   3.7540071292677668E-002   2.6855753044301420E-002   0.0000000000000000     
   0.0000000000000000        0.0000000000000000        0.0000000000000000     
   8.1804264313534263E-003   5.0200405021869361E-003   0.0000000000000000     
   1.5989592689819816E-002   1.0762010717198955E-002   0.0000000000000000     
   2.3427498775399173E-002   1.7225910645036063E-002   0.0000000000000000     
   3.0494144688091498E-002   2.4411740285698251E-002   0.0000000000000000     
   0.0000000000000000        0.0000000000000000        0.0000000000000000     
   6.1424067219945097E-003   4.0071137999261684E-003   0.0000000000000000     
   1.2246892046184572E-002   9.0813524834966533E-003   0.0000000000000000     
   1.8313455972570190E-002   1.5222716050711457E-002   0.0000000000000000     
   2.4342098501151360E-002   2.2431204501570570E-002   0.0000000000000000     
   0.0000000000000000        0.0000000000000000        0.0000000000000000     
   4.5821158111860622E-003   3.3190065376311993E-003   0.0000000000000000     
   9.2901432035576263E-003   7.9110329988279961E-003   0.0000000000000000     
   1.4124082177114692E-002   1.3776079383590387E-002   0.0000000000000000     
   1.9083932731857260E-002   2.0914145691918379E-002   0.0000000000000000     
   0.0000000000000000        0.0000000000000000        0.0000000000000000     
   3.4995536989280845E-003   2.9557187153020272E-003   0.0000000000000000     
   7.1193461619389782E-003   7.2510522631929822E-003   0.0000000000000000     
   1.0859377389032681E-002   1.2886000643672863E-002   0.0000000000000000     
   1.4719647380209193E-002   1.9860563856741668E-002   0.0000000000000000     
   3.7540071292677668E-002   2.6855753044301420E-002   0.0000000000000000     
   4.4984081976835351E-002   3.4501328980078266E-002   0.0000000000000000     
   5.2042497359218620E-002   4.3060442620826478E-002   0.0000000000000000     
   5.8715317439827476E-002   5.2533093966546068E-002   0.0000000000000000     
   6.5002542218661918E-002   6.2919283017237024E-002   0.0000000000000000     
   3.0494144688091498E-002   2.4411740285698251E-002   0.0000000000000000     
   3.7193735592625995E-002   3.2370835128895256E-002   0.0000000000000000     
   4.3530476653731887E-002   4.1154530664336796E-002   0.0000000000000000     
   4.9504367871409168E-002   5.0762826892022890E-002   0.0000000000000000     
   5.5115409245657832E-002   6.1195723811953512E-002   0.0000000000000000     
   2.4342098501151360E-002   2.2431204501570570E-002   0.0000000000000000     
   3.0193049828200570E-002   3.0562523917599834E-002   0.0000000000000000     
   3.5726540149990306E-002   3.9472380380325064E-002   0.0000000000000000     
   4.0942569466520563E-002   4.9160773889746261E-002   0.0000000000000000     
   4.5841137777791356E-002   5.9627704445863433E-002   0.0000000000000000     
   1.9083932731857260E-002   2.0914145691918379E-002   0.0000000000000000     
   2.3982024683559075E-002   2.9076395346192000E-002   0.0000000000000000     
   2.8630687847993878E-002   3.8013991768791271E-002   0.0000000000000000     
   3.3029922225161677E-002   4.7726934959716208E-002   0.0000000000000000     
   3.7179727815062458E-002   5.8215224918966808E-002   0.0000000000000000     
   1.4719647380209193E-002   1.9860563856741668E-002   0.0000000000000000     
   1.8560660158701503E-002   2.7912449414671747E-002   0.0000000000000000     
   2.2242919747742604E-002   3.6779364829735428E-002   0.0000000000000000     
   2.5766426147332488E-002   4.6461310101932718E-002   0.0000000000000000     
   2.9131179357471160E-002   5.6958285231263617E-002   0.0000000000000000     
   6.5002542218661918E-002   6.2919283017237024E-002   0.0000000000000000     
   7.0886916356539820E-002   7.4099367596967752E-002   0.0000000000000000     
   7.6351184514279080E-002   8.5953705529806634E-002   0.0000000000000000     
   8.1395346691879714E-002   9.8482296815753670E-002   0.0000000000000000     
   8.6019402889341678E-002  0.11168514145480887        0.0000000000000000     
   5.5115409245657832E-002   6.1195723811953512E-002   0.0000000000000000     
   6.0374449710507594E-002   7.2402453585774379E-002   0.0000000000000000     
   6.5292338199988115E-002   8.4332248375131175E-002   0.0000000000000000     
   6.9869074714099394E-002   9.6985108180023885E-002   0.0000000000000000     
   7.4104659252841459E-002  0.11036103300045255        0.0000000000000000     
   4.5841137777791356E-002   5.9627704445863433E-002   0.0000000000000000     
   5.0442602116593821E-002   7.0862085967282218E-002   0.0000000000000000     
   5.4767319515719094E-002   8.2852832372608237E-002   0.0000000000000000     
   5.8815289975167197E-002   9.5599943661841519E-002   0.0000000000000000     
   6.2586513494938129E-002  0.10910341983498206        0.0000000000000000     
   3.7179727815062458E-002   5.8215224918966808E-002   0.0000000000000000     
   4.1091373574798487E-002   6.9478264741491283E-002   0.0000000000000000     
   4.4776128461472033E-002   8.1515457522237877E-002   0.0000000000000000     
   4.8233992475083080E-002   9.4326803261206613E-002   0.0000000000000000     
   5.1464965615631630E-002  0.10791230195839739        0.0000000000000000     
   2.9131179357471160E-002   5.6958285231263617E-002   0.0000000000000000     
   3.2320764085121634E-002   6.8250989908401588E-002   0.0000000000000000     
   3.5318765037246944E-002   8.0320123824020068E-002   0.0000000000000000     
   3.8125182213847066E-002   9.3165686978119042E-002   0.0000000000000000     
   4.0740015614922007E-002  0.10678767937069855        0.0000000000000000     
   8.6019402889341678E-002  0.11168514145480887        0.0000000000000000     
   9.0005951294894276E-002  0.12530313526574860        0.0000000000000000     
   9.3137590096766767E-002  0.13907717406734921        0.0000000000000000     
   9.5414319294959152E-002  0.15300725785961067        0.0000000000000000     
   9.6836138889471443E-002  0.16709338664253304        0.0000000000000000     
   7.4104659252841459E-002  0.11036103300045255        0.0000000000000000     
   7.7838673985415358E-002  0.12420847215712334        0.0000000000000000     
   8.0910701081022163E-002  0.13827587497074242        0.0000000000000000     
   8.3320740539661875E-002  0.15256324144130978        0.0000000000000000     
   8.5068792361334494E-002  0.16707057156882540        0.0000000000000000     
   6.2586513494938129E-002  0.10910341983498206        0.0000000000000000     
   6.5967417438935180E-002  0.12311669666909832        0.0000000000000000     
   6.8844429171061650E-002  0.13739320994125875        0.0000000000000000     
   7.1217548691317578E-002  0.15193295965146339        0.0000000000000000     
   7.3086775999702938E-002  0.16673594579971218        0.0000000000000000     
   5.1464965615631630E-002  0.10791230195839739        0.0000000000000000     
   5.4392181655453682E-002  0.12202780880167356        0.0000000000000000     
   5.6938774366885221E-002  0.13642917897889828        0.0000000000000000     
   5.9104743749926254E-002  0.15111641249007154        0.0000000000000000     
   6.0890089804576761E-002  0.16608950933519340        0.0000000000000000     
   4.0740015614922007E-002  0.10678767937069855        0.0000000000000000     
   4.3112966634970898E-002  0.12094180855484904        0.0000000000000000     
   4.5193736668492870E-002  0.13538378208366095        0.0000000000000000     
   4.6982325715487896E-002  0.15011359995713427        0.0000000000000000     
   4.8478733775955990E-002  0.16513126217526902        0.0000000000000000     
   0.0000000000000000        0.0000000000000000        0.0000000000000000     
   3.4995536989280845E-003   2.9557187153020272E-003   0.0000000000000000     
   7.1193461619389782E-003   7.2510522631929822E-003   0.0000000000000000     
   1.0859377389032681E-002   1.2886000643672863E-002   0.0000000000000000     
   1.4719647380209193E-002   1.9860563856741668E-002   0.0000000000000000     
   0.0000000000000000        0.0000000000000000        0.0000000000000000     
   2.6480583080080223E-003   2.7799503757490376E-003   0.0000000000000000     
   5.3410211709819183E-003   6.8968423222145626E-003   0.0000000000000000     
   8.0788885889216903E-003   1.2350675839396575E-002   0.0000000000000000     
   1.0861660561827335E-002   1.9141450927295075E-002   0.0000000000000000     
   0.0000000000000000        0.0000000000000000        0.0000000000000000     
   1.7809675612133220E-003   2.6544015617826137E-003   0.0000000000000000     
   3.5616884803397380E-003   6.6438352215156867E-003   0.0000000000000000     
   5.3421627573792471E-003   1.1968300979199218E-002   0.0000000000000000     
   7.1223903923318494E-003   1.8627798834833210E-002   0.0000000000000000     
   0.0000000000000000        0.0000000000000000        0.0000000000000000     
   8.9828145854398437E-004   2.5790722734027561E-003   0.0000000000000000     
   1.7813480900124357E-003   6.4920309610963537E-003   0.0000000000000000     
   2.6491998944053541E-003   1.1738876063080793E-002   0.0000000000000000     
   3.5018368717227391E-003   1.8319607579356079E-002   0.0000000000000000     
   0.0000000000000000        0.0000000000000000        0.0000000000000000     
   8.9988780316296868E-018   2.5539625106094643E-003   0.0000000000000000     
   1.2359904766334751E-017   6.4414295409565654E-003   0.0000000000000000     
   1.0625181290357943E-017   1.1662401091041301E-002   0.0000000000000000     
   3.5778671692021646E-018   1.8216877160863676E-002   0.0000000000000000     
   1.4719647380209193E-002   1.9860563856741668E-002   0.0000000000000000     
   1.8560660158701503E-002   2.7912449414671747E-002   0.0000000000000000     
   2.2242919747742604E-002   3.6779364829735428E-002   0.0000000000000000     
   2.5766426147332488E-002   4.6461310101932718E-002   0.0000000000000000     
   2.9131179357471160E-002   5.6958285231263617E-002   0.0000000000000000     
   1.0861660561827335E-002   1.9141450927295075E-002   0.0000000000000000     
   1.3630718237558459E-002   2.7034951629542343E-002   0.0000000000000000     
   1.6327442763974666E-002   3.5796961989770670E-002   0.0000000000000000     
   1.8951834141075961E-002   4.5427482007980031E-002   0.0000000000000000     
   2.1503892368862333E-002   5.5926511684170441E-002   0.0000000000000000     
   7.1223903923318494E-003   1.8627798834833210E-002   0.0000000000000000     
   8.8939609040605272E-003   2.6408167497307046E-002   0.0000000000000000     
   1.0648463811428257E-002   3.5095245675510103E-002   0.0000000000000000     
   1.2385899114435038E-002   4.4689033369442376E-002   0.0000000000000000     
   1.4106266813080873E-002   5.5189530579103876E-002   0.0000000000000000     
   3.5018368717227391E-003   1.8319607579356079E-002   0.0000000000000000     
   4.3503881582077049E-003   2.6032097017965845E-002   0.0000000000000000     
   5.2059828901033665E-003   3.4674215886953741E-002   0.0000000000000000     
   6.0686210674097225E-003   4.4245964186319757E-002   0.0000000000000000     
   6.9383026901267729E-003   5.4747341916063903E-002   0.0000000000000000     
   3.5778671692021646E-018   1.8216877160863676E-002   0.0000000000000000     
  -1.8431436932253575E-018   2.5906740191518746E-002   0.0000000000000000     
   1.5449880957918438E-018   3.4533872624101583E-002   0.0000000000000000     
   1.4155614614513867E-017   4.4098274458612176E-002   0.0000000000000000     
   3.5561831257524545E-017   5.4599945695050528E-002   0.0000000000000000     
   2.9131179357471160E-002   5.6958285231263617E-002   0.0000000000000000     
   3.2320764085121634E-002   6.8250989908401588E-002   0.0000000000000000     
   3.5318765037246944E-002   8.0320123824020068E-002   0.0000000000000000     
   3.8125182213847066E-002   9.3165686978119042E-002   0.0000000000000000     
   4.0740015614922007E-002  0.10678767937069855        0.0000000000000000     
   2.1503892368862333E-002   5.5926511684170441E-002   0.0000000000000000     
   2.3940491357088318E-002   6.7245613476254851E-002   0.0000000000000000     
   2.6218505015508421E-002   7.9336349842146187E-002   0.0000000000000000     
   2.8337933344122653E-002   9.2198720781844420E-002   0.0000000000000000     
   3.0298776342931003E-002  0.10583272629534961        0.0000000000000000     
   1.4106266813080873E-002   5.5189530579103876E-002   0.0000000000000000     
   1.5760273100223612E-002   6.6527487453292886E-002   0.0000000000000000     
   1.7298624168721112E-002   7.8633654140807668E-002   0.0000000000000000     
   1.8721320018573361E-002   9.1508030641648239E-002   0.0000000000000000     
   2.0028360649780367E-002  0.10515061695581461        0.0000000000000000     
   6.9383026901267729E-003   5.4747341916063903E-002   0.0000000000000000     
   7.7801093145275320E-003   6.6096611839515665E-002   0.0000000000000000     
   8.5591224968850060E-003   7.8212036720004541E-002   0.0000000000000000     
   9.2753422371991984E-003   9.1093616557530482E-002   0.0000000000000000     
   9.9287685354701085E-003  0.10474135135209356        0.0000000000000000     
   3.5561831257524545E-017   5.4599945695050528E-002   0.0000000000000000     
   6.7220534694101275E-017   6.5952986634923202E-002   0.0000000000000000     
   1.0820337681405334E-016   7.8071497579736748E-002   0.0000000000000000     
   1.5867298794325357E-016   9.0955478529491166E-002   0.0000000000000000     
   2.1944251971106610E-016  0.10460492948418648        0.0000000000000000     
   4.0740015614922007E-002  0.10678767937069855        0.0000000000000000     
   4.3112966634970898E-002  0.12094180855484904        0.0000000000000000     
   4.5193736668492870E-002  0.13538378208366095        0.0000000000000000     
   4.6982325715487896E-002  0.15011359995713427        0.0000000000000000     
   4.8478733775955990E-002  0.16513126217526902        0.0000000000000000     
   3.0298776342931003E-002  0.10583272629534961        0.0000000000000000     
   3.2070002741047668E-002  0.11999282167289016        0.0000000000000000     
   3.3620581267586852E-002  0.13443346220469465        0.0000000000000000     
   3.4950511922548541E-002  0.14915464789076299        0.0000000000000000     
   3.6059794705932728E-002  0.16415637873109526        0.0000000000000000     
   2.0028360649780367E-002  0.10515061695581461        0.0000000000000000     
   2.1203520337244826E-002  0.11931497390006239        0.0000000000000000     
   2.2230573355869442E-002  0.13375466229114727        0.0000000000000000     
   2.3109519705654197E-002  0.14846968212906922        0.0000000000000000     
   2.3840359386599112E-002  0.16346003341382825        0.0000000000000000     
   9.9287685354701085E-003  0.10474135135209356        0.0000000000000000     
   1.0513519423562372E-002  0.11890826523636568        0.0000000000000000     
   1.1023712933340635E-002  0.13334738234301879        0.0000000000000000     
   1.1459349064804891E-002  0.14805870267205293        0.0000000000000000     
   1.1820427817955149E-002  0.16304222622346803        0.0000000000000000     
   2.1944251971106610E-016  0.10460492948418648        0.0000000000000000     
   3.0791341698588326E-016  0.11877269568180003        0.0000000000000000     
   4.3975240116012060E-016  0.13321162236030926        0.0000000000000000     
   6.0953846137135059E-016  0.14792170951971409        0.0000000000000000     
   8.2746309804093698E-016  0.16290295716001463        0.0000000000000000     
   0.0000000000000000        0.0000000000000000        0.0000000000000000     
   8.9988780316296868E-018   2.5539625106094643E-003   0.0000000000000000     
   1.2359904766334751E-017   6.4414295409565654E-003   0.0000000000000000     
   1.0625181290357943E-017   1.1662401091041301E-002   0.0000000000000000     
   3.5778671692021646E-018   1.8216877160863676E-002   0.0000000000000000     
   0.0000000000000000        0.0000000000000000        0.0000000000000000     
  -8.9828145854396594E-004   2.5790722734027392E-003   0.0000000000000000     
  -1.7813480900124099E-003   6.4920309610963208E-003   0.0000000000000000     
  -2.6491998944053333E-003   1.1738876063080746E-002   0.0000000000000000     
  -3.5018368717227339E-003   1.8319607579356009E-002   0.0000000000000000     
   0.0000000000000000        0.0000000000000000        0.0000000000000000     
  -1.7809675612133018E-003   2.6544015617825821E-003   0.0000000000000000     
  -3.5616884803397102E-003   6.6438352215156251E-003   0.0000000000000000     
  -5.3421627573792246E-003   1.1968300979199131E-002   0.0000000000000000     
  -7.1223903923318460E-003   1.8627798834833093E-002   0.0000000000000000     
   0.0000000000000000        0.0000000000000000        0.0000000000000000     
  -2.6480583080079989E-003   2.7799503757489929E-003   0.0000000000000000     
  -5.3410211709818871E-003   6.8968423222144776E-003   0.0000000000000000     
  -8.0788885889216643E-003   1.2350675839396455E-002   0.0000000000000000     
  -1.0861660561827337E-002   1.9141450927294922E-002   0.0000000000000000     
   0.0000000000000000        0.0000000000000000        0.0000000000000000     
  -3.4995536989280559E-003   2.9557187153019708E-003   0.0000000000000000     
  -7.1193461619389418E-003   7.2510522631928781E-003   0.0000000000000000     
  -1.0859377389032657E-002   1.2886000643672721E-002   0.0000000000000000     
  -1.4719647380209198E-002   1.9860563856741498E-002   0.0000000000000000     
   3.5778671692021646E-018   1.8216877160863676E-002   0.0000000000000000     
  -1.8431436932253575E-018   2.5906740191518746E-002   0.0000000000000000     
   1.5449880957918438E-018   3.4533872624101583E-002   0.0000000000000000     
   1.4155614614513867E-017   4.4098274458612176E-002   0.0000000000000000     
   3.5561831257524545E-017   5.4599945695050528E-002   0.0000000000000000     
  -3.5018368717227339E-003   1.8319607579356009E-002   0.0000000000000000     
  -4.3503881582077101E-003   2.6032097017965765E-002   0.0000000000000000     
  -5.2059828901033656E-003   3.4674215886953637E-002   0.0000000000000000     
  -6.0686210674096965E-003   4.4245964186319639E-002   0.0000000000000000     
  -6.9383026901267027E-003   5.4747341916063758E-002   0.0000000000000000     
  -7.1223903923318460E-003   1.8627798834833093E-002   0.0000000000000000     
  -8.8939609040605376E-003   2.6408167497306893E-002   0.0000000000000000     
  -1.0648463811428262E-002   3.5095245675509916E-002   0.0000000000000000     
  -1.2385899114435016E-002   4.4689033369442153E-002   0.0000000000000000     
  -1.4106266813080803E-002   5.5189530579103606E-002   0.0000000000000000     
  -1.0861660561827337E-002   1.9141450927294922E-002   0.0000000000000000     
  -1.3630718237558478E-002   2.7034951629542156E-002   0.0000000000000000     
  -1.6327442763974683E-002   3.5796961989770421E-002   0.0000000000000000     
  -1.8951834141075947E-002   4.5427482007979726E-002   0.0000000000000000     
  -2.1503892368862267E-002   5.5926511684170059E-002   0.0000000000000000     
  -1.4719647380209198E-002   1.9860563856741498E-002   0.0000000000000000     
  -1.8560660158701534E-002   2.7912449414671536E-002   0.0000000000000000     
  -2.2242919747742632E-002   3.6779364829735157E-002   0.0000000000000000     
  -2.5766426147332482E-002   4.6461310101932343E-002   0.0000000000000000     
  -2.9131179357471094E-002   5.6958285231263131E-002   0.0000000000000000     
   3.5561831257524545E-017   5.4599945695050528E-002   0.0000000000000000     
   6.7220534694101275E-017   6.5952986634923202E-002   0.0000000000000000     
   1.0820337681405334E-016   7.8071497579736748E-002   0.0000000000000000     
   1.5867298794325357E-016   9.0955478529491166E-002   0.0000000000000000     
   2.1944251971106610E-016  0.10460492948418648        0.0000000000000000     
  -6.9383026901267027E-003   5.4747341916063758E-002   0.0000000000000000     
  -7.7801093145273932E-003   6.6096611839515484E-002   0.0000000000000000     
  -8.5591224968847891E-003   7.8212036720004346E-002   0.0000000000000000     
  -9.2753422371988723E-003   9.1093616557530302E-002   0.0000000000000000     
  -9.9287685354696592E-003  0.10474135135209334        0.0000000000000000     
  -1.4106266813080803E-002   5.5189530579103606E-002   0.0000000000000000     
  -1.5760273100223477E-002   6.6527487453292566E-002   0.0000000000000000     
  -1.7298624168720887E-002   7.8633654140807308E-002   0.0000000000000000     
  -1.8721320018573028E-002   9.1508030641647878E-002   0.0000000000000000     
  -2.0028360649779902E-002  0.10515061695581421        0.0000000000000000     
  -2.1503892368862267E-002   5.5926511684170059E-002   0.0000000000000000     
  -2.3940491357088173E-002   6.7245613476254393E-002   0.0000000000000000     
  -2.6218505015508181E-002   7.9336349842145659E-002   0.0000000000000000     
  -2.8337933344122289E-002   9.2198720781843879E-002   0.0000000000000000     
  -3.0298776342930513E-002  0.10583272629534905        0.0000000000000000     
  -2.9131179357471094E-002   5.6958285231263131E-002   0.0000000000000000     
  -3.2320764085121481E-002   6.8250989908400977E-002   0.0000000000000000     
  -3.5318765037246687E-002   8.0320123824019374E-002   0.0000000000000000     
  -3.8125182213846677E-002   9.3165686978118334E-002   0.0000000000000000     
  -4.0740015614921472E-002  0.10678767937069783        0.0000000000000000     
   2.1944251971106610E-016  0.10460492948418648        0.0000000000000000     
   3.0791341698588326E-016  0.11877269568180003        0.0000000000000000     
   4.3975240116012060E-016  0.13321162236030926        0.0000000000000000     
   6.0953846137135059E-016  0.14792170951971409        0.0000000000000000     
   8.2746309804093698E-016  0.16290295716001463        0.0000000000000000     
  -9.9287685354696592E-003  0.10474135135209334        0.0000000000000000     
  -1.0513519423561754E-002  0.11890826523636548        0.0000000000000000     
  -1.1023712933339772E-002  0.13334738234301860        0.0000000000000000     
  -1.1459349064803708E-002  0.14805870267205276        0.0000000000000000     
  -1.1820427817953574E-002  0.16304222622346795        0.0000000000000000     
  -2.0028360649779902E-002  0.10515061695581421        0.0000000000000000     
  -2.1203520337244208E-002  0.11931497390006202        0.0000000000000000     
  -2.2230573355868616E-002  0.13375466229114691        0.0000000000000000     
  -2.3109519705653139E-002  0.14846968212906891        0.0000000000000000     
  -2.3840359386597770E-002  0.16346003341382800        0.0000000000000000     
  -3.0298776342930513E-002  0.10583272629534905        0.0000000000000000     
  -3.2070002741047036E-002  0.11999282167288963        0.0000000000000000     
  -3.3620581267586096E-002  0.13443346220469413        0.0000000000000000     
  -3.4950511922547667E-002  0.14915464789076252        0.0000000000000000     
  -3.6059794705931771E-002  0.16415637873109487        0.0000000000000000     
  -4.0740015614921472E-002  0.10678767937069783        0.0000000000000000     
  -4.3112966634970259E-002  0.12094180855484835        0.0000000000000000     
  -4.5193736668492204E-002  0.13538378208366028        0.0000000000000000     
  -4.6982325715487300E-002  0.15011359995713364        0.0000000000000000     
  -4.8478733775955574E-002  0.16513126217526841        0.0000000000000000     
   0.0000000000000000        0.0000000000000000        0.0000000000000000     
  -3.4995536989280559E-003   2.9557187153019708E-003   0.0000000000000000     
  -7.1193461619389418E-003   7.2510522631928781E-003   0.0000000000000000     
  -1.0859377389032657E-002   1.2886000643672721E-002   0.0000000000000000     
  -1.4719647380209198E-002   1.9860563856741498E-002   0.0000000000000000     
   0.0000000000000000        0.0000000000000000        0.0000000000000000     
  -4.5821158111860267E-003   3.3190065376311382E-003   0.0000000000000000     
  -9.2901432035575795E-003   7.9110329988278834E-003   0.0000000000000000     
  -1.4124082177114652E-002   1.3776079383590240E-002   0.0000000000000000     
  -1.9083932731857250E-002   2.0914145691918202E-002   0.0000000000000000     
   0.0000000000000000        0.0000000000000000        0.0000000000000000     
  -6.1424067219944638E-003   4.0071137999261172E-003   0.0000000000000000     
  -1.2246892046184505E-002   9.0813524834965596E-003   0.0000000000000000     
  -1.8313455972570111E-002   1.5222716050711323E-002   0.0000000000000000     
  -2.4342098501151301E-002   2.2431204501570413E-002   0.0000000000000000     
   0.0000000000000000        0.0000000000000000        0.0000000000000000     
  -8.1804264313533655E-003   5.0200405021869048E-003   0.0000000000000000     
  -1.5989592689819712E-002   1.0762010717198895E-002   0.0000000000000000     
  -2.3427498775399042E-002   1.7225910645035966E-002   0.0000000000000000     
  -3.0494144688091349E-002   2.4411740285698126E-002   0.0000000000000000     
   0.0000000000000000        0.0000000000000000        0.0000000000000000     
  -1.0696174939262735E-002   6.3577866444135059E-003   0.0000000000000000     
  -2.0518245134463212E-002   1.2953007699934897E-002   0.0000000000000000     
  -2.9466210585601435E-002   1.9785663166564181E-002   0.0000000000000000     
  -3.7540071292677397E-002   2.6855753044301350E-002   0.0000000000000000     
  -1.4719647380209198E-002   1.9860563856741498E-002   0.0000000000000000     
  -1.8560660158701534E-002   2.7912449414671536E-002   0.0000000000000000     
  -2.2242919747742632E-002   3.6779364829735157E-002   0.0000000000000000     
  -2.5766426147332482E-002   4.6461310101932343E-002   0.0000000000000000     
  -2.9131179357471094E-002   5.6958285231263131E-002   0.0000000000000000     
  -1.9083932731857250E-002   2.0914145691918202E-002   0.0000000000000000     
  -2.3982024683559096E-002   2.9076395346191782E-002   0.0000000000000000     
  -2.8630687847993889E-002   3.8013991768790979E-002   0.0000000000000000     
  -3.3029922225161656E-002   4.7726934959715792E-002   0.0000000000000000     
  -3.7179727815062381E-002   5.8215224918966225E-002   0.0000000000000000     
  -2.4342098501151301E-002   2.2431204501570413E-002   0.0000000000000000     
  -3.0193049828200522E-002   3.0562523917599622E-002   0.0000000000000000     
  -3.5726540149990250E-002   3.9472380380324752E-002   0.0000000000000000     
  -4.0942569466520480E-002   4.9160773889745796E-002   0.0000000000000000     
  -4.5841137777791197E-002   5.9627704445862774E-002   0.0000000000000000     
  -3.0494144688091349E-002   2.4411740285698126E-002   0.0000000000000000     
  -3.7193735592625836E-002   3.2370835128895069E-002   0.0000000000000000     
  -4.3530476653731706E-002   4.1154530664336476E-002   0.0000000000000000     
  -4.9504367871408952E-002   5.0762826892022384E-002   0.0000000000000000     
  -5.5115409245657568E-002   6.1195723811952756E-002   0.0000000000000000     
  -3.7540071292677397E-002   2.6855753044301350E-002   0.0000000000000000     
  -4.4984081976835032E-002   3.4501328980078107E-002   0.0000000000000000     
  -5.2042497359218252E-002   4.3060442620826173E-002   0.0000000000000000     
  -5.8715317439827074E-002   5.2533093966545527E-002   0.0000000000000000     
  -6.5002542218661474E-002   6.2919283017236191E-002   0.0000000000000000     
  -2.9131179357471094E-002   5.6958285231263131E-002   0.0000000000000000     
  -3.2320764085121481E-002   6.8250989908400977E-002   0.0000000000000000     
  -3.5318765037246687E-002   8.0320123824019374E-002   0.0000000000000000     
  -3.8125182213846677E-002   9.3165686978118334E-002   0.0000000000000000     
  -4.0740015614921472E-002  0.10678767937069783        0.0000000000000000     
  -3.7179727815062381E-002   5.8215224918966225E-002   0.0000000000000000     
  -4.1091373574798321E-002   6.9478264741490547E-002   0.0000000000000000     
  -4.4776128461471755E-002   8.1515457522237059E-002   0.0000000000000000     
  -4.8233992475082671E-002   9.4326803261205738E-002   0.0000000000000000     
  -5.1464965615631061E-002  0.10791230195839657        0.0000000000000000     
  -4.5841137777791197E-002   5.9627704445862774E-002   0.0000000000000000     
  -5.0442602116593578E-002   7.0862085967281371E-002   0.0000000000000000     
  -5.4767319515718761E-002   8.2852832372607280E-002   0.0000000000000000     
  -5.8815289975166739E-002   9.5599943661840561E-002   0.0000000000000000     
  -6.2586513494937518E-002  0.10910341983498115        0.0000000000000000     
  -5.5115409245657568E-002   6.1195723811952756E-002   0.0000000000000000     
  -6.0374449710507261E-002   7.2402453585773394E-002   0.0000000000000000     
  -6.5292338199987712E-002   8.4332248375130078E-002   0.0000000000000000     
  -6.9869074714098880E-002   9.6985108180022803E-002   0.0000000000000000     
  -7.4104659252840849E-002  0.11036103300045159        0.0000000000000000     
  -6.5002542218661474E-002   6.2919283017236191E-002   0.0000000000000000     
  -7.0886916356539362E-002   7.4099367596966642E-002   0.0000000000000000     
  -7.6351184514278581E-002   8.5953705529805413E-002   0.0000000000000000     
  -8.1395346691879158E-002   9.8482296815752504E-002   0.0000000000000000     
  -8.6019402889341068E-002  0.11168514145480789        0.0000000000000000     
  -4.0740015614921472E-002  0.10678767937069783        0.0000000000000000     
  -4.3112966634970259E-002  0.12094180855484835        0.0000000000000000     
  -4.5193736668492204E-002  0.13538378208366028        0.0000000000000000     
  -4.6982325715487300E-002  0.15011359995713364        0.0000000000000000     
  -4.8478733775955574E-002  0.16513126217526841        0.0000000000000000     
  -5.1464965615631061E-002  0.10791230195839657        0.0000000000000000     
  -5.4392181655453016E-002  0.12202780880167276        0.0000000000000000     
  -5.6938774366884590E-002  0.13642917897889745        0.0000000000000000     
  -5.9104743749925782E-002  0.15111641249007068        0.0000000000000000     
  -6.0890089804576594E-002  0.16608950933519243        0.0000000000000000     
  -6.2586513494937518E-002  0.10910341983498115        0.0000000000000000     
  -6.5967417438934459E-002  0.12311669666909744        0.0000000000000000     
  -6.8844429171060900E-002  0.13739320994125778        0.0000000000000000     
  -7.1217548691316829E-002  0.15193295965146220        0.0000000000000000     
  -7.3086775999702258E-002  0.16673594579971063        0.0000000000000000     
  -7.4104659252840849E-002  0.11036103300045159        0.0000000000000000     
  -7.7838673985414580E-002  0.12420847215712243        0.0000000000000000     
  -8.0910701081021150E-002  0.13827587497074123        0.0000000000000000     
  -8.3320740539660446E-002  0.15256324144130806        0.0000000000000000     
  -8.5068792361332593E-002  0.16707057156882296        0.0000000000000000     
  -8.6019402889341068E-002  0.11168514145480789        0.0000000000000000     
  -9.0005951294893416E-002  0.12530313526574766        0.0000000000000000     
  -9.3137590096765283E-002  0.13907717406734782        0.0000000000000000     
  -9.5414319294956654E-002  0.15300725785960845        0.0000000000000000     
  -9.6836138889467543E-002  0.16709338664252948        0.0000000000000000     
 </DataArray>
 <DataArray  type="Float64" Name="stress" NumberOfComponents="3" format="ascii">
   11744943097.628773        3523482929.2886319        2303656408.1942949     
   10348036017.830864        1664261177.6281743        1374236655.7967384     
   9126506812.4767513        389632340.78036547        661775968.95790648     
   8080355481.5664310       -300403581.25479317        166274347.67780063     
   7209582025.0999060       -405846588.47730207       -112268208.04358064     
   8825729952.8407307        2647718985.8522191        1720274084.5936222     
   8062096265.3926764        1290305914.2638836        1146137076.9102750     
   7429754257.1152210        370531773.24420595        726372379.30529332     
   6928703928.0083618       -111603437.20681429        460979991.77867860     
   6558945278.0720987       -156099717.08917809        349959914.33042866     
   6499904092.3745756        1949971227.7123728        1282542039.9153271     
   6190724495.9039221        1040721045.7844229        1012253882.4607921     
   5968750383.3306675        422155810.18113923        833751279.60426402     
   5833981754.6548138        94275520.902520895        747034231.34574199     
   5786418609.8763571        57080177.948566914        752102737.68522692     
   4767465516.2303076        1430239654.8690922        990460274.15940940     
   4733920709.3645983        915506572.18979156        972587072.44828987     
   4743495191.1230917        544504451.59116518        983912669.85481763     
   4796188961.5057869        317233293.07321262        1024437066.3789920     
   4892002020.5126858        233693096.63593411        1094160262.0208142     
   3628414224.4079261        1088524267.3223779        844028787.32586968     
   3691684905.7747064        914662493.47998977        1027136646.8727684     
   3753988680.4924912        737577697.47428370        1176856550.0569549     
   3815325548.5612817        557269879.30526030        1293188496.8784292     
   3875695509.9810753        373739038.97291803        1376132487.3371911     
   7209582025.0999060       -405846588.47730207       -112268208.04358064     
   6924382398.5221310       -122607044.72509336       -30584088.309706617     
   6604251316.4069967        44194313.902590036        55318038.230617367     
   6249188778.7545042        94557487.405743361        145438171.57739437     
   5859194785.5646515        28482475.784367800        239776311.73062259     
   6558945278.0720987       -156099717.08917809        349959914.33042866     
   6253023532.4291153       -14719370.260912895        360324596.30838728     
   5925739045.2568331        55451838.136367559        383267917.64294863     
   5577091816.5552568        54413908.102668524        418789878.33411801     
   5207081846.3243885       -17833160.362006903        466890478.38188785     
   5786418609.8763571        57080177.948566914        752102737.68522692     
   5483662266.7400255        63767584.324443579        706978148.25001359     
   5173111896.0824642        44474898.962887049        682792830.72155499     
   4854767497.9036732       -797878.13610219955        679546785.09985495     
   4528629072.2036533       -72050746.972522736        697240011.38491130     
   4892002020.5126858        233693096.63593411        1094160262.0208142     
   4616298601.4548712        112853819.03098154        1009376567.5151689     
   4346369868.8838911        11263496.382143497        953892777.46643329     
   4082215822.7997475       -71077871.310576200        927708891.87460613     
   3823836463.2024369       -134170284.04718137        930824910.73968971     
   3875695509.9810753        373739038.97291803        1376132487.3371911     
   3650932536.5736451        132539333.85869765        1267519854.1038566     
   3445512963.6611137       -44182369.605861664        1196567757.8775835     
   3259436791.2434821       -156426071.42075324        1163276198.6583745     
   3092704019.3207479       -204191771.58598423        1167645176.4462259     
   5859194785.5646515        28482475.784367800        239776311.73062259     
   5424279545.1907396       -76895855.685007095        263791415.70215791     
   5007267004.9523525       -122598520.03596425        319644731.11052787     
   4608157164.8494949       -108625517.26849532        407336257.95573288     
   4226950024.8821592       -34976847.382609367        526865996.23777634     
   5207081846.3243885       -17833160.362006903        466890478.38188785     
   4855777300.4437513       -97161992.115931511        497023444.28892130     
   4517466227.5686846       -133179247.18461680        553622694.58883798     
   4192148627.6991873       -125884925.56807661        636688229.28164029     
   3879824500.8352633       -75279027.266289949        746220048.36732960     
   4528629072.2036533       -72050746.972522736        697240011.38491130     
   4245586857.8335748       -129934587.90580463        727763407.57582581     
   3970628889.3391123       -160870942.58704472        779381161.11567497     
   3703755166.7202640       -164859811.01623321        852093272.00446224     
   3444965689.9770308       -141901193.19336963        945899740.24218249     
   3823836463.2024369       -134170284.04718137        930824910.73968971     
   3593708217.3602037       -175213643.05464411        956011305.56287241     
   3366754990.2636280       -205673606.24324679        996920130.69104135     
   3142976781.9127126       -225550173.61298251        1053551386.1241934     
   2922373592.3074570       -234843345.16384912        1125905071.8623331     
   3092704019.3207479       -204191771.58598423        1167645176.4462259     
   2900141379.0236416       -232999157.56244099        1181767138.2500620     
   2705844530.3422399       -267587238.15321672        1206239603.3149354     
   2509813473.2765403       -307956013.35831475        1241062571.6408401     
   2312048207.8265457       -354105483.17773163        1286236043.2277825     
   4226950024.8821592       -34976847.382609367        526865996.23777634     
   3407748425.1797042       -29938114.614461660        509807488.72316378     
   2612043070.9259901        53421436.316149831        570411222.75486016     
   1839833962.1210186        215101805.40923899        708677198.33285666     
   1091121098.7647858        455102992.66479152        924605415.45716321     
   3879824500.8352633       -75279027.266289949        746220048.36732960     
   3244014197.3726354       -76286267.180347204        715626113.41490793     
   2625166057.0124192       -20752963.419686198        749835389.25808799     
   2023280079.7546203        91320884.015678883        848847875.89688492     
   1438356265.5992329        259935275.12576601        1012663573.3312747     
   3444965689.9770308       -141901193.19336963        945899740.24218249     
   2955806594.8950858       -159976432.14736950        894147281.78123140     
   2477075580.5692306       -143291401.91441369        894339003.36518955     
   2008772646.9994650       -91846102.494498372        946474904.99405706     
   1550897794.1857789       -5640533.8876299262        1050554986.6678334     
   2922373592.3074570       -234843345.16384912        1125905071.8623331     
   2543125617.7470598       -281008609.51553845        1045370993.8221427     
   2167771641.5964251       -314193879.16802323        1003922065.0761608     
   1796311663.8555489       -334399154.12131214        1001558285.6243888     
   1428745684.5244350       -341624434.37538600        1038279655.4668266     
   2312048207.8265457       -354105483.17773163        1286236043.2277825     
   2005971265.9285541       -439382799.28485227        1169297249.5376377     
   1697254240.0939996       -533460395.18051898        1078584574.3910024     
   1385897130.3228731       -636338270.86475205        1014098017.7878830     
   1071899936.6151860       -748016426.33752036        975837579.72826695     
   3628414224.4079261        1088524267.3223779        844028787.32586968     
   3691684905.7747064        914662493.47998977        1027136646.8727684     
   3753988680.4924912        737577697.47428370        1176856550.0569549     
   3815325548.5612817        557269879.30526030        1293188496.8784292     
   3875695509.9810753        373739038.97291803        1376132487.3371911     
   2769870098.1363535        830961029.44090605        779623233.37506223     
   2769560980.1807966        686236060.36492038        955985757.13842463     
   2768526682.2384944        539093824.66644645        1110104821.3012240     
   2766767204.3094444        389534322.34548372        1241980425.8634608     
   2764282546.3936486        237557553.40203273        1351612570.8251343     
   1878953018.6445103        563685905.59335303        733619266.26734161     
   1846905520.6870437        457650167.07989788        903518468.68645835     
   1814374569.4050789        350002917.48478353        1062318708.2671609     
   1781360164.7986166        240744156.80801004        1210019985.0094502     
   1747862306.8676569        129873885.04957777        1346622298.9133260     
   955662985.93239653        286698895.77971894        706016886.00270808     
   923718527.29344571        228904813.62492192        869734781.51686895     
   891532341.99224591        170304975.92929524        1033498210.9547656     
   859104430.02879751        110899382.69283882        1197307174.3163977     
   826434791.40309989        50688033.915552795        1361161671.6017649     
   1.2238378808539672E-005   3.6715136425619014E-006   696816092.58116162     
   3.7916098832064501E-006  -7.1371480154474342E-006   854634695.62965703     
  -4.5808137502991953E-006  -1.8131672903025716E-005   1023643329.3640375     
  -1.3362136488856516E-005  -2.9925409677750453E-005   1203841993.7843025     
  -2.1857515797307769E-005  -4.1112946380650328E-005   1395230688.8904526     
   3875695509.9810753        373739038.97291803        1376132487.3371911     
   3650932536.5736451        132539333.85869765        1267519854.1038566     
   3445512963.6611137       -44182369.605861664        1196567757.8775835     
   3259436791.2434821       -156426071.42075324        1163276198.6583745     
   3092704019.3207479       -204191771.58598423        1167645176.4462259     
   2764282546.3936486        237557553.40203273        1351612570.8251343     
   2645009737.2859364        71447600.850721955        1290242179.9079278     
   2540244478.5493984       -46303850.463339806        1255029127.7766166     
   2449986770.1840343       -115696800.54015529        1245973414.4312015     
   2374236612.1898446       -136731249.37972271        1263075039.8716800     
   1747862306.8676569        129873885.04957777        1346622298.9133260     
   1701213381.4277568        28993800.871606529        1326852325.1679022     
   1664236156.2353063       -39647282.481531858        1321736491.9872065     
   1636930631.2903059       -76049365.009838820        1331274799.3712394     
   1619296806.5927536       -80212446.713314652        1355467247.3199995     
   826434791.40309989        50688033.915552795        1361161671.6017649     
   819543468.99910569        5177933.9213488400        1377350289.8837783     
   817487996.71883667       -24212665.660438716        1396689850.5093522     
   820268374.56229329       -37483764.829808116        1419180353.4784882     
   827884602.52947342       -34635363.586764634        1444821798.7911842     
  -2.1857515797307769E-005  -4.1112946380650328E-005   1395230688.8904526     
  -1.5658262232608232E-005  -4.9245177532866873E-005   1441736074.0555575     
  -8.8699652018902004E-006  -5.5847611334015964E-005   1479889203.3430560     
  -2.8422776952543047E-006  -6.3901208042953345E-005   1509690076.7529492     
   3.2483173660049225E-006  -7.3132891683927722E-005   1531138694.2852352     
   3092704019.3207479       -204191771.58598423        1167645176.4462259     
   2900141379.0236416       -232999157.56244099        1181767138.2500620     
   2705844530.3422399       -267587238.15321672        1206239603.3149354     
   2509813473.2765403       -307956013.35831475        1241062571.6408401     
   2312048207.8265457       -354105483.17773163        1286236043.2277825     
   2374236612.1898446       -136731249.37972271        1263075039.8716800     
   2214098589.9499664       -163051601.46717978        1264494862.7220385     
   2052659911.4218662       -193707474.51538086        1279932265.3040762     
   1889920576.6055431       -228698868.52432394        1309387247.6177957     
   1725880585.5009985       -268025783.49400067        1352859809.6631942     
   1619296806.5927536       -80212446.713314652        1355467247.3199995     
   1502060763.7548029       -100902556.50836748        1344690741.9956329     
   1383957616.7247050       -124483013.61057937        1351598892.8735893     
   1264987365.5024583       -150953818.01995087        1376191699.9538717     
   1145150010.0880651       -180314969.73647976        1418469163.2364802     
   827884602.52947342       -34635363.586764634        1444821798.7911842     
   764027900.43815136       -46552022.685999542        1422354776.0708454     
   699737646.25075579       -59913855.438814551        1421239486.0234756     
   635013839.96728766       -74720861.845203698        1441475928.6490760     
   569856481.58774388       -90973041.905178100        1483064103.9476464     
   3.2483173660049225E-006  -7.3132891683927722E-005   1531138694.2852352     
   1.1574990050693600E-005  -7.7296228026272059E-005   1497486964.9476759     
   1.8895141861408916E-005  -8.4467689253332228E-005   1488854044.7537317     
   2.6907276772980916E-005  -8.8985595449008083E-005   1505239933.7034023     
   3.5502736281969286E-005  -9.2599920405548773E-005   1546644631.7966895     
   2312048207.8265457       -354105483.17773163        1286236043.2277825     
   2005971265.9285541       -439382799.28485227        1169297249.5376377     
   1697254240.0939996       -533460395.18051898        1078584574.3910024     
   1385897130.3228731       -636338270.86475205        1014098017.7878830     
   1071899936.6151860       -748016426.33752036        975837579.72826695     
   1725880585.5009985       -268025783.49400067        1352859809.6631942     
   1494727663.2368455       -332462335.32653624        1235315005.2219636     
   1261594678.0202703       -403499097.00048143        1144368536.3537352     
   1026481629.8512700       -481136068.51584339        1080020403.0585089     
   789388518.72984564       -565373249.87261510        1042270605.3362783     
   1145150010.0880651       -180314969.73647976        1418469163.2364802     
   989984584.68486381       -223591714.12630016        1301088372.5256677     
   833499117.31338167       -271268598.41039157        1210678134.4173460     
   675693607.97361827       -323345622.58875477        1147238448.9115119     
   516568056.66557133       -379822786.66139001        1110769316.0081716     
   569856481.58774388       -90973041.905178100        1483064103.9476464     
   491742030.27260947       -112770935.68414843        1366617351.4487479     
   412967557.97333550       -136768899.41024897        1277513368.5818293     
   333533064.68992096       -162966933.08348221        1215752155.3468914     
   253438550.42237008       -191365036.70384300        1181333711.7439311     
   3.5502736281969286E-005  -9.2599920405548773E-005   1546644631.7966895     
   8.1345186996573961E-005  -7.7181850654229624E-005   1431901941.9912052     
   1.3052745697481752E-004  -4.9937160633723553E-005   1344874238.8471897     
   1.8133388563606353E-004  -1.8666387117324051E-005   1285561522.3646464     
   2.3534288071449746E-004   2.3973497180092664E-005   1253963792.5435708     
   1.2238378808539672E-005   3.6715136425619014E-006   696816092.58116162     
   3.7916098832064501E-006  -7.1371480154474342E-006   854634695.62965703     
  -4.5808137502991953E-006  -1.8131672903025716E-005   1023643329.3640375     
  -1.3362136488856516E-005  -2.9925409677750453E-005   1203841993.7843025     
  -2.1857515797307769E-005  -4.1112946380650328E-005   1395230688.8904526     
  -955662985.93237126       -286698895.77971137        706016886.00270212     
  -923718527.29343712       -228904813.62493432        869734781.51686335     
  -891532341.99225426       -170304975.92932719        1033498210.9547600     
  -859104430.02882195       -110899382.69288909        1197307174.3163917     
  -826434791.40314054       -50688033.915620625        1361161671.6017585     
  -1878953018.6444817       -563685905.59334445        733619266.26732981     
  -1846905520.6870334       -457650167.07990825        903518468.68644798     
  -1814374569.4050860       -350002917.48481059        1062318708.2671514     
  -1781360164.7986407       -240744156.80805129        1210019985.0094407     
  -1747862306.8676972       -129873885.04963106        1346622298.9133151     
  -2769870098.1363206       -830961029.44089615        779623233.37504482     
  -2769560980.1807847       -686236060.36492860        955985757.13841021     
  -2768526682.2385015       -539093824.66646910        1110104821.3012118     
  -2766767204.3094692       -389534322.34551650        1241980425.8634491     
  -2764282546.3936911       -237557553.40207183        1351612570.8251219     
  -3628414224.4078860       -1088524267.3223658        844028787.32584727     
  -3691684905.7746906       -914662493.47999537        1027136646.8727510     
  -3753988680.4924984       -737577697.47430217        1176856550.0569413     
  -3815325548.5613084       -557269879.30528522        1293188496.8784173     
  -3875695509.9811230       -373739038.97294593        1376132487.3371797     
  -2.1857515797307769E-005  -4.1112946380650328E-005   1395230688.8904526     
  -1.5658262232608232E-005  -4.9245177532866873E-005   1441736074.0555575     
  -8.8699652018902004E-006  -5.5847611334015964E-005   1479889203.3430560     
  -2.8422776952543047E-006  -6.3901208042953345E-005   1509690076.7529492     
   3.2483173660049225E-006  -7.3132891683927722E-005   1531138694.2852352     
  -826434791.40314054       -50688033.915620625        1361161671.6017585     
  -819543468.99913168       -5177933.9214269221        1377350289.8837709     
  -817487996.71884787        24212665.660348654        1396689850.5093441     
  -820268374.56229174        37483764.829700649        1419180353.4784789     
  -827884602.52946019        34635363.586636007        1444821798.7911763     
  -1747862306.8676972       -129873885.04963106        1346622298.9133151     
  -1701213381.4277775       -28993800.871663690        1326852325.1678872     
  -1664236156.2353106        39647282.481464744        1321736491.9871891     
  -1636930631.2902951        76049365.009753346        1331274799.3712194     
  -1619296806.5927312        80212446.713204980        1355467247.3199794     
  -2764282546.3936911       -237557553.40207183        1351612570.8251219     
  -2645009737.2859545       -71447600.850758791        1290242179.9079080     
  -2540244478.5493956        46303850.463293672        1255029127.7765903     
  -2449986770.1840134        115696800.54009247        1245973414.4311695     
  -2374236612.1898093        136731249.37962997        1263075039.8716457     
  -3875695509.9811230       -373739038.97294593        1376132487.3371797     
  -3650932536.5736609       -132539333.85871446        1267519854.1038325     
  -3445512963.6611032        44182369.605838537        1196567757.8775492     
  -3259436791.2434487        156426071.42071319        1163276198.6583307     
  -3092704019.3206978        204191771.58591270        1167645176.4461761     
   3.2483173660049225E-006  -7.3132891683927722E-005   1531138694.2852352     
   1.1574990050693600E-005  -7.7296228026272059E-005   1497486964.9476759     
   1.8895141861408916E-005  -8.4467689253332228E-005   1488854044.7537317     
   2.6907276772980916E-005  -8.8985595449008083E-005   1505239933.7034023     
   3.5502736281969286E-005  -9.2599920405548773E-005   1546644631.7966895     
  -827884602.52946019        34635363.586636007        1444821798.7911763     
  -764027900.43812442        46552022.685853004        1422354776.0708389     
  -699737646.25071251        59913855.438658237        1421239486.0234711     
  -635013839.96722710        74720861.845042199        1441475928.6490750     
  -569856481.58766472        90973041.905014873        1483064103.9476471     
  -1619296806.5927312        80212446.713204980        1355467247.3199794     
  -1502060763.7547681        100902556.50823516        1344690741.9956183     
  -1383957616.7246544        124483013.61043370        1351598892.8735826     
  -1264987365.5023890        150953818.01980191        1376191699.9538722     
  -1145150010.0879753        180314969.73633587        1418469163.2364862     
  -2374236612.1898093        136731249.37962997        1263075039.8716457     
  -2214098589.9499202        163051601.46706343        1264494862.7220166     
  -2052659911.4218037        193707474.51524746        1279932265.3040671     
  -1889920576.6054611        228698868.52418804        1309387247.6177967     
  -1725880585.5008945        268025783.49387777        1352859809.6632066     
  -3092704019.3206978        204191771.58591270        1167645176.4461761     
  -2900141379.0235801        232999157.56233871        1181767138.2500317     
  -2705844530.3421612        267587238.15310156        1206239603.3149219     
  -2509813473.2764425        307956013.35820091        1241062571.6408472     
  -2312048207.8264232        354105483.17763340        1286236043.2278056     
   3.5502736281969286E-005  -9.2599920405548773E-005   1546644631.7966895     
   8.1345186996573961E-005  -7.7181850654229624E-005   1431901941.9912052     
   1.3052745697481752E-004  -4.9937160633723553E-005   1344874238.8471897     
   1.8133388563606353E-004  -1.8666387117324051E-005   1285561522.3646464     
   2.3534288071449746E-004   2.3973497180092664E-005   1253963792.5435708     
  -569856481.58766472        90973041.905014873        1483064103.9476471     
  -491742030.27245069        112770935.68401012        1366617351.4487534     
  -412967557.97309512        136768899.41014507        1277513368.5818298     
  -333533064.68959433        162966933.08342999        1215752155.3468738     
  -253438550.42195576        191365036.70384407        1181333711.7438982     
  -1145150010.0879753        180314969.73633587        1418469163.2364862     
  -989984584.68472838        223591714.12617791        1301088372.5256760     
  -833499117.31320083        271268598.41028774        1210678134.4173388     
  -675693607.97339296        323345622.58867019        1147238448.9114718     
  -516568056.66530192        379822786.66132092        1110769316.0080845     
  -1725880585.5008945        268025783.49387777        1352859809.6632066     
  -1494727663.2367539        332462335.32642013        1235315005.2219746     
  -1261594678.0201941        403499097.00036341        1144368536.3537195     
  -1026481629.8512141        481136068.51570427        1080020403.0584376     
  -789388518.72981584        565373249.87244248        1042270605.3361336     
  -2312048207.8264232        354105483.17763340        1286236043.2278056     
  -2005971265.9285262        439382799.28473830        1169297249.5376496     
  -1697254240.0940721        533460395.18036592        1078584574.3909717     
  -1385897130.3230562        636338270.86453366        1014098017.7877675     
  -1071899936.6154845        748016426.33722425        975837579.72804666     
  -3628414224.4078860       -1088524267.3223658        844028787.32584727     
  -3691684905.7746906       -914662493.47999537        1027136646.8727510     
  -3753988680.4924984       -737577697.47430217        1176856550.0569413     
  -3815325548.5613084       -557269879.30528522        1293188496.8784173     
  -3875695509.9811230       -373739038.97294593        1376132487.3371797     
  -4767465516.2302589       -1430239654.8690777        990460274.15938509     
  -4733920709.3645725       -915506572.18978179        972587072.44827271     
  -4743495191.1230879       -544504451.59116030        983912669.85480762     
  -4796188961.5058060       -317233293.07321310        1024437066.3789892     
  -4892002020.5127277       -233693096.63594079        1094160262.0208178     
  -6499904092.3745174       -1949971227.7123551        1282542039.9153063     
  -6190724495.9038811       -1040721045.7843959        1012253882.4607788     
  -5968750383.3306446       -422155810.18110824        833751279.60425913     
  -5833981754.6548119       -94275520.902493000        747034231.34574699     
  -5786418609.8763790       -57080177.948549509        752102737.68524373     
  -8825729952.8406620       -2647718985.8521981        1720274084.5936110     
  -8062096265.3926125       -1290305914.2638371        1146137076.9102693     
  -7429754257.1151676       -370531773.24414635        726372379.30529594     
  -6928703928.0083246        111603437.20687485        460979991.77869177     
  -6558945278.0720778        156099717.08922625        349959914.33045632     
  -11744943097.628691       -3523482929.2886071        2303656408.1942997     
  -10348036017.830774       -1664261177.6281068        1374236655.7967441     
  -9126506812.4766579       -389632340.78027534        661775968.95791817     
  -8080355481.5663404        300403581.25489092        166274347.67782158     
  -7209582025.0998268        405846588.47738886       -112268208.04354525     
  -3875695509.9811230       -373739038.97294593        1376132487.3371797     
  -3650932536.5736609       -132539333.85871446        1267519854.1038325     
  -3445512963.6611032        44182369.605838537        1196567757.8775492     
  -3259436791.2434487        156426071.42071319        1163276198.6583307     
  -3092704019.3206978        204191771.58591270        1167645176.4461761     
  -4892002020.5127277       -233693096.63594079        1094160262.0208178     
  -4616298601.4548817       -112853819.03098416        1009376567.5151602     
  -4346369868.8838768       -11263496.382156134        953892777.46641135     
  -4082215822.7997103        71077871.310541630        927708891.87457204     
  -3823836463.2023802        134170284.04711294        930824910.73964036     
  -5786418609.8763790       -57080177.948549509        752102737.68524373     
  -5483662266.7400255       -63767584.324431181        706978148.25001609     
  -5173111896.0824423       -44474898.962888479        682792830.72154379     
  -4854767497.9036350        797878.13607168198        679546785.09982598     
  -4528629072.2035980        72050746.972456217        697240011.38486040     
  -6558945278.0720778        156099717.08922625        349959914.33045632     
  -6253023532.4290838        14719370.260950089        360324596.30840397     
  -5925739045.2567997       -55451838.136360407        383267917.64294875     
  -5577091816.5552254       -54413908.102697134        418789878.33409369     
  -5207081846.3243551        17833160.361933470        466890478.38183713     
  -7209582025.0998268        405846588.47738886       -112268208.04354525     
  -6924382398.5220661        122607044.72515011       -30584088.309682276     
  -6604251316.4069510       -44194313.902566671        55318038.230625413     
  -6249188778.7544785       -94557487.405768156        145438171.57737342     
  -5859194785.5646505       -28482475.784447432        239776311.73056817     
  -3092704019.3206978        204191771.58591270        1167645176.4461761     
  -2900141379.0235801        232999157.56233871        1181767138.2500317     
  -2705844530.3421612        267587238.15310156        1206239603.3149219     
  -2509813473.2764425        307956013.35820091        1241062571.6408472     
  -2312048207.8264232        354105483.17763340        1286236043.2278056     
  -3823836463.2023802        134170284.04711294        930824910.73964036     
  -3593708217.3601365        175213643.05454493        956011305.56284356     
  -3366754990.2635446        205673606.24313474        996920130.69103336     
  -3142976781.9126043        225550173.61288571        1053551386.1242056     
  -2922373592.3073196        234843345.16379023        1125905071.8623621     
  -4528629072.2035980        72050746.972456217        697240011.38486040     
  -4245586857.8335156        129934587.90570688        727763407.57580054     
  -3970628889.3390374        160870942.58693480        779381161.11567569     
  -3703755166.7201633        164859811.01615238        852093272.00448251     
  -3444965689.9768982        141901193.19334102        945899740.24222791     
  -5207081846.3243551        17833160.361933470        466890478.38183713     
  -4855777300.4437160        97161992.115819454        497023444.28889960     
  -4517466227.5686378        133179247.18450689        553622694.58884895     
  -4192148627.6991167        125884925.56799459        636688229.28167772     
  -3879824500.8351564        75279027.266290188        746220048.36739743     
  -5859194785.5646505       -28482475.784447432        239776311.73056817     
  -5424279545.1907444        76895855.684883833        263791415.70214096     
  -5007267004.9523497        122598520.03583670        319644731.11054838     
  -4608157164.8494625        108625517.26842976        407336257.95579267     
  -4226950024.8820963        34976847.382627964        526865996.23786920     
  -2312048207.8264232        354105483.17763340        1286236043.2278056     
  -2005971265.9285262        439382799.28473830        1169297249.5376496     
  -1697254240.0940721        533460395.18036592        1078584574.3909717     
  -1385897130.3230562        636338270.86453366        1014098017.7877675     
  -1071899936.6154845        748016426.33722425        975837579.72804666     
  -2922373592.3073196        234843345.16379023        1125905071.8623621     
  -2543125617.7470584        281008609.51544690        1045370993.8221581     
  -2167771641.5965796        314193879.16782594        1003922065.0761666     
  -1796311663.8558838        334399154.12093484        1001558285.6243920     
  -1428745684.5249686        341624434.37477636        1038279655.4668292     
  -3444965689.9768982        141901193.19334102        945899740.24222791     
  -2955806594.8950195        159976432.14732945        894147281.78124034     
  -2477075580.5692701        143291401.91422606        894339003.36520684     
  -2008772646.9996367        91846102.494064331        946474904.99412656     
  -1550897794.1861296        5640533.8868185878        1050554986.6679955     
  -3879824500.8351564        75279027.266290188        746220048.36739743     
  -3244014197.3724127        76286267.180382013        715626113.41489553     
  -2625166057.0121388        20752963.419580102        749835389.25808752     
  -2023280079.7543256       -91320884.016088128        848847875.89696908     
  -1438356265.5989773       -259935275.12664515        1012663573.3315356     
  -4226950024.8820963        34976847.382627964        526865996.23786920     
  -3407748425.1792374        29938114.614601612        509807488.72312921     
  -2612043070.9251938       -53421436.316132307        570411222.75481427     
  -1839833962.1199474       -215101805.40952426        708677198.33293104     
  -1091121098.7635047       -455102992.66560626        924605415.45746553     
 </DataArray>
 <DataArray  type="Float64" Name="VM" NumberOfComponents="1" format="ascii">
   11175688450.856562     
   9914401607.9094467     
   9011259625.9315376     
   8239702435.2019386     
   7423380709.0077457     
   8391299127.4739227     
   7758904925.9188147     
   7359920692.2833452     
   7030659164.0762806     
   6665987969.5094366     
   6189608815.4586983     
   6003276320.0983810     
   5947257990.1548738     
   5930295924.0697079     
   5903607732.1924324     
   4571512807.4123821     
   4663903824.5986242     
   4808183638.7606068     
   4973024090.7477760     
   5141461773.4793100     
   3540877251.5824513     
   3775384519.9519219     
   4002819951.4855676     
   4214036333.1732674     
   4403796056.6087093     
   7423380709.0077457     
   6986693660.8228207     
   6582962743.9274673     
   6207563991.3695469     
   5859741329.7875614     
   6665987969.5094366     
   6291427657.5123711     
   5935448416.6355295     
   5597284835.4074097     
   5278336694.2555017     
   5903607732.1924324     
   5587879076.2494917     
   5285036350.5069628     
   4995797544.6941900     
   4722117596.1203327     
   5141461773.4793100     
   4884516864.5884132     
   4644549157.3355932     
   4420590985.6953802     
   4213321401.2482266     
   4403796056.6087093     
   4205092464.7281713     
   4039933884.2807322     
   3901011759.4446516     
   3785261274.6859026     
   5859741329.7875614     
   5482206116.8012238     
   5099819118.6170263     
   4716486393.0449352     
   4341536434.5578403     
   5278336694.2555017     
   4980050958.8273945     
   4684694743.9897566     
   4397021850.4222898     
   4125688740.7280951     
   4722117596.1203327     
   4492489073.5040703     
   4272333909.2375002     
   4066173914.3471313     
   3880843755.0920892     
   4213321401.2482266     
   4039427945.9059434     
   3879605995.1863980     
   3737376949.2645307     
   3617278741.3407459     
   3785261274.6859026     
   3651103919.5040264     
   3533028298.6367192     
   3433310595.9832053     
   3354530672.5364561     
   4341536434.5578403     
   3534880225.6408010     
   2768066229.4815359     
   2131238208.7109590     
   1861659751.8270392     
   4125688740.7280951     
   3509028874.7340231     
   2938225113.9904337     
   2465534872.7484512     
   2199776829.7425241     
   3880843755.0920892     
   3410827254.9320288     
   2985114109.8998942     
   2629742464.5108600     
   2392709973.0713630     
   3617278741.3407459     
   3246458914.5873613     
   2915927091.5577216     
   2636019819.2389746     
   2424910276.7773428     
   3354530672.5364561     
   3033172498.7998819     
   2749673420.3770876     
   2508529649.6861138     
   2316694575.0777049     
   3540877251.5824513     
   3775384519.9519219     
   4002819951.4855676     
   4214036333.1732674     
   4403796056.6087093     
   2807927998.1667933     
   2997088861.0550213     
   3187454258.0356498     
   3369945563.0311027     
   3538585171.1777806     
   2098489598.7523549     
   2285673626.6190529     
   2482938549.6731443     
   2682311470.9685645     
   2878378545.1628513     
   1488919073.2477872     
   1721489321.6556489     
   1968846607.4687946     
   2226144279.4271960     
   2490372798.4382596     
   1206920875.8821905     
   1480270714.7417290     
   1773002255.2874753     
   2085115497.5194285     
   2416610441.4375892     
   4403796056.6087093     
   4205092464.7281713     
   4039933884.2807322     
   3901011759.4446516     
   3785261274.6859026     
   3538585171.1777806     
   3436040791.1562324     
   3361235411.6524949     
   3310079425.4543295     
   3281219732.4421883     
   2878378545.1628513     
   2850833956.2357926     
   2842217161.7389154     
   2850735116.9430776     
   2875816113.5463543     
   2490372798.4382596     
   2521649505.7361593     
   2557517166.5213208     
   2597539338.0813861     
   2641551948.8587089     
   2416610441.4375892     
   2497160131.3691111     
   2563243289.7628026     
   2614859916.6186662     
   2652010011.9366980     
   3785261274.6859026     
   3651103919.5040264     
   3533028298.6367192     
   3433310595.9832053     
   3354530672.5364561     
   3281219732.4421883     
   3175952217.0851831     
   3092447360.3315091     
   3033118947.3022947     
   3000628451.8378205     
   2875816113.5463543     
   2800448037.3400350     
   2753828720.5377245     
   2737817661.5127292     
   2754366356.2581730     
   2641551948.8587089     
   2586648815.4855223     
   2568055967.7961602     
   2586471172.1136627     
   2642591813.1248665     
   2652010011.9366980     
   2593723506.9614892     
   2578770850.5678902     
   2607152042.7559013     
   2678867083.5255246     
   3354530672.5364561     
   3033172498.7998819     
   2749673420.3770876     
   2508529649.6861138     
   2316694575.0777049     
   3000628451.8378205     
   2723911182.0382051     
   2488417771.8462462     
   2297469477.8619738     
   2155936998.5378981     
   2754366356.2581730     
   2515930830.1605539     
   2321989277.2888551     
   2174411412.2759433     
   2075749899.5238392     
   2642591813.1248665     
   2431647727.9785290     
   2267564833.6698956     
   2150887560.2519007     
   2082306166.0391541     
   2678867083.5255246     
   2480126914.9853106     
   2329390511.4738541     
   2226657872.9911613     
   2171928999.5372238     
   1206920875.8821905     
   1480270714.7417290     
   1773002255.2874753     
   2085115497.5194285     
   2416610441.4375892     
   1488919073.2477660     
   1721489321.6556346     
   1968846607.4687850     
   2226144279.4271884     
   2490372798.4382524     
   2098489598.7523222     
   2285673626.6190314     
   2482938549.6731310     
   2682311470.9685564     
   2878378545.1628456     
   2807927998.1667533     
   2997088861.0549960     
   3187454258.0356364     
   3369945563.0310988     
   3538585171.1777854     
   3540877251.5824027     
   3775384519.9518929     
   4002819951.4855556     
   4214036333.1732712     
   4403796056.6087284     
   2416610441.4375892     
   2497160131.3691111     
   2563243289.7628026     
   2614859916.6186662     
   2652010011.9366980     
   2490372798.4382524     
   2521649505.7361431     
   2557517166.5212960     
   2597539338.0813518     
   2641551948.8586698     
   2878378545.1628456     
   2850833956.2357674     
   2842217161.7388735     
   2850735116.9430165     
   2875816113.5462790     
   3538585171.1777854     
   3436040791.1562104     
   3361235411.6524453     
   3310079425.4542522     
   3281219732.4420853     
   4403796056.6087284     
   4205092464.7281561     
   4039933884.2806830     
   3901011759.4445653     
   3785261274.6857810     
   2652010011.9366980     
   2593723506.9614892     
   2578770850.5678902     
   2607152042.7559013     
   2678867083.5255246     
   2641551948.8586698     
   2586648815.4854789     
   2568055967.7961159     
   2586471172.1136212     
   2642591813.1248260     
   2875816113.5462790     
   2800448037.3399544     
   2753828720.5376449     
   2737817661.5126534     
   2754366356.2581024     
   3281219732.4420853     
   3175952217.0850768     
   3092447360.3314018     
   3033118947.3021894     
   3000628451.8377261     
   3785261274.6857810     
   3651103919.5038991     
   3533028298.6365891     
   3433310595.9830852     
   3354530672.5363474     
   2678867083.5255246     
   2480126914.9853106     
   2329390511.4738541     
   2226657872.9911613     
   2171928999.5372238     
   2642591813.1248260     
   2431647727.9784822     
   2267564833.6698294     
   2150887560.2517996     
   2082306166.0390286     
   2754366356.2581024     
   2515930830.1604724     
   2321989277.2887378     
   2174411412.2757673     
   2075749899.5235865     
   3000628451.8377261     
   2723911182.0381184     
   2488417771.8461304     
   2297469477.8617821     
   2155936998.5375967     
   3354530672.5363474     
   3033172498.7998209     
   2749673420.3770261     
   2508529649.6859822     
   2316694575.0774484     
   3540877251.5824027     
   3775384519.9518929     
   4002819951.4855556     
   4214036333.1732712     
   4403796056.6087284     
   4571512807.4123259     
   4663903824.5985937     
   4808183638.7605991     
   4973024090.7477922     
   5141461773.4793482     
   6189608815.4586372     
   6003276320.0983448     
   5947257990.1548624     
   5930295924.0697212     
   5903607732.1924686     
   8391299127.4738588     
   7758904925.9187670     
   7359920692.2833204     
   7030659164.0762768     
   6665987969.5094442     
   11175688450.856497     
   9914401607.9093876     
   9011259625.9314880     
   8239702435.2019014     
   7423380709.0077124     
   4403796056.6087284     
   4205092464.7281561     
   4039933884.2806830     
   3901011759.4445653     
   3785261274.6857810     
   5141461773.4793482     
   4884516864.5884171     
   4644549157.3355608     
   4420590985.6953068     
   4213321401.2481084     
   5903607732.1924686     
   5587879076.2494984     
   5285036350.5069361     
   4995797544.6941261     
   4722117596.1202240     
   6665987969.5094442     
   6291427657.5123606     
   5935448416.6355000     
   5597284835.4073591     
   5278336694.2554197     
   7423380709.0077124     
   6986693660.8227844     
   6582962743.9274321     
   6207563991.3695087     
   5859741329.7875137     
   3785261274.6857810     
   3651103919.5038991     
   3533028298.6365891     
   3433310595.9830852     
   3354530672.5363474     
   4213321401.2481084     
   4039427945.9058132     
   3879605995.1862626     
   3737376949.2644000     
   3617278741.3406301     
   4722117596.1202240     
   4492489073.5039520     
   4272333909.2373748     
   4066173914.3470101     
   3880843755.0919886     
   5278336694.2554197     
   4980050958.8272963     
   4684694743.9896584     
   4397021850.4221964     
   4125688740.7280307     
   5859741329.7875137     
   5482206116.8011637     
   5099819118.6169615     
   4716486393.0448847     
   4341536434.5578222     
   3354530672.5363474     
   3033172498.7998209     
   2749673420.3770261     
   2508529649.6859822     
   2316694575.0774484     
   3617278741.3406301     
   3246458914.5873318     
   2915927091.5577564     
   2636019819.2390513     
   2424910276.7774324     
   3880843755.0919886     
   3410827254.9319572     
   2985114109.8998561     
   2629742464.5108881     
   2392709973.0715394     
   4125688740.7280307     
   3509028874.7338238     
   2938225113.9901333     
   2465534872.7481489     
   2199776829.7425489     
   4341536434.5578222     
   3534880225.6404028     
   2768066229.4807720     
   2131238208.7100682     
   1861659751.8268559     
 </DataArray>
 <DataArray  type="Float64" Name="strain" NumberOfComponents="3" format="ascii">
  0.17813163698070306        0.0000000000000000        9.9825111021752788E-002
  0.16414596107570686       -2.4002493795351416E-002   5.9550255084525335E-002
  0.15016028517071067       -3.9138661716044326E-002   2.8676958654842613E-002
  0.13617460926571448       -4.5408503762078709E-002   7.2052217327046933E-003
  0.12218893336071829       -4.2812019933454570E-002  -4.8649556818884943E-003
  0.13385690428475108        0.0000000000000000        7.4545210332390296E-002
  0.12791674151855853       -1.8805382755898655E-002   4.9665939999445248E-002
  0.12197657875236599       -3.0973241731506007E-002   3.1476136436562711E-002
  0.11603641598617342       -3.6503576926822046E-002   1.9975799643742739E-002
  0.11009625321998087       -3.5396388341846795E-002   1.5164929620985243E-002
   9.8581878734347733E-002   0.0000000000000000        5.5576821729664175E-002
   9.7975136369476579E-002  -1.3608271716445894E-002   4.3864334906634321E-002
   9.7368394004605438E-002  -2.2807821746967688E-002   3.6129222116184773E-002
   9.6761651639734297E-002  -2.7598650091565390E-002   3.2371483358315488E-002
   9.6154909274863115E-002  -2.7980756750239005E-002   3.2591118633026502E-002
   7.2306560329492994E-002   0.0000000000000000        4.2919945213574409E-002
   7.4321145628461011E-002  -8.4111606769931308E-003   4.2145439806092561E-002
   7.6335730927429041E-002  -1.4642401762429372E-002   4.2636215693708762E-002
   7.8350316226397057E-002  -1.8693723256308727E-002   4.4392272876422986E-002
   8.0364901525365101E-002  -2.0565125158631195E-002   4.7413611354235281E-002
   5.5030949070186880E-002   0.0000000000000000        3.6574580784121020E-002
   5.6954769295511826E-002  -3.2140496375403669E-003   4.4509254697819967E-002
   5.8878589520836772E-002  -6.4769817778910603E-003   5.0997117169134715E-002
   6.0802409746161731E-002  -9.7887964210520706E-003   5.6038168198065265E-002
   6.2726229971486663E-002  -1.3149493567023409E-002   5.9632407784611610E-002
  0.12218893336071829       -4.2812019933454570E-002  -4.8649556818884943E-003
  0.11601940853232764       -3.6665362738028881E-002  -1.3253104934206200E-003
  0.10984988370393699       -3.2284684683658478E-002   2.3971149899934194E-003
  0.10368035887554636       -2.9669985770343466E-002   6.3023207683537558E-003
   9.7510834047155687E-002  -2.8821265998083795E-002   1.0390306841660313E-002
  0.11009625321998087       -3.5396388341846795E-002   1.5164929620985243E-002
  0.10429065572512315       -3.1510440499827458E-002   1.5614065840030115E-002
   9.8485058230265377E-002  -2.8704497924011370E-002   1.6608276431194439E-002
   9.2679460735407601E-002  -2.6978560614398475E-002   1.8147561394478446E-002
   8.6873863240549853E-002  -2.6332628570988725E-002   2.0231920729881808E-002
   9.6154909274863115E-002  -2.7980756750239005E-002   3.2591118633026502E-002
   9.1075533190711544E-002  -2.6355518261626069E-002   3.0635719757500589E-002
   8.5996157106559959E-002  -2.5124311164364203E-002   2.9587689331267385E-002
   8.0916781022408402E-002  -2.4287135458453402E-002   2.9447027354327047E-002
   7.5837404938256830E-002  -2.3843991143893642E-002   3.0213733826679488E-002
   8.0364901525365101E-002  -2.0565125158631195E-002   4.7413611354235281E-002
   7.6374040929092946E-002  -2.1200596023424664E-002   4.3739651258990653E-002
   7.2383180332820804E-002  -2.1544124404717063E-002   4.1335353690212108E-002
   6.8392319736548676E-002  -2.1595710302508342E-002   4.0200718647899598E-002
   6.4401459140276521E-002  -2.1355353716798538E-002   4.0335746132053221E-002
   6.2726229971486663E-002  -1.3149493567023409E-002   5.9632407784611610E-002
   6.0186178940267267E-002  -1.6045673785223265E-002   5.4925860344500456E-002
   5.7646127909047870E-002  -1.7963937645069931E-002   5.1851269508028618E-002
   5.5106076877828467E-002  -1.8904285146563296E-002   5.0408635275196227E-002
   5.2566025846609049E-002  -1.8866716289703475E-002   5.0597957646003125E-002
   9.7510834047155687E-002  -2.8821265998083795E-002   1.0390306841660313E-002
   9.0789138364937350E-002  -2.8402995320703811E-002   1.1430961347093510E-002
   8.4067442682719026E-002  -2.7079643692027831E-002   1.3851271681456209E-002
   7.7345747000500731E-002  -2.4851211112055731E-002   1.7651237844748424E-002
   7.0624051318282366E-002  -2.1717697580787620E-002   2.2830859836970308E-002
   8.6873863240549853E-002  -2.6332628570988725E-002   2.0231920729881808E-002
   8.1415431634642196E-002  -2.5898253037484290E-002   2.1537682585853257E-002
   7.5957000028734498E-002  -2.4806985257587039E-002   2.3990316765516315E-002
   7.0498568422826841E-002  -2.3058825231297216E-002   2.7589823268871078E-002
   6.5040136816919170E-002  -2.0653772958614480E-002   3.2336202095917616E-002
   7.5837404938256830E-002  -2.3843991143893642E-002   3.0213733826679488E-002
   7.1409453903421932E-002  -2.3393510754264615E-002   3.1536414328285786E-002
   6.6981502868587089E-002  -2.2534326823146305E-002   3.3773183648345917E-002
   6.2553551833752233E-002  -2.1266439350538537E-002   3.6924041786860033E-002
   5.8125600798917362E-002  -1.9589848336441312E-002   4.0988988743827906E-002
   6.4401459140276521E-002  -2.1355353716798538E-002   4.0335746132053221E-002
   6.0771205171276620E-002  -2.0888768471045087E-002   4.1427156574391139E-002
   5.7140951202276698E-002  -2.0261668388705585E-002   4.3199872329945127E-002
   5.3510697233276790E-002  -1.9474053469779939E-002   4.5653893398715048E-002
   4.9880443264276861E-002  -1.8525923714268103E-002   4.8789219780701096E-002
   5.2566025846609049E-002  -1.8866716289703475E-002   5.0597957646003125E-002
   4.9500685438206231E-002  -1.8384026187825558E-002   5.1209909324169356E-002
   4.6435345029803413E-002  -1.7989009954264810E-002   5.2270382810313869E-002
   4.3370004621400580E-002  -1.7681667589021281E-002   5.3779378104436407E-002
   4.0304664212997748E-002  -1.7461999092094921E-002   5.5736895206537240E-002
   7.0624051318282366E-002  -2.1717697580787620E-002   2.2830859836970308E-002
   5.6945497659400712E-002  -1.7537710702806214E-002   2.2091657844670431E-002
   4.3266944000519086E-002  -1.2169858082694121E-002   2.4717819652710610E-002
   2.9588390341637447E-002  -5.6141397204511091E-003   3.0709345261090454E-002
   1.5909836682755807E-002   2.1294443839225963E-003   4.0066234669810408E-002
   6.5040136816919170E-002  -2.0653772958614480E-002   3.2336202095917616E-002
   5.4448334625445655E-002  -1.7491508773202297E-002   3.1010464914646013E-002
   4.3856532433972084E-002  -1.3471713008723532E-002   3.2492866867850481E-002
   3.3264730242498611E-002  -8.5943856651784535E-003   3.6783407955531679E-002
   2.2672928051025054E-002  -2.8595267425667314E-003   4.3882088177688572E-002
   5.8125600798917362E-002  -1.9589848336441312E-002   4.0988988743827906E-002
   5.0063325408988280E-002  -1.7445306843598254E-002   3.8746382210520028E-002
   4.2001050019059245E-002  -1.4773567934753047E-002   3.8754690145824881E-002
   3.3938774629130239E-002  -1.1574631609905630E-002   4.1013912549742473E-002
   2.5876499239201128E-002  -7.8484978690560592E-003   4.5524049422272783E-002
   4.9880443264276861E-002  -1.8525923714268103E-002   4.8789219780701096E-002
   4.3790470010028691E-002  -1.7399104913994275E-002   4.5299409732292850E-002
   3.7700496755780528E-002  -1.6075422860782510E-002   4.3503289486633637E-002
   3.1610523501532373E-002  -1.4554877554632945E-002   4.3400859043723518E-002
   2.5520550247284182E-002  -1.2837468995545276E-002   4.4992118403562487E-002
   4.0304664212997748E-002  -1.7461999092094921E-002   5.5736895206537240E-002
   3.5629768428566827E-002  -1.7352902984390309E-002   5.0669547479964300E-002
   3.0954872644135920E-002  -1.7377277786811980E-002   4.6738664890276768E-002
   2.6279976859704977E-002  -1.7535123499360233E-002   4.3944247437474930E-002
   2.1605081075274035E-002  -1.7826440122034604E-002   4.2286295121558237E-002
   5.5030949070186880E-002   0.0000000000000000        3.6574580784121020E-002
   5.6954769295511826E-002  -3.2140496375403669E-003   4.4509254697819967E-002
   5.8878589520836772E-002  -6.4769817778910603E-003   5.0997117169134715E-002
   6.0802409746161731E-002  -9.7887964210520706E-003   5.6038168198065265E-002
   6.2726229971486663E-002  -1.3149493567023409E-002   5.9632407784611610E-002
   4.2009696488401360E-002   0.0000000000000000        3.3783673446252695E-002
   4.2728169367855347E-002  -2.4105372281553105E-003   4.1426049475998400E-002
   4.3446642247309340E-002  -4.8577363334183637E-003   4.8104542256386371E-002
   4.4165115126763327E-002  -7.3415973157891605E-003   5.3819151787416634E-002
   4.4883588006217313E-002  -9.8621201752676982E-003   5.8569878069089150E-002
   2.8497454116108406E-002   0.0000000000000000        3.1790168204918139E-002
   2.8493507842717904E-002  -1.6070248187702529E-003   3.9152466976413197E-002
   2.8489561569327398E-002  -3.2384908889456689E-003   4.6033810691576971E-002
   2.8485615295936895E-002  -4.8943982105262504E-003   5.2434199350409508E-002
   2.8481669022546396E-002  -6.5747467835119890E-003   5.8353632952910794E-002
   1.4494221953308014E-002   0.0000000000000000        3.0594065060117352E-002
   1.4250784720099486E-002  -8.0351240938519668E-004   3.7688507199064324E-002
   1.4007347486890956E-002  -1.6192454444729758E-003   4.4784922474706508E-002
   1.3763910253682430E-002  -2.4471991052633403E-003   5.1883310887043899E-002
   1.3520473020473900E-002  -3.2873733917562859E-003   5.8983672436076481E-002
   1.8561541192951836E-016   0.0000000000000000        3.0195364011850336E-002
   9.8879238130678004E-017  -1.3791051634015616E-016   3.7034170143951807E-002
   1.4311468676808659E-017  -2.7929047963226594E-016   4.4357877605774962E-002
  -7.3075226425522999E-017  -4.3194614551822497E-016   5.2166486397319779E-002
  -1.5872719805187785E-016  -5.7592819402429996E-016   6.0459996518586280E-002
   6.2726229971486663E-002  -1.3149493567023409E-002   5.9632407784611610E-002
   6.0186178940267267E-002  -1.6045673785223265E-002   5.4925860344500456E-002
   5.7646127909047870E-002  -1.7963937645069931E-002   5.1851269508028618E-002
   5.5106076877828467E-002  -1.8904285146563296E-002   5.0408635275196227E-002
   5.2566025846609049E-002  -1.8866716289703475E-002   5.0597957646003125E-002
   4.4883588006217313E-002  -9.8621201752676982E-003   5.8569878069089150E-002
   4.3726257617178660E-002  -1.2034255338917648E-002   5.5910494462676874E-002
   4.2568927228140006E-002  -1.3472953233802655E-002   5.4384595536986720E-002
   4.1411596839101353E-002  -1.4178213859922760E-002   5.3992181292018729E-002
   4.0254266450062692E-002  -1.4150037217277936E-002   5.4733251727772797E-002
   2.8481669022546396E-002  -6.5747467835119890E-003   5.8353632952910794E-002
   2.8208587352771246E-002  -8.0228368926120071E-003   5.7496934090609096E-002
   2.7935505682996100E-002  -8.9819688225353956E-003   5.7275247986112277E-002
   2.7662424013220957E-002  -9.4521425732821754E-003   5.7688574639420377E-002
   2.7389342343445804E-002  -9.4333581448523482E-003   5.8736914050533315E-002
   1.3520473020473900E-002  -3.2873733917562859E-003   5.8983672436076481E-002
   1.3633168147045018E-002  -4.0114184463063817E-003   5.9685179228297060E-002
   1.3745863273616139E-002  -4.4909844112681627E-003   6.0523226855405260E-002
   1.3858558400187262E-002  -4.7260712866416012E-003   6.1497815317401151E-002
   1.3971253526758381E-002  -4.7166790724267778E-003   6.2608944614284651E-002
  -1.5872719805187785E-016  -5.7592819402429996E-016   6.0459996518586280E-002
  -1.4745149545802860E-017  -7.4246164771807344E-016   6.2475229875740827E-002
   1.3140530330524314E-016  -8.8644369622414843E-016   6.4128532144865760E-002
   2.7213474529386161E-016  -1.0508087455729509E-015   6.5419903325961135E-002
   4.1980308118638732E-016  -1.2351231148954867E-015   6.6349343419026860E-002
   5.2566025846609049E-002  -1.8866716289703475E-002   5.0597957646003125E-002
   4.9500685438206231E-002  -1.8384026187825558E-002   5.1209909324169356E-002
   4.6435345029803413E-002  -1.7989009954264810E-002   5.2270382810313869E-002
   4.3370004621400580E-002  -1.7681667589021281E-002   5.3779378104436407E-002
   4.0304664212997748E-002  -1.7461999092094921E-002   5.5736895206537240E-002
   4.0254266450062692E-002  -1.4150037217277936E-002   5.4733251727772797E-002
   3.7716901173168671E-002  -1.3788019640869495E-002   5.4794777384621671E-002
   3.5179535896274670E-002  -1.3491757465699011E-002   5.5463731496509974E-002
   3.2642170619380670E-002  -1.3261250691766448E-002   5.6740114063437819E-002
   3.0104805342486642E-002  -1.3096499319071669E-002   5.8623925085405079E-002
   2.7389342343445804E-002  -9.4333581448523482E-003   5.8736914050533315E-002
   2.5538858845121887E-002  -9.1920130939134731E-003   5.8269932153144091E-002
   2.3688375346797980E-002  -8.9945049771331820E-003   5.8569285357855536E-002
   2.1837891848474060E-002  -8.8408337945114733E-003   5.9634973664667780E-002
   1.9987408350150150E-002  -8.7309995460483208E-003   6.1466997073580810E-002
   1.3971253526758381E-002  -4.7166790724267778E-003   6.2608944614284651E-002
   1.2966558454065856E-002  -4.5960065469574166E-003   6.1635373629736638E-002
   1.1961863381373335E-002  -4.4972524885673543E-003   6.1587044394350615E-002
   1.0957168308680813E-002  -4.4204168972564999E-003   6.2463956908126630E-002
   9.9524732359882895E-003  -4.3654997730250208E-003   6.4266111171064677E-002
   4.1980308118638732E-016  -1.2351231148954867E-015   6.6349343419026860E-002
   5.7939764097625357E-016  -1.3461454173580023E-015   6.4891101814399291E-002
   7.3725747729014302E-016  -1.5022705301959149E-015   6.4517008605995046E-002
   8.9338259012805565E-016  -1.6176296413483726E-015   6.5227063793814100E-002
   1.0547118733938987E-015  -1.7208456881689926E-015   6.7021267377856547E-002
   4.0304664212997748E-002  -1.7461999092094921E-002   5.5736895206537240E-002
   3.5629768428566827E-002  -1.7352902984390309E-002   5.0669547479964300E-002
   3.0954872644135920E-002  -1.7377277786811980E-002   4.6738664890276768E-002
   2.6279976859704977E-002  -1.7535123499360233E-002   4.3944247437474930E-002
   2.1605081075274035E-002  -1.7826440122034604E-002   4.2286295121558237E-002
   3.0104805342486642E-002  -1.3096499319071669E-002   5.8623925085405079E-002
   2.6574439397246775E-002  -1.3014677238293165E-002   5.3530316892951763E-002
   2.3044073452006913E-002  -1.3032958340109375E-002   4.9589303241995196E-002
   1.9513707506767050E-002  -1.3151342624520406E-002   4.6800884132535386E-002
   1.5983341561527170E-002  -1.3369830091526147E-002   4.5165059564572063E-002
   1.9987408350150150E-002  -8.7309995460483208E-003   6.1466997073580810E-002
   1.7617701648712562E-002  -8.6764514921959870E-003   5.6380496142778937E-002
   1.5247994947274985E-002  -8.6886388934067672E-003   5.2462719158084994E-002
   1.2878288245837413E-002  -8.7675617496806718E-003   4.9713666119498845E-002
   1.0508581544399806E-002  -8.9132200610176904E-003   4.8133337027020773E-002
   9.9524732359882895E-003  -4.3654997730250208E-003   6.4266111171064677E-002
   8.7595551829642328E-003  -4.3382257460988539E-003   5.9220085229445746E-002
   7.5666371299401699E-003  -4.3443194467041608E-003   5.5358912638545942E-002
   6.3737190769160932E-003  -4.3837808748409743E-003   5.2682593398365299E-002
   5.1808010238920503E-003  -4.4566100305092338E-003   5.1191127508903679E-002
   1.0547118733938987E-015  -1.7208456881689926E-015   6.7021267377856547E-002
   1.7416623698807143E-015  -1.6930901125533637E-015   6.2049084152952225E-002
   2.4251434194155763E-015  -1.4849232954361469E-015   5.8277883683378218E-002
   3.1155633628543455E-015  -1.2177758801357186E-015   5.5707665969134679E-002
   3.8025138593411612E-015  -7.7715611723760958E-016   5.4338431010221400E-002
   1.8561541192951836E-016   0.0000000000000000        3.0195364011850336E-002
   9.8879238130678004E-017  -1.3791051634015616E-016   3.7034170143951807E-002
   1.4311468676808659E-017  -2.7929047963226594E-016   4.4357877605774962E-002
  -7.3075226425522999E-017  -4.3194614551822497E-016   5.2166486397319779E-002
  -1.5872719805187785E-016  -5.7592819402429996E-016   6.0459996518586280E-002
  -1.4494221953307631E-002   0.0000000000000000        3.0594065060117092E-002
  -1.4250784720099280E-002   8.0351240938494623E-004   3.7688507199064081E-002
  -1.4007347486890935E-002   1.6192454444724849E-003   4.4784922474706265E-002
  -1.3763910253682586E-002   2.4471991052626247E-003   5.1883310887043642E-002
  -1.3520473020474238E-002   3.2873733917553587E-003   5.8983672436076197E-002
  -2.8497454116107972E-002   0.0000000000000000        3.1790168204917625E-002
  -2.8493507842717682E-002   1.6070248187700286E-003   3.9152466976412746E-002
  -2.8489561569327384E-002   3.2384908889452535E-003   4.6033810691576561E-002
  -2.8485615295937086E-002   4.8943982105256805E-003   5.2434199350409091E-002
  -2.8481669022546795E-002   6.5747467835113003E-003   5.8353632952910316E-002
  -4.2009696488400861E-002   0.0000000000000000        3.3783673446251945E-002
  -4.2728169367855097E-002   2.4105372281551115E-003   4.1426049475997775E-002
  -4.3446642247309347E-002   4.8577363334180220E-003   4.8104542256385843E-002
  -4.4165115126763570E-002   7.3415973157887372E-003   5.3819151787416128E-002
  -4.4883588006217820E-002   9.8621201752672558E-003   5.8569878069088616E-002
  -5.5030949070186269E-002   0.0000000000000000        3.6574580784120049E-002
  -5.6954769295511534E-002   3.2140496375401961E-003   4.4509254697819210E-002
  -5.8878589520836792E-002   6.4769817778907880E-003   5.0997117169134118E-002
  -6.0802409746162051E-002   9.7887964210517896E-003   5.6038168198064751E-002
  -6.2726229971487316E-002   1.3149493567023180E-002   5.9632407784611118E-002
  -1.5872719805187785E-016  -5.7592819402429996E-016   6.0459996518586280E-002
  -1.4745149545802860E-017  -7.4246164771807344E-016   6.2475229875740827E-002
   1.3140530330524314E-016  -8.8644369622414843E-016   6.4128532144865760E-002
   2.7213474529386161E-016  -1.0508087455729509E-015   6.5419903325961135E-002
   4.1980308118638732E-016  -1.2351231148954867E-015   6.6349343419026860E-002
  -1.3520473020474238E-002   3.2873733917553587E-003   5.8983672436076197E-002
  -1.3633168147045059E-002   4.0114184463052090E-003   5.9685179228296741E-002
  -1.3745863273615875E-002   4.4909844112667168E-003   6.0523226855404913E-002
  -1.3858558400186700E-002   4.7260712866398031E-003   6.1497815317400756E-002
  -1.3971253526757516E-002   4.7166790724245677E-003   6.2608944614284304E-002
  -2.8481669022546795E-002   6.5747467835113003E-003   5.8353632952910316E-002
  -2.8208587352771309E-002   8.0228368926111605E-003   5.7496934090608451E-002
  -2.7935505682995833E-002   8.9819688225342975E-003   5.7275247986111527E-002
  -2.7662424013220353E-002   9.4521425732806991E-003   5.7688574639419503E-002
  -2.7389342343444881E-002   9.4333581448504053E-003   5.8736914050532441E-002
  -4.4883588006217820E-002   9.8621201752672558E-003   5.8569878069088616E-002
  -4.3726257617178778E-002   1.2034255338917126E-002   5.5910494462676014E-002
  -4.2568927228139729E-002   1.3472953233801873E-002   5.4384595536985582E-002
  -4.1411596839100687E-002   1.4178213859921610E-002   5.3992181292017348E-002
  -4.0254266450061638E-002   1.4150037217276212E-002   5.4733251727771319E-002
  -6.2726229971487316E-002   1.3149493567023180E-002   5.9632407784611118E-002
  -6.0186178940267440E-002   1.6045673785223064E-002   5.4925860344499408E-002
  -5.7646127909047579E-002   1.7963937645069490E-002   5.1851269508027133E-002
  -5.5106076877827717E-002   1.8904285146562463E-002   5.0408635275194333E-002
  -5.2566025846607856E-002   1.8866716289702032E-002   5.0597957646000960E-002
   4.1980308118638732E-016  -1.2351231148954867E-015   6.6349343419026860E-002
   5.7939764097625357E-016  -1.3461454173580023E-015   6.4891101814399291E-002
   7.3725747729014302E-016  -1.5022705301959149E-015   6.4517008605995046E-002
   8.9338259012805565E-016  -1.6176296413483726E-015   6.5227063793814100E-002
   1.0547118733938987E-015  -1.7208456881689926E-015   6.7021267377856547E-002
  -1.3971253526757516E-002   4.7166790724245677E-003   6.2608944614284304E-002
  -1.2966558454064673E-002   4.5960065469548388E-003   6.1635373629736354E-002
  -1.1961863381371833E-002   4.4972524885645328E-003   6.1587044394350414E-002
  -1.0957168308678995E-002   4.4204168972535049E-003   6.2463956908126589E-002
  -9.9524732359861541E-003   4.3654997730219053E-003   6.4266111171064705E-002
  -2.7389342343444881E-002   9.4333581448504053E-003   5.8736914050532441E-002
  -2.5538858845120645E-002   9.1920130939110931E-003   5.8269932153143467E-002
  -2.3688375346796409E-002   8.9945049771305002E-003   5.8569285357855244E-002
  -2.1837891848472159E-002   8.8408337945086422E-003   5.9634973664667794E-002
  -1.9987408350147937E-002   8.7309995460454759E-003   6.1466997073581067E-002
  -4.0254266450061638E-002   1.4150037217276212E-002   5.4733251727771319E-002
  -3.7716901173167325E-002   1.3788019640867327E-002   5.4794777384620720E-002
  -3.5179535896272963E-002   1.3491757465696474E-002   5.5463731496509572E-002
  -3.2642170619378623E-002   1.3261250691763772E-002   5.6740114063437853E-002
  -3.0104805342484296E-002   1.3096499319069102E-002   5.8623925085405620E-002
  -5.2566025846607856E-002   1.8866716289702032E-002   5.0597957646000960E-002
  -4.9500685438204697E-002   1.8384026187823546E-002   5.1209909324168038E-002
  -4.6435345029801532E-002   1.7989009954262499E-002   5.2270382810313286E-002
  -4.3370004621398381E-002   1.7681667589018894E-002   5.3779378104436712E-002
  -4.0304664212995216E-002   1.7461999092092673E-002   5.5736895206538239E-002
   1.0547118733938987E-015  -1.7208456881689926E-015   6.7021267377856547E-002
   1.7416623698807143E-015  -1.6930901125533637E-015   6.2049084152952225E-002
   2.4251434194155763E-015  -1.4849232954361469E-015   5.8277883683378218E-002
   3.1155633628543455E-015  -1.2177758801357186E-015   5.5707665969134679E-002
   3.8025138593411612E-015  -7.7715611723760958E-016   5.4338431010221400E-002
  -9.9524732359861541E-003   4.3654997730219053E-003   6.4266111171064705E-002
  -8.7595551829608952E-003   4.3382257460957557E-003   5.9220085229445982E-002
  -7.5666371299356449E-003   4.3443194467012274E-003   5.5358912638545962E-002
  -6.3737190769103894E-003   4.3837808748384719E-003   5.2682593398364529E-002
  -5.1808010238851496E-003   4.4566100305071799E-003   5.1191127508902257E-002
  -1.9987408350147937E-002   8.7309995460454759E-003   6.1466997073581067E-002
  -1.7617701648709697E-002   8.6764514921932739E-003   5.6380496142779291E-002
  -1.5247994947271453E-002   8.6886388934041339E-003   5.2462719158084682E-002
  -1.2878288245833232E-002   8.7675617496781339E-003   4.9713666119497110E-002
  -1.0508581544394970E-002   8.9132200610151924E-003   4.8133337027016998E-002
  -3.0104805342484296E-002   1.3096499319069102E-002   5.8623925085405620E-002
  -2.6574439397244666E-002   1.3014677238290771E-002   5.3530316892952234E-002
  -2.3044073452005050E-002   1.3032958340107027E-002   4.9589303241994509E-002
  -1.9513707506765423E-002   1.3151342624517809E-002   4.6800884132532299E-002
  -1.5983341561525810E-002   1.3369830091523122E-002   4.5165059564565790E-002
  -4.0304664212995216E-002   1.7461999092092673E-002   5.5736895206538239E-002
  -3.5629768428565793E-002   1.7352902984388269E-002   5.0669547479964813E-002
  -3.0954872644136367E-002   1.7377277786809794E-002   4.6738664890275436E-002
  -2.6279976859706941E-002   1.7535123499357510E-002   4.3944247437469927E-002
  -2.1605081075277532E-002   1.7826440122031162E-002   4.2286295121548689E-002
  -5.5030949070186269E-002   0.0000000000000000        3.6574580784120049E-002
  -5.6954769295511534E-002   3.2140496375401961E-003   4.4509254697819210E-002
  -5.8878589520836792E-002   6.4769817778907880E-003   5.0997117169134118E-002
  -6.0802409746162051E-002   9.7887964210517896E-003   5.6038168198064751E-002
  -6.2726229971487316E-002   1.3149493567023180E-002   5.9632407784611118E-002
  -7.2306560329492259E-002   0.0000000000000000        4.2919945213573354E-002
  -7.4321145628460636E-002   8.4111606769931672E-003   4.2145439806091818E-002
  -7.6335730927428999E-002   1.4642401762429435E-002   4.2636215693708332E-002
  -7.8350316226397376E-002   1.8693723256308813E-002   4.4392272876422868E-002
  -8.0364901525365753E-002   2.0565125158631289E-002   4.7413611354235441E-002
  -9.8581878734346845E-002   0.0000000000000000        5.5576821729663273E-002
  -9.7975136369476037E-002   1.3608271716446140E-002   4.3864334906633752E-002
  -9.7368394004605202E-002   2.2807821746968084E-002   3.6129222116184564E-002
  -9.6761651639734395E-002   2.7598650091565841E-002   3.2371483358315703E-002
  -9.6154909274863573E-002   2.7980756750239404E-002   3.2591118633027230E-002
 -0.13385690428475003        0.0000000000000000        7.4545210332389811E-002
 -0.12791674151855770        1.8805382755899113E-002   4.9665939999444998E-002
 -0.12197657875236539        3.0973241731506729E-002   3.1476136436562822E-002
 -0.11603641598617311        3.6503576926822864E-002   1.9975799643743311E-002
 -0.11009625321998077        3.5396388341847503E-002   1.5164929620986442E-002
 -0.17813163698070181        0.0000000000000000        9.9825111021752982E-002
 -0.16414596107570570        2.4002493795352086E-002   5.9550255084525577E-002
 -0.15016028517070959        3.9138661716045367E-002   2.8676958654843120E-002
 -0.13617460926571348        4.5408503762079888E-002   7.2052217327056023E-003
 -0.12218893336071739        4.2812019933455611E-002  -4.8649556818869608E-003
  -6.2726229971487316E-002   1.3149493567023180E-002   5.9632407784611118E-002
  -6.0186178940267440E-002   1.6045673785223064E-002   5.4925860344499408E-002
  -5.7646127909047579E-002   1.7963937645069490E-002   5.1851269508027133E-002
  -5.5106076877827717E-002   1.8904285146562463E-002   5.0408635275194333E-002
  -5.2566025846607856E-002   1.8866716289702032E-002   5.0597957646000960E-002
  -8.0364901525365753E-002   2.0565125158631289E-002   4.7413611354235441E-002
  -7.6374040929093112E-002   2.1200596023424674E-002   4.3739651258990278E-002
  -7.2383180332820499E-002   2.1544124404716782E-002   4.1335353690211157E-002
  -6.8392319736547885E-002   2.1595710302507582E-002   4.0200718647898120E-002
  -6.4401459140275230E-002   2.1355353716797115E-002   4.0335746132051084E-002
  -9.6154909274863573E-002   2.7980756750239404E-002   3.2591118633027230E-002
  -9.1075533190711599E-002   2.6355518261626271E-002   3.0635719757500696E-002
  -8.5996157106559598E-002   2.5124311164364071E-002   2.9587689331266896E-002
  -8.0916781022407597E-002   2.4287135458452701E-002   2.9447027354325792E-002
  -7.5837404938255581E-002   2.3843991143892261E-002   3.0213733826677285E-002
 -0.11009625321998077        3.5396388341847503E-002   1.5164929620986442E-002
 -0.10429065572512282        3.1510440499827923E-002   1.5614065840030838E-002
  -9.8485058230264863E-002   2.8704497924011328E-002   1.6608276431194446E-002
  -9.2679460735406935E-002   2.6978560614397840E-002   1.8147561394477395E-002
  -8.6873863240548924E-002   2.6332628570987334E-002   2.0231920729879609E-002
 -0.12218893336071739        4.2812019933455611E-002  -4.8649556818869608E-003
 -0.11601940853232685        3.6665362738029499E-002  -1.3253104934195653E-003
 -0.10984988370393634        3.2284684683658638E-002   2.3971149899937681E-003
 -0.10368035887554580        2.9669985770342924E-002   6.3023207683528485E-003
  -9.7510834047155270E-002   2.8821265998082463E-002   1.0390306841657954E-002
  -5.2566025846607856E-002   1.8866716289702032E-002   5.0597957646000960E-002
  -4.9500685438204697E-002   1.8384026187823546E-002   5.1209909324168038E-002
  -4.6435345029801532E-002   1.7989009954262499E-002   5.2270382810313286E-002
  -4.3370004621398381E-002   1.7681667589018894E-002   5.3779378104436712E-002
  -4.0304664212995216E-002   1.7461999092092673E-002   5.5736895206538239E-002
  -6.4401459140275230E-002   2.1355353716797115E-002   4.0335746132051084E-002
  -6.0771205171275003E-002   2.0888768471043099E-002   4.1427156574389890E-002
  -5.7140951202274755E-002   2.0261668388703306E-002   4.3199872329944780E-002
  -5.3510697233274500E-002   1.9474053469777784E-002   4.5653893398715575E-002
  -4.9880443264274280E-002   1.8525923714266437E-002   4.8789219780702359E-002
  -7.5837404938255581E-002   2.3843991143892261E-002   3.0213733826677285E-002
  -7.1409453903420461E-002   2.3393510754262693E-002   3.1536414328284690E-002
  -6.6981502868585299E-002   2.2534326823144102E-002   3.3773183648345945E-002
  -6.2553551833750151E-002   2.1266439350536692E-002   3.6924041786860907E-002
  -5.8125600798915003E-002   1.9589848336440174E-002   4.0988988743829877E-002
  -8.6873863240548924E-002   2.6332628570987334E-002   2.0231920729879609E-002
  -8.1415431634641031E-002   2.5898253037482239E-002   2.1537682585852317E-002
  -7.5957000028733165E-002   2.4806985257584971E-002   2.3990316765516786E-002
  -7.0498568422825245E-002   2.3058825231295491E-002   2.7589823268872701E-002
  -6.5040136816917393E-002   2.0653772958613953E-002   3.2336202095920558E-002
  -9.7510834047155270E-002   2.8821265998082463E-002   1.0390306841657954E-002
  -9.0789138364936822E-002   2.8402995320701785E-002   1.1430961347092775E-002
  -8.4067442682718346E-002   2.7079643692025694E-002   1.3851271681457097E-002
  -7.7345747000499857E-002   2.4851211112054475E-002   1.7651237844751016E-002
  -7.0624051318281422E-002   2.1717697580787620E-002   2.2830859836974332E-002
  -4.0304664212995216E-002   1.7461999092092673E-002   5.5736895206538239E-002
  -3.5629768428565793E-002   1.7352902984388269E-002   5.0669547479964813E-002
  -3.0954872644136367E-002   1.7377277786809794E-002   4.6738664890275436E-002
  -2.6279976859706941E-002   1.7535123499357510E-002   4.3944247437469927E-002
  -2.1605081075277532E-002   1.7826440122031162E-002   4.2286295121548689E-002
  -4.9880443264274280E-002   1.8525923714266437E-002   4.8789219780702359E-002
  -4.3790470010028205E-002   1.7399104913992741E-002   4.5299409732293516E-002
  -3.7700496755782124E-002   1.6075422860779998E-002   4.3503289486633887E-002
  -3.1610523501536071E-002   1.4554877554628334E-002   4.3400859043723657E-002
  -2.5520550247290025E-002   1.2837468995537782E-002   4.4992118403562598E-002
  -5.8125600798915003E-002   1.9589848336440174E-002   4.0988988743829877E-002
  -5.0063325408986975E-002   1.7445306843597255E-002   3.8746382210520416E-002
  -4.2001050019058968E-002   1.4773567934750119E-002   3.8754690145825631E-002
  -3.3938774629130933E-002   1.1574631609899256E-002   4.1013912549745485E-002
  -2.5876499239202919E-002   7.8484978690442908E-003   4.5524049422279805E-002
  -6.5040136816917393E-002   2.0653772958613953E-002   3.2336202095920558E-002
  -5.4448334625442123E-002   1.7491508773201762E-002   3.1010464914645475E-002
  -4.3856532433966887E-002   1.3471713008720364E-002   3.2492866867850460E-002
  -3.3264730242491651E-002   8.5943856651701581E-003   3.6783407955535329E-002
  -2.2672928051016394E-002   2.8595267425507997E-003   4.3882088177699875E-002
  -7.0624051318281422E-002   2.1717697580787620E-002   2.2830859836974332E-002
  -5.6945497659393635E-002   1.7537710702806214E-002   2.2091657844668933E-002
  -4.3266944000505903E-002   1.2169858082690430E-002   2.4717819652708618E-002
  -2.9588390341618170E-002   5.6141397204409992E-003   3.0709345261093680E-002
  -1.5909836682730383E-002  -2.1294443839425803E-003   4.0066234669823508E-002
 </DataArray>
 </PointData>
 </Piece>
 <Piece  NumberOfPoints="           400 "  NumberOfCells="          256 ">
 <Points>
 <DataArray  type="Float64" NumberOfComponents="3"  format="ascii" >
  0.50000000000000000        0.0000000000000000        0.0000000000000000     
  0.56250000000000000        0.0000000000000000        0.0000000000000000     
  0.62500000000000000        0.0000000000000000        0.0000000000000000     
  0.68750000000000000        0.0000000000000000        0.0000000000000000     
  0.75000000000000000        0.0000000000000000        0.0000000000000000     
  0.50000000000000000        6.2500000000000000E-002   0.0000000000000000     
  0.56250000000000000        6.2500000000000000E-002   0.0000000000000000     
  0.62500000000000000        6.2500000000000000E-002   0.0000000000000000     
  0.68750000000000000        6.2500000000000000E-002   0.0000000000000000     
  0.75000000000000000        6.2500000000000000E-002   0.0000000000000000     
  0.50000000000000000       0.12500000000000000        0.0000000000000000     
  0.56250000000000000       0.12500000000000000        0.0000000000000000     
  0.62500000000000000       0.12500000000000000        0.0000000000000000     
  0.68750000000000000       0.12500000000000000        0.0000000000000000     
  0.75000000000000000       0.12500000000000000        0.0000000000000000     
  0.50000000000000000       0.18750000000000000        0.0000000000000000     
  0.56250000000000000       0.18750000000000000        0.0000000000000000     
  0.62500000000000000       0.18750000000000000        0.0000000000000000     
  0.68750000000000000       0.18750000000000000        0.0000000000000000     
  0.75000000000000000       0.18750000000000000        0.0000000000000000     
  0.50000000000000000       0.25000000000000000        0.0000000000000000     
  0.56250000000000000       0.25000000000000000        0.0000000000000000     
  0.62500000000000000       0.25000000000000000        0.0000000000000000     
  0.68750000000000000       0.25000000000000000        0.0000000000000000     
  0.75000000000000000       0.25000000000000000        0.0000000000000000     
  0.75000000000000000        0.0000000000000000        0.0000000000000000     
  0.81250000000000000        0.0000000000000000        0.0000000000000000     
  0.87500000000000000        0.0000000000000000        0.0000000000000000     
  0.93750000000000000        0.0000000000000000        0.0000000000000000     
   1.0000000000000000        0.0000000000000000        0.0000000000000000     
  0.75000000000000000        6.2500000000000000E-002   0.0000000000000000     
  0.81250000000000000        6.2500000000000000E-002   0.0000000000000000     
  0.87500000000000000        6.2500000000000000E-002   0.0000000000000000     
  0.93750000000000000        6.2500000000000000E-002   0.0000000000000000     
   1.0000000000000000        6.2500000000000000E-002   0.0000000000000000     
  0.75000000000000000       0.12500000000000000        0.0000000000000000     
  0.81250000000000000       0.12500000000000000        0.0000000000000000     
  0.87500000000000000       0.12500000000000000        0.0000000000000000     
  0.93750000000000000       0.12500000000000000        0.0000000000000000     
   1.0000000000000000       0.12500000000000000        0.0000000000000000     
  0.75000000000000000       0.18750000000000000        0.0000000000000000     
  0.81250000000000000       0.18750000000000000        0.0000000000000000     
  0.87500000000000000       0.18750000000000000        0.0000000000000000     
  0.93750000000000000       0.18750000000000000        0.0000000000000000     
   1.0000000000000000       0.18750000000000000        0.0000000000000000     
  0.75000000000000000       0.25000000000000000        0.0000000000000000     
  0.81250000000000000       0.25000000000000000        0.0000000000000000     
  0.87500000000000000       0.25000000000000000        0.0000000000000000     
  0.93750000000000000       0.25000000000000000        0.0000000000000000     
   1.0000000000000000       0.25000000000000000        0.0000000000000000     
   1.0000000000000000        0.0000000000000000        0.0000000000000000     
   1.0625000000000000        0.0000000000000000        0.0000000000000000     
   1.1250000000000000        0.0000000000000000        0.0000000000000000     
   1.1875000000000000        0.0000000000000000        0.0000000000000000     
   1.2500000000000000        0.0000000000000000        0.0000000000000000     
   1.0000000000000000        6.2500000000000000E-002   0.0000000000000000     
   1.0625000000000000        6.2500000000000000E-002   0.0000000000000000     
   1.1250000000000000        6.2500000000000000E-002   0.0000000000000000     
   1.1875000000000000        6.2500000000000000E-002   0.0000000000000000     
   1.2500000000000000        6.2500000000000000E-002   0.0000000000000000     
   1.0000000000000000       0.12500000000000000        0.0000000000000000     
   1.0625000000000000       0.12500000000000000        0.0000000000000000     
   1.1250000000000000       0.12500000000000000        0.0000000000000000     
   1.1875000000000000       0.12500000000000000        0.0000000000000000     
   1.2500000000000000       0.12500000000000000        0.0000000000000000     
   1.0000000000000000       0.18750000000000000        0.0000000000000000     
   1.0625000000000000       0.18750000000000000        0.0000000000000000     
   1.1250000000000000       0.18750000000000000        0.0000000000000000     
   1.1875000000000000       0.18750000000000000        0.0000000000000000     
   1.2500000000000000       0.18750000000000000        0.0000000000000000     
   1.0000000000000000       0.25000000000000000        0.0000000000000000     
   1.0625000000000000       0.25000000000000000        0.0000000000000000     
   1.1250000000000000       0.25000000000000000        0.0000000000000000     
   1.1875000000000000       0.25000000000000000        0.0000000000000000     
   1.2500000000000000       0.25000000000000000        0.0000000000000000     
   1.2500000000000000        0.0000000000000000        0.0000000000000000     
   1.3125000000000000        0.0000000000000000        0.0000000000000000     
   1.3750000000000000        0.0000000000000000        0.0000000000000000     
   1.4375000000000000        0.0000000000000000        0.0000000000000000     
   1.5000000000000000        0.0000000000000000        0.0000000000000000     
   1.2500000000000000        6.2500000000000000E-002   0.0000000000000000     
   1.3125000000000000        6.2500000000000000E-002   0.0000000000000000     
   1.3750000000000000        6.2500000000000000E-002   0.0000000000000000     
   1.4375000000000000        6.2500000000000000E-002   0.0000000000000000     
   1.5000000000000000        6.2500000000000000E-002   0.0000000000000000     
   1.2500000000000000       0.12500000000000000        0.0000000000000000     
   1.3125000000000000       0.12500000000000000        0.0000000000000000     
   1.3750000000000000       0.12500000000000000        0.0000000000000000     
   1.4375000000000000       0.12500000000000000        0.0000000000000000     
   1.5000000000000000       0.12500000000000000        0.0000000000000000     
   1.2500000000000000       0.18750000000000000        0.0000000000000000     
   1.3125000000000000       0.18750000000000000        0.0000000000000000     
   1.3750000000000000       0.18750000000000000        0.0000000000000000     
   1.4375000000000000       0.18750000000000000        0.0000000000000000     
   1.5000000000000000       0.18750000000000000        0.0000000000000000     
   1.2500000000000000       0.25000000000000000        0.0000000000000000     
   1.3125000000000000       0.25000000000000000        0.0000000000000000     
   1.3750000000000000       0.25000000000000000        0.0000000000000000     
   1.4375000000000000       0.25000000000000000        0.0000000000000000     
   1.5000000000000000       0.25000000000000000        0.0000000000000000     
  0.50000000000000000       0.25000000000000000        0.0000000000000000     
  0.56250000000000000       0.25000000000000000        0.0000000000000000     
  0.62500000000000000       0.25000000000000000        0.0000000000000000     
  0.68750000000000000       0.25000000000000000        0.0000000000000000     
  0.75000000000000000       0.25000000000000000        0.0000000000000000     
  0.50000000000000000       0.31250000000000000        0.0000000000000000     
  0.56250000000000000       0.31250000000000000        0.0000000000000000     
  0.62500000000000000       0.31250000000000000        0.0000000000000000     
  0.68750000000000000       0.31250000000000000        0.0000000000000000     
  0.75000000000000000       0.31250000000000000        0.0000000000000000     
  0.50000000000000000       0.37500000000000000        0.0000000000000000     
  0.56250000000000000       0.37500000000000000        0.0000000000000000     
  0.62500000000000000       0.37500000000000000        0.0000000000000000     
  0.68750000000000000       0.37500000000000000        0.0000000000000000     
  0.75000000000000000       0.37500000000000000        0.0000000000000000     
  0.50000000000000000       0.43750000000000000        0.0000000000000000     
  0.56250000000000000       0.43750000000000000        0.0000000000000000     
  0.62500000000000000       0.43750000000000000        0.0000000000000000     
  0.68750000000000000       0.43750000000000000        0.0000000000000000     
  0.75000000000000000       0.43750000000000000        0.0000000000000000     
  0.50000000000000000       0.50000000000000000        0.0000000000000000     
  0.56250000000000000       0.50000000000000000        0.0000000000000000     
  0.62500000000000000       0.50000000000000000        0.0000000000000000     
  0.68750000000000000       0.50000000000000000        0.0000000000000000     
  0.75000000000000000       0.50000000000000000        0.0000000000000000     
  0.75000000000000000       0.25000000000000000        0.0000000000000000     
  0.81250000000000000       0.25000000000000000        0.0000000000000000     
  0.87500000000000000       0.25000000000000000        0.0000000000000000     
  0.93750000000000000       0.25000000000000000        0.0000000000000000     
   1.0000000000000000       0.25000000000000000        0.0000000000000000     
  0.75000000000000000       0.31250000000000000        0.0000000000000000     
  0.81250000000000000       0.31250000000000000        0.0000000000000000     
  0.87500000000000000       0.31250000000000000        0.0000000000000000     
  0.93750000000000000       0.31250000000000000        0.0000000000000000     
   1.0000000000000000       0.31250000000000000        0.0000000000000000     
  0.75000000000000000       0.37500000000000000        0.0000000000000000     
  0.81250000000000000       0.37500000000000000        0.0000000000000000     
  0.87500000000000000       0.37500000000000000        0.0000000000000000     
  0.93750000000000000       0.37500000000000000        0.0000000000000000     
   1.0000000000000000       0.37500000000000000        0.0000000000000000     
  0.75000000000000000       0.43750000000000000        0.0000000000000000     
  0.81250000000000000       0.43750000000000000        0.0000000000000000     
  0.87500000000000000       0.43750000000000000        0.0000000000000000     
  0.93750000000000000       0.43750000000000000        0.0000000000000000     
   1.0000000000000000       0.43750000000000000        0.0000000000000000     
  0.75000000000000000       0.50000000000000000        0.0000000000000000     
  0.81250000000000000       0.50000000000000000        0.0000000000000000     
  0.87500000000000000       0.50000000000000000        0.0000000000000000     
  0.93750000000000000       0.50000000000000000        0.0000000000000000     
   1.0000000000000000       0.50000000000000000        0.0000000000000000     
   1.0000000000000000       0.25000000000000000        0.0000000000000000     
   1.0625000000000000       0.25000000000000000        0.0000000000000000     
   1.1250000000000000       0.25000000000000000        0.0000000000000000     
   1.1875000000000000       0.25000000000000000        0.0000000000000000     
   1.2500000000000000       0.25000000000000000        0.0000000000000000     
   1.0000000000000000       0.31250000000000000        0.0000000000000000     
   1.0625000000000000       0.31250000000000000        0.0000000000000000     
   1.1250000000000000       0.31250000000000000        0.0000000000000000     
   1.1875000000000000       0.31250000000000000        0.0000000000000000     
   1.2500000000000000       0.31250000000000000        0.0000000000000000     
   1.0000000000000000       0.37500000000000000        0.0000000000000000     
   1.0625000000000000       0.37500000000000000        0.0000000000000000     
   1.1250000000000000       0.37500000000000000        0.0000000000000000     
   1.1875000000000000       0.37500000000000000        0.0000000000000000     
   1.2500000000000000       0.37500000000000000        0.0000000000000000     
   1.0000000000000000       0.43750000000000000        0.0000000000000000     
   1.0625000000000000       0.43750000000000000        0.0000000000000000     
   1.1250000000000000       0.43750000000000000        0.0000000000000000     
   1.1875000000000000       0.43750000000000000        0.0000000000000000     
   1.2500000000000000       0.43750000000000000        0.0000000000000000     
   1.0000000000000000       0.50000000000000000        0.0000000000000000     
   1.0625000000000000       0.50000000000000000        0.0000000000000000     
   1.1250000000000000       0.50000000000000000        0.0000000000000000     
   1.1875000000000000       0.50000000000000000        0.0000000000000000     
   1.2500000000000000       0.50000000000000000        0.0000000000000000     
   1.2500000000000000       0.25000000000000000        0.0000000000000000     
   1.3125000000000000       0.25000000000000000        0.0000000000000000     
   1.3750000000000000       0.25000000000000000        0.0000000000000000     
   1.4375000000000000       0.25000000000000000        0.0000000000000000     
   1.5000000000000000       0.25000000000000000        0.0000000000000000     
   1.2500000000000000       0.31250000000000000        0.0000000000000000     
   1.3125000000000000       0.31250000000000000        0.0000000000000000     
   1.3750000000000000       0.31250000000000000        0.0000000000000000     
   1.4375000000000000       0.31250000000000000        0.0000000000000000     
   1.5000000000000000       0.31250000000000000        0.0000000000000000     
   1.2500000000000000       0.37500000000000000        0.0000000000000000     
   1.3125000000000000       0.37500000000000000        0.0000000000000000     
   1.3750000000000000       0.37500000000000000        0.0000000000000000     
   1.4375000000000000       0.37500000000000000        0.0000000000000000     
   1.5000000000000000       0.37500000000000000        0.0000000000000000     
   1.2500000000000000       0.43750000000000000        0.0000000000000000     
   1.3125000000000000       0.43750000000000000        0.0000000000000000     
   1.3750000000000000       0.43750000000000000        0.0000000000000000     
   1.4375000000000000       0.43750000000000000        0.0000000000000000     
   1.5000000000000000       0.43750000000000000        0.0000000000000000     
   1.2500000000000000       0.50000000000000000        0.0000000000000000     
   1.3125000000000000       0.50000000000000000        0.0000000000000000     
   1.3750000000000000       0.50000000000000000        0.0000000000000000     
   1.4375000000000000       0.50000000000000000        0.0000000000000000     
   1.5000000000000000       0.50000000000000000        0.0000000000000000     
  0.50000000000000000       0.50000000000000000        0.0000000000000000     
  0.56250000000000000       0.50000000000000000        0.0000000000000000     
  0.62500000000000000       0.50000000000000000        0.0000000000000000     
  0.68750000000000000       0.50000000000000000        0.0000000000000000     
  0.75000000000000000       0.50000000000000000        0.0000000000000000     
  0.50000000000000000       0.56250000000000000        0.0000000000000000     
  0.56250000000000000       0.56250000000000000        0.0000000000000000     
  0.62500000000000000       0.56250000000000000        0.0000000000000000     
  0.68750000000000000       0.56250000000000000        0.0000000000000000     
  0.75000000000000000       0.56250000000000000        0.0000000000000000     
  0.50000000000000000       0.62500000000000000        0.0000000000000000     
  0.56250000000000000       0.62500000000000000        0.0000000000000000     
  0.62500000000000000       0.62500000000000000        0.0000000000000000     
  0.68750000000000000       0.62500000000000000        0.0000000000000000     
  0.75000000000000000       0.62500000000000000        0.0000000000000000     
  0.50000000000000000       0.68750000000000000        0.0000000000000000     
  0.56250000000000000       0.68750000000000000        0.0000000000000000     
  0.62500000000000000       0.68750000000000000        0.0000000000000000     
  0.68750000000000000       0.68750000000000000        0.0000000000000000     
  0.75000000000000000       0.68750000000000000        0.0000000000000000     
  0.50000000000000000       0.75000000000000000        0.0000000000000000     
  0.56250000000000000       0.75000000000000000        0.0000000000000000     
  0.62500000000000000       0.75000000000000000        0.0000000000000000     
  0.68750000000000000       0.75000000000000000        0.0000000000000000     
  0.75000000000000000       0.75000000000000000        0.0000000000000000     
  0.75000000000000000       0.50000000000000000        0.0000000000000000     
  0.81250000000000000       0.50000000000000000        0.0000000000000000     
  0.87500000000000000       0.50000000000000000        0.0000000000000000     
  0.93750000000000000       0.50000000000000000        0.0000000000000000     
   1.0000000000000000       0.50000000000000000        0.0000000000000000     
  0.75000000000000000       0.56250000000000000        0.0000000000000000     
  0.81250000000000000       0.56250000000000000        0.0000000000000000     
  0.87500000000000000       0.56250000000000000        0.0000000000000000     
  0.93750000000000000       0.56250000000000000        0.0000000000000000     
   1.0000000000000000       0.56250000000000000        0.0000000000000000     
  0.75000000000000000       0.62500000000000000        0.0000000000000000     
  0.81250000000000000       0.62500000000000000        0.0000000000000000     
  0.87500000000000000       0.62500000000000000        0.0000000000000000     
  0.93750000000000000       0.62500000000000000        0.0000000000000000     
   1.0000000000000000       0.62500000000000000        0.0000000000000000     
  0.75000000000000000       0.68750000000000000        0.0000000000000000     
  0.81250000000000000       0.68750000000000000        0.0000000000000000     
  0.87500000000000000       0.68750000000000000        0.0000000000000000     
  0.93750000000000000       0.68750000000000000        0.0000000000000000     
   1.0000000000000000       0.68750000000000000        0.0000000000000000     
  0.75000000000000000       0.75000000000000000        0.0000000000000000     
  0.81250000000000000       0.75000000000000000        0.0000000000000000     
  0.87500000000000000       0.75000000000000000        0.0000000000000000     
  0.93750000000000000       0.75000000000000000        0.0000000000000000     
   1.0000000000000000       0.75000000000000000        0.0000000000000000     
   1.0000000000000000       0.50000000000000000        0.0000000000000000     
   1.0625000000000000       0.50000000000000000        0.0000000000000000     
   1.1250000000000000       0.50000000000000000        0.0000000000000000     
   1.1875000000000000       0.50000000000000000        0.0000000000000000     
   1.2500000000000000       0.50000000000000000        0.0000000000000000     
   1.0000000000000000       0.56250000000000000        0.0000000000000000     
   1.0625000000000000       0.56250000000000000        0.0000000000000000     
   1.1250000000000000       0.56250000000000000        0.0000000000000000     
   1.1875000000000000       0.56250000000000000        0.0000000000000000     
   1.2500000000000000       0.56250000000000000        0.0000000000000000     
   1.0000000000000000       0.62500000000000000        0.0000000000000000     
   1.0625000000000000       0.62500000000000000        0.0000000000000000     
   1.1250000000000000       0.62500000000000000        0.0000000000000000     
   1.1875000000000000       0.62500000000000000        0.0000000000000000     
   1.2500000000000000       0.62500000000000000        0.0000000000000000     
   1.0000000000000000       0.68750000000000000        0.0000000000000000     
   1.0625000000000000       0.68750000000000000        0.0000000000000000     
   1.1250000000000000       0.68750000000000000        0.0000000000000000     
   1.1875000000000000       0.68750000000000000        0.0000000000000000     
   1.2500000000000000       0.68750000000000000        0.0000000000000000     
   1.0000000000000000       0.75000000000000000        0.0000000000000000     
   1.0625000000000000       0.75000000000000000        0.0000000000000000     
   1.1250000000000000       0.75000000000000000        0.0000000000000000     
   1.1875000000000000       0.75000000000000000        0.0000000000000000     
   1.2500000000000000       0.75000000000000000        0.0000000000000000     
   1.2500000000000000       0.50000000000000000        0.0000000000000000     
   1.3125000000000000       0.50000000000000000        0.0000000000000000     
   1.3750000000000000       0.50000000000000000        0.0000000000000000     
   1.4375000000000000       0.50000000000000000        0.0000000000000000     
   1.5000000000000000       0.50000000000000000        0.0000000000000000     
   1.2500000000000000       0.56250000000000000        0.0000000000000000     
   1.3125000000000000       0.56250000000000000        0.0000000000000000     
   1.3750000000000000       0.56250000000000000        0.0000000000000000     
   1.4375000000000000       0.56250000000000000        0.0000000000000000     
   1.5000000000000000       0.56250000000000000        0.0000000000000000     
   1.2500000000000000       0.62500000000000000        0.0000000000000000     
   1.3125000000000000       0.62500000000000000        0.0000000000000000     
   1.3750000000000000       0.62500000000000000        0.0000000000000000     
   1.4375000000000000       0.62500000000000000        0.0000000000000000     
   1.5000000000000000       0.62500000000000000        0.0000000000000000     
   1.2500000000000000       0.68750000000000000        0.0000000000000000     
   1.3125000000000000       0.68750000000000000        0.0000000000000000     
   1.3750000000000000       0.68750000000000000        0.0000000000000000     
   1.4375000000000000       0.68750000000000000        0.0000000000000000     
   1.5000000000000000       0.68750000000000000        0.0000000000000000     
   1.2500000000000000       0.75000000000000000        0.0000000000000000     
   1.3125000000000000       0.75000000000000000        0.0000000000000000     
   1.3750000000000000       0.75000000000000000        0.0000000000000000     
   1.4375000000000000       0.75000000000000000        0.0000000000000000     
   1.5000000000000000       0.75000000000000000        0.0000000000000000     
  0.50000000000000000       0.75000000000000000        0.0000000000000000     
  0.56250000000000000       0.75000000000000000        0.0000000000000000     
  0.62500000000000000       0.75000000000000000        0.0000000000000000     
  0.68750000000000000       0.75000000000000000        0.0000000000000000     
  0.75000000000000000       0.75000000000000000        0.0000000000000000     
  0.50000000000000000       0.81250000000000000        0.0000000000000000     
  0.56250000000000000       0.81250000000000000        0.0000000000000000     
  0.62500000000000000       0.81250000000000000        0.0000000000000000     
  0.68750000000000000       0.81250000000000000        0.0000000000000000     
  0.75000000000000000       0.81250000000000000        0.0000000000000000     
  0.50000000000000000       0.87500000000000000        0.0000000000000000     
  0.56250000000000000       0.87500000000000000        0.0000000000000000     
  0.62500000000000000       0.87500000000000000        0.0000000000000000     
  0.68750000000000000       0.87500000000000000        0.0000000000000000     
  0.75000000000000000       0.87500000000000000        0.0000000000000000     
  0.50000000000000000       0.93750000000000000        0.0000000000000000     
  0.56250000000000000       0.93750000000000000        0.0000000000000000     
  0.62500000000000000       0.93750000000000000        0.0000000000000000     
  0.68750000000000000       0.93750000000000000        0.0000000000000000     
  0.75000000000000000       0.93750000000000000        0.0000000000000000     
  0.50000000000000000        1.0000000000000000        0.0000000000000000     
  0.56250000000000000        1.0000000000000000        0.0000000000000000     
  0.62500000000000000        1.0000000000000000        0.0000000000000000     
  0.68750000000000000        1.0000000000000000        0.0000000000000000     
  0.75000000000000000        1.0000000000000000        0.0000000000000000     
  0.75000000000000000       0.75000000000000000        0.0000000000000000     
  0.81250000000000000       0.75000000000000000        0.0000000000000000     
  0.87500000000000000       0.75000000000000000        0.0000000000000000     
  0.93750000000000000       0.75000000000000000        0.0000000000000000     
   1.0000000000000000       0.75000000000000000        0.0000000000000000     
  0.75000000000000000       0.81250000000000000        0.0000000000000000     
  0.81250000000000000       0.81250000000000000        0.0000000000000000     
  0.87500000000000000       0.81250000000000000        0.0000000000000000     
  0.93750000000000000       0.81250000000000000        0.0000000000000000     
   1.0000000000000000       0.81250000000000000        0.0000000000000000     
  0.75000000000000000       0.87500000000000000        0.0000000000000000     
  0.81250000000000000       0.87500000000000000        0.0000000000000000     
  0.87500000000000000       0.87500000000000000        0.0000000000000000     
  0.93750000000000000       0.87500000000000000        0.0000000000000000     
   1.0000000000000000       0.87500000000000000        0.0000000000000000     
  0.75000000000000000       0.93750000000000000        0.0000000000000000     
  0.81250000000000000       0.93750000000000000        0.0000000000000000     
  0.87500000000000000       0.93750000000000000        0.0000000000000000     
  0.93750000000000000       0.93750000000000000        0.0000000000000000     
   1.0000000000000000       0.93750000000000000        0.0000000000000000     
  0.75000000000000000        1.0000000000000000        0.0000000000000000     
  0.81250000000000000        1.0000000000000000        0.0000000000000000     
  0.87500000000000000        1.0000000000000000        0.0000000000000000     
  0.93750000000000000        1.0000000000000000        0.0000000000000000     
   1.0000000000000000        1.0000000000000000        0.0000000000000000     
   1.0000000000000000       0.75000000000000000        0.0000000000000000     
   1.0625000000000000       0.75000000000000000        0.0000000000000000     
   1.1250000000000000       0.75000000000000000        0.0000000000000000     
   1.1875000000000000       0.75000000000000000        0.0000000000000000     
   1.2500000000000000       0.75000000000000000        0.0000000000000000     
   1.0000000000000000       0.81250000000000000        0.0000000000000000     
   1.0625000000000000       0.81250000000000000        0.0000000000000000     
   1.1250000000000000       0.81250000000000000        0.0000000000000000     
   1.1875000000000000       0.81250000000000000        0.0000000000000000     
   1.2500000000000000       0.81250000000000000        0.0000000000000000     
   1.0000000000000000       0.87500000000000000        0.0000000000000000     
   1.0625000000000000       0.87500000000000000        0.0000000000000000     
   1.1250000000000000       0.87500000000000000        0.0000000000000000     
   1.1875000000000000       0.87500000000000000        0.0000000000000000     
   1.2500000000000000       0.87500000000000000        0.0000000000000000     
   1.0000000000000000       0.93750000000000000        0.0000000000000000     
   1.0625000000000000       0.93750000000000000        0.0000000000000000     
   1.1250000000000000       0.93750000000000000        0.0000000000000000     
   1.1875000000000000       0.93750000000000000        0.0000000000000000     
   1.2500000000000000       0.93750000000000000        0.0000000000000000     
   1.0000000000000000        1.0000000000000000        0.0000000000000000     
   1.0625000000000000        1.0000000000000000        0.0000000000000000     
   1.1250000000000000        1.0000000000000000        0.0000000000000000     
   1.1875000000000000        1.0000000000000000        0.0000000000000000     
   1.2500000000000000        1.0000000000000000        0.0000000000000000     
   1.2500000000000000       0.75000000000000000        0.0000000000000000     
   1.3125000000000000       0.75000000000000000        0.0000000000000000     
   1.3750000000000000       0.75000000000000000        0.0000000000000000     
   1.4375000000000000       0.75000000000000000        0.0000000000000000     
   1.5000000000000000       0.75000000000000000        0.0000000000000000     
   1.2500000000000000       0.81250000000000000        0.0000000000000000     
   1.3125000000000000       0.81250000000000000        0.0000000000000000     
   1.3750000000000000       0.81250000000000000        0.0000000000000000     
   1.4375000000000000       0.81250000000000000        0.0000000000000000     
   1.5000000000000000       0.81250000000000000        0.0000000000000000     
   1.2500000000000000       0.87500000000000000        0.0000000000000000     
   1.3125000000000000       0.87500000000000000        0.0000000000000000     
   1.3750000000000000       0.87500000000000000        0.0000000000000000     
   1.4375000000000000       0.87500000000000000        0.0000000000000000     
   1.5000000000000000       0.87500000000000000        0.0000000000000000     
   1.2500000000000000       0.93750000000000000        0.0000000000000000     
   1.3125000000000000       0.93750000000000000        0.0000000000000000     
   1.3750000000000000       0.93750000000000000        0.0000000000000000     
   1.4375000000000000       0.93750000000000000        0.0000000000000000     
   1.5000000000000000       0.93750000000000000        0.0000000000000000     
   1.2500000000000000        1.0000000000000000        0.0000000000000000     
   1.3125000000000000        1.0000000000000000        0.0000000000000000     
   1.3750000000000000        1.0000000000000000        0.0000000000000000     
   1.4375000000000000        1.0000000000000000        0.0000000000000000     
   1.5000000000000000        1.0000000000000000        0.0000000000000000     
 </DataArray>
 </Points>
 <Cells>
 <DataArray  type="Int32"  Name="connectivity"  format="ascii">
           0           1           6           5
           1           2           7           6
           2           3           8           7
           3           4           9           8
           5           6          11          10
           6           7          12          11
           7           8          13          12
           8           9          14          13
          10          11          16          15
          11          12          17          16
          12          13          18          17
          13          14          19          18
          15          16          21          20
          16          17          22          21
          17          18          23          22
          18          19          24          23
          25          26          31          30
          26          27          32          31
          27          28          33          32
          28          29          34          33
          30          31          36          35
          31          32          37          36
          32          33          38          37
          33          34          39          38
          35          36          41          40
          36          37          42          41
          37          38          43          42
          38          39          44          43
          40          41          46          45
          41          42          47          46
          42          43          48          47
          43          44          49          48
          50          51          56          55
          51          52          57          56
          52          53          58          57
          53          54          59          58
          55          56          61          60
          56          57          62          61
          57          58          63          62
          58          59          64          63
          60          61          66          65
          61          62          67          66
          62          63          68          67
          63          64          69          68
          65          66          71          70
          66          67          72          71
          67          68          73          72
          68          69          74          73
          75          76          81          80
          76          77          82          81
          77          78          83          82
          78          79          84          83
          80          81          86          85
          81          82          87          86
          82          83          88          87
          83          84          89          88
          85          86          91          90
          86          87          92          91
          87          88          93          92
          88          89          94          93
          90          91          96          95
          91          92          97          96
          92          93          98          97
          93          94          99          98
         100         101         106         105
         101         102         107         106
         102         103         108         107
         103         104         109         108
         105         106         111         110
         106         107         112         111
         107         108         113         112
         108         109         114         113
         110         111         116         115
         111         112         117         116
         112         113         118         117
         113         114         119         118
         115         116         121         120
         116         117         122         121
         117         118         123         122
         118         119         124         123
         125         126         131         130
         126         127         132         131
         127         128         133         132
         128         129         134         133
         130         131         136         135
         131         132         137         136
         132         133         138         137
         133         134         139         138
         135         136         141         140
         136         137         142         141
         137         138         143         142
         138         139         144         143
         140         141         146         145
         141         142         147         146
         142         143         148         147
         143         144         149         148
         150         151         156         155
         151         152         157         156
         152         153         158         157
         153         154         159         158
         155         156         161         160
         156         157         162         161
         157         158         163         162
         158         159         164         163
         160         161         166         165
         161         162         167         166
         162         163         168         167
         163         164         169         168
         165         166         171         170
         166         167         172         171
         167         168         173         172
         168         169         174         173
         175         176         181         180
         176         177         182         181
         177         178         183         182
         178         179         184         183
         180         181         186         185
         181         182         187         186
         182         183         188         187
         183         184         189         188
         185         186         191         190
         186         187         192         191
         187         188         193         192
         188         189         194         193
         190         191         196         195
         191         192         197         196
         192         193         198         197
         193         194         199         198
         200         201         206         205
         201         202         207         206
         202         203         208         207
         203         204         209         208
         205         206         211         210
         206         207         212         211
         207         208         213         212
         208         209         214         213
         210         211         216         215
         211         212         217         216
         212         213         218         217
         213         214         219         218
         215         216         221         220
         216         217         222         221
         217         218         223         222
         218         219         224         223
         225         226         231         230
         226         227         232         231
         227         228         233         232
         228         229         234         233
         230         231         236         235
         231         232         237         236
         232         233         238         237
         233         234         239         238
         235         236         241         240
         236         237         242         241
         237         238         243         242
         238         239         244         243
         240         241         246         245
         241         242         247         246
         242         243         248         247
         243         244         249         248
         250         251         256         255
         251         252         257         256
         252         253         258         257
         253         254         259         258
         255         256         261         260
         256         257         262         261
         257         258         263         262
         258         259         264         263
         260         261         266         265
         261         262         267         266
         262         263         268         267
         263         264         269         268
         265         266         271         270
         266         267         272         271
         267         268         273         272
         268         269         274         273
         275         276         281         280
         276         277         282         281
         277         278         283         282
         278         279         284         283
         280         281         286         285
         281         282         287         286
         282         283         288         287
         283         284         289         288
         285         286         291         290
         286         287         292         291
         287         288         293         292
         288         289         294         293
         290         291         296         295
         291         292         297         296
         292         293         298         297
         293         294         299         298
         300         301         306         305
         301         302         307         306
         302         303         308         307
         303         304         309         308
         305         306         311         310
         306         307         312         311
         307         308         313         312
         308         309         314         313
         310         311         316         315
         311         312         317         316
         312         313         318         317
         313         314         319         318
         315         316         321         320
         316         317         322         321
         317         318         323         322
         318         319         324         323
         325         326         331         330
         326         327         332         331
         327         328         333         332
         328         329         334         333
         330         331         336         335
         331         332         337         336
         332         333         338         337
         333         334         339         338
         335         336         341         340
         336         337         342         341
         337         338         343         342
         338         339         344         343
         340         341         346         345
         341         342         347         346
         342         343         348         347
         343         344         349         348
         350         351         356         355
         351         352         357         356
         352         353         358         357
         353         354         359         358
         355         356         361         360
         356         357         362         361
         357         358         363         362
         358         359         364         363
         360         361         366         365
         361         362         367         366
         362         363         368         367
         363         364         369         368
         365         366         371         370
         366         367         372         371
         367         368         373         372
         368         369         374         373
         375         376         381         380
         376         377         382         381
         377         378         383         382
         378         379         384         383
         380         381         386         385
         381         382         387         386
         382         383         388         387
         383         384         389         388
         385         386         391         390
         386         387         392         391
         387         388         393         392
         388         389         394         393
         390         391         396         395
         391         392         397         396
         392         393         398         397
         393         394         399         398
 </DataArray>
 <DataArray  type="Int32"  Name="offsets"  format="ascii"> 
           4
           8
          12
          16
          20
          24
          28
          32
          36
          40
          44
          48
          52
          56
          60
          64
          68
          72
          76
          80
          84
          88
          92
          96
         100
         104
         108
         112
         116
         120
         124
         128
         132
         136
         140
         144
         148
         152
         156
         160
         164
         168
         172
         176
         180
         184
         188
         192
         196
         200
         204
         208
         212
         216
         220
         224
         228
         232
         236
         240
         244
         248
         252
         256
         260
         264
         268
         272
         276
         280
         284
         288
         292
         296
         300
         304
         308
         312
         316
         320
         324
         328
         332
         336
         340
         344
         348
         352
         356
         360
         364
         368
         372
         376
         380
         384
         388
         392
         396
         400
         404
         408
         412
         416
         420
         424
         428
         432
         436
         440
         444
         448
         452
         456
         460
         464
         468
         472
         476
         480
         484
         488
         492
         496
         500
         504
         508
         512
         516
         520
         524
         528
         532
         536
         540
         544
         548
         552
         556
         560
         564
         568
         572
         576
         580
         584
         588
         592
         596
         600
         604
         608
         612
         616
         620
         624
         628
         632
         636
         640
         644
         648
         652
         656
         660
         664
         668
         672
         676
         680
         684
         688
         692
         696
         700
         704
         708
         712
         716
         720
         724
         728
         732
         736
         740
         744
         748
         752
         756
         760
         764
         768
         772
         776
         780
         784
         788
         792
         796
         800
         804
         808
         812
         816
         820
         824
         828
         832
         836
         840
         844
         848
         852
         856
         860
         864
         868
         872
         876
         880
         884
         888
         892
         896
         900
         904
         908
         912
         916
         920
         924
         928
         932
         936
         940
         944
         948
         952
         956
         960
         964
         968
         972
         976
         980
         984
         988
         992
         996
        1000
        1004
        1008
        1012
        1016
        1020
        1024
 </DataArray>
 <DataArray  type="UInt8"  Name="types"  format="ascii">
 9
 9
 9
 9
 9
 9
 9
 9
 9
 9
 9
 9
 9
 9
 9
 9
 9
 9
 9
 9
 9
 9
 9
 9
 9
 9
 9
 9
 9
 9
 9
 9
 9
 9
 9
 9
 9
 9
 9
 9
 9
 9
 9
 9
 9
 9
 9
 9
 9
 9
 9
 9
 9
 9
 9
 9
 9
 9
 9
 9
 9
 9
 9
 9
 9
 9
 9
 9
 9
 9
 9
 9
 9
 9
 9
 9
 9
 9
 9
 9
 9
 9
 9
 9
 9
 9
 9
 9
 9
 9
 9
 9
 9
 9
 9
 9
 9
 9
 9
 9
 9
 9
 9
 9
 9
 9
 9
 9
 9
 9
 9
 9
 9
 9
 9
 9
 9
 9
 9
 9
 9
 9
 9
 9
 9
 9
 9
 9
 9
 9
 9
 9
 9
 9
 9
 9
 9
 9
 9
 9
 9
 9
 9
 9
 9
 9
 9
 9
 9
 9
 9
 9
 9
 9
 9
 9
 9
 9
 9
 9
 9
 9
 9
 9
 9
 9
 9
 9
 9
 9
 9
 9
 9
 9
 9
 9
 9
 9
 9
 9
 9
 9
 9
 9
 9
 9
 9
 9
 9
 9
 9
 9
 9
 9
 9
 9
 9
 9
 9
 9
 9
 9
 9
 9
 9
 9
 9
 9
 9
 9
 9
 9
 9
 9
 9
 9
 9
 9
 9
 9
 9
 9
 9
 9
 9
 9
 9
 9
 9
 9
 9
 9
 9
 9
 9
 9
 9
 9
 9
 9
 9
 9
 9
 9
 9
 9
 9
 9
 9
 9
 9
 9
 9
 9
 9
 9
 </DataArray>
 </Cells> 
 <PointData>
 <DataArray  type="Float64" Name="disp" NumberOfComponents="3" format="ascii">
   7.7126211749452833E-002   5.2222638416550102E-002   0.0000000000000000     
   7.9845222607991845E-002   6.7007493510389218E-002   0.0000000000000000     
   8.2947200925913969E-002   8.1517208574894487E-002   0.0000000000000000     
   8.6432146703219193E-002   9.5751783610065880E-002   0.0000000000000000     
   9.0300059939907529E-002  0.10971121861590344        0.0000000000000000     
   6.0770068413264031E-002   5.2915919844617139E-002   0.0000000000000000     
   6.4271177603432317E-002   6.6809097813860116E-002   0.0000000000000000     
   6.7911055368419765E-002   8.0706685351249585E-002   0.0000000000000000     
   7.1689701708226347E-002   9.4608682456785526E-002   0.0000000000000000     
   7.5607116622852064E-002  0.10851508913046795        0.0000000000000000     
   4.7071651479183296E-002   5.4032196913045005E-002   0.0000000000000000     
   5.0840581461291043E-002   6.7002590582860136E-002   0.0000000000000000     
   5.4603134051465871E-002   8.0248975263866928E-002   0.0000000000000000     
   5.8359309249707787E-002   9.3771350956065438E-002   0.0000000000000000     
   6.2109107056016778E-002  0.10756971765945558        0.0000000000000000     
   3.6030960947210658E-002   5.5571469621833722E-002   0.0000000000000000     
   3.9553434181568009E-002   6.7587971817389278E-002   0.0000000000000000     
   4.3023436975052287E-002   8.0144078312746586E-002   0.0000000000000000     
   4.6440969327663506E-002   9.3239789107905577E-002   0.0000000000000000     
   4.9806031239401666E-002  0.10687510420286639        0.0000000000000000     
   2.7647996817346109E-002   5.7533737970983274E-002   0.0000000000000000     
   3.0409735764263212E-002   6.8565241517447556E-002   0.0000000000000000     
   3.3171964139179014E-002   8.0391994497888475E-002   0.0000000000000000     
   3.5934681942093524E-002   9.3013996912306066E-002   0.0000000000000000     
   3.8697889173006733E-002  0.10643124876070029        0.0000000000000000     
   9.0300059939907529E-002  0.10971121861590344        0.0000000000000000     
   9.4212528574554338E-002  0.12375142037268531        0.0000000000000000     
   9.7831140545734899E-002  0.13822829566068975        0.0000000000000000     
  0.10115589585344929       0.15314184447991674        0.0000000000000000     
  0.10418679449769744       0.16849206683036627        0.0000000000000000     
   7.5607116622852064E-002  0.10851508913046795        0.0000000000000000     
   7.9429857195918468E-002  0.12264028600387313        0.0000000000000000     
   8.2924480511047088E-002  0.13719865370857731        0.0000000000000000     
   8.6090986568237965E-002  0.15219019224458044        0.0000000000000000     
   8.8929375367491043E-002  0.16761490161188264        0.0000000000000000     
   6.2109107056016778E-002  0.10756971765945558        0.0000000000000000     
   6.5688313034280590E-002  0.12172773447536681        0.0000000000000000     
   6.8932712748386971E-002  0.13632906050512833        0.0000000000000000     
   7.1842306198335912E-002  0.15137369574874018        0.0000000000000000     
   7.4417093384127428E-002  0.16686164020620237        0.0000000000000000     
   4.9806031239401666E-002  0.10687510420286639        0.0000000000000000     
   5.2987896089640690E-002  0.12101376578716634        0.0000000000000000     
   5.5855837257754518E-002  0.13561951605034284        0.0000000000000000     
   5.8409854743743148E-002  0.15069235499239586        0.0000000000000000     
   6.0649948547606573E-002  0.16623228261332557        0.0000000000000000     
   3.8697889173006733E-002  0.10643124876070029        0.0000000000000000     
   4.1328606361998768E-002  0.12049837993927173        0.0000000000000000     
   4.3693854039149736E-002  0.13507002034422086        0.0000000000000000     
   4.5793632204459658E-002  0.15014616997554767        0.0000000000000000     
   4.7627940857928514E-002  0.16572682883325215        0.0000000000000000     
  0.10418679449769744       0.16849206683036627        0.0000000000000000     
  0.10695365067286705       0.18418353067177878        0.0000000000000000     
  0.10948627857334574       0.20012080396389467        0.0000000000000000     
  0.11178467819913351       0.21630388670671394        0.0000000000000000     
  0.11384884955023039       0.23273277890023664        0.0000000000000000     
   8.8929375367491043E-002  0.16761490161188264        0.0000000000000000     
   9.1452848931018973E-002  0.18339017482674561        0.0000000000000000     
   9.3674609281034368E-002  0.19943340490543135        0.0000000000000000     
   9.5594656417537269E-002  0.21574459184793984        0.0000000000000000     
   9.7212990340527633E-002  0.23232373565427095        0.0000000000000000     
   7.4417093384127428E-002  0.16686164020620237        0.0000000000000000     
   7.6658154024804553E-002  0.18271345368041969        0.0000000000000000     
   7.8566567839410392E-002  0.19884969597429700        0.0000000000000000     
   8.0142334827944930E-002  0.21527036708783417        0.0000000000000000     
   8.1385454990408182E-002  0.23197546702103136        0.0000000000000000     
   6.0649948547606573E-002  0.16623228261332557        0.0000000000000000     
   6.2569565954223791E-002  0.18215336723280104        0.0000000000000000     
   6.4162154248473782E-002  0.19836967717049159        0.0000000000000000     
   6.5427713430356541E-002  0.21488121242639718        0.0000000000000000     
   6.6366243499872066E-002  0.23168797300051791        0.0000000000000000     
   4.7627940857928514E-002  0.16572682883325215        0.0000000000000000     
   4.9187084719276686E-002  0.18170991548388959        0.0000000000000000     
   5.0461368508224531E-002  0.19799334849401509        0.0000000000000000     
   5.1450792224772043E-002  0.21457712786362876        0.0000000000000000     
   5.2155355868919229E-002  0.23146125359273045        0.0000000000000000     
  0.11384884955023039       0.23273277890023664        0.0000000000000000     
  0.11562170645112724       0.24967496199141853        0.0000000000000000     
  0.11704616272631503       0.26739791742721553        0.0000000000000000     
  0.11812221837579372       0.28590164520762762        0.0000000000000000     
  0.11884987339956329       0.30518614533265476        0.0000000000000000     
   9.7212990340527633E-002  0.23232373565427095        0.0000000000000000     
   9.8540513849242894E-002  0.24935810987174034        0.0000000000000000     
   9.9588129742920500E-002  0.26703498804766340        0.0000000000000000     
  0.10035583802156044       0.28535437018204018        0.0000000000000000     
  0.10084363868516272       0.30431625627487063        0.0000000000000000     
   8.1385454990408182E-002  0.23197546702103136        0.0000000000000000     
   8.2354348418984286E-002  0.24906602547412829        0.0000000000000000     
   8.3107435205857380E-002  0.26664307214736460        0.0000000000000000     
   8.3644715351027479E-002  0.28470660704074041        0.0000000000000000     
   8.3966188854494583E-002  0.30325663015425575        0.0000000000000000     
   6.6366243499872066E-002  0.23168797300051791        0.0000000000000000     
   6.7063210160351397E-002  0.24879870879858232        0.0000000000000000     
   6.7604079115125670E-002  0.26622216972631918        0.0000000000000000     
   6.7988850364194831E-002  0.28395835578372841        0.0000000000000000     
   6.8217523907558891E-002  0.30200726697081004        0.0000000000000000     
   5.2155355868919229E-002  0.23146125359273045        0.0000000000000000     
   5.2667099073344270E-002  0.24855615984510251        0.0000000000000000     
   5.3078061470725364E-002  0.26577228078452703        0.0000000000000000     
   5.3388243061062490E-002  0.28310961641100407        0.0000000000000000     
   5.3597643844355669E-002  0.30056816672453363        0.0000000000000000     
   2.7647996817346109E-002   5.7533737970983274E-002   0.0000000000000000     
   3.0409735764263212E-002   6.8565241517447556E-002   0.0000000000000000     
   3.3171964139179014E-002   8.0391994497888475E-002   0.0000000000000000     
   3.5934681942093524E-002   9.3013996912306066E-002   0.0000000000000000     
   3.8697889173006733E-002  0.10643124876070029        0.0000000000000000     
   2.0629421319654118E-002   5.9435783369147073E-002   0.0000000000000000     
   2.2455146789425021E-002   6.9591803708667577E-002   0.0000000000000000     
   2.4358195843778005E-002   8.0763276907002426E-002   0.0000000000000000     
   2.6338568482713057E-002   9.2950202964151615E-002   0.0000000000000000     
   2.8396264706230183E-002  0.10615258188011512        0.0000000000000000     
   1.3681896684199156E-002   6.0794387224978534E-002   0.0000000000000000     
   1.4735327837101797E-002   7.0325062416682002E-002   0.0000000000000000     
   1.5891612388781187E-002   8.1028478627798162E-002   0.0000000000000000     
   1.7150750339237332E-002   9.2904635858327034E-002   0.0000000000000000     
   1.8512741688470228E-002  0.10595353410826859        0.0000000000000000     
   6.8054229109812377E-003   6.1609549538477658E-002   0.0000000000000000     
   7.2502789072935361E-003   7.0765017641490818E-002   0.0000000000000000     
   7.7722137741885727E-003   8.1187599660275694E-002   0.0000000000000000     
   8.3712275116663501E-003   9.2877295594832335E-002   0.0000000000000000     
   9.0473201197268666E-003  0.10583410544516071        0.0000000000000000     
   3.5561831257524545E-016   6.1881270309644444E-002   0.0000000000000000     
   2.3852447794681098E-016   7.0911669383093984E-002   0.0000000000000000     
   1.5590827240341554E-016   8.1240640004435011E-002   0.0000000000000000     
   1.0966704974690877E-016   9.2868182173667504E-002   0.0000000000000000     
   9.5843472047718592E-017  0.10579429589079151        0.0000000000000000     
   3.8697889173006733E-002  0.10643124876070029        0.0000000000000000     
   4.1328606361998768E-002  0.12049837993927173        0.0000000000000000     
   4.3693854039149736E-002  0.13507002034422086        0.0000000000000000     
   4.5793632204459658E-002  0.15014616997554767        0.0000000000000000     
   4.7627940857928514E-002  0.16572682883325215        0.0000000000000000     
   2.8396264706230183E-002  0.10615258188011512        0.0000000000000000     
   3.0391523875016639E-002  0.12013429731499775        0.0000000000000000     
   3.2184585349759674E-002  0.13465923292890439        0.0000000000000000     
   3.3775449130459288E-002  0.14972738872183494        0.0000000000000000     
   3.5164115217115488E-002  0.16533876469378947        0.0000000000000000     
   1.8512741688470228E-002  0.10595353410826859        0.0000000000000000     
   1.9857728652356157E-002  0.11987423829765925        0.0000000000000000     
   2.1065853446771379E-002  0.13436581334653552        0.0000000000000000     
   2.2137116071715909E-002  0.14942825925489731        0.0000000000000000     
   2.3071516527189733E-002  0.16506157602274465        0.0000000000000000     
   9.0473201197268666E-003  0.10583410544516071        0.0000000000000000     
   9.7272206940173071E-003  0.11971820288725619        0.0000000000000000     
   1.0337658330184855E-002  0.13418976159711424        0.0000000000000000     
   1.0878633028229508E-002  0.14924878157473476        0.0000000000000000     
   1.1350144788151263E-002  0.16489526282011782        0.0000000000000000     
   9.5843472047718592E-017  0.10579429589079151        0.0000000000000000     
   9.8879238130678004E-017  0.11966619108378862        0.0000000000000000     
   9.5301370961475840E-017  0.13413107768064056        0.0000000000000000     
   8.8010111351510822E-017  0.14918895568134735        0.0000000000000000     
   7.2858385991025898E-017  0.16483982508590886        0.0000000000000000     
   4.7627940857928514E-002  0.16572682883325215        0.0000000000000000     
   4.9187084719276686E-002  0.18170991548388959        0.0000000000000000     
   5.0461368508224531E-002  0.19799334849401509        0.0000000000000000     
   5.1450792224772043E-002  0.21457712786362876        0.0000000000000000     
   5.2155355868919229E-002  0.23146125359273045        0.0000000000000000     
   3.5164115217115488E-002  0.16533876469378947        0.0000000000000000     
   3.6340821061474189E-002  0.18137292288427648        0.0000000000000000     
   3.7295804115281328E-002  0.19770942533280461        0.0000000000000000     
   3.8029064378536911E-002  0.21434827203937384        0.0000000000000000     
   3.8540601851240912E-002  0.23128946300398412        0.0000000000000000     
   2.3071516527189733E-002  0.16506157602274465        0.0000000000000000     
   2.3860885722327252E-002  0.18113221388455286        0.0000000000000000     
   2.4497054566262853E-002  0.19750662307479713        0.0000000000000000     
   2.4980023058996534E-002  0.21418480359347744        0.0000000000000000     
   2.5309791200528294E-002  0.23116675544059390        0.0000000000000000     
   1.1350144788151263E-002  0.16489526282011782        0.0000000000000000     
   1.1747278701835879E-002  0.18098778848471864        0.0000000000000000     
   1.2065119861169100E-002  0.19738494171999257        0.0000000000000000     
   1.2303668266150935E-002  0.21408672252593963        0.0000000000000000     
   1.2462923916781377E-002  0.23109313090255973        0.0000000000000000     
   7.2858385991025898E-017  0.16483982508590886        0.0000000000000000     
   6.3317406873153459E-017  0.18093964668477394        0.0000000000000000     
   7.6978354246470815E-017  0.19734438126839104        0.0000000000000000     
   1.0728180496744066E-016  0.21405402883676028        0.0000000000000000     
   1.5959455978986625E-016  0.23106858938988167        0.0000000000000000     
   5.2155355868919229E-002  0.23146125359273045        0.0000000000000000     
   5.2667099073344270E-002  0.24855615984510251        0.0000000000000000     
   5.3078061470725364E-002  0.26577228078452703        0.0000000000000000     
   5.3388243061062490E-002  0.28310961641100407        0.0000000000000000     
   5.3597643844355669E-002  0.30056816672453363        0.0000000000000000     
   3.8540601851240912E-002  0.23128946300398412        0.0000000000000000     
   3.8913957255364569E-002  0.24835476538921158        0.0000000000000000     
   3.9232671312879087E-002  0.26536594635763222        0.0000000000000000     
   3.9496744023784468E-002  0.28232300590924614        0.0000000000000000     
   3.9706175388080710E-002  0.29922594404405334        0.0000000000000000     
   2.5309791200528294E-002  0.23116675544059390        0.0000000000000000     
   2.5551726803813991E-002  0.24821091220643238        0.0000000000000000     
   2.5771197681809476E-002  0.26507570748127890        0.0000000000000000     
   2.5968203834514762E-002  0.28176114126513335        0.0000000000000000     
   2.6142745261929827E-002  0.29826721355799590        0.0000000000000000     
   1.2462923916781377E-002  0.23109313090255973        0.0000000000000000     
   1.2580407718692540E-002  0.24812460029676481        0.0000000000000000     
   1.2693640577516537E-002  0.26490156415546684        0.0000000000000000     
   1.2802622493253360E-002  0.28142402247866571        0.0000000000000000     
   1.2907353465903017E-002  0.29769197526636154        0.0000000000000000     
   1.5959455978986625E-016  0.23106858938988167        0.0000000000000000     
   2.1597307275911248E-016  0.24809582966020896        0.0000000000000000     
   2.5175174445113413E-016  0.26484351638019615        0.0000000000000000     
   2.7695944496142211E-016  0.28131164954984317        0.0000000000000000     
   2.8622937353617317E-016  0.29750022916915009        0.0000000000000000     
   3.5561831257524545E-016   6.1881270309644444E-002   0.0000000000000000     
   2.3852447794681098E-016   7.0911669383093984E-002   0.0000000000000000     
   1.5590827240341554E-016   8.1240640004435011E-002   0.0000000000000000     
   1.0966704974690877E-016   9.2868182173667504E-002   0.0000000000000000     
   9.5843472047718592E-017  0.10579429589079151        0.0000000000000000     
  -6.8054229109805048E-003   6.1609549538478685E-002   0.0000000000000000     
  -7.2502789072930330E-003   7.0765017641491457E-002   0.0000000000000000     
  -7.7722137741882327E-003   8.1187599660276097E-002   0.0000000000000000     
  -8.3712275116661090E-003   9.2877295594832626E-002   0.0000000000000000     
  -9.0473201197266533E-003  0.10583410544516095        0.0000000000000000     
  -1.3681896684198358E-002   6.0794387224980151E-002   0.0000000000000000     
  -1.4735327837101223E-002   7.0325062416683112E-002   0.0000000000000000     
  -1.5891612388780774E-002   8.1028478627798939E-002   0.0000000000000000     
  -1.7150750339237027E-002   9.2904635858327575E-002   0.0000000000000000     
  -1.8512741688469961E-002  0.10595353410826905        0.0000000000000000     
  -2.0629421319653202E-002   5.9435783369148856E-002   0.0000000000000000     
  -2.2455146789424327E-002   6.9591803708668978E-002   0.0000000000000000     
  -2.4358195843777471E-002   8.0763276907003495E-002   0.0000000000000000     
  -2.6338568482712630E-002   9.2950202964152462E-002   0.0000000000000000     
  -2.8396264706229819E-002  0.10615258188011582        0.0000000000000000     
  -2.7647996817345043E-002   5.7533737970984808E-002   0.0000000000000000     
  -3.0409735764262345E-002   6.8565241517448972E-002   0.0000000000000000     
  -3.3171964139178306E-002   8.0391994497889765E-002   0.0000000000000000     
  -3.5934681942092941E-002   9.3013996912307217E-002   0.0000000000000000     
  -3.8697889173006234E-002  0.10643124876070126        0.0000000000000000     
   9.5843472047718592E-017  0.10579429589079151        0.0000000000000000     
   9.8879238130678004E-017  0.11966619108378862        0.0000000000000000     
   9.5301370961475840E-017  0.13413107768064056        0.0000000000000000     
   8.8010111351510822E-017  0.14918895568134735        0.0000000000000000     
   7.2858385991025898E-017  0.16483982508590886        0.0000000000000000     
  -9.0473201197266533E-003  0.10583410544516095        0.0000000000000000     
  -9.7272206940170972E-003  0.11971820288725646        0.0000000000000000     
  -1.0337658330184648E-002  0.13418976159711443        0.0000000000000000     
  -1.0878633028229322E-002  0.14924878157473490        0.0000000000000000     
  -1.1350144788151113E-002  0.16489526282011790        0.0000000000000000     
  -1.8512741688469961E-002  0.10595353410826905        0.0000000000000000     
  -1.9857728652355897E-002  0.11987423829765971        0.0000000000000000     
  -2.1065853446771140E-002  0.13436581334653588        0.0000000000000000     
  -2.2137116071715691E-002  0.14942825925489758        0.0000000000000000     
  -2.3071516527189553E-002  0.16506157602274482        0.0000000000000000     
  -2.8396264706229819E-002  0.10615258188011582        0.0000000000000000     
  -3.0391523875016310E-002  0.12013429731499840        0.0000000000000000     
  -3.2184585349759390E-002  0.13465923292890489        0.0000000000000000     
  -3.3775449130459025E-002  0.14972738872183530        0.0000000000000000     
  -3.5164115217115252E-002  0.16533876469378966        0.0000000000000000     
  -3.8697889173006234E-002  0.10643124876070126        0.0000000000000000     
  -4.1328606361998331E-002  0.12049837993927251        0.0000000000000000     
  -4.3693854039149355E-002  0.13507002034422144        0.0000000000000000     
  -4.5793632204459318E-002  0.15014616997554808        0.0000000000000000     
  -4.7627940857928222E-002  0.16572682883325246        0.0000000000000000     
   7.2858385991025898E-017  0.16483982508590886        0.0000000000000000     
   6.3317406873153459E-017  0.18093964668477394        0.0000000000000000     
   7.6978354246470815E-017  0.19734438126839104        0.0000000000000000     
   1.0728180496744066E-016  0.21405402883676028        0.0000000000000000     
   1.5959455978986625E-016  0.23106858938988167        0.0000000000000000     
  -1.1350144788151113E-002  0.16489526282011790        0.0000000000000000     
  -1.1747278701835739E-002  0.18098778848471864        0.0000000000000000     
  -1.2065119861168939E-002  0.19738494171999252        0.0000000000000000     
  -1.2303668266150718E-002  0.21408672252593952        0.0000000000000000     
  -1.2462923916781065E-002  0.23109313090255967        0.0000000000000000     
  -2.3071516527189553E-002  0.16506157602274482        0.0000000000000000     
  -2.3860885722327089E-002  0.18113221388455283        0.0000000000000000     
  -2.4497054566262666E-002  0.19750662307479702        0.0000000000000000     
  -2.4980023058996301E-002  0.21418480359347736        0.0000000000000000     
  -2.5309791200527981E-002  0.23116675544059381        0.0000000000000000     
  -3.5164115217115252E-002  0.16533876469378966        0.0000000000000000     
  -3.6340821061473981E-002  0.18137292288427656        0.0000000000000000     
  -3.7295804115281106E-002  0.19770942533280458        0.0000000000000000     
  -3.8029064378536648E-002  0.21434827203937376        0.0000000000000000     
  -3.8540601851240607E-002  0.23128946300398406        0.0000000000000000     
  -4.7627940857928222E-002  0.16572682883325246        0.0000000000000000     
  -4.9187084719276415E-002  0.18170991548388979        0.0000000000000000     
  -5.0461368508224254E-002  0.19799334849401518        0.0000000000000000     
  -5.1450792224771766E-002  0.21457712786362873        0.0000000000000000     
  -5.2155355868918923E-002  0.23146125359273043        0.0000000000000000     
   1.5959455978986625E-016  0.23106858938988167        0.0000000000000000     
   2.1597307275911248E-016  0.24809582966020896        0.0000000000000000     
   2.5175174445113413E-016  0.26484351638019615        0.0000000000000000     
   2.7695944496142211E-016  0.28131164954984317        0.0000000000000000     
   2.8622937353617317E-016  0.29750022916915009        0.0000000000000000     
  -1.2462923916781065E-002  0.23109313090255967        0.0000000000000000     
  -1.2580407718692120E-002  0.24812460029676481        0.0000000000000000     
  -1.2693640577516034E-002  0.26490156415546684        0.0000000000000000     
  -1.2802622493252817E-002  0.28142402247866571        0.0000000000000000     
  -1.2907353465902452E-002  0.29769197526636160        0.0000000000000000     
  -2.5309791200527981E-002  0.23116675544059381        0.0000000000000000     
  -2.5551726803813589E-002  0.24821091220643229        0.0000000000000000     
  -2.5771197681809004E-002  0.26507570748127879        0.0000000000000000     
  -2.5968203834514238E-002  0.28176114126513346        0.0000000000000000     
  -2.6142745261929282E-002  0.29826721355799601        0.0000000000000000     
  -3.8540601851240607E-002  0.23128946300398406        0.0000000000000000     
  -3.8913957255364180E-002  0.24835476538921150        0.0000000000000000     
  -3.9232671312878650E-002  0.26536594635763222        0.0000000000000000     
  -3.9496744023783989E-002  0.28232300590924608        0.0000000000000000     
  -3.9706175388080196E-002  0.29922594404405334        0.0000000000000000     
  -5.2155355868918923E-002  0.23146125359273043        0.0000000000000000     
  -5.2667099073343930E-002  0.24855615984510240        0.0000000000000000     
  -5.3078061470724983E-002  0.26577228078452697        0.0000000000000000     
  -5.3388243061062074E-002  0.28310961641100396        0.0000000000000000     
  -5.3597643844355197E-002  0.30056816672453351        0.0000000000000000     
  -2.7647996817345043E-002   5.7533737970984808E-002   0.0000000000000000     
  -3.0409735764262345E-002   6.8565241517448972E-002   0.0000000000000000     
  -3.3171964139178306E-002   8.0391994497889765E-002   0.0000000000000000     
  -3.5934681942092941E-002   9.3013996912307217E-002   0.0000000000000000     
  -3.8697889173006234E-002  0.10643124876070126        0.0000000000000000     
  -3.6030960947209520E-002   5.5571469621834957E-002   0.0000000000000000     
  -3.9553434181567038E-002   6.7587971817390680E-002   0.0000000000000000     
  -4.3023436975051468E-002   8.0144078312748029E-002   0.0000000000000000     
  -4.6440969327662805E-002   9.3239789107906978E-002   0.0000000000000000     
  -4.9806031239401048E-002  0.10687510420286753        0.0000000000000000     
  -4.7071651479182283E-002   5.4032196913046289E-002   0.0000000000000000     
  -5.0840581461290175E-002   6.7002590582861607E-002   0.0000000000000000     
  -5.4603134051465115E-002   8.0248975263868469E-002   0.0000000000000000     
  -5.8359309249707100E-002   9.3771350956066840E-002   0.0000000000000000     
  -6.2109107056016147E-002  0.10756971765945678        0.0000000000000000     
  -6.0770068413263344E-002   5.2915919844618804E-002   0.0000000000000000     
  -6.4271177603431762E-002   6.6809097813861726E-002   0.0000000000000000     
  -6.7911055368419251E-002   8.0706685351251070E-002   0.0000000000000000     
  -7.1689701708225848E-002   9.4608682456786844E-002   0.0000000000000000     
  -7.5607116622851495E-002  0.10851508913046905        0.0000000000000000     
  -7.7126211749452681E-002   5.2222638416552503E-002   0.0000000000000000     
  -7.9845222607991775E-002   6.7007493510391064E-002   0.0000000000000000     
  -8.2947200925913872E-002   8.1517208574895875E-002   0.0000000000000000     
  -8.6432146703218984E-002   9.5751783610066948E-002   0.0000000000000000     
  -9.0300059939907112E-002  0.10971121861590427        0.0000000000000000     
  -3.8697889173006234E-002  0.10643124876070126        0.0000000000000000     
  -4.1328606361998331E-002  0.12049837993927251        0.0000000000000000     
  -4.3693854039149355E-002  0.13507002034422144        0.0000000000000000     
  -4.5793632204459318E-002  0.15014616997554808        0.0000000000000000     
  -4.7627940857928222E-002  0.16572682883325246        0.0000000000000000     
  -4.9806031239401048E-002  0.10687510420286753        0.0000000000000000     
  -5.2987896089640156E-002  0.12101376578716720        0.0000000000000000     
  -5.5855837257754046E-002  0.13561951605034347        0.0000000000000000     
  -5.8409854743742731E-002  0.15069235499239639        0.0000000000000000     
  -6.0649948547606199E-002  0.16623228261332593        0.0000000000000000     
  -6.2109107056016147E-002  0.10756971765945678        0.0000000000000000     
  -6.5688313034279994E-002  0.12172773447536768        0.0000000000000000     
  -6.8932712748386429E-002  0.13632906050512897        0.0000000000000000     
  -7.1842306198335412E-002  0.15137369574874066        0.0000000000000000     
  -7.4417093384126956E-002  0.16686164020620273        0.0000000000000000     
  -7.5607116622851495E-002  0.10851508913046905        0.0000000000000000     
  -7.9429857195917858E-002  0.12264028600387394        0.0000000000000000     
  -8.2924480511046450E-002  0.13719865370857795        0.0000000000000000     
  -8.6090986568237340E-002  0.15219019224458094        0.0000000000000000     
  -8.8929375367490501E-002  0.16761490161188300        0.0000000000000000     
  -9.0300059939907112E-002  0.10971121861590427        0.0000000000000000     
  -9.4212528574553686E-002  0.12375142037268602        0.0000000000000000     
  -9.7831140545734163E-002  0.13822829566069031        0.0000000000000000     
 -0.10115589585344853       0.15314184447991719        0.0000000000000000     
 -0.10418679449769681       0.16849206683036663        0.0000000000000000     
  -4.7627940857928222E-002  0.16572682883325246        0.0000000000000000     
  -4.9187084719276415E-002  0.18170991548388979        0.0000000000000000     
  -5.0461368508224254E-002  0.19799334849401518        0.0000000000000000     
  -5.1450792224771766E-002  0.21457712786362873        0.0000000000000000     
  -5.2155355868918923E-002  0.23146125359273043        0.0000000000000000     
  -6.0649948547606199E-002  0.16623228261332593        0.0000000000000000     
  -6.2569565954223444E-002  0.18215336723280129        0.0000000000000000     
  -6.4162154248473449E-002  0.19836967717049173        0.0000000000000000     
  -6.5427713430356207E-002  0.21488121242639724        0.0000000000000000     
  -6.6366243499871733E-002  0.23168797300051786        0.0000000000000000     
  -7.4417093384126956E-002  0.16686164020620273        0.0000000000000000     
  -7.6658154024804151E-002  0.18271345368041997        0.0000000000000000     
  -7.8566567839410018E-002  0.19884969597429719        0.0000000000000000     
  -8.0142334827944570E-002  0.21527036708783426        0.0000000000000000     
  -8.1385454990407821E-002  0.23197546702103136        0.0000000000000000     
  -8.8929375367490501E-002  0.16761490161188300        0.0000000000000000     
  -9.1452848931018516E-002  0.18339017482674591        0.0000000000000000     
  -9.3674609281033952E-002  0.19943340490543154        0.0000000000000000     
  -9.5594656417536852E-002  0.21574459184793987        0.0000000000000000     
  -9.7212990340527175E-002  0.23232373565427086        0.0000000000000000     
 -0.10418679449769681       0.16849206683036663        0.0000000000000000     
 -0.10695365067286655       0.18418353067177903        0.0000000000000000     
 -0.10948627857334528       0.20012080396389484        0.0000000000000000     
 -0.11178467819913304       0.21630388670671397        0.0000000000000000     
 -0.11384884955022979       0.23273277890023647        0.0000000000000000     
  -5.2155355868918923E-002  0.23146125359273043        0.0000000000000000     
  -5.2667099073343930E-002  0.24855615984510240        0.0000000000000000     
  -5.3078061470724983E-002  0.26577228078452697        0.0000000000000000     
  -5.3388243061062074E-002  0.28310961641100396        0.0000000000000000     
  -5.3597643844355197E-002  0.30056816672453351        0.0000000000000000     
  -6.6366243499871733E-002  0.23168797300051786        0.0000000000000000     
  -6.7063210160351078E-002  0.24879870879858215        0.0000000000000000     
  -6.7604079115125310E-002  0.26622216972631896        0.0000000000000000     
  -6.7988850364194414E-002  0.28395835578372813        0.0000000000000000     
  -6.8217523907558419E-002  0.30200726697080976        0.0000000000000000     
  -8.1385454990407821E-002  0.23197546702103136        0.0000000000000000     
  -8.2354348418983897E-002  0.24906602547412804        0.0000000000000000     
  -8.3107435205856964E-002  0.26664307214736432        0.0000000000000000     
  -8.3644715351026980E-002  0.28470660704074008        0.0000000000000000     
  -8.3966188854494014E-002  0.30325663015425525        0.0000000000000000     
  -9.7212990340527175E-002  0.23232373565427086        0.0000000000000000     
  -9.8540513849242381E-002  0.24935810987174009        0.0000000000000000     
  -9.9588129742919917E-002  0.26703498804766301        0.0000000000000000     
 -0.10035583802155977       0.28535437018203968        0.0000000000000000     
 -0.10084363868516195       0.30431625627487002        0.0000000000000000     
 -0.11384884955022979       0.23273277890023647        0.0000000000000000     
 -0.11562170645112652       0.24967496199141820        0.0000000000000000     
 -0.11704616272631418       0.26739791742721508        0.0000000000000000     
 -0.11812221837579276       0.28590164520762695        0.0000000000000000     
 -0.11884987339956225       0.30518614533265398        0.0000000000000000     
 </DataArray>
 <DataArray  type="Float64" Name="stress" NumberOfComponents="3" format="ascii">
   2818878816.2251687        1308175908.4387047       -1020030065.9951247     
   2945609785.7854590        505116603.61371261       -737901916.28176308     
   3162074489.7556300        1169746.8216775656       -564226201.08037853     
   3468272928.1357012       -203664661.93736911       -499002920.39096451     
   3864205100.9256611       -109386622.66346359       -542232074.21352053     
   3906628934.2237806        2040576758.5846915       -419559489.21786058     
   3765898590.0116081        1127416171.7895195       -224100118.16646564     
   3712380190.6738014        504962067.90891242       -100519796.58880313     
   3746073736.2103729        173214446.94289434       -48818524.484866269     
   3866979226.6213136        132173308.89143324       -68996301.854660511     
   4399596811.9455156        2594542936.6476164        170896405.36341685     
   4095900539.7844334        1602629683.6293302        276744909.96140462     
   3876894422.9622011        893016948.40721822        347287750.12390453     
   3742578461.4788194        465704730.98128819        382524925.85092396     
   3692952655.3342967        320693031.35153425        382456437.14245677     
   4297782449.3903646        2970074442.6274738        751337617.74870634     
   3935615635.1039214        1930757139.1331363        764633168.10184813     
   3655617186.6208148        1165334388.3165855        779196439.05775106     
   3457787103.9410467        673806190.17782044        795027430.61641026     
   3342125387.0646105        456172544.71683860        812126142.77783287     
   3601185846.5583239        3167171276.5242658        1321764147.9380057     
   3285043875.9700813        2111798538.3009510        1239564656.2548652     
   3048548481.6496563        1321914387.6370213        1195206270.2127290     
   2891699663.5970459        797518824.53247964        1188688989.8115978     
   2814497421.8122568        538611848.98733592        1220012815.0514677     
   3864205100.9256611       -109386622.66346359       -542232074.21352053     
   3589358311.6210823       -85201263.920195580       -385734079.28923517     
   3311244386.6523623       -71906357.390719414       -246976289.38557386     
   3029863326.0194979       -69501903.075060964       -125958704.50253147     
   2745215129.7224946       -77987900.973206043       -22681324.640119523     
   3866979226.6213136        132173308.89143324       -68996301.854660511     
   3539476810.0217066        90473812.293626308        29418283.908112478     
   3213024435.5082560        52274455.983001709        120272943.38942449     
   2887622103.0809517        17575239.959538341        203567676.58928385     
   2563269812.7398071       -13623835.776735902        279302483.50768608     
   3692952655.3342967        320693031.35153425        382456437.14245677     
   3341881122.1229873        221834632.61763573        427824321.11906260     
   2996176808.7481260        140866966.67190516        475812557.55337882     
   2655839715.2097144        77790033.514337063        526421146.44539708     
   2320869841.5077548        32603833.144938231        579650087.79512489     
   3342125387.0646105        456172544.71683860        812126142.77783287     
   2996571247.9249229        308881197.05183971        809484032.34362149     
   2660701506.3719797        193871174.67600238        819642553.10627902     
   2334516162.4057846        111142477.58932114        842601705.06580722     
   2018015216.0263407        60695105.791803837        878361488.22220695     
   2814497421.8122568        538611848.98733592        1220012815.0514677     
   2503547187.4275160        351613505.59624594        1174397417.5817814     
   2206598528.3798180        211287079.99530077        1151762930.0481303     
   1923651444.6691661        117632572.18450195        1152109352.4505134     
   1654705936.2955594        70649982.163862586        1175436684.7889318     
   2745215129.7224946       -77987900.973206043       -22681324.640119523     
   2525791732.2283440       -59868746.942800522       -14579665.071029907     
   2314275720.2583466       -15391641.165194869       -38143458.530755132     
   2110667093.8125241        55443416.359646440       -93372705.019281104     
   1914965852.8908622        152636425.63169217       -180267404.53663215     
   2563269812.7398071       -13623835.776735902        279302483.50768608     
   2270352957.9616456       -24531068.463859320        281170457.62822849     
   1983547300.0293539       -15067644.998087049        264868853.03240490     
   1702852838.9429388        14766434.620597959        230397669.72018906     
   1428269574.7023911        64971170.392185569        177756907.69160593     
   2320869841.5077548        32603833.144938231        579650087.79512489     
   1993019170.3382516        4238106.0080735683        573188823.00912285     
   1669483507.3363221       -9744260.5702042580        562053853.81918204     
   1350262852.5019825       -9343266.5898555517        546245180.22529340     
   1035357205.8352174        5441087.9490813613        525762802.22745401     
   2018015216.0263407        60695105.791803837        878361488.22220695     
   1693790369.3581543        26438776.472995162        861475431.07165790     
   1372084342.1792579        578512.11848217249        853411543.82959402     
   1052897134.4896499       -16885687.271738410        854169826.49601412     
   736228746.28933489       -25953821.697642088        863750279.07092559     
   1654705936.2955594        70649982.163862586        1175436684.7889318     
   1372666555.0213580        42070942.930903912        1146030281.8158250     
   1091349804.5581524        15900673.067938685        1138941923.0636353     
   810755684.90594935       -7860827.4250194430        1154171608.5323646     
   530884196.06475025       -29213558.547969490        1191719338.2220111     
   1914965852.8908622        152636425.63169217       -180267404.53663215     
   1582297101.1821744        158622588.87182331       -72419787.399795428     
   1208677056.6114278        28104442.571764231        61528394.416357279     
   794105719.17862439       -238918013.26847512        221577140.91182530     
   338583088.88378531       -642444778.64885616        407726452.08660036     
   1428269574.7023911        64971170.392185569        177756907.69160593     
   1156461598.5261328        54648951.258516729        266565112.84605452     
   838085585.07020462       -110900058.80738556        379852207.35548168     
   473141534.33462334       -431675859.80546689        517618191.21987903     
   61629446.319384634       -907678451.73572302        679863064.43924475     
   1035357205.8352174        5441087.9490813613        525762802.22745401     
   819776647.12182331       -22579520.979300380        588978726.91232347     
   552011306.71116507       -224549402.23189205        675051865.62781811     
   232061184.60324904       -600468555.80867362        783982218.37393916     
  -140073719.20192236       -1150336981.7096484        915769785.15069366     
   736228746.28933489       -25953821.697642088        863750279.07092559     
   572242246.96926010       -73062827.841585219        894821054.79900646     
   350454221.53432274       -312843587.70173347        947127369.23336649     
   70864669.984524399       -745296101.27809715        1020669222.3740165     
  -266526407.68013591       -1370420368.5706520        1115446614.2209501     
   530884196.06475025       -29213558.547969490        1191719338.2220111     
   413858398.06844342       -96800969.328336120        1184092096.5061033     
   233414329.53966957       -375782615.21692312        1196078718.1721299     
  -10448009.521569550       -866158496.21372795        1227679203.2201021     
  -317728619.11526561       -1567928612.3187308        1278893551.6500151     
   3601185846.5583239        3167171276.5242658        1321764147.9380057     
   3285043875.9700813        2111798538.3009510        1239564656.2548652     
   3048548481.6496563        1321914387.6370213        1195206270.2127290     
   2891699663.5970459        797518824.53247964        1188688989.8115978     
   2814497421.8122568        538611848.98733592        1220012815.0514677     
   2401224860.3912005        2285479100.0350847        984090034.53779435     
   2245303275.9002514        1518305014.4026127        1043646574.2819563     
   2149116623.6101651        950247369.43969631        1122101077.8620663     
   2112664903.5209498        581306165.14634323        1219453545.2781229     
   2135948115.6326041        411481401.52255464        1335703976.5301285     
   1401040223.9091158        1463719828.4514155        750389714.82855570     
   1351215763.2152944        968507416.71973467        928472034.58857846     
   1341214590.6553934        606039298.76778841        1106509176.3794932     
   1371036706.2294114        376315474.59557128        1284501140.2013025     
   1440682109.9373505        279335944.20309126        1462447926.0540018     
   600631937.11206555        701893461.77325606        620663188.81029153     
   602781337.91521764        462405745.25232500        894041037.17473280     
   624842382.78533959        289290175.62129617        1148430565.7650135     
   666815071.72243214        182546752.88016769        1383831774.5811307     
   728699404.72649765        142175477.02894983        1600244663.6230860     
   5.3162602525319992E-005   6.0880787590742954E-004   594910456.48299670     
   1.6104333983573701E-005   3.7287023285831149E-004   940353582.04042244     
   3.1110645195540107E-006   2.1784314279200617E-004   1247865246.0186272     
   1.0717159760375393E-005   1.3113365704664237E-004   1517445448.4176128     
   4.2502631450965816E-005   1.2432820341011798E-004   1749094189.2373812     
   2814497421.8122568        538611848.98733592        1220012815.0514677     
   2503547187.4275160        351613505.59624594        1174397417.5817814     
   2206598528.3798180        211287079.99530077        1151762930.0481303     
   1923651444.6691661        117632572.18450195        1152109352.4505134     
   1654705936.2955594        70649982.163862586        1175436684.7889318     
   2135948115.6326041        411481401.52255464        1335703976.5301285     
   1899469793.9582007        270252950.21348727        1298912001.0732300     
   1673492653.7865767        164028437.24701440        1285862919.5923972     
   1458016695.1177385        92807862.623160601        1296556732.0876303     
   1253041917.9516773        56591226.341903448        1330993438.5589285     
   1440682109.9373505        279335944.20309126        1462447926.0540018     
   1280852798.2305152        184530514.15321010        1430395579.8032506     
   1128024274.1921985        113061042.99839047        1422848111.5685949     
   982196537.82240248        64927530.738640100        1439805521.3500383     
   843369589.12112403        40129977.373947889        1481267809.1475759     
   728699404.72649765        142175477.02894983        1600244663.6230860     
   647696200.24445975        94446197.415419802        1568848153.7718434     
   570193389.59668076        58384897.249419659        1562718505.9767265     
   496190972.78315997        33991576.530945957        1581855720.2377388     
   425688949.80389529        21266235.259992272        1626259796.5548801     
   4.2502631450965816E-005   1.2432820341011798E-004   1749094189.2373812     
   3.8751053647974215E-005   1.2986406821697145E-004   1714269722.9790061     
   2.7656448559858813E-005   1.1196400949233163E-004   1705474102.8167901     
   1.4137043184443958E-005   8.5113921405371933E-005   1722707328.7507329     
  -8.8756840704923214E-006   2.7313316443731530E-005   1765969400.7808356     
   1654705936.2955594        70649982.163862586        1175436684.7889318     
   1372666555.0213580        42070942.930903912        1146030281.8158250     
   1091349804.5581524        15900673.067938685        1138941923.0636353     
   810755684.90594935       -7860827.4250194430        1154171608.5323646     
   530884196.06475025       -29213558.547969490        1191719338.2220111     
   1253041917.9516773        56591226.341903448        1330993438.5589285     
   1032990814.0825448        32600476.543133318        1300515995.4582870     
   813481683.32165968        10416303.771857500        1294344962.4250457     
   594514525.66902959       -9961291.9718993604        1312480339.4591987     
   376089341.12465125       -28532310.688155562        1354922126.5607574     
   843369589.12112403        40129977.373947889        1481267809.1475759     
   690987807.93271399        22431830.592055768        1449508558.5995309     
   538967342.14980483        5938068.4951680005        1444044083.9653642     
   387308191.77240062       -9351308.9167052507        1464874385.2450759     
   236010356.80049905       -23436301.643567562        1511999462.4386640     
   425688949.80389529        21266235.259992272        1626259796.5548801     
   346657536.57186544        11565005.077677086        1593007971.2395554     
   267806781.04258853        2465967.2378698438        1588039287.6845870     
   189136683.21606910       -6030878.2594119683        1611353745.8899772     
   110647243.09230207       -13925531.414184667        1662951345.8557265     
  -8.8756840704923214E-006   2.7313316443731530E-005   1765969400.7808356     
  -1.5555322597770049E-006  -1.2124001436497246E-005   1731014233.3783584     
   1.0751472971988122E-005  -3.4244585189502595E-005   1726330573.5827181     
   2.7542071187816385E-005  -4.1072914300435481E-005   1751918421.3939161     
   5.1790074060810880E-005  -2.4431006668262375E-005   1807777776.8119504     
   530884196.06475025       -29213558.547969490        1191719338.2220111     
   413858398.06844342       -96800969.328336120        1184092096.5061033     
   233414329.53966957       -375782615.21692312        1196078718.1721299     
  -10448009.521569550       -866158496.21372795        1227679203.2201021     
  -317728619.11526561       -1567928612.3187308        1278893551.6500151     
   376089341.12465125       -28532310.688155562        1354922126.5607574     
   310415034.74486262       -72594356.138205573        1285128200.1448379     
   197177025.46573204       -275202077.91939962        1229792627.2834523     
   36375313.287247896       -636355476.03176582        1188915407.9766140     
  -171990101.79057783       -1156054550.4752734        1162496542.2242947     
   236010356.80049905       -23436301.643567562        1511999462.4386640     
   206957513.95893881       -48391990.186766252        1398535846.8947001     
   146195535.85114795       -179044796.28406760        1294375075.0778692     
   53724422.477124363       -415394719.93547124        1199517146.9881687     
  -70455826.163130075       -757441761.14098799        1113962062.6256042     
   110647243.09230207       -13925531.414184667        1662951345.8557265     
   103485835.71066648       -24193871.474032335        1524315036.7556913     
   80469860.695915610       -87310770.310927987        1389826061.5553849     
   41599318.048049703       -203276227.92487273        1259484420.2548022     
  -13125792.232933670       -372090244.31587797        1133290112.8539550     
   5.1790074060810880E-005  -2.4431006668262375E-005   1807777776.8119504     
   4.3463401376122199E-005  -3.6143249565406880E-006   1662465769.7278116     
   3.3947204022192287E-005   1.1849495743595420E-005   1516145586.7159979     
   2.9486486512537635E-005   4.5899639400625893E-005   1368817227.7765083     
   1.9398402298395592E-005   5.9110225871526189E-005   1220480692.9093375     
   5.3162602525319992E-005   6.0880787590742954E-004   594910456.48299670     
   1.6104333983573701E-005   3.7287023285831149E-004   940353582.04042244     
   3.1110645195540107E-006   2.1784314279200617E-004   1247865246.0186272     
   1.0717159760375393E-005   1.3113365704664237E-004   1517445448.4176128     
   4.2502631450965816E-005   1.2432820341011798E-004   1749094189.2373812     
  -600631937.11209118       -701893461.77248812        620663188.81015694     
  -602781337.91524780       -462405745.25179178        894041037.17464137     
  -624842382.78535461       -289290175.62092841        1148430565.7649608     
  -666815071.72240913       -182546752.87989244        1383831774.5811145     
  -728699404.72641730       -142175477.02870005        1600244663.6231048     
  -1401040223.9092638       -1463719828.4510927        750389714.82838571     
  -1351215763.2153866       -968507416.71942139        928472034.58846104     
  -1341214590.6554308       -606039298.76748788        1106509176.3794255     
  -1371036706.2293968       -376315474.59529394        1284501140.2012784     
  -1440682109.9372859       -279335944.20284295        1462447926.0540221     
  -2401224860.3914652       -2285479100.0352063        984090034.53767955     
  -2245303275.9004002       -1518305014.4025121        1043646574.2818785     
  -2149116623.6102266       -950247369.43946445        1122101077.8620219     
  -2112664903.5209491       -581306165.14606440        1219453545.2781081     
  -2135948115.6325638       -411481401.52230906        1335703976.5301373     
  -3601185846.5586953       -3167171276.5248284        1321764147.9380403     
  -3285043875.9702868       -2111798538.3010664        1239564656.2548959     
  -3048548481.6497421       -1321914387.6368566        1195206270.2127500     
  -2891699663.5970640       -797518824.53219914        1188688989.8116012     
  -2814497421.8122540       -538611848.98710203        1220012815.0514495     
   4.2502631450965816E-005   1.2432820341011798E-004   1749094189.2373812     
   3.8751053647974215E-005   1.2986406821697145E-004   1714269722.9790061     
   2.7656448559858813E-005   1.1196400949233163E-004   1705474102.8167901     
   1.4137043184443958E-005   8.5113921405371933E-005   1722707328.7507329     
  -8.8756840704923214E-006   2.7313316443731530E-005   1765969400.7808356     
  -728699404.72641730       -142175477.02870005        1600244663.6231048     
  -647696200.24439621       -94446197.415192991        1568848153.7718472     
  -570193389.59663892       -58384897.249232903        1562718505.9767199     
  -496190972.78314275       -33991576.530808568        1581855720.2377219     
  -425688949.80390918       -21266235.259927318        1626259796.5548515     
  -1440682109.9372859       -279335944.20284295        1462447926.0540221     
  -1280852798.2304709       -184530514.15301195        1430395579.8032517     
  -1128024274.1921756       -113061042.99824560        1422848111.5685828     
  -982196537.82239747       -64927530.738536656        1439805521.3500104     
  -843369589.12113512       -40129977.373881280        1481267809.1475379     
  -2135948115.6325638       -411481401.52230906        1335703976.5301373     
  -1899469793.9581847       -270252950.21332133        1298912001.0732229     
  -1673492653.7865779       -164028437.24691296        1285862919.5923767     
  -1458016695.1177452       -92807862.623083472        1296556732.0875998     
  -1253041917.9516885       -56591226.341839314        1330993438.5588915     
  -2814497421.8122540       -538611848.98710203        1220012815.0514495     
  -2503547187.4275355       -351613505.59611851        1174397417.5817566     
  -2206598528.3798494       -211287079.99524426        1151762930.0481036     
  -1923651444.6691928       -117632572.18446857        1152109352.4504874     
  -1654705936.2955637       -70649982.163783908        1175436684.7889125     
  -8.8756840704923214E-006   2.7313316443731530E-005   1765969400.7808356     
  -1.5555322597770049E-006  -1.2124001436497246E-005   1731014233.3783584     
   1.0751472971988122E-005  -3.4244585189502595E-005   1726330573.5827181     
   2.7542071187816385E-005  -4.1072914300435481E-005   1751918421.3939161     
   5.1790074060810880E-005  -2.4431006668262375E-005   1807777776.8119504     
  -425688949.80390918       -21266235.259927318        1626259796.5548515     
  -346657536.57185793       -11565005.077660680        1593007971.2395391     
  -267806781.04255712       -2465967.2378964275        1588039287.6845791     
  -189136683.21599752        6030878.2593961358        1611353745.8899794     
  -110647243.09219170        13925531.414176151        1662951345.8557348     
  -843369589.12113512       -40129977.373881280        1481267809.1475379     
  -690987807.93270004       -22431830.592009127        1449508558.5995071     
  -538967342.14976466       -5938068.4951401055        1444044083.9653533     
  -387308191.77233070        9351308.9167243540        1464874385.2450759     
  -236010356.80039954        23436301.643580750        1511999462.4386718     
  -1253041917.9516885       -56591226.341839314        1330993438.5588915     
  -1032990814.0825248       -32600476.543050289        1300515995.4582658     
  -813481683.32162023       -10416303.771790028        1294344962.4250340     
  -594514525.66896844        9961291.9719594419        1312480339.4591949     
  -376089341.12457126        28532310.688194543        1354922126.5607553     
  -1654705936.2955637       -70649982.163783908        1175436684.7889125     
  -1372666555.0213349       -42070942.930783689        1146030281.8158109     
  -1091349804.5581157       -15900673.067820311        1138941923.0636237     
  -810755684.90590250        7860827.4251252711        1154171608.5323524     
  -530884196.06470299        29213558.548026979        1191719338.2219932     
   5.1790074060810880E-005  -2.4431006668262375E-005   1807777776.8119504     
   4.3463401376122199E-005  -3.6143249565406880E-006   1662465769.7278116     
   3.3947204022192287E-005   1.1849495743595420E-005   1516145586.7159979     
   2.9486486512537635E-005   4.5899639400625893E-005   1368817227.7765083     
   1.9398402298395592E-005   5.9110225871526189E-005   1220480692.9093375     
  -110647243.09219170        13925531.414176151        1662951345.8557348     
  -103485835.71057977        24193871.474032529        1524315036.7556982     
  -80469860.695852935        87310770.310937226        1389826061.5553877     
  -41599318.048009574        203276227.92489943        1259484420.2548194     
   13125792.232955307        372090244.31592441        1133290112.8539608     
  -236010356.80039954        23436301.643580750        1511999462.4386718     
  -206957513.95886576        48391990.186758190        1398535846.8947039     
  -146195535.85109580        179044796.28405493        1294375075.0778732     
  -53724422.477091938        415394719.93546140        1199517146.9881802     
   70455826.163139343        757441761.14096415        1113962062.6256208     
  -376089341.12457126        28532310.688194543        1354922126.5607553     
  -310415034.74481040        72594356.138188764        1285128200.1448286     
  -197177025.46569371        275202077.91936326        1229792627.2834435     
  -36375313.287233800        636355476.03168821        1188915407.9766021     
   171990101.79057926        1156054550.4751809        1162496542.2242975     
  -530884196.06470299        29213558.548026979        1191719338.2219932     
  -413858398.06840789        96800969.328335106        1184092096.5060740     
  -233414329.53964528        375782615.21686965        1196078718.1721017     
   10448009.521584034        866158496.21362209        1227679203.2200832     
   317728619.11527061        1567928612.3185728        1278893551.6500049     
  -3601185846.5586953       -3167171276.5248284        1321764147.9380403     
  -3285043875.9702868       -2111798538.3010664        1239564656.2548959     
  -3048548481.6497421       -1321914387.6368566        1195206270.2127500     
  -2891699663.5970640       -797518824.53219914        1188688989.8116012     
  -2814497421.8122540       -538611848.98710203        1220012815.0514495     
  -4297782449.3905964       -2970074442.6276646        751337617.74878824     
  -3935615635.1040816       -1930757139.1331620        764633168.10189044     
  -3655617186.6209207       -1165334388.3165123        779196439.05775011     
  -3457787103.9411149       -673806190.17770529        795027430.61636961     
  -3342125387.0646620       -456172544.71674824        812126142.77774930     
  -4399596811.9456196       -2594542936.6474380        170896405.36343399     
  -4095900539.7845345       -1602629683.6292624        276744909.96137500     
  -3876894422.9622917       -893016948.40722275        347287750.12383896     
  -3742578461.4788942       -465704730.98133087        382524925.85082322     
  -3692952655.3343363       -320693031.35157776        382456437.14233238     
  -3906628934.2237587       -2040576758.5841446       -419559489.21802491     
  -3765898590.0116425       -1127416171.7893538       -224100118.16664684     
  -3712380190.6738544       -504962067.90899384       -100519796.58898047     
  -3746073736.2103996       -173214446.94307506       -48818524.485035360     
  -3866979226.6212730       -132173308.89158583       -68996301.854799256     
  -2818878816.2250209       -1308175908.4377911       -1020030065.9955884     
  -2945609785.7854056       -505116603.61344498       -737901916.28217304     
  -3162074489.7556109       -1169746.8218232393       -564226201.08071029     
  -3468272928.1356335        203664661.93706751       -499002920.39120179     
  -3864205100.9254761        109386622.66322589       -542232074.21364737     
  -2814497421.8122540       -538611848.98710203        1220012815.0514495     
  -2503547187.4275355       -351613505.59611851        1174397417.5817566     
  -2206598528.3798494       -211287079.99524426        1151762930.0481036     
  -1923651444.6691928       -117632572.18446857        1152109352.4504874     
  -1654705936.2955637       -70649982.163783908        1175436684.7889125     
  -3342125387.0646620       -456172544.71674824        812126142.77774930     
  -2996571247.9249735       -308881197.05179524        809484032.34356105     
  -2660701506.3720298       -193871174.67598462        819642553.10624170     
  -2334516162.4058266       -111142477.58931184        842601705.06578708     
  -2018015216.0263612       -60695105.791764975        878361488.22220087     
  -3692952655.3343363       -320693031.35157776        382456437.14233238     
  -3341881122.1230273       -221834632.61766112        427824321.11898732     
  -2996176808.7481728       -140866966.67192364        475812557.55333751     
  -2655839715.2097640       -77790033.514341235        526421146.44538528     
  -2320869841.5078115       -32603833.144943714        579650087.79512751     
  -3866979226.6212730       -132173308.89158583       -68996301.854799256     
  -3539476810.0216908       -90473812.293706775        29418283.908036895     
  -3213024435.5082698       -52274455.983029008        120272943.38939679     
  -2887622103.0810122       -17575239.959568143        203567676.58927962     
  -2563269812.7399154        13623835.776695967        279302483.50768673     
  -3864205100.9254761        109386622.66322589       -542232074.21364737     
  -3589358311.6209688        85201263.920063019       -385734079.28929222     
  -3311244386.6523342        71906357.390648127       -246976289.38558859     
  -3029863326.0195694        69501903.075006127       -125958704.50252506     
  -2745215129.7226772        77987900.973117828       -22681324.640115682     
  -1654705936.2955637       -70649982.163783908        1175436684.7889125     
  -1372666555.0213349       -42070942.930783689        1146030281.8158109     
  -1091349804.5581157       -15900673.067820311        1138941923.0636237     
  -810755684.90590250        7860827.4251252711        1154171608.5323524     
  -530884196.06470299        29213558.548026979        1191719338.2219932     
  -2018015216.0263612       -60695105.791764975        878361488.22220087     
  -1693790369.3581593       -26438776.472932696        861475431.07164538     
  -1372084342.1792507       -578512.11840885878        853411543.82957613     
  -1052897134.4896438        16885687.271777987        854169826.49599493     
  -736228746.28933144        25953821.697643131        863750279.07090068     
  -2320869841.5078115       -32603833.144943714        579650087.79512751     
  -1993019170.3382845       -4238106.0080584288        573188823.00911343     
  -1669483507.3363383        9744260.5702235699        562053853.81915939     
  -1350262852.5019872        9343266.5898534656        546245180.22526073     
  -1035357205.8352153       -5441087.9491090775        525762802.22742778     
  -2563269812.7399154        13623835.776695967        279302483.50768673     
  -2270352957.9617171        24531068.463822007        281170457.62821448     
  -1983547300.0293858        15067644.998054624        264868853.03237128     
  -1702852838.9429288       -14766434.620632172        230397669.72016007     
  -1428269574.7023516       -64971170.392237782        177756907.69158167     
  -2745215129.7226772        77987900.973117828       -22681324.640115682     
  -2525791732.2284551        59868746.942697287       -14579665.071055528     
  -2314275720.2583809        15391641.165114641       -38143458.530786194     
  -2110667093.8124852       -55443416.359725714       -93372705.019317687     
  -1914965852.8907409       -152636425.63174230       -180267404.53663856     
  -530884196.06470299        29213558.548026979        1191719338.2219932     
  -413858398.06840789        96800969.328335106        1184092096.5060740     
  -233414329.53964528        375782615.21686965        1196078718.1721017     
   10448009.521584034        866158496.21362209        1227679203.2200832     
   317728619.11527061        1567928612.3185728        1278893551.6500049     
  -736228746.28933144        25953821.697643131        863750279.07090068     
  -572242246.96924782        73062827.841558993        894821054.79898274     
  -350454221.53430694        312843587.70166570        947127369.23335361     
  -70864669.984500200        745296101.27797484        1020669222.3740128     
   266526407.68016094        1370420368.5704999        1115446614.2209623     
  -1035357205.8352153       -5441087.9491090775        525762802.22742778     
  -819776647.12181294        22579520.979246020        588978726.91231203     
  -552011306.71114266        224549402.23181587        675051865.62782347     
  -232061184.60321924        600468555.80855525        783982218.37395930     
   140073719.20195723        1150336981.7094989        915769785.15072179     
  -1428269574.7023516       -64971170.392237782        177756907.69158167     
  -1156461598.5260797       -54648951.258551061        266565112.84606236     
  -838085585.07015514        110900058.80731320        379852207.35551274     
  -473141534.33458179        431675859.80533683        517618191.21991611     
  -61629446.319343150        907678451.73557556        679863064.43929601     
  -1914965852.8907409       -152636425.63174230       -180267404.53663856     
  -1582297101.1820719       -158622588.87189245       -72419787.399765328     
  -1208677056.6113422       -28104442.571840227        61528394.416411079     
  -794105719.17857230        238918013.26833212        221577140.91188678     
  -338583088.88375020        642444778.64870691        407726452.08666950     
 </DataArray>
 <DataArray  type="Float64" Name="VM" NumberOfComponents="1" format="ascii">
   3015161129.7558398     
   3012869246.5739260     
   3309089185.6284928     
   3677468256.2399468     
   4030978256.8781610     
   3461505080.8538713     
   3370161276.8311534     
   3491769591.5833468     
   3663515707.1218529     
   3804493153.0909562     
   3841975932.9486938     
   3606989684.4838591     
   3567559887.9634328     
   3594414263.5338969     
   3604893608.9926872     
   4027538579.7857256     
   3656797399.1611204     
   3504706279.4963493     
   3460727369.9972434     
   3439761076.9041500     
   4103062564.7155247     
   3594915449.4924059     
   3361062254.5522685     
   3306164370.8103814     
   3340788919.9400830     
   4030978256.8781610     
   3693635410.9690990     
   3374996488.4723392     
   3072959541.1955142     
   2785305210.2605805     
   3804493153.0909562     
   3495489657.4227085     
   3194009436.4653726     
   2900386016.5059161     
   2615241660.0890541     
   3604893608.9926872     
   3320412025.1672974     
   3042046910.0089254     
   2772056220.9340501     
   2513923875.3261847     
   3439761076.9041500     
   3180417507.1097503     
   2935392129.9318032     
   2707911991.3202219     
   2503625845.2353697     
   3340788919.9400830     
   3106240083.6485848     
   2902958331.9325790     
   2733140339.4640145     
   2602132281.5238628     
   2785305210.2605805     
   2556376699.0413027     
   2322949479.3741531     
   2089766098.1482201     
   1869649048.5090408     
   2615241660.0890541     
   2334088470.8216734     
   2043291667.8373134     
   1741846730.4014323     
   1430444490.2878833     
   2513923875.3261847     
   2224709650.4546480     
   1936814812.5141377     
   1652593211.9044764     
   1376822520.1947813     
   2503625845.2353697     
   2247501464.8014240     
   2016619894.4607933     
   1820844494.0417480     
   1673322428.9175880     
   2602132281.5238628     
   2401747338.8619404     
   2250668821.3070731     
   2158725570.6931758     
   2135131242.2085919     
   1869649048.5090408     
   1514454045.6471794     
   1199615822.6299593     
   1012275238.8415034     
   1115175913.6911237     
   1430444490.2878833     
   1220803588.3666801     
   1113774263.4458530     
   1190897356.5089917     
   1506738013.0539165     
   1376822520.1947813     
   1315956523.6746101     
   1358741251.8907709     
   1548432975.7764621     
   1922931807.7147670     
   1673322428.9175880     
   1666350252.2391422     
   1738239738.4711032     
   1933546023.9660473     
   2305753356.7726450     
   2135131242.2085919     
   2104027892.9798050     
   2138976570.8184137     
   2294096499.1272697     
   2639674594.5713191     
   4103062564.7155247     
   3594915449.4924059     
   3361062254.5522685     
   3306164370.8103814     
   3340788919.9400830     
   2899421649.6016855     
   2684245929.6618004     
   2693847136.2751026     
   2834495645.8205132     
   3033974902.8343444     
   1934919445.7084787     
   2010300754.5586700     
   2241963231.6467681     
   2540716866.3570428     
   2857870015.1337304     
   1259961073.9226637     
   1642060592.4434559     
   2061561141.3524239     
   2470063131.1304340     
   2851308901.8206973     
   1030415136.5825438     
   1628740181.1734002     
   2161366007.1036992     
   2628292614.3734431     
   3029520002.9826369     
   3340788919.9400830     
   3106240083.6485848     
   2902958331.9325790     
   2733140339.4640145     
   2602132281.5238628     
   3033974902.8343444     
   2868658571.3877282     
   2741042310.8201771     
   2653731080.5786700     
   2610945429.6689091     
   2857870015.1337304     
   2752521302.3950543     
   2689084641.1792245     
   2669133538.2830601     
   2694717284.5513196     
   2851308901.8206973     
   2784081823.0798826     
   2760707518.3852916     
   2781599747.3158860     
   2847239594.9525094     
   3029520002.9826369     
   2969202258.0766630     
   2953967797.0716276     
   2983816619.9675303     
   3058748726.7643728     
   2602132281.5238628     
   2401747338.8619404     
   2250668821.3070731     
   2158725570.6931758     
   2135131242.2085919     
   2610945429.6689091     
   2471534418.8529048     
   2383143747.5366583     
   2351017398.0091567     
   2379165797.1482415     
   2694717284.5513196     
   2601094462.0767841     
   2557950464.8982625     
   2567350349.0137672     
   2630628913.7598324     
   2847239594.9525094     
   2780165335.0353365     
   2763453000.8502030     
   2797558292.4976568     
   2882741592.7444463     
   3058748726.7643728     
   2998204600.8362064     
   2990092264.1047897     
   3034411716.5701251     
   3131162958.2322083     
   2135131242.2085919     
   2104027892.9798050     
   2138976570.8184137     
   2294096499.1272697     
   2639674594.5713191     
   2379165797.1482415     
   2253624921.3975754     
   2169342805.6789489     
   2161013333.3849812     
   2285039914.5369740     
   2630628913.7598324     
   2433700028.4405031     
   2259607538.6362643     
   2124683526.1057723     
   2061079884.6275506     
   2882741592.7444463     
   2642802939.7699552     
   2411633035.6736569     
   2193264893.9770608     
   1996691988.4588087     
   3131162958.2322083     
   2879475179.0126710     
   2626041187.8634334     
   2370860984.7844930     
   2113934569.7758410     
   1030415136.5825438     
   1628740181.1734002     
   2161366007.1036992     
   2628292614.3734431     
   3029520002.9826369     
   1259961073.9222252     
   1642060592.4432611     
   2061561141.3523433     
   2470063131.1304183     
   2851308901.8207297     
   1934919445.7082050     
   2010300754.5585015     
   2241963231.6466937     
   2540716866.3570337     
   2857870015.1337709     
   2899421649.6017289     
   2684245929.6617770     
   2693847136.2750959     
   2834495645.8205404     
   3033974902.8343835     
   4103062564.7159286     
   3594915449.4925804     
   3361062254.5523620     
   3306164370.8104534     
   3340788919.9401221     
   3029520002.9826369     
   2969202258.0766630     
   2953967797.0716276     
   2983816619.9675303     
   3058748726.7643728     
   2851308901.8207297     
   2784081823.0798941     
   2760707518.3852873     
   2781599747.3158646     
   2847239594.9524665     
   2857870015.1337709     
   2752521302.3950701     
   2689084641.1792202     
   2669133538.2830296     
   2694717284.5512700     
   3033974902.8343835     
   2868658571.3877482     
   2741042310.8201742     
   2653731080.5786471     
   2610945429.6688719     
   3340788919.9401221     
   3106240083.6486082     
   2902958331.9325876     
   2733140339.4640098     
   2602132281.5238624     
   3058748726.7643728     
   2998204600.8362064     
   2990092264.1047897     
   3034411716.5701251     
   3131162958.2322083     
   2847239594.9524665     
   2780165335.0353084     
   2763453000.8501854     
   2797558292.4976549     
   2882741592.7444558     
   2694717284.5512700     
   2601094462.0767465     
   2557950464.8982387     
   2567350349.0137582     
   2630628913.7598376     
   2610945429.6688719     
   2471534418.8528790     
   2383143747.5366373     
   2351017398.0091429     
   2379165797.1482286     
   2602132281.5238624     
   2401747338.8619394     
   2250668821.3070655     
   2158725570.6931586     
   2135131242.2085581     
   3131162958.2322083     
   2879475179.0126710     
   2626041187.8634334     
   2370860984.7844930     
   2113934569.7758410     
   2882741592.7444558     
   2642802939.7699633     
   2411633035.6736593     
   2193264893.9770904     
   1996691988.4588246     
   2630628913.7598376     
   2433700028.4405026     
   2259607538.6362638     
   2124683526.1057854     
   2061079884.6275680     
   2379165797.1482286     
   2253624921.3975496     
   2169342805.6789217     
   2161013333.3849354     
   2285039914.5369344     
   2135131242.2085581     
   2104027892.9797475     
   2138976570.8183494     
   2294096499.1271968     
   2639674594.5712194     
   4103062564.7159286     
   3594915449.4925804     
   3361062254.5523620     
   3306164370.8104534     
   3340788919.9401221     
   4027538579.7859721     
   3656797399.1612768     
   3504706279.4964557     
   3460727369.9973121     
   3439761076.9041696     
   3841975932.9487615     
   3606989684.4839525     
   3567559887.9634995     
   3594414263.5339217     
   3604893608.9926682     
   3461505080.8538985     
   3370161276.8312593     
   3491769591.5833836     
   3663515707.1218028     
   3804493153.0908513     
   3015161129.7562351     
   3012869246.5742655     
   3309089185.6285748     
   3677468256.2398186     
   4030978256.8779116     
   3340788919.9401221     
   3106240083.6486082     
   2902958331.9325876     
   2733140339.4640098     
   2602132281.5238624     
   3439761076.9041696     
   3180417507.1097660     
   2935392129.9318223     
   2707911991.3202419     
   2503625845.2353940     
   3604893608.9926682     
   3320412025.1672964     
   3042046910.0089431     
   2772056220.9340882     
   2513923875.3262362     
   3804493153.0908513     
   3495489657.4226527     
   3194009436.4653702     
   2900386016.5059609     
   2615241660.0891409     
   4030978256.8779116     
   3693635410.9689379     
   3374996488.4722776     
   3072959541.1955566     
   2785305210.2607169     
   2602132281.5238624     
   2401747338.8619394     
   2250668821.3070655     
   2158725570.6931586     
   2135131242.2085581     
   2503625845.2353940     
   2247501464.8014364     
   2016619894.4607904     
   1820844494.0417292     
   1673322428.9175482     
   2513923875.3262362     
   2224709650.4546771     
   1936814812.5141404     
   1652593211.9044473     
   1376822520.1947391     
   2615241660.0891409     
   2334088470.8217196     
   2043291667.8373156     
   1741846730.4013946     
   1430444490.2878122     
   2785305210.2607169     
   2556376699.0413604     
   2322949479.3741484     
   2089766098.1481483     
   1869649048.5089018     
   2135131242.2085581     
   2104027892.9797475     
   2138976570.8183494     
   2294096499.1271968     
   2639674594.5712194     
   1673322428.9175482     
   1666350252.2390940     
   1738239738.4710586     
   1933546023.9659867     
   2305753356.7725763     
   1376822520.1947391     
   1315956523.6745703     
   1358741251.8907399     
   1548432975.7764275     
   1922931807.7147152     
   1430444490.2878122     
   1220803588.3666215     
   1113774263.4458106     
   1190897356.5089431     
   1506738013.0538797     
   1869649048.5089018     
   1514454045.6470444     
   1199615822.6298456     
   1012275238.8414069     
   1115175913.6910703     
 </DataArray>
 <DataArray  type="Float64" Name="strain" NumberOfComponents="3" format="ascii">
   4.0440434061559283E-002   7.7085377261859045E-003  -4.4201302859788738E-002
   4.6567913411689088E-002  -6.3094388686987524E-003  -3.1975749705543066E-002
   5.2695392761818782E-002  -1.5790876668416859E-002  -2.4449802046816405E-002
   5.8822872111948532E-002  -2.0735775672967992E-002  -2.1623459883608462E-002
   6.4950351462078337E-002  -2.1144135882352699E-002  -2.3496723215919224E-002
   5.4907598444139560E-002   1.4476467971959284E-002  -1.8180911199440625E-002
   5.7127895641245874E-002  -3.9223420232714634E-005  -9.7110051205468451E-003
   5.9348192838352132E-002  -1.0145866488220467E-002  -4.3558578521814689E-003
   6.1568490035458417E-002  -1.5843461232003628E-002  -2.1154693943442049E-003
   6.3788787232564731E-002  -1.7132007651582681E-002  -2.9898397470352889E-003
   6.0353898849187182E-002   2.1244398217732691E-002   7.4055108990813967E-003
   6.0251860578260569E-002   6.2309920282333370E-003   1.1992279431660868E-002
   6.0149822307333928E-002  -4.5008563080240344E-003   1.5049135838702529E-002
   6.0047784036407217E-002  -1.0951146791039295E-002   1.6576080120206706E-002
   5.9945745765480604E-002  -1.3119879420812580E-002   1.6573112276173127E-002
   5.6779335276702037E-002   2.8012328463506070E-002   3.2557963435777278E-002
   5.5939808222733013E-002   1.2501207476699326E-002   3.3134103951080088E-002
   5.5100281168763990E-002   1.1441538721723502E-003   3.3765179025835881E-002
   5.4260754114795008E-002  -6.0588323500748911E-003   3.4451188660044443E-002
   5.3421227060825985E-002  -9.1077511900424096E-003   3.5192132853706093E-002
   4.4183907726684069E-002   3.4780258709279477E-002   5.7276446410646914E-002
   4.4191738574663270E-002   1.8771422925165440E-002   5.3714468437710827E-002
   4.4199569422642498E-002   6.7891640523687416E-003   5.1792271709218254E-002
   4.4207400270621700E-002  -1.1665179091105687E-003   5.1509856225169244E-002
   4.4215231118600928E-002  -5.0956229592723501E-003   5.2867221985563595E-002
   6.4950351462078337E-002  -2.1144135882352699E-002  -2.3496723215919224E-002
   6.0248644846619015E-002  -1.9366812623442003E-002  -1.6715143435866858E-002
   5.5546938231159637E-002  -1.7754661223107135E-002  -1.0702305873374868E-002
   5.0845231615700273E-002  -1.6307681681348506E-002  -5.4582105284430305E-003
   4.6143525000240937E-002  -1.5025873998165906E-002  -9.8285740107184605E-004
   6.3788787232564731E-002  -1.7132007651582681E-002  -2.9898397470352889E-003
   5.8538911105560310E-002  -1.6189487178548095E-002   1.2747923026848740E-003
   5.3289034978555930E-002  -1.5193881244491253E-002   5.2118275468750613E-003
   4.8039158851551501E-002  -1.4145189849412453E-002   8.8212659855356340E-003
   4.2789282724547129E-002  -1.3043412993311299E-002   1.2103107618666398E-002
   5.9945745765480604E-002  -1.3119879420812580E-002   1.6573112276173127E-002
   5.4588845538961608E-002  -1.3012161733654340E-002   1.8539053915159379E-002
   4.9231945312442578E-002  -1.2633101265875545E-002   2.0618544160646415E-002
   4.3875045085923561E-002  -1.1982698017476289E-002   2.2811583012633873E-002
   3.8518144859404552E-002  -1.1060951988456469E-002   2.5118170471122081E-002
   5.3421227060825985E-002  -9.1077511900424096E-003   3.5192132853706093E-002
   4.8398448146822849E-002  -9.8348362887606192E-003   3.5077641401556933E-002
   4.3375669232819651E-002  -1.0072321287259860E-002   3.5517843967938757E-002
   3.8352890318816474E-002  -9.8202061855402374E-003   3.6512740552851648E-002
   3.3330111404813324E-002  -9.0784909836016392E-003   3.8062331156295634E-002
   4.4215231118600928E-002  -5.0956229592723501E-003   5.2867221985563595E-002
   3.9967718929144039E-002  -6.6575108438668151E-003   5.0890554761877191E-002
   3.5720206739687135E-002  -7.5115413086440791E-003   4.9909726968752316E-002
   3.1472694550230260E-002  -7.6577143536041316E-003   4.9924738606188915E-002
   2.7225182360773342E-002  -7.0960299787467540E-003   5.0935589674187043E-002
   4.6143525000240937E-002  -1.5025873998165906E-002  -9.8285740107184605E-004
   4.2395872605186402E-002  -1.3626771110188396E-002  -6.3178548641129595E-004
   3.8648220210131756E-002  -1.1827905954044982E-002  -1.6528832029993890E-003
   3.4900567815077166E-002  -9.6292785297351774E-003  -4.0461505508355144E-003
   3.1152915420022576E-002  -7.0308888372594414E-003  -7.8115875299207271E-003
   4.2789282724547129E-002  -1.3043412993311299E-002   1.2103107618666398E-002
   3.7961871308346717E-002  -1.1760615930872548E-002   1.2184053163889902E-002
   3.3134459892146334E-002  -1.0168863916781554E-002   1.1477650298070879E-002
   2.8307048475945992E-002  -8.2681569510380630E-003   9.9838990212081924E-003
   2.3479637059745595E-002  -6.0584950336421972E-003   7.7027993333029232E-003
   3.8518144859404552E-002  -1.1060951988456469E-002   2.5118170471122081E-002
   3.3195795642263826E-002  -9.8944607515566996E-003   2.4838182330395323E-002
   2.7873446425123058E-002  -8.5098218795183478E-003   2.4355666998831224E-002
   2.2551097207982318E-002  -6.9070353723408376E-003   2.3670624476429383E-002
   1.7228747990841550E-002  -5.0861012300247310E-003   2.2783054763189675E-002
   3.3330111404813324E-002  -9.0784909836016392E-003   3.8062331156295634E-002
   2.8097645606937595E-002  -8.0283055722408514E-003   3.7330602013105174E-002
   2.2865179809061890E-002  -6.8507798422549199E-003   3.6981166899282408E-002
   1.7632714011186192E-002  -5.5459137936438897E-003   3.7014025814827281E-002
   1.2400248213310459E-002  -4.1137074264073759E-003   3.7429178759740112E-002
   2.7225182360773342E-002  -7.0960299787467540E-003   5.0935589674187043E-002
   2.2667421202368115E-002  -6.1621503929250587E-003   4.9661312212019082E-002
   1.8109660043962847E-002  -5.1917378049917834E-003   4.9354149999424196E-002
   1.3551898885557585E-002  -4.1847922149467372E-003   5.0014103036402469E-002
   8.9941377271523515E-003  -3.1413136227899097E-003   5.1641171322953816E-002
   3.1152915420022576E-002  -7.0308888372594414E-003  -7.8115875299207271E-003
   2.5578505408677121E-002  -5.2677756913804830E-003  -3.1381907873244685E-003
   2.0004095397331639E-002  -5.5749779068610672E-003   2.6662304247088153E-003
   1.4429685385986116E-002  -7.9524954837010414E-003   9.6016761061790967E-003
   8.8552753746407031E-003  -1.2400328421899864E-002   1.7668146257086015E-002
   2.3479637059745595E-002  -6.0584950336421972E-003   7.7027993333029232E-003
   1.9001115219142967E-002  -4.8714921383220533E-003   1.1551154889995696E-002
   1.4522593378540338E-002  -6.0387622388074491E-003   1.6460262318737540E-002
   1.0044071537937724E-002  -9.5603053350975659E-003   2.2430121619528093E-002
   5.5655496973350260E-003  -1.5436121427192306E-002   2.9460732792367272E-002
   1.7228747990841550E-002  -5.0861012300247310E-003   2.2783054763189675E-002
   1.3775841723593557E-002  -4.4752085852641232E-003   2.5522411499534020E-002
   1.0322935456345543E-002  -6.5025465707540253E-003   2.9252247510538787E-002
   6.8700291890975186E-003  -1.1168115186494139E-002   3.3972562796204031E-002
   3.4171229218495358E-003  -1.8471914432484526E-002   3.9683357356530058E-002
   1.2400248213310459E-002  -4.1137074264073759E-003   3.7429178759740112E-002
   9.9026849220289273E-003  -4.0789250322060544E-003   3.8775579041290281E-002
   7.4051216307473803E-003  -6.9663309027005044E-003   4.1042186000112550E-002
   4.9075583394658931E-003  -1.2775925037890910E-002   4.4228999636207383E-002
   2.4099950481843296E-003  -2.1507707437776857E-002   4.8336019949574510E-002
   8.9941377271523515E-003  -3.1413136227899097E-003   5.1641171322953816E-002
   7.3816448144490704E-003  -3.6826414791478190E-003   5.1310657515264479E-002
   5.7691519017457754E-003  -7.4301152346470667E-003   5.1830077787458961E-002
   4.1566589890424804E-003  -1.4383734889287618E-002   5.3199432139537761E-002
   2.5441660763392271E-003  -2.4543500443069188E-002   5.5418720571500657E-002
   4.4183907726684069E-002   3.4780258709279477E-002   5.7276446410646914E-002
   4.4191738574663270E-002   1.8771422925165440E-002   5.3714468437710827E-002
   4.4199569422642498E-002   6.7891640523687416E-003   5.1792271709218254E-002
   4.4207400270621700E-002  -1.1665179091105687E-003   5.1509856225169244E-002
   4.4215231118600928E-002  -5.0956229592723501E-003   5.2867221985563595E-002
   2.8593018839677922E-002   2.6085194031962078E-002   4.2643901496637757E-002
   2.9830196192991126E-002   1.4078567193875624E-002   4.5224684885551439E-002
   3.1067373546304275E-002   5.0918730392774461E-003   4.8624380040689537E-002
   3.2304550899617451E-002  -8.7488843183236402E-004   5.2842986962051988E-002
   3.3541728252930628E-002  -3.8217172194537768E-003   5.7880505649638897E-002
   1.6032071256228186E-002   1.7390129354644679E-002   3.2516887642570748E-002
   1.7677725636656233E-002   9.3857114625857732E-003   4.0233788165505067E-002
   1.9323380017084280E-002   3.3945820261861749E-003   4.7948730976444712E-002
   2.0969034397512333E-002  -5.8325895455420187E-004   5.5661716075389778E-002
   2.2614688777940387E-002  -2.5478114796352314E-003   6.3372743462340078E-002
   6.5010649763348125E-003   8.6950646773272730E-003   2.6895404848445964E-002
   7.7343269056586693E-003   4.6928557312959952E-003   3.8741778277571755E-002
   8.9675888349825122E-003   1.6972910130949054E-003   4.9765324516483918E-002
   1.0200850764306364E-002  -2.9162947727603234E-004   5.9966043565182328E-002
   1.1434112693630212E-002  -1.2739057398166581E-003   6.9343935423667055E-002
  -2.1579960041151480E-015   9.8809849191638932E-015   2.5779453114263190E-002
  -1.5959455978986625E-015   6.1339822110539899E-015   4.0748655221751640E-002
  -1.0373646386341306E-015   3.6151637239356660E-015   5.4074160660807183E-002
  -4.7704895589362195E-016   2.1319751519754959E-015   6.5755969431429889E-002
   8.6736173798840355E-017   1.8596235662471372E-015   7.5794081533619856E-002
   4.4215231118600928E-002  -5.0956229592723501E-003   5.2867221985563595E-002
   3.9967718929144039E-002  -6.6575108438668151E-003   5.0890554761877191E-002
   3.5720206739687135E-002  -7.5115413086440791E-003   4.9909726968752316E-002
   3.1472694550230260E-002  -7.6577143536041316E-003   4.9924738606188915E-002
   2.7225182360773342E-002  -7.0960299787467540E-003   5.0935589674187043E-002
   3.3541728252930628E-002  -3.8217172194537768E-003   5.7880505649638897E-002
   3.0306565148235910E-002  -4.9931331328995493E-003   5.6286186713173300E-002
   2.7071402043541207E-002  -5.6336559814826430E-003   5.5720726515670546E-002
   2.3836238938846503E-002  -5.7432857652026824E-003   5.6184125057130642E-002
   2.0601075834151772E-002  -5.3220224840599961E-003   5.7676382337553567E-002
   2.2614688777940387E-002  -2.5478114796352314E-003   6.3372743462340078E-002
   2.0424894066409204E-002  -3.3287554219324084E-003   6.1983808458140860E-002
   1.8235099354878024E-002  -3.7557706543211514E-003   6.1656751501305777E-002
   1.6045304643346841E-002  -3.8288571768013441E-003   6.2391572591834990E-002
   1.3855509931815661E-002  -3.5480149893731550E-003   6.4188271729728283E-002
   1.1434112693630212E-002  -1.2739057398166581E-003   6.9343935423667055E-002
   1.0322705683663898E-002  -1.6643777109653021E-003   6.7983419996779884E-002
   9.2112986736975818E-003  -1.8778853271597430E-003   6.7717801925658155E-002
   8.0998916637312693E-003  -1.9144285884000337E-003   6.8547081210302022E-002
   6.9884846537649602E-003  -1.7740074946862722E-003   7.0471257850711469E-002
   8.6736173798840355E-017   1.8596235662471372E-015   7.5794081533619856E-002
  -3.4694469519536142E-018   1.9706458687096529E-015   7.4285021329090262E-002
  -9.8879238130678004E-017   1.7277845820728999E-015   7.3903877788727576E-002
  -1.8995222061946038E-016   1.3478801408339791E-015   7.4650650912531757E-002
  -2.8449465006019636E-016   4.9960036108132044E-016   7.6525340700502875E-002
   2.7225182360773342E-002  -7.0960299787467540E-003   5.0935589674187043E-002
   2.2667421202368115E-002  -6.1621503929250587E-003   4.9661312212019082E-002
   1.8109660043962847E-002  -5.1917378049917834E-003   4.9354149999424196E-002
   1.3551898885557585E-002  -4.1847922149467372E-003   5.0014103036402469E-002
   8.9941377271523515E-003  -3.1413136227899097E-003   5.1641171322953816E-002
   2.0601075834151772E-002  -5.3220224840599961E-003   5.7676382337553567E-002
   1.7053511185326747E-002  -4.6216127946938357E-003   5.6355693136525775E-002
   1.3505946536501709E-002  -3.8938033537440075E-003   5.6088281705085313E-002
   9.9583818876766567E-003  -3.1385941612101370E-003   5.6874148043231945E-002
   6.4108172388516321E-003  -2.3559852170925155E-003   5.8713292150966157E-002
   1.3855509931815661E-002  -3.5480149893731550E-003   6.4188271729728283E-002
   1.1404304312584955E-002  -3.0810751964626404E-003   6.2812037539313012E-002
   8.9530986933542417E-003  -2.5958689024962248E-003   6.2575243638499117E-002
   6.5018930741235371E-003  -2.0923961074737572E-003   6.3477890027286626E-002
   4.0506874548928221E-003  -1.5706568113952879E-003   6.5519976705675442E-002
   6.9884846537649602E-003  -1.7740074946862722E-003   7.0471257850711469E-002
   5.7198005841427053E-003  -1.5405375982313757E-003   6.9030345420380737E-002
   4.4511165145204598E-003  -1.2979344512484454E-003   6.8815035799665442E-002
   3.1824324448982114E-003  -1.0461980537372116E-003   6.9825328988565680E-002
   1.9137483752759577E-003  -7.8532840569792151E-004   7.2061224987081479E-002
  -2.8449465006019636E-016   4.9960036108132044E-016   7.6525340700502875E-002
   3.4694469519536142E-017  -1.9428902930940239E-016   7.5010616779728867E-002
   3.5041414214731503E-016  -6.2450045135165055E-016   7.4807658188584453E-002
   6.6439909129911712E-016  -8.2225892761300656E-016   7.5916464927069702E-002
   9.8532293435482643E-016  -6.6613381477509392E-016   7.8337036995184517E-002
   8.9941377271523515E-003  -3.1413136227899097E-003   5.1641171322953816E-002
   7.3816448144490704E-003  -3.6826414791478190E-003   5.1310657515264479E-002
   5.7691519017457754E-003  -7.4301152346470667E-003   5.1830077787458961E-002
   4.1566589890424804E-003  -1.4383734889287618E-002   5.3199432139537761E-002
   2.5441660763392271E-003  -2.4543500443069188E-002   5.5418720571500657E-002
   6.4108172388516321E-003  -2.3559852170925155E-003   5.8713292150966157E-002
   5.5365556931054050E-003  -2.7619811093610724E-003   5.5688888672942971E-002
   4.6622941473591986E-003  -5.5725864259853208E-003   5.3291013848949603E-002
   3.7880326016129610E-003  -1.0787801166965670E-002   5.1519667678986608E-002
   2.9137710558667373E-003  -1.8407625332301669E-002   5.0374850163052765E-002
   4.0506874548928221E-003  -1.5706568113952879E-003   6.5519976705675442E-002
   3.6912518502494780E-003  -1.8413207395741316E-003   6.0603220032103666E-002
   3.3318162456061375E-003  -3.7150576173235333E-003   5.6089586586707665E-002
   2.9723806409627622E-003  -7.1918674446434759E-003   5.1979076369487308E-002
   2.6129450363194390E-003  -1.2271750221534150E-002   4.8271689380442850E-002
   1.9137483752759577E-003  -7.8532840569792151E-004   7.2061224987081479E-002
   1.8457332858812696E-003  -9.2066036978720456E-004   6.6053651592746621E-002
   1.7777181964865668E-003  -1.8575288086617112E-003   6.0225796000733342E-002
   1.7097031070918587E-003  -3.5959337223214604E-003   5.4577658211041429E-002
   1.6416880176971620E-003  -6.1358751107666309E-003   4.9109238223671386E-002
   9.8532293435482643E-016  -6.6613381477509392E-016   7.8337036995184517E-002
   7.4246164771807344E-016  -2.7755575615628914E-016   7.2040183354871834E-002
   5.0653925498522767E-016   2.7755575615628914E-017   6.5699642091026578E-002
   2.6194324487249787E-016   6.1756155744774333E-016   5.9315413203648693E-002
   2.7755575615628914E-017   8.8817841970012523E-016   5.2887496692737956E-002
  -2.1579960041151480E-015   9.8809849191638932E-015   2.5779453114263190E-002
  -1.5959455978986625E-015   6.1339822110539899E-015   4.0748655221751640E-002
  -1.0373646386341306E-015   3.6151637239356660E-015   5.4074160660807183E-002
  -4.7704895589362195E-016   2.1319751519754959E-015   6.5755969431429889E-002
   8.6736173798840355E-017   1.8596235662471372E-015   7.5794081533619856E-002
  -6.5010649763390799E-003  -8.6950646773143458E-003   2.6895404848440135E-002
  -7.7343269056618386E-003  -4.6928557312869573E-003   3.8741778277567793E-002
  -8.9675888349846009E-003  -1.6972910130887003E-003   4.9765324516481635E-002
  -1.0200850764307356E-002   2.9162947728050490E-004   5.9966043565181634E-002
  -1.1434112693630122E-002   1.2739057398204190E-003   6.9343935423667874E-002
  -1.6032071256232266E-002  -1.7390129354638559E-002   3.2516887642563379E-002
  -1.7677725636659338E-002  -9.3857114625800903E-003   4.0233788165499981E-002
  -1.9323380017086406E-002  -3.3945820261809777E-003   4.7948730976441770E-002
  -2.0969034397513478E-002   5.8325895455875205E-004   5.5661716075388730E-002
  -2.2614688777940553E-002   2.5478114796390477E-003   6.3372743462340952E-002
  -2.8593018839681721E-002  -2.6085194031962779E-002   4.2643901496632781E-002
  -2.9830196192994107E-002  -1.4078567193873202E-002   4.5224684885548067E-002
  -3.1067373546306457E-002  -5.0918730392732741E-003   4.8624380040687615E-002
  -3.2304550899618832E-002   8.7488843183700657E-004   5.2842986962051357E-002
  -3.3541728252931190E-002   3.8217172194576696E-003   5.7880505649639286E-002
  -4.4183907726687448E-002  -3.4780258709286999E-002   5.7276446410648413E-002
  -4.4191738574666115E-002  -1.8771422925166342E-002   5.3714468437712160E-002
  -4.4199569422644761E-002  -6.7891640523655636E-003   5.1792271709219170E-002
  -4.4207400270623400E-002   1.1665179091153322E-003   5.1509856225169383E-002
  -4.4215231118602052E-002   5.0956229592762359E-003   5.2867221985562818E-002
   8.6736173798840355E-017   1.8596235662471372E-015   7.5794081533619856E-002
  -3.4694469519536142E-018   1.9706458687096529E-015   7.4285021329090262E-002
  -9.8879238130678004E-017   1.7277845820728999E-015   7.3903877788727576E-002
  -1.8995222061946038E-016   1.3478801408339791E-015   7.4650650912531757E-002
  -2.8449465006019636E-016   4.9960036108132044E-016   7.6525340700502875E-002
  -1.1434112693630122E-002   1.2739057398204190E-003   6.9343935423667874E-002
  -1.0322705683663972E-002   1.6643777109687646E-003   6.7983419996780051E-002
  -9.2112986736978195E-003   1.8778853271626469E-003   6.7717801925657864E-002
  -8.0998916637316700E-003   1.9144285884022377E-003   6.8547081210301286E-002
  -6.9884846537655171E-003   1.7740074946874240E-003   7.0471257850710234E-002
  -2.2614688777940553E-002   2.5478114796390477E-003   6.3372743462340952E-002
  -2.0424894066409457E-002   3.3287554219354892E-003   6.1983808458140909E-002
  -1.8235099354878367E-002   3.7557706543234516E-003   6.1656751501305257E-002
  -1.6045304643347275E-002   3.8288571768030433E-003   6.2391572591833783E-002
  -1.3855509931816178E-002   3.5480149893743207E-003   6.4188271729726645E-002
  -3.3541728252931190E-002   3.8217172194576696E-003   5.7880505649639286E-002
  -3.0306565148236472E-002   4.9931331329022346E-003   5.6286186713172995E-002
  -2.7071402043541738E-002   5.6336559814843413E-003   5.5720726515669658E-002
  -2.3836238938847003E-002   5.7432857652040016E-003   5.6184125057129324E-002
  -2.0601075834152278E-002   5.3220224840611202E-003   5.7676382337551971E-002
  -4.4215231118602052E-002   5.0956229592762359E-003   5.2867221985562818E-002
  -3.9967718929144996E-002   6.6575108438690356E-003   5.0890554761876122E-002
  -3.5720206739687933E-002   7.5115413086451754E-003   4.9909726968751150E-002
  -3.1472694550230870E-002   7.6577143536048220E-003   4.9924738606187791E-002
  -2.7225182360773807E-002   7.0960299787480863E-003   5.0935589674186210E-002
  -2.8449465006019636E-016   4.9960036108132044E-016   7.6525340700502875E-002
   3.4694469519536142E-017  -1.9428902930940239E-016   7.5010616779728867E-002
   3.5041414214731503E-016  -6.2450045135165055E-016   7.4807658188584453E-002
   6.6439909129911712E-016  -8.2225892761300656E-016   7.5916464927069702E-002
   9.8532293435482643E-016  -6.6613381477509392E-016   7.8337036995184517E-002
  -6.9884846537655171E-003   1.7740074946874240E-003   7.0471257850710234E-002
  -5.7198005841426619E-003   1.5405375982316116E-003   6.9030345420380029E-002
  -4.4511165145198033E-003   1.2979344512478452E-003   6.8815035799665095E-002
  -3.1824324448969394E-003   1.0461980537365898E-003   6.9825328988565777E-002
  -1.9137483752740755E-003   7.8532840569722762E-004   7.2061224987081840E-002
  -1.3855509931816178E-002   3.5480149893743207E-003   6.4188271729726645E-002
  -1.1404304312584955E-002   3.0810751964633482E-003   6.2812037539311971E-002
  -8.9530986933537109E-003   2.5958689024964884E-003   6.2575243638498645E-002
  -6.5018930741224668E-003   2.0923961074737259E-003   6.3477890027286626E-002
  -4.0506874548912296E-003   1.5706568113950103E-003   6.5519976705675775E-002
  -2.0601075834152278E-002   5.3220224840611202E-003   5.7676382337551971E-002
  -1.7053511185326831E-002   4.6216127946951194E-003   5.6355693136524852E-002
  -1.3505946536501386E-002   3.8938033537449339E-003   5.6088281705084807E-002
  -9.9583818876759385E-003   3.1385941612108335E-003   5.6874148043231779E-002
  -6.4108172388504933E-003   2.3559852170927653E-003   5.8713292150966066E-002
  -2.7225182360773807E-002   7.0960299787480863E-003   5.0935589674186210E-002
  -2.2667421202368331E-002   6.1621503929269461E-003   4.9661312212018471E-002
  -1.8109660043962830E-002   5.1917378049935736E-003   4.9354149999423697E-002
  -1.3551898885557334E-002   4.1847922149482672E-003   5.0014103036401941E-002
  -8.9941377271518519E-003   3.1413136227906313E-003   5.1641171322953039E-002
   9.8532293435482643E-016  -6.6613381477509392E-016   7.8337036995184517E-002
   7.4246164771807344E-016  -2.7755575615628914E-016   7.2040183354871834E-002
   5.0653925498522767E-016   2.7755575615628914E-017   6.5699642091026578E-002
   2.6194324487249787E-016   6.1756155744774333E-016   5.9315413203648693E-002
   2.7755575615628914E-017   8.8817841970012523E-016   5.2887496692737956E-002
  -1.9137483752740755E-003   7.8532840569722762E-004   7.2061224987081840E-002
  -1.8457332858798255E-003   9.2066036978677435E-004   6.6053651592746926E-002
  -1.7777181964855684E-003   1.8575288086615516E-003   6.0225796000733467E-002
  -1.7097031070913236E-003   3.5959337223217050E-003   5.4577658211042171E-002
  -1.6416880176970336E-003   6.1358751107672971E-003   4.9109238223671636E-002
  -4.0506874548912296E-003   1.5706568113950103E-003   6.5519976705675775E-002
  -3.6912518502482203E-003   1.8413207395736320E-003   6.0603220032103833E-002
  -3.3318162456052042E-003   3.7150576173230615E-003   5.6089586586707846E-002
  -2.9723806409621728E-003   7.1918674446431498E-003   5.1979076369487807E-002
  -2.6129450363191649E-003   1.2271750221533706E-002   4.8271689380443572E-002
  -6.4108172388504933E-003   2.3559852170927653E-003   5.8713292150966066E-002
  -5.5365556931044500E-003   2.7619811093605312E-003   5.5688888672942576E-002
  -4.6622941473583781E-003   5.5725864259845229E-003   5.3291013848949215E-002
  -3.7880326016123374E-003   1.0787801166964305E-002   5.1519667678986088E-002
  -2.9137710558662490E-003   1.8407625332300115E-002   5.0374850163052889E-002
  -8.9941377271518519E-003   3.1413136227906313E-003   5.1641171322953039E-002
  -7.3816448144484736E-003   3.6826414791476247E-003   5.1310657515263203E-002
  -5.7691519017451023E-003   7.4301152346460536E-003   5.1830077787457740E-002
  -4.1566589890417102E-003   1.4383734889285783E-002   5.3199432139536942E-002
  -2.5441660763383528E-003   2.4543500443066524E-002   5.5418720571500213E-002
  -4.4183907726687448E-002  -3.4780258709286999E-002   5.7276446410648413E-002
  -4.4191738574666115E-002  -1.8771422925166342E-002   5.3714468437712160E-002
  -4.4199569422644761E-002  -6.7891640523655636E-003   5.1792271709219170E-002
  -4.4207400270623400E-002   1.1665179091153322E-003   5.1509856225169383E-002
  -4.4215231118602052E-002   5.0956229592762359E-003   5.2867221985562818E-002
  -5.6779335276704951E-002  -2.8012328463508096E-002   3.2557963435780823E-002
  -5.5939808222735546E-002  -1.2501207476698958E-002   3.3134103951081920E-002
  -5.5100281168766113E-002  -1.1441538721706015E-003   3.3765179025835840E-002
  -5.4260754114796722E-002   6.0588323500771531E-003   3.4451188660042681E-002
  -5.3421227060827289E-002   9.1077511900441721E-003   3.5192132853702471E-002
  -6.0353898849189798E-002  -2.1244398217729207E-002   7.4055108990821392E-003
  -6.0251860578262595E-002  -6.2309920282316994E-003   1.1992279431659585E-002
  -6.0149822307335413E-002   4.5008563080244125E-003   1.5049135838699688E-002
  -6.0047784036408251E-002   1.0951146791038958E-002   1.6576080120202341E-002
  -5.9945745765481048E-002   1.3119879420812053E-002   1.6573112276167735E-002
  -5.4907598444141920E-002  -1.4476467971950284E-002  -1.8180911199447748E-002
  -5.7127895641247275E-002   3.9223420235649786E-005  -9.7110051205546964E-003
  -5.9348192838352604E-002   1.0145866488219373E-002  -4.3558578521891538E-003
  -6.1568490035457953E-002   1.5843461232000745E-002  -2.1154693943515324E-003
  -6.3788787232563288E-002   1.7132007651579934E-002  -2.9898397470413014E-003
  -4.0440434061561392E-002  -7.7085377261714161E-003  -4.4201302859808833E-002
  -4.6567913411689532E-002   6.3094388687029435E-003  -3.1975749705560830E-002
  -5.2695392761817728E-002   1.5790876668414333E-002  -2.4449802046830782E-002
  -5.8822872111945895E-002   2.0735775672962628E-002  -2.1623459883618745E-002
  -6.4950351462074063E-002   2.1144135882347814E-002  -2.3496723215924720E-002
  -4.4215231118602052E-002   5.0956229592762359E-003   5.2867221985562818E-002
  -3.9967718929144996E-002   6.6575108438690356E-003   5.0890554761876122E-002
  -3.5720206739687933E-002   7.5115413086451754E-003   4.9909726968751150E-002
  -3.1472694550230870E-002   7.6577143536048220E-003   4.9924738606187791E-002
  -2.7225182360773807E-002   7.0960299787480863E-003   5.0935589674186210E-002
  -5.3421227060827289E-002   9.1077511900441721E-003   3.5192132853702471E-002
  -4.8398448146823911E-002   9.8348362887616114E-003   3.5077641401554310E-002
  -4.3375669232820574E-002   1.0072321287260405E-002   3.5517843967937140E-002
  -3.8352890318817216E-002   9.8202061855406017E-003   3.6512740552850774E-002
  -3.3330111404813859E-002   9.0784909836023886E-003   3.8062331156295370E-002
  -5.9945745765481048E-002   1.3119879420812053E-002   1.6573112276167735E-002
  -5.4588845538962150E-002   1.3012161733654118E-002   1.8539053915156117E-002
  -4.9231945312443258E-002   1.2633101265875468E-002   2.0618544160644625E-002
  -4.3875045085924359E-002   1.1982698017476465E-002   2.2811583012633363E-002
  -3.8518144859405475E-002   1.1060951988456663E-002   2.5118170471122192E-002
  -6.3788787232563288E-002   1.7132007651579934E-002  -2.9898397470413014E-003
  -5.8538911105559643E-002   1.6189487178546673E-002   1.2747923026815988E-003
  -5.3289034978556013E-002   1.5193881244490864E-002   5.2118275468738609E-003
  -4.8039158851552362E-002   1.4145189849412258E-002   8.8212659855354501E-003
  -4.2789282724548731E-002   1.3043412993311174E-002   1.2103107618666425E-002
  -6.4950351462074063E-002   2.1144135882347814E-002  -2.3496723215924720E-002
  -6.0248644846616461E-002   1.9366812623439228E-002  -1.6715143435869328E-002
  -5.5546938231158804E-002   1.7754661223105803E-002  -1.0702305873375506E-002
  -5.0845231615701189E-002   1.6307681681347951E-002  -5.4582105284427529E-003
  -4.6143525000243546E-002   1.5025873998165351E-002  -9.8285740107167952E-004
  -2.7225182360773807E-002   7.0960299787480863E-003   5.0935589674186210E-002
  -2.2667421202368331E-002   6.1621503929269461E-003   4.9661312212018471E-002
  -1.8109660043962830E-002   5.1917378049935736E-003   4.9354149999423697E-002
  -1.3551898885557334E-002   4.1847922149482672E-003   5.0014103036401941E-002
  -8.9941377271518519E-003   3.1413136227906313E-003   5.1641171322953039E-002
  -3.3330111404813859E-002   9.0784909836023886E-003   3.8062331156295370E-002
  -2.8097645606937994E-002   8.0283055722419200E-003   3.7330602013104633E-002
  -2.2865179809062136E-002   6.8507798422561064E-003   3.6981166899281631E-002
  -1.7632714011186289E-002   5.5459137936445194E-003   3.7014025814826448E-002
  -1.2400248213310407E-002   4.1137074264073759E-003   3.7429178759739029E-002
  -3.8518144859405475E-002   1.1060951988456663E-002   2.5118170471122192E-002
  -3.3195795642264450E-002   9.8944607515571159E-003   2.4838182330394913E-002
  -2.7873446425123422E-002   8.5098218795187502E-003   2.4355666998830239E-002
  -2.2551097207982387E-002   6.9070353723408272E-003   2.3670624476427968E-002
  -1.7228747990841377E-002   5.0861012300242592E-003   2.2783054763188537E-002
  -4.2789282724548731E-002   1.3043412993311174E-002   1.2103107618666425E-002
  -3.7961871308347724E-002   1.1760615930872284E-002   1.2184053163889293E-002
  -3.3134459892146702E-002   1.0168863916781172E-002   1.1477650298069422E-002
  -2.8307048475945652E-002   8.2681569510374402E-003   9.9838990212069365E-003
  -2.3479637059744672E-002   6.0584950336411286E-003   7.7027993333018720E-003
  -4.6143525000243546E-002   1.5025873998165351E-002  -9.8285740107167952E-004
  -4.2395872605187734E-002   1.3626771110187230E-002  -6.3178548641240617E-004
  -3.8648220210131923E-002   1.1827905954043816E-002  -1.6528832030007351E-003
  -3.4900567815076125E-002   9.6292785297336647E-003  -4.0461505508371000E-003
  -3.1152915420020300E-002   7.0308888372579981E-003  -7.8115875299210047E-003
  -8.9941377271518519E-003   3.1413136227906313E-003   5.1641171322953039E-002
  -7.3816448144484736E-003   3.6826414791476247E-003   5.1310657515263203E-002
  -5.7691519017451023E-003   7.4301152346460536E-003   5.1830077787457740E-002
  -4.1566589890417102E-003   1.4383734889285783E-002   5.3199432139536942E-002
  -2.5441660763383528E-003   2.4543500443066524E-002   5.5418720571500213E-002
  -1.2400248213310407E-002   4.1137074264073759E-003   3.7429178759739029E-002
  -9.9026849220285908E-003   4.0789250322055548E-003   3.8775579041289254E-002
  -7.4051216307467783E-003   6.9663309026992970E-003   4.1042186000111988E-002
  -4.9075583394648774E-003   1.2775925037888748E-002   4.4228999636207224E-002
  -2.4099950481831500E-003   2.1507707437774193E-002   4.8336019949575038E-002
  -1.7228747990841377E-002   5.0861012300242592E-003   2.2783054763188537E-002
  -1.3775841723593113E-002   4.4752085852631657E-003   2.5522411499533521E-002
  -1.0322935456344790E-002   6.5025465707526445E-003   2.9252247510539016E-002
  -6.8700291890964309E-003   1.1168115186492017E-002   3.3972562796204905E-002
  -3.4171229218482070E-003   1.8471914432481862E-002   3.9683357356531279E-002
  -2.3479637059744672E-002   6.0584950336411286E-003   7.7027993333018720E-003
  -1.9001115219141905E-002   4.8714921383212137E-003   1.1551154889996036E-002
  -1.4522593378539152E-002   6.0387622388059954E-003   1.6460262318738886E-002
  -1.0044071537936381E-002   9.5603053350951893E-003   2.2430121619529699E-002
  -5.5655496973335966E-003   1.5436121427189642E-002   2.9460732792369493E-002
  -3.1152915420020300E-002   7.0308888372579981E-003  -7.8115875299210047E-003
  -2.5578505408675067E-002   5.2677756913788176E-003  -3.1381907873231640E-003
  -2.0004095397329835E-002   5.5749779068593741E-003   2.6662304247111468E-003
  -1.4429685385984534E-002   7.9524954836983977E-003   9.6016761061817613E-003
  -8.8552753746393709E-003   1.2400328421897200E-002   1.7668146257089012E-002
 </DataArray>
 </PointData>
 </Piece>
 </UnstructuredGrid>
 </VTKFile>
