 <VTKFile type="UnstructuredGrid"  version="0.1"   >
 <UnstructuredGrid>
 <Piece  NumberOfPoints="           100 "  NumberOfCells="           64 ">
 <Points>
 <DataArray  type="Float64" NumberOfComponents="3"  format="ascii" >
   0.0000000000000000        0.0000000000000000        0.0000000000000000     
  0.12500000000000000        0.0000000000000000        0.0000000000000000     
  0.25000000000000000        0.0000000000000000        0.0000000000000000     
  0.37500000000000000        0.0000000000000000        0.0000000000000000     
  0.50000000000000000        0.0000000000000000        0.0000000000000000     
   0.0000000000000000       0.12500000000000000        0.0000000000000000     
  0.12500000000000000       0.12500000000000000        0.0000000000000000     
  0.25000000000000000       0.12500000000000000        0.0000000000000000     
  0.37500000000000000       0.12500000000000000        0.0000000000000000     
  0.50000000000000000       0.12500000000000000        0.0000000000000000     
   0.0000000000000000       0.25000000000000000        0.0000000000000000     
  0.12500000000000000       0.25000000000000000        0.0000000000000000     
  0.25000000000000000       0.25000000000000000        0.0000000000000000     
  0.37500000000000000       0.25000000000000000        0.0000000000000000     
  0.50000000000000000       0.25000000000000000        0.0000000000000000     
   0.0000000000000000       0.37500000000000000        0.0000000000000000     
  0.12500000000000000       0.37500000000000000        0.0000000000000000     
  0.25000000000000000       0.37500000000000000        0.0000000000000000     
  0.37500000000000000       0.37500000000000000        0.0000000000000000     
  0.50000000000000000       0.37500000000000000        0.0000000000000000     
   0.0000000000000000       0.50000000000000000        0.0000000000000000     
  0.12500000000000000       0.50000000000000000        0.0000000000000000     
  0.25000000000000000       0.50000000000000000        0.0000000000000000     
  0.37500000000000000       0.50000000000000000        0.0000000000000000     
  0.50000000000000000       0.50000000000000000        0.0000000000000000     
  0.50000000000000000        0.0000000000000000        0.0000000000000000     
  0.62500000000000000        0.0000000000000000        0.0000000000000000     
  0.75000000000000000        0.0000000000000000        0.0000000000000000     
  0.87500000000000000        0.0000000000000000        0.0000000000000000     
   1.0000000000000000        0.0000000000000000        0.0000000000000000     
  0.50000000000000000       0.12500000000000000        0.0000000000000000     
  0.62500000000000000       0.12500000000000000        0.0000000000000000     
  0.75000000000000000       0.12500000000000000        0.0000000000000000     
  0.87500000000000000       0.12500000000000000        0.0000000000000000     
   1.0000000000000000       0.12500000000000000        0.0000000000000000     
  0.50000000000000000       0.25000000000000000        0.0000000000000000     
  0.62500000000000000       0.25000000000000000        0.0000000000000000     
  0.75000000000000000       0.25000000000000000        0.0000000000000000     
  0.87500000000000000       0.25000000000000000        0.0000000000000000     
   1.0000000000000000       0.25000000000000000        0.0000000000000000     
  0.50000000000000000       0.37500000000000000        0.0000000000000000     
  0.62500000000000000       0.37500000000000000        0.0000000000000000     
  0.75000000000000000       0.37500000000000000        0.0000000000000000     
  0.87500000000000000       0.37500000000000000        0.0000000000000000     
   1.0000000000000000       0.37500000000000000        0.0000000000000000     
  0.50000000000000000       0.50000000000000000        0.0000000000000000     
  0.62500000000000000       0.50000000000000000        0.0000000000000000     
  0.75000000000000000       0.50000000000000000        0.0000000000000000     
  0.87500000000000000       0.50000000000000000        0.0000000000000000     
   1.0000000000000000       0.50000000000000000        0.0000000000000000     
   0.0000000000000000       0.50000000000000000        0.0000000000000000     
  0.12500000000000000       0.50000000000000000        0.0000000000000000     
  0.25000000000000000       0.50000000000000000        0.0000000000000000     
  0.37500000000000000       0.50000000000000000        0.0000000000000000     
  0.50000000000000000       0.50000000000000000        0.0000000000000000     
   0.0000000000000000       0.62500000000000000        0.0000000000000000     
  0.12500000000000000       0.62500000000000000        0.0000000000000000     
  0.25000000000000000       0.62500000000000000        0.0000000000000000     
  0.37500000000000000       0.62500000000000000        0.0000000000000000     
  0.50000000000000000       0.62500000000000000        0.0000000000000000     
   0.0000000000000000       0.75000000000000000        0.0000000000000000     
  0.12500000000000000       0.75000000000000000        0.0000000000000000     
  0.25000000000000000       0.75000000000000000        0.0000000000000000     
  0.37500000000000000       0.75000000000000000        0.0000000000000000     
  0.50000000000000000       0.75000000000000000        0.0000000000000000     
   0.0000000000000000       0.87500000000000000        0.0000000000000000     
  0.12500000000000000       0.87500000000000000        0.0000000000000000     
  0.25000000000000000       0.87500000000000000        0.0000000000000000     
  0.37500000000000000       0.87500000000000000        0.0000000000000000     
  0.50000000000000000       0.87500000000000000        0.0000000000000000     
   0.0000000000000000        1.0000000000000000        0.0000000000000000     
  0.12500000000000000        1.0000000000000000        0.0000000000000000     
  0.25000000000000000        1.0000000000000000        0.0000000000000000     
  0.37500000000000000        1.0000000000000000        0.0000000000000000     
  0.50000000000000000        1.0000000000000000        0.0000000000000000     
  0.50000000000000000       0.50000000000000000        0.0000000000000000     
  0.62500000000000000       0.50000000000000000        0.0000000000000000     
  0.75000000000000000       0.50000000000000000        0.0000000000000000     
  0.87500000000000000       0.50000000000000000        0.0000000000000000     
   1.0000000000000000       0.50000000000000000        0.0000000000000000     
  0.50000000000000000       0.62500000000000000        0.0000000000000000     
  0.62500000000000000       0.62500000000000000        0.0000000000000000     
  0.75000000000000000       0.62500000000000000        0.0000000000000000     
  0.87500000000000000       0.62500000000000000        0.0000000000000000     
   1.0000000000000000       0.62500000000000000        0.0000000000000000     
  0.50000000000000000       0.75000000000000000        0.0000000000000000     
  0.62500000000000000       0.75000000000000000        0.0000000000000000     
  0.75000000000000000       0.75000000000000000        0.0000000000000000     
  0.87500000000000000       0.75000000000000000        0.0000000000000000     
   1.0000000000000000       0.75000000000000000        0.0000000000000000     
  0.50000000000000000       0.87500000000000000        0.0000000000000000     
  0.62500000000000000       0.87500000000000000        0.0000000000000000     
  0.75000000000000000       0.87500000000000000        0.0000000000000000     
  0.87500000000000000       0.87500000000000000        0.0000000000000000     
   1.0000000000000000       0.87500000000000000        0.0000000000000000     
  0.50000000000000000        1.0000000000000000        0.0000000000000000     
  0.62500000000000000        1.0000000000000000        0.0000000000000000     
  0.75000000000000000        1.0000000000000000        0.0000000000000000     
  0.87500000000000000        1.0000000000000000        0.0000000000000000     
   1.0000000000000000        1.0000000000000000        0.0000000000000000     
 </DataArray>
 </Points>
 <Cells>
 <DataArray  type="Int32"  Name="connectivity"  format="ascii">
           0           1           6           5
           1           2           7           6
           2           3           8           7
           3           4           9           8
           5           6          11          10
           6           7          12          11
           7           8          13          12
           8           9          14          13
          10          11          16          15
          11          12          17          16
          12          13          18          17
          13          14          19          18
          15          16          21          20
          16          17          22          21
          17          18          23          22
          18          19          24          23
          25          26          31          30
          26          27          32          31
          27          28          33          32
          28          29          34          33
          30          31          36          35
          31          32          37          36
          32          33          38          37
          33          34          39          38
          35          36          41          40
          36          37          42          41
          37          38          43          42
          38          39          44          43
          40          41          46          45
          41          42          47          46
          42          43          48          47
          43          44          49          48
          50          51          56          55
          51          52          57          56
          52          53          58          57
          53          54          59          58
          55          56          61          60
          56          57          62          61
          57          58          63          62
          58          59          64          63
          60          61          66          65
          61          62          67          66
          62          63          68          67
          63          64          69          68
          65          66          71          70
          66          67          72          71
          67          68          73          72
          68          69          74          73
          75          76          81          80
          76          77          82          81
          77          78          83          82
          78          79          84          83
          80          81          86          85
          81          82          87          86
          82          83          88          87
          83          84          89          88
          85          86          91          90
          86          87          92          91
          87          88          93          92
          88          89          94          93
          90          91          96          95
          91          92          97          96
          92          93          98          97
          93          94          99          98
 </DataArray>
 <DataArray  type="Int32"  Name="offsets"  format="ascii"> 
           4
           8
          12
          16
          20
          24
          28
          32
          36
          40
          44
          48
          52
          56
          60
          64
          68
          72
          76
          80
          84
          88
          92
          96
         100
         104
         108
         112
         116
         120
         124
         128
         132
         136
         140
         144
         148
         152
         156
         160
         164
         168
         172
         176
         180
         184
         188
         192
         196
         200
         204
         208
         212
         216
         220
         224
         228
         232
         236
         240
         244
         248
         252
         256
 </DataArray>
 <DataArray  type="UInt8"  Name="types"  format="ascii">
 9
 9
 9
 9
 9
 9
 9
 9
 9
 9
 9
 9
 9
 9
 9
 9
 9
 9
 9
 9
 9
 9
 9
 9
 9
 9
 9
 9
 9
 9
 9
 9
 9
 9
 9
 9
 9
 9
 9
 9
 9
 9
 9
 9
 9
 9
 9
 9
 9
 9
 9
 9
 9
 9
 9
 9
 9
 9
 9
 9
 9
 9
 9
 9
 </DataArray>
 </Cells> 
 <PointData>
 <DataArray  type="Float64" Name="disp" NumberOfComponents="3" format="ascii">
   0.0000000000000000        0.0000000000000000        0.0000000000000000     
   1.9062561044298636E-002   1.1356129101161665E-002   0.0000000000000000     
   3.6190672665049647E-002   2.5499989608116173E-002   0.0000000000000000     
   5.1384334862253023E-002   4.2431581520863515E-002   0.0000000000000000     
   6.4643547635908780E-002   6.2150904839403713E-002   0.0000000000000000     
   0.0000000000000000        0.0000000000000000        0.0000000000000000     
   1.2669982085240951E-002   9.2230907489274979E-003   0.0000000000000000     
   2.4475051551756517E-002   2.2036809311413004E-002   0.0000000000000000     
   3.5415208399546691E-002   3.8441155687456520E-002   0.0000000000000000     
   4.5490452628611483E-002   5.8436129877058055E-002   0.0000000000000000     
   0.0000000000000000        0.0000000000000000        0.0000000000000000     
   7.3620289248413550E-003   7.6994919258970337E-003   0.0000000000000000     
   1.4538065736490718E-002   1.9563109099476221E-002   0.0000000000000000     
   2.1528110434948091E-002   3.5590851520737557E-002   0.0000000000000000     
   2.8332163020213470E-002   5.5782719189681043E-002   0.0000000000000000     
   0.0000000000000000        0.0000000000000000        0.0000000000000000     
   3.1387015630998461E-003   6.7853326320702779E-003   0.0000000000000000     
   6.3797152192522537E-003   1.8078888972305817E-002   0.0000000000000000     
   9.7230409684572229E-003   3.3880669020706612E-002   0.0000000000000000     
   1.3168678810714755E-002   5.4190672777272679E-002   0.0000000000000000     
   0.0000000000000000        0.0000000000000000        0.0000000000000000     
   1.6423928189679415E-014   6.4806128674472253E-003   0.0000000000000000     
   4.1120318955423230E-014   1.7584148929901795E-002   0.0000000000000000     
   7.4089605978100437E-014   3.3310608187363713E-002   0.0000000000000000     
   1.1532962085336607E-013   5.3659990639832976E-002   0.0000000000000000     
   6.4643547635908780E-002   6.2150904839403713E-002   0.0000000000000000     
   7.6193493167355048E-002   8.4444664058844751E-002   0.0000000000000000     
   8.6259353637929956E-002  0.10909956367429464        0.0000000000000000     
   9.4841129047633491E-002  0.13611560368575340        0.0000000000000000     
  0.10193881939646568       0.16549278409322105        0.0000000000000000     
   4.5490452628611483E-002   5.8436129877058055E-002   0.0000000000000000     
   5.4488519430596162E-002   8.1388715016352961E-002   0.0000000000000000     
   6.2197143997146029E-002  0.10666589424147657        0.0000000000000000     
   6.8616326328261076E-002  0.13426766755242889        0.0000000000000000     
   7.3746066423941312E-002  0.16419403494920992        0.0000000000000000     
   2.8332163020213470E-002   5.5782719189681043E-002   0.0000000000000000     
   3.4554612657173155E-002   7.9205894271729763E-002   0.0000000000000000     
   3.9799848510713456E-002  0.10492755893230681        0.0000000000000000     
   4.4067870580834334E-002  0.13294771317141221        0.0000000000000000     
   4.7358678867535843E-002  0.16326635698904590        0.0000000000000000     
   1.3168678810714755E-002   5.4190672777272679E-002   0.0000000000000000     
   1.6391772847086022E-002   7.7896201824975225E-002   0.0000000000000000     
   1.9067467178632194E-002  0.10388455774678547        0.0000000000000000     
   2.1195761805353271E-002  0.13215574054270340        0.0000000000000000     
   2.2776656727249260E-002  0.16270975021272902        0.0000000000000000     
   1.1532962085336607E-013   5.3659990639832976E-002   0.0000000000000000     
   3.3475435964880340E-013   7.7459637676089307E-002   0.0000000000000000     
   9.0226437432505691E-013  0.10353689068491247        0.0000000000000000     
   1.8178666037760305E-012  0.13189174966630240        0.0000000000000000     
   3.0815627827252001E-012  0.16252421462025921        0.0000000000000000     
   0.0000000000000000        0.0000000000000000        0.0000000000000000     
   1.6423928189679415E-014   6.4806128674472253E-003   0.0000000000000000     
   4.1120318955423230E-014   1.7584148929901795E-002   0.0000000000000000     
   7.4089605978100437E-014   3.3310608187363713E-002   0.0000000000000000     
   1.1532962085336607E-013   5.3659990639832976E-002   0.0000000000000000     
   0.0000000000000000        0.0000000000000000        0.0000000000000000     
  -3.1387015630730854E-003   6.7853326320393825E-003   0.0000000000000000     
  -6.3797152191856187E-003   1.8078888972275935E-002   0.0000000000000000     
  -9.7230409683375912E-003   3.3880669020709665E-002   0.0000000000000000     
  -1.3168678810529013E-002   5.4190672777340555E-002   0.0000000000000000     
   0.0000000000000000        0.0000000000000000        0.0000000000000000     
  -7.3620289248328610E-003   7.6994919258582513E-003   0.0000000000000000     
  -1.4538065736470896E-002   1.9563109099440014E-002   0.0000000000000000     
  -2.1528110434914111E-002   3.5590851520745287E-002   0.0000000000000000     
  -2.8332163020162497E-002   5.5782719189774066E-002   0.0000000000000000     
   0.0000000000000000        0.0000000000000000        0.0000000000000000     
  -1.2669982085262899E-002   9.2230907489038345E-003   0.0000000000000000     
  -2.4475051551814720E-002   2.2036809311394037E-002   0.0000000000000000     
  -3.5415208399655458E-002   3.8441155687470592E-002   0.0000000000000000     
  -4.5490452628785108E-002   5.8436129877133522E-002   0.0000000000000000     
   0.0000000000000000        0.0000000000000000        0.0000000000000000     
  -1.9062561044363203E-002   1.1356129101176131E-002   0.0000000000000000     
  -3.6190672665217083E-002   2.5499989608137992E-002   0.0000000000000000     
  -5.1384334862561637E-002   4.2431581520885581E-002   0.0000000000000000     
  -6.4643547636396861E-002   6.2150904839418902E-002   0.0000000000000000     
   1.1532962085336607E-013   5.3659990639832976E-002   0.0000000000000000     
   3.3475435964880340E-013   7.7459637676089307E-002   0.0000000000000000     
   9.0226437432505691E-013  0.10353689068491247        0.0000000000000000     
   1.8178666037760305E-012  0.13189174966630240        0.0000000000000000     
   3.0815627827252001E-012  0.16252421462025921        0.0000000000000000     
  -1.3168678810529013E-002   5.4190672777340555E-002   0.0000000000000000     
  -1.6391772846501451E-002   7.7896201825046238E-002   0.0000000000000000     
  -1.9067467176996474E-002  0.10388455774670431        0.0000000000000000     
  -2.1195761802014088E-002  0.13215574054231480        0.0000000000000000     
  -2.2776656721554274E-002  0.16270975021187764        0.0000000000000000     
  -2.8332163020162497E-002   5.5782719189774066E-002   0.0000000000000000     
  -3.4554612656843398E-002   7.9205894271820176E-002   0.0000000000000000     
  -3.9799848509584165E-002  0.10492755893217746        0.0000000000000000     
  -4.4067870578384800E-002  0.13294771317084592        0.0000000000000000     
  -4.7358678863245303E-002  0.16326635698782543        0.0000000000000000     
  -4.5490452628785108E-002   5.8436129877133522E-002   0.0000000000000000     
  -5.4488519430691093E-002   8.1388715016411178E-002   0.0000000000000000     
  -6.2197143996860826E-002  0.10666589424133191        0.0000000000000000     
  -6.8616326327294308E-002  0.13426766755189573        0.0000000000000000     
  -7.3746066421991524E-002  0.16419403494810267        0.0000000000000000     
  -6.4643547636396861E-002   6.2150904839418902E-002   0.0000000000000000     
  -7.6193493168044538E-002   8.4444664058819174E-002   0.0000000000000000     
  -8.6259353638826433E-002  0.10909956367416766        0.0000000000000000     
  -9.4841129048742562E-002  0.13611560368546435        0.0000000000000000     
 -0.10193881939779291       0.16549278409270921        0.0000000000000000     
 </DataArray>
 <DataArray  type="Float64" Name="stress" NumberOfComponents="3" format="ascii">
   10565161717.488764        3169548515.2466292        1839187088.9105067     
   9159037660.2060738        1577587401.9805329        1073557466.8931738     
   7898115590.6380415        469632914.42996073        541437682.62353218     
   6782395508.7846651       -154314947.40508604        242827736.10158187     
   5811877414.6459484       -294256183.52460980        177727627.32732224     
   6911176296.0546703        2073352888.8164010        1371281878.5504909     
   6165642303.0796824        972099768.86039329        954117894.64206672     
   5529009800.8915396        233851618.19387317        698349970.15108585     
   5001278789.4902439       -141391563.18315816        603978105.07754886     
   4582449268.8757944       -153629775.27070260        671002299.42145491     
   3932320869.3295918        1179696260.7988775        1037063871.1487926     
   3641337574.0044532        507339324.15560329        926014945.60016429     
   3422955272.5383506        76985700.375779748        904248301.13873160     
   3277173964.9312830       -111364610.54059172        971763937.76449394     
   3203993651.1832504       -57711608.593513012        1128561855.4774525     
   1628595437.3135288        488578631.19405860        836533066.70541167     
   1586123472.9803896        183306067.86616254        989248619.76746655     
   1579952005.5784748       -964839.02431935072        1159132675.5864685     
   1610081035.1077840       -64234089.477386713        1346185234.1624179     
   1676510561.5683174       -6501683.4930403233        1550406295.4953153     
   6.4815369189002445E-003   1.9444610756700733E-003   769689465.22034812     
   7.4902023685993972E-003  -7.9289139356739299E-003   1143818917.1439729     
   1.1912037290628220E-002  -6.4250573725856937E-003   1463003093.4942973     
   1.9747516351080692E-002   6.4572660405528412E-003   1727241994.2713213     
   3.0995753125323482E-002   3.0715448499659105E-002   1936535619.4750445     
   5811877414.6459484       -294256183.52460980        177727627.32732224     
   5148210484.5271616       -131943186.52639198        163167175.20344561     
   4477934237.4047670        8338753.7931308746        173686725.32210901     
   3801048673.2787666        126589637.43396616        209286277.68331510     
   3117553792.1491570        222809464.39610898        269965832.28706127     
   4582449268.8757944       -153629775.27070260        671002299.42145491     
   3991664289.8637514       -59805461.948472261        608389278.85260952     
   3395922323.0950060        17495558.851418018        592564376.20241141     
   2795223368.5695610        78273287.128979802        623527591.47085285     
   2189567426.2874122        122527722.88419247        701278924.65793705     
   3203993651.1832504       -57711608.593513012        1128561855.4774525     
   2748113810.9239554       -13769022.653466225        1019823983.9183666     
   2288929312.1548643        19158034.920597315        979582345.95402455     
   1826440154.8759778        41069564.128672123        1007836941.5844282     
   1360646339.0872962        51965564.970767975        1104587770.8095722     
   1676510561.5683174       -6501683.4930403233        1550406295.4953153     
   1417559047.7077727        6166131.3586244583        1397471290.4007111     
   1156955204.5843382        13326182.000658095        1334740634.5769515     
   894699032.19801319        14978468.433057427        1362214328.0240386     
   630790530.54880023        11122990.655829519        1479892370.7419686     
   3.0995753125323482E-002   3.0715448499659105E-002   1936535619.4750445     
  0.21520396499628761        8.7797706376187043E-002   1741331198.2996452     
  0.38342899997444824        9.1603401832760514E-002   1658039242.0711925     
  0.53566879569281578        4.2125313368052197E-002   1686659750.7896864     
  0.67192698291809405       -6.0625497296344283E-002   1827192724.4551253     
   6.4815369189002445E-003   1.9444610756700733E-003   769689465.22034812     
   7.4902023685993972E-003  -7.9289139356739299E-003   1143818917.1439729     
   1.1912037290628220E-002  -6.4250573725856937E-003   1463003093.4942973     
   1.9747516351080692E-002   6.4572660405528412E-003   1727241994.2713213     
   3.0995753125323482E-002   3.0715448499659105E-002   1936535619.4750445     
  -1628595437.3028731       -488578631.19086194        836533066.69676232     
  -1586123472.9658840       -183306067.87111884        989248619.76246011     
  -1579952005.5568461        964839.02211850882        1159132675.5838394     
  -1610081035.0757608        64234089.488849878        1346185234.1609006     
  -1676510561.5226262        6501683.5290758610        1550406295.4936435     
  -3932320869.3258581       -1179696260.7977574        1037063871.1378145     
  -3641337573.9986529       -507339324.15212715        926014945.59232628     
  -3422955272.5307655       -76985700.370886087        904248301.13150179     
  -3277173964.9221940        111364610.54596591        971763937.75534141     
  -3203993651.1729393        57711608.598429084        1128561855.4638445     
  -6911176296.0624733       -2073352888.8187420        1371281878.5435052     
  -6165642303.0908194       -972099768.85095453        954117894.63357162     
  -5529009800.9098444       -233851618.18543839        698349970.13728392     
  -5001278789.5195503        141391563.17780638        603978105.05464280     
  -4582449268.9199419        153629775.23877597        671002299.38564754     
  -10565161717.512722       -3169548515.2538166        1839187088.9138339     
  -9159037660.2423801       -1577587401.9676006        1073557466.8861957     
  -7898115590.6940851       -469632914.42154002        541437682.60118580     
  -6782395508.8678379        154314947.38436460        242827736.05880475     
  -5811877414.7636375        294256183.45011401        177727627.25905186     
   3.0995753125323482E-002   3.0715448499659105E-002   1936535619.4750445     
  0.21520396499628761        8.7797706376187043E-002   1741331198.2996452     
  0.38342899997444824        9.1603401832760514E-002   1658039242.0711925     
  0.53566879569281578        4.2125313368052197E-002   1686659750.7896864     
  0.67192698291809405       -6.0625497296344283E-002   1827192724.4551253     
  -1676510561.5226262        6501683.5290758610        1550406295.4936435     
  -1417559047.3182061       -6166131.2200515270        1397471290.3555934     
  -1156955203.8680799       -13326181.816826701        1334740634.4721935     
  -894699031.17224681       -14978468.261245608        1362214327.8434443     
  -630790529.23070836       -11122990.553314298        1479892370.4693449     
  -3203993651.1729393        57711608.598429084        1128561855.4638445     
  -2748113810.6405802        13769022.735409141        1019823983.8351147     
  -2288929311.6008248       -19158034.769624233        979582345.76873851     
  -1826440154.0536733       -41069563.916671515        1007836941.2647172     
  -1360646337.9991291       -51965564.705738723        1104587770.3230512     
  -4582449268.9199419        153629775.23877597        671002299.38564754     
  -3991664289.7519159        59805461.954184532        608389278.73820746     
  -3395922322.8148065       -17495558.766794682        592564375.96082711     
  -2795223368.1086130       -78273286.924155474        623527591.05350363     
  -2189567425.6333299       -122527722.51789474        701278924.01624274     
  -5811877414.7636375        294256183.45011401        177727627.25905186     
  -5148210484.6522198        131943186.43626308        163167175.06487384     
  -4477934237.5100260       -8338753.8083350658        173686725.04845798     
  -3801048673.3370571       -126589637.28368402        209286277.20980713     
  -3117553792.1333170       -222809463.98979151        269965831.54891968     
 </DataArray>
 <DataArray  type="Float64" Name="VM" NumberOfComponents="1" format="ascii">
   9916134061.0255222     
   8682462055.7259426     
   7731172886.8622417     
   6873734274.3994904     
   5972390474.5174637     
   6585976361.1396122     
   5974740695.8857355     
   5549301407.4898100     
   5180182273.2935152     
   4803870972.3017588     
   3929680760.5484619     
   3773837544.5026913     
   3729882834.2437191     
   3734997714.5108519     
   3778196548.4921966     
   2048096180.0757926     
   2279140457.3235898     
   2555100653.4056654     
   2852464390.8680911     
   3167476774.8662243     
   1333141259.8121614     
   1981152479.1517770     
   2533995689.5625634     
   2991670891.0445204     
   3354178083.5976467     
   5972390474.5174637     
   5223085493.7378578     
   4483873929.3035927     
   3756890312.1598225     
   3048411039.4631157     
   4803870972.3017588     
   4157655152.4770875     
   3539290688.8313670     
   2960906793.2533755     
   2452817204.1140461     
   3778196548.4921966     
   3272656538.5964532     
   2841559036.1921201     
   2511924590.7948761     
   2333172637.1069274     
   3167476774.8662243     
   2803488691.2737875     
   2582228266.7671447     
   2520752490.4170470     
   2638417788.0151849     
   3354178083.5976467     
   3016074108.2597814     
   2871808208.2102981     
   2921380383.4491978     
   3164790633.9764767     
   1333141259.8121614     
   1981152479.1517770     
   2533995689.5625634     
   2991670891.0445204     
   3354178083.5976467     
   2048096180.0585003     
   2279140457.3062334     
   2555100653.3880277     
   2852464390.8510003     
   3167476774.8491488     
   3929680760.5368185     
   3773837544.4929242     
   3729882834.2337222     
   3734997714.4981160     
   3778196548.4733386     
   6585976361.1417179     
   5974740695.8955870     
   5549301407.5062990     
   5180182273.3114681     
   4803870972.3133249     
   9916134061.0475388     
   8682462055.7628250     
   7731172886.9168873     
   6873734274.4672699     
   5972390474.5888777     
   3354178083.5976467     
   3016074108.2597814     
   2871808208.2102981     
   2921380383.4491978     
   3164790633.9764767     
   3167476774.8491488     
   2803488691.0444937     
   2582228266.3258638     
   2520752489.7927070     
   2638417787.2559118     
   3778196548.4733386     
   3272656538.3148222     
   2841559035.6158628     
   2511924589.8924775     
   2333172635.8648334     
   4803870972.3133249     
   4157655152.3215156     
   3539290688.4820480     
   2960906792.6519160     
   2452817203.1412992     
   5972390474.5888777     
   5223085493.8030214     
   4483873929.3692503     
   3756890312.2096438     
   3048411039.4294562     
 </DataArray>
 <DataArray  type="Float64" Name="strain" NumberOfComponents="3" format="ascii">
  0.16023828604857959        0.0000000000000000        7.9698107186121955E-002
  0.14476269066019859       -1.9502064934688160E-002   4.6520823565370864E-002
  0.12928709527181756       -3.1663362712690865E-002   2.3462299580353060E-002
  0.11381149988343653       -3.6483893334008102E-002   1.0522535231068548E-002
   9.8335904495055526E-002  -3.3963656798639906E-002   7.7015305175172979E-003
  0.10481950715682917        0.0000000000000000        5.9422214737187937E-002
   9.7900206207026066E-002  -1.4626548701058522E-002   4.1345108767822894E-002
   9.0980905257222966E-002  -2.3747522034559813E-002   3.0261832039880386E-002
   8.4061604307419852E-002  -2.7362920000503853E-002   2.6172384553360451E-002
   7.7142303357616751E-002  -2.5472742598890680E-002   2.9076766308263044E-002
   5.9640199851498807E-002   0.0000000000000000        4.4939434416447682E-002
   5.8152262945962874E-002  -9.7510324674288801E-003   4.0127314309340453E-002
   5.6664326040426941E-002  -1.5831681356428755E-002   3.9184093049345038E-002
   5.5176389134891007E-002  -1.8241946666999610E-002   4.2109770636461402E-002
   5.3688452229355074E-002  -1.6981828399141471E-002   4.8904347070689615E-002
   2.4700364132588519E-002   0.0000000000000000        3.6249766223901171E-002
   2.5518860877009015E-002  -4.8755162337992394E-003   4.2867440189923549E-002
   2.6337357621429511E-002  -7.9158406782976962E-003   5.0229082608746964E-002
   2.7155854365850000E-002  -9.1209733334953642E-003   5.8334693480371444E-002
   2.7974351110270496E-002  -8.4909141993922601E-003   6.7184272804796996E-002
   9.8303309936653704E-014   0.0000000000000000        3.3353210159548417E-002
   1.6448127582169292E-013  -1.6959957743756249E-013   4.9565486409572160E-002
   2.3065924170673213E-013  -1.6664447599623600E-013   6.3396800718086219E-002
   2.9683894231524732E-013   8.8835189204772291E-015   7.4847153085090587E-002
   3.6301864292376251E-013   3.5694537603436771E-013   8.3916543510585265E-002
   9.8335904495055526E-002  -3.3963656798639906E-002   7.7015305175172979E-003
   8.6463224008084649E-002  -2.7940105531409007E-002   7.0705775921493103E-003
   7.4590543521113800E-002  -2.2250691957138323E-002   7.5264247639580568E-003
   6.2717863034142951E-002  -1.6895416075827733E-002   9.0690720329436540E-003
   5.0845182547172074E-002  -1.1874277887477303E-002   1.1698519399105989E-002
   7.7142303357616751E-002  -2.5472742598890680E-002   2.9076766308263044E-002
   6.6826765474138211E-002  -2.0955079148459958E-002   2.6363535416946412E-002
   5.6511227590659678E-002  -1.6688018967951398E-002   2.5677789635437827E-002
   4.6195689707181117E-002  -1.2671562057364808E-002   2.7019528963736956E-002
   3.5880151823702577E-002  -8.9057084167005196E-003   3.0388753401843938E-002
   5.3688452229355074E-002  -1.6981828399141471E-002   4.8904347070689615E-002
   4.5870741961999917E-002  -1.3970052765510881E-002   4.4192372636462550E-002
   3.8053031694644752E-002  -1.1125345978764366E-002   4.2448568324674398E-002
   3.0235321427289602E-002  -8.4477080389020204E-003   4.3672934135325220E-002
   2.2417611159934431E-002  -5.9371389459236812E-003   4.7865470068414795E-002
   2.7974351110270496E-002  -8.4909141993922601E-003   6.7184272804796996E-002
   2.3595153471669756E-002  -6.9850263825617896E-003   6.0557089250697485E-002
   1.9215955833069009E-002  -5.5626729895773882E-003   5.7838760831667904E-002
   1.4836758194468266E-002  -4.2238540204391087E-003   5.9029287547708337E-002
   1.0457560555867523E-002  -2.9685694751468428E-003   6.4128669398818644E-002
   3.6301864292376251E-013   3.5694537603436771E-013   8.3916543510585265E-002
   3.1477442180571913E-012   3.8727528128834621E-013   7.5457685259651297E-002
   5.9324663237436681E-012  -3.9042163599289914E-013   7.1848367156418347E-002
   8.7171866947066690E-012  -1.9762554223298756E-012   7.3088589200886414E-002
   1.1501910535116622E-011  -4.3700598695295412E-012   7.9178351393055429E-002
   9.8303309936653704E-014   0.0000000000000000        3.3353210159548417E-002
   1.6448127582169292E-013  -1.6959957743756249E-013   4.9565486409572160E-002
   2.3065924170673213E-013  -1.6664447599623600E-013   6.3396800718086219E-002
   2.9683894231524732E-013   8.8835189204772291E-015   7.4847153085090587E-002
   3.6301864292376251E-013   3.5694537603436771E-013   8.3916543510585265E-002
  -2.4700364132426909E-002   0.0000000000000000        3.6249766223526367E-002
  -2.5518860876742475E-002   4.8755162336441065E-003   4.2867440189706604E-002
  -2.6337357621058027E-002   7.9158406781528728E-003   5.0229082608633041E-002
  -2.7155854365373600E-002   9.1209733335263030E-003   5.8334693480305698E-002
  -2.7974351109689148E-002   8.4909141997643947E-003   6.7184272804724554E-002
  -5.9640199851442185E-002   0.0000000000000000        4.4939434415971966E-002
  -5.8152262945883583E-002   9.7510324674578118E-003   4.0127314309000808E-002
  -5.6664326040324994E-002   1.5831681356472393E-002   3.9184093049031747E-002
  -5.5176389134766399E-002   1.8241946667043735E-002   4.2109770636064796E-002
  -5.3688452229207803E-002   1.6981828399171849E-002   4.8904347070099934E-002
 -0.10481950715694752        0.0000000000000000        5.9422214736885227E-002
  -9.7900206207258880E-002   1.4626548701271520E-002   4.1345108767454772E-002
  -9.0980905257570216E-002   2.3747522034791916E-002   3.0261832039282302E-002
  -8.4061604307881552E-002   2.7362920000561196E-002   2.6172384552367856E-002
  -7.7142303358192915E-002   2.5472742598579311E-002   2.9076766306711393E-002
 -0.16023828604894294        0.0000000000000000        7.9698107186266132E-002
 -0.14476269066086833        1.9502064935085221E-002   4.6520823565068481E-002
 -0.12928709527279372        3.1663362713111425E-002   2.3462299579384716E-002
 -0.11381149988471913        3.6483893334078601E-002   1.0522535229214872E-002
  -9.8335904496644519E-002   3.3963656797986755E-002   7.7015305145589144E-003
   3.6301864292376251E-013   3.5694537603436771E-013   8.3916543510585265E-002
   3.1477442180571913E-012   3.8727528128834621E-013   7.5457685259651297E-002
   5.9324663237436681E-012  -3.9042163599289914E-013   7.1848367156418347E-002
   8.7171866947066690E-012  -1.9762554223298756E-012   7.3088589200886414E-002
   1.1501910535116622E-011  -4.3700598695295412E-012   7.9178351393055429E-002
  -2.7974351109689148E-002   8.4909141997643947E-003   6.7184272804724554E-002
  -2.3595153465869843E-002   6.9850263829235046E-003   6.0557089248742382E-002
  -1.9215955822050532E-002   5.5626729890599549E-003   5.7838760827128390E-002
  -1.4836758178231220E-002   4.2238540181738071E-003   5.9029287539882590E-002
  -1.0457560534411901E-002   2.9685694702649701E-003   6.4128669387004941E-002
  -5.3688452229207803E-002   1.6981828399171849E-002   4.8904347070099934E-002
  -4.5870741957686714E-002   1.3970052765459720E-002   4.4192372632854970E-002
  -3.8053031686165625E-002   1.1125345978510387E-002   4.2448568316645334E-002
  -3.0235321414644530E-002   8.4477080383238406E-003   4.3672934121471080E-002
  -2.2417611143123458E-002   5.9371389449000000E-003   4.7865470047332222E-002
  -7.7142303358192915E-002   2.5472742598579311E-002   2.9076766306711393E-002
  -6.6826765472302860E-002   2.0955079147995992E-002   2.6363535411988992E-002
  -5.6511227586412804E-002   1.6688018967960790E-002   2.5677789624969173E-002
  -4.6195689700522770E-002   1.2671562058473806E-002   2.7019528945651825E-002
  -3.5880151814632694E-002   8.9057084195350716E-003   3.0388753374037188E-002
  -9.8335904496644519E-002   3.3963656797986755E-002   7.7015305145589144E-003
  -8.6463224009718315E-002   2.7940105530532153E-002   7.0705775861445337E-003
  -7.4590543522792097E-002   2.2250691957411212E-002   7.5264247520998463E-003
  -6.2717863035865865E-002   1.6895416078623885E-002   9.0690720124249752E-003
  -5.0845182548939660E-002   1.1874277894170060E-002   1.1698519367119853E-002
 </DataArray>
 </PointData>
 </Piece>
 <Piece  NumberOfPoints="           100 "  NumberOfCells="           64 ">
 <Points>
 <DataArray  type="Float64" NumberOfComponents="3"  format="ascii" >
  0.50000000000000000        0.0000000000000000        0.0000000000000000     
  0.62500000000000000        0.0000000000000000        0.0000000000000000     
  0.75000000000000000        0.0000000000000000        0.0000000000000000     
  0.87500000000000000        0.0000000000000000        0.0000000000000000     
   1.0000000000000000        0.0000000000000000        0.0000000000000000     
  0.50000000000000000       0.12500000000000000        0.0000000000000000     
  0.62500000000000000       0.12500000000000000        0.0000000000000000     
  0.75000000000000000       0.12500000000000000        0.0000000000000000     
  0.87500000000000000       0.12500000000000000        0.0000000000000000     
   1.0000000000000000       0.12500000000000000        0.0000000000000000     
  0.50000000000000000       0.25000000000000000        0.0000000000000000     
  0.62500000000000000       0.25000000000000000        0.0000000000000000     
  0.75000000000000000       0.25000000000000000        0.0000000000000000     
  0.87500000000000000       0.25000000000000000        0.0000000000000000     
   1.0000000000000000       0.25000000000000000        0.0000000000000000     
  0.50000000000000000       0.37500000000000000        0.0000000000000000     
  0.62500000000000000       0.37500000000000000        0.0000000000000000     
  0.75000000000000000       0.37500000000000000        0.0000000000000000     
  0.87500000000000000       0.37500000000000000        0.0000000000000000     
   1.0000000000000000       0.37500000000000000        0.0000000000000000     
  0.50000000000000000       0.50000000000000000        0.0000000000000000     
  0.62500000000000000       0.50000000000000000        0.0000000000000000     
  0.75000000000000000       0.50000000000000000        0.0000000000000000     
  0.87500000000000000       0.50000000000000000        0.0000000000000000     
   1.0000000000000000       0.50000000000000000        0.0000000000000000     
   1.0000000000000000        0.0000000000000000        0.0000000000000000     
   1.1250000000000000        0.0000000000000000        0.0000000000000000     
   1.2500000000000000        0.0000000000000000        0.0000000000000000     
   1.3750000000000000        0.0000000000000000        0.0000000000000000     
   1.5000000000000000        0.0000000000000000        0.0000000000000000     
   1.0000000000000000       0.12500000000000000        0.0000000000000000     
   1.1250000000000000       0.12500000000000000        0.0000000000000000     
   1.2500000000000000       0.12500000000000000        0.0000000000000000     
   1.3750000000000000       0.12500000000000000        0.0000000000000000     
   1.5000000000000000       0.12500000000000000        0.0000000000000000     
   1.0000000000000000       0.25000000000000000        0.0000000000000000     
   1.1250000000000000       0.25000000000000000        0.0000000000000000     
   1.2500000000000000       0.25000000000000000        0.0000000000000000     
   1.3750000000000000       0.25000000000000000        0.0000000000000000     
   1.5000000000000000       0.25000000000000000        0.0000000000000000     
   1.0000000000000000       0.37500000000000000        0.0000000000000000     
   1.1250000000000000       0.37500000000000000        0.0000000000000000     
   1.2500000000000000       0.37500000000000000        0.0000000000000000     
   1.3750000000000000       0.37500000000000000        0.0000000000000000     
   1.5000000000000000       0.37500000000000000        0.0000000000000000     
   1.0000000000000000       0.50000000000000000        0.0000000000000000     
   1.1250000000000000       0.50000000000000000        0.0000000000000000     
   1.2500000000000000       0.50000000000000000        0.0000000000000000     
   1.3750000000000000       0.50000000000000000        0.0000000000000000     
   1.5000000000000000       0.50000000000000000        0.0000000000000000     
  0.50000000000000000       0.50000000000000000        0.0000000000000000     
  0.62500000000000000       0.50000000000000000        0.0000000000000000     
  0.75000000000000000       0.50000000000000000        0.0000000000000000     
  0.87500000000000000       0.50000000000000000        0.0000000000000000     
   1.0000000000000000       0.50000000000000000        0.0000000000000000     
  0.50000000000000000       0.62500000000000000        0.0000000000000000     
  0.62500000000000000       0.62500000000000000        0.0000000000000000     
  0.75000000000000000       0.62500000000000000        0.0000000000000000     
  0.87500000000000000       0.62500000000000000        0.0000000000000000     
   1.0000000000000000       0.62500000000000000        0.0000000000000000     
  0.50000000000000000       0.75000000000000000        0.0000000000000000     
  0.62500000000000000       0.75000000000000000        0.0000000000000000     
  0.75000000000000000       0.75000000000000000        0.0000000000000000     
  0.87500000000000000       0.75000000000000000        0.0000000000000000     
   1.0000000000000000       0.75000000000000000        0.0000000000000000     
  0.50000000000000000       0.87500000000000000        0.0000000000000000     
  0.62500000000000000       0.87500000000000000        0.0000000000000000     
  0.75000000000000000       0.87500000000000000        0.0000000000000000     
  0.87500000000000000       0.87500000000000000        0.0000000000000000     
   1.0000000000000000       0.87500000000000000        0.0000000000000000     
  0.50000000000000000        1.0000000000000000        0.0000000000000000     
  0.62500000000000000        1.0000000000000000        0.0000000000000000     
  0.75000000000000000        1.0000000000000000        0.0000000000000000     
  0.87500000000000000        1.0000000000000000        0.0000000000000000     
   1.0000000000000000        1.0000000000000000        0.0000000000000000     
   1.0000000000000000       0.50000000000000000        0.0000000000000000     
   1.1250000000000000       0.50000000000000000        0.0000000000000000     
   1.2500000000000000       0.50000000000000000        0.0000000000000000     
   1.3750000000000000       0.50000000000000000        0.0000000000000000     
   1.5000000000000000       0.50000000000000000        0.0000000000000000     
   1.0000000000000000       0.62500000000000000        0.0000000000000000     
   1.1250000000000000       0.62500000000000000        0.0000000000000000     
   1.2500000000000000       0.62500000000000000        0.0000000000000000     
   1.3750000000000000       0.62500000000000000        0.0000000000000000     
   1.5000000000000000       0.62500000000000000        0.0000000000000000     
   1.0000000000000000       0.75000000000000000        0.0000000000000000     
   1.1250000000000000       0.75000000000000000        0.0000000000000000     
   1.2500000000000000       0.75000000000000000        0.0000000000000000     
   1.3750000000000000       0.75000000000000000        0.0000000000000000     
   1.5000000000000000       0.75000000000000000        0.0000000000000000     
   1.0000000000000000       0.87500000000000000        0.0000000000000000     
   1.1250000000000000       0.87500000000000000        0.0000000000000000     
   1.2500000000000000       0.87500000000000000        0.0000000000000000     
   1.3750000000000000       0.87500000000000000        0.0000000000000000     
   1.5000000000000000       0.87500000000000000        0.0000000000000000     
   1.0000000000000000        1.0000000000000000        0.0000000000000000     
   1.1250000000000000        1.0000000000000000        0.0000000000000000     
   1.2500000000000000        1.0000000000000000        0.0000000000000000     
   1.3750000000000000        1.0000000000000000        0.0000000000000000     
   1.5000000000000000        1.0000000000000000        0.0000000000000000     
 </DataArray>
 </Points>
 <Cells>
 <DataArray  type="Int32"  Name="connectivity"  format="ascii">
           0           1           6           5
           1           2           7           6
           2           3           8           7
           3           4           9           8
           5           6          11          10
           6           7          12          11
           7           8          13          12
           8           9          14          13
          10          11          16          15
          11          12          17          16
          12          13          18          17
          13          14          19          18
          15          16          21          20
          16          17          22          21
          17          18          23          22
          18          19          24          23
          25          26          31          30
          26          27          32          31
          27          28          33          32
          28          29          34          33
          30          31          36          35
          31          32          37          36
          32          33          38          37
          33          34          39          38
          35          36          41          40
          36          37          42          41
          37          38          43          42
          38          39          44          43
          40          41          46          45
          41          42          47          46
          42          43          48          47
          43          44          49          48
          50          51          56          55
          51          52          57          56
          52          53          58          57
          53          54          59          58
          55          56          61          60
          56          57          62          61
          57          58          63          62
          58          59          64          63
          60          61          66          65
          61          62          67          66
          62          63          68          67
          63          64          69          68
          65          66          71          70
          66          67          72          71
          67          68          73          72
          68          69          74          73
          75          76          81          80
          76          77          82          81
          77          78          83          82
          78          79          84          83
          80          81          86          85
          81          82          87          86
          82          83          88          87
          83          84          89          88
          85          86          91          90
          86          87          92          91
          87          88          93          92
          88          89          94          93
          90          91          96          95
          91          92          97          96
          92          93          98          97
          93          94          99          98
 </DataArray>
 <DataArray  type="Int32"  Name="offsets"  format="ascii"> 
           4
           8
          12
          16
          20
          24
          28
          32
          36
          40
          44
          48
          52
          56
          60
          64
          68
          72
          76
          80
          84
          88
          92
          96
         100
         104
         108
         112
         116
         120
         124
         128
         132
         136
         140
         144
         148
         152
         156
         160
         164
         168
         172
         176
         180
         184
         188
         192
         196
         200
         204
         208
         212
         216
         220
         224
         228
         232
         236
         240
         244
         248
         252
         256
 </DataArray>
 <DataArray  type="UInt8"  Name="types"  format="ascii">
 9
 9
 9
 9
 9
 9
 9
 9
 9
 9
 9
 9
 9
 9
 9
 9
 9
 9
 9
 9
 9
 9
 9
 9
 9
 9
 9
 9
 9
 9
 9
 9
 9
 9
 9
 9
 9
 9
 9
 9
 9
 9
 9
 9
 9
 9
 9
 9
 9
 9
 9
 9
 9
 9
 9
 9
 9
 9
 9
 9
 9
 9
 9
 9
 </DataArray>
 </Cells> 
 <PointData>
 <DataArray  type="Float64" Name="disp" NumberOfComponents="3" format="ascii">
   6.4643547637920934E-002   6.2150904840596891E-002   0.0000000000000000     
   7.6193493169053272E-002   8.4444664059242142E-002   0.0000000000000000     
   8.6259353639399627E-002  0.10909956367414497        0.0000000000000000     
   9.4841129048960041E-002  0.13611560368530540        0.0000000000000000     
  0.10193881939773447       0.16549278409272339        0.0000000000000000     
   4.5490452630593418E-002   5.8436129878710344E-002   0.0000000000000000     
   5.4488519431892771E-002   8.1388715017039606E-002   0.0000000000000000     
   6.2197143997774436E-002  0.10666589424143674        0.0000000000000000     
   6.8616326328238414E-002  0.13426766755190170        0.0000000000000000     
   7.3746066423284670E-002  0.16419403494843454        0.0000000000000000     
   2.8332163022173843E-002   5.5782719191287508E-002   0.0000000000000000     
   3.4554612658182896E-002   7.9205894272446647E-002   0.0000000000000000     
   3.9799848510740927E-002  0.10492755893232859        0.0000000000000000     
   4.4067870579847929E-002  0.13294771317093335        0.0000000000000000     
   4.7358678865503906E-002  0.16326635698826089        0.0000000000000000     
   1.3168678812662205E-002   5.4190672778328397E-002   0.0000000000000000     
   1.6391772847923633E-002   7.7896201825463252E-002   0.0000000000000000     
   1.9067467178299106E-002  0.10388455774682052        0.0000000000000000     
   2.1195761803788613E-002  0.13215574054240026        0.0000000000000000     
   2.2776656724392160E-002  0.16270975021220241        0.0000000000000000     
   2.0585026738739742E-012   5.3659990639833011E-002   0.0000000000000000     
   1.1149805037580229E-012   7.7459637676089405E-002   0.0000000000000000     
   4.4896551754103342E-013  0.10353689068491255        0.0000000000000000     
   6.0450776329101785E-014  0.13189174966630246        0.0000000000000000     
  -5.0560250430820020E-014  0.16252421462025909        0.0000000000000000     
  0.10193881939773447       0.16549278409272339        0.0000000000000000     
  0.10758227955126734       0.19675737584349803        0.0000000000000000     
  0.11180136437510313       0.22943564988472850        0.0000000000000000     
  0.11459607386924180       0.26352760621641474        0.0000000000000000     
  0.11596640803368335       0.29903324483855676        0.0000000000000000     
   7.3746066423284670E-002  0.16419403494843454        0.0000000000000000     
   7.7721011082355268E-002  0.19581450796897282        0.0000000000000000     
   8.0675807104892236E-002  0.22849859815145410        0.0000000000000000     
   8.2610454490895546E-002  0.26224630549587841        0.0000000000000000     
   8.3524953240365241E-002  0.29705763000224572        0.0000000000000000     
   4.7358678865503906E-002  0.16326635698826089        0.0000000000000000     
   4.9836875000836639E-002  0.19514103091574370        0.0000000000000000     
   5.1667060618973921E-002  0.22782927548481405        0.0000000000000000     
   5.2849235719915753E-002  0.26133109069547206        0.0000000000000000     
   5.3383400303662128E-002  0.29564647654771770        0.0000000000000000     
   2.2776656724392160E-002  0.16270975021220241        0.0000000000000000     
   2.3929871306711457E-002  0.19473694468381059        0.0000000000000000     
   2.4775124917348196E-002  0.22742768188480833        0.0000000000000000     
   2.5312417556302383E-002  0.26078196181519575        0.0000000000000000     
   2.5541749223574026E-002  0.29479978447497268        0.0000000000000000     
  -5.0560250430820020E-014  0.16252421462025909        0.0000000000000000     
  -2.0281519519382840E-014  0.19460224927317360        0.0000000000000000     
   1.5055231367133715E-014  0.22729381735143706        0.0000000000000000     
   5.5460735830237251E-014  0.26059891885504938        0.0000000000000000     
   1.0092968127928259E-013  0.29451755378401062        0.0000000000000000     
   2.0585026738739742E-012   5.3659990639833011E-002   0.0000000000000000     
   1.1149805037580229E-012   7.7459637676089405E-002   0.0000000000000000     
   4.4896551754103342E-013  0.10353689068491255        0.0000000000000000     
   6.0450776329101785E-014  0.13189174966630246        0.0000000000000000     
  -5.0560250430820020E-014  0.16252421462025909        0.0000000000000000     
  -1.3168678808581503E-002   5.4190672776284934E-002   0.0000000000000000     
  -1.6391772845663854E-002   7.7896201824558378E-002   0.0000000000000000     
  -1.9067467177329604E-002  0.10388455774666940        0.0000000000000000     
  -2.1195761803578753E-002  0.13215574054261797        0.0000000000000000     
  -2.2776656724411305E-002  0.16270975021240411        0.0000000000000000     
  -2.8332163018202062E-002   5.5782719188167712E-002   0.0000000000000000     
  -3.4554612655833664E-002   7.9205894271103416E-002   0.0000000000000000     
  -3.9799848509556708E-002  0.10492755893215576        0.0000000000000000     
  -4.4067870579371185E-002  0.13294771317132476        0.0000000000000000     
  -4.7358678865277129E-002  0.16326635698861044        0.0000000000000000     
  -4.5490452626803186E-002   5.8436129875481385E-002   0.0000000000000000     
  -5.4488519429394450E-002   8.1388715015724464E-002   0.0000000000000000     
  -6.2197143996232343E-002  0.10666589424137166        0.0000000000000000     
  -6.8616326327316887E-002  0.13426766755242292        0.0000000000000000     
  -7.3746066422648027E-002  0.16419403494887821        0.0000000000000000     
  -6.4643547634384846E-002   6.2150904838225926E-002   0.0000000000000000     
  -7.6193493166346216E-002   8.4444664058421576E-002   0.0000000000000000     
  -8.6259353637356539E-002  0.10909956367431706        0.0000000000000000     
  -9.4841129047415790E-002  0.13611560368591233        0.0000000000000000     
 -0.10193881939652402       0.16549278409320733        0.0000000000000000     
  -5.0560250430820020E-014  0.16252421462025909        0.0000000000000000     
  -2.0281519519382840E-014  0.19460224927317360        0.0000000000000000     
   1.5055231367133715E-014  0.22729381735143706        0.0000000000000000     
   5.5460735830237251E-014  0.26059891885504938        0.0000000000000000     
   1.0092968127928259E-013  0.29451755378401062        0.0000000000000000     
  -2.2776656724411305E-002  0.16270975021240411        0.0000000000000000     
  -2.3929871306687965E-002  0.19473694468383523        0.0000000000000000     
  -2.4775124917269450E-002  0.22742768188471887        0.0000000000000000     
  -2.5312417556155761E-002  0.26078196181505509        0.0000000000000000     
  -2.5541749223346878E-002  0.29479978447484373        0.0000000000000000     
  -4.7358678865277129E-002  0.16326635698861044        0.0000000000000000     
  -4.9836875000620999E-002  0.19514103091579804        0.0000000000000000     
  -5.1667060618749289E-002  0.22782927548467291        0.0000000000000000     
  -5.2849235719661998E-002  0.26133109069523491        0.0000000000000000     
  -5.3383400303359120E-002  0.29564647654748422        0.0000000000000000     
  -7.3746066422648027E-002  0.16419403494887821        0.0000000000000000     
  -7.7721011081819391E-002  0.19581450796906208        0.0000000000000000     
  -8.0675807104424457E-002  0.22849859815129900        0.0000000000000000     
  -8.2610454490463267E-002  0.26224630549558903        0.0000000000000000     
  -8.3524953239935806E-002  0.29705763000193203        0.0000000000000000     
 -0.10193881939652402       0.16549278409320733        0.0000000000000000     
 -0.10758227955028310       0.19675737584362732        0.0000000000000000     
 -0.11180136437429494       0.22943564988459725        0.0000000000000000     
 -0.11459607386855955       0.26352760621611721        0.0000000000000000     
 -0.11596640803307692       0.29903324483818722        0.0000000000000000     
 </DataArray>
 <DataArray  type="Float64" Name="stress" NumberOfComponents="3" format="ascii">
   5811877414.5704432       -294256183.20570683        177727627.15107271     
   5148210484.4503679       -131943186.34839821        163167174.99475133     
   4477934237.3279457        8338753.8344068527        173686725.06656942     
   3801048673.2031760        126589637.34272957        209286277.36652213     
   3117553792.0760531        222809464.17653763        269965831.89461112     
   4582449268.5424871       -153629775.27150750        671002299.21633267     
   3991664289.5320530       -59805461.971303463        608389278.63286448     
   3395922322.7606268        17495558.792255402        592564375.95723617     
   2795223368.2282066        78273287.019169688        623527591.18945026     
   2189567425.9347935        122527722.70944047        701278924.32950330     
   3203993650.6429610       -57711608.898777127        1128561855.2920856     
   2748113810.3984647       -13769022.858788967        1019823983.7297167     
   2288929311.6343293        19158034.782407641        979582345.75489414     
   1826440154.3505588        41069564.024816275        1007836941.3676180     
   1360646338.5471494        51965564.868430436        1104587770.5678840     
   1676510560.8718603       -6501684.0875200033        1550406295.3783298     
   1417559047.0495982        6166130.9891428351        1397471290.2853122     
   1156955203.9490557        13326181.804869354        1334740634.4595425     
   894699031.57023072        14978468.359657168        1362214327.9010236     
   630790529.91312623        11122990.653510392        1479892370.6097519     
 -0.77081226017401594      -0.83773436905414211        1936535619.4750679     
 -0.51454106543268330      -0.42750715970925834        1741331198.2996478     
 -0.29519697126283878      -0.14036473448754494        1658039242.0711808     
 -0.11277724404529049        2.3694038946981397E-002   1686659750.7896669     
   3.2717693023685018E-002   6.4668096884760620E-002   1827192724.4551060     
   3117553792.0760531        222809464.17653763        269965831.89461112     
   2430595254.3994832        211948199.43667758        207064289.24192441     
   1680328235.0820665       -9941337.4393348694        221751235.21867451     
   866752734.12380934       -442859146.45147824        314026669.82486159     
  -10131248.475296438       -1086805227.5997949        483890593.06048328     
   2189567425.9347935        122527722.70944047        701278924.32950330     
   1699737284.3818681        121998402.65351373        605460798.70050800     
   1162425781.5998111       -36802121.499524057        581307117.30243564     
   577632917.58862531       -353873849.74965692        628817880.13528323     
  -54641307.651690274       -829216782.09687471        747993087.19905460     
   1360646338.5471494        51965564.868430436        1104587770.5678840     
   1051018751.9792571        56690437.154844701        994318035.77624869     
   709736924.59394932       -44098826.616788864        949788700.81701934     
   336800856.39122713       -250402226.44647342        970999765.69019747     
  -67789452.628910378       -562219762.33420908        1057951230.3957868     
   630790529.91312623        11122990.653510392        1479892370.6097519     
   484439657.19165361        16024302.940684408        1373636000.4691405     
   322261664.06447983       -31831452.791145816        1327195985.7624242     
   144256550.53160831       -132444276.54196933        1340572326.4896035     
  -49575683.406962760       -285814168.31179327        1413765022.6506727     
   3.2717693023685018E-002   6.4668096884760620E-002   1827192724.4551060     
   1.9053211389571549E-002   1.1017972248846977E-002   1743414692.7791893     
   1.1404384762555113E-002  -2.2579969030076551E-002   1713528972.1386523     
   9.7708814482567862E-003  -3.6127179544634923E-002   1737535562.5334918     
   1.4153879533608601E-002  -2.9620079283083193E-002   1815434463.9637170     
 -0.77081226017401594      -0.83773436905414211        1936535619.4750679     
 -0.51454106543268330      -0.42750715970925834        1741331198.2996478     
 -0.29519697126283878      -0.14036473448754494        1658039242.0711808     
 -0.11277724404529049        2.3694038946981397E-002   1686659750.7896669     
   3.2717693023685018E-002   6.4668096884760620E-002   1827192724.4551060     
  -1676510562.2191353        6501682.9345885515        1550406295.6106553     
  -1417559047.9764137       -6166131.5895671248        1397471290.4709988     
  -1156955204.5033696       -13326182.012644291        1334740634.5895917     
  -894699031.80000114       -14978468.334644258        1362214327.9664361     
  -630790529.86631227       -11122990.555574536        1479892370.6015303     
  -3203993651.7132697        57711608.293168187        1128561855.6492019     
  -2748113811.1661048        13769022.530029058        1019823984.0237629     
  -2288929312.1213689       -19158034.907870770        979582345.96787262     
  -1826440154.5790620       -41069564.020534396        1007836941.4815309     
  -1360646338.5391858       -51965564.807968557        1104587770.5647371     
  -4582449269.2532177        153629775.23800421        671002299.59070468     
  -3991664290.0836182        59805461.931277990        608389278.95794117     
  -3395922323.1491971       -17495558.826048136        592564376.20602369     
  -2795223368.4499588       -78273287.033982515        623527591.33495033     
  -2189567425.9859009       -122527722.69251585        701278924.34472442     
  -5811877414.8389797        294256183.76909566        177727627.43516660     
  -5148210484.7289524        131943186.61417913        163167175.27353412     
  -4477934237.5868511       -8338753.7671680450        173686725.30404371     
  -3801048673.4126863       -126589637.37496305        209286277.52669853     
  -3117553792.2064600       -222809464.20921969        269965831.94149381     
   3.2717693023685018E-002   6.4668096884760620E-002   1827192724.4551060     
   1.9053211389571549E-002   1.1017972248846977E-002   1743414692.7791893     
   1.1404384762555113E-002  -2.2579969030076551E-002   1713528972.1386523     
   9.7708814482567862E-003  -3.6127179544634923E-002   1737535562.5334918     
   1.4153879533608601E-002  -2.9620079283083193E-002   1815434463.9637170     
  -630790529.86631227       -11122990.555574536        1479892370.6015303     
  -484439657.16153139       -16024302.918587953        1373636000.4659185     
  -322261664.04317099        31831452.763661504        1327195985.7651224     
  -144256550.51123086        132444276.49117291        1340572326.4991419     
   49575683.434287325        285814168.26394886        1413765022.6679814     
  -1360646338.5391858       -51965564.807968557        1104587770.5647371     
  -1051018751.9747069       -56690437.137965977        994318035.77825177     
  -709736924.58908951        44098826.602498591        949788700.82601893     
  -336800856.38232899        250402226.41344243        970999765.70804155     
   67789452.645576254        562219762.29486430        1057951230.4243200     
  -2189567425.9859009       -122527722.69251585        701278924.34472442     
  -1699737284.4204776       -121998402.64712936        605460798.71619081     
  -1162425781.6263518        36802121.493936598        581307117.32134640     
  -577632917.60351944        353873849.73068845        628817880.16019714     
   54641307.648018867        829216782.06312776        747993087.23273313     
  -3117553792.2064600       -222809464.20921969        269965831.94149381     
  -2430595254.4988389       -211948199.44605887        207064289.27973518     
  -1680328235.1549599        9941337.4379608631        221751235.25110376     
  -866752734.17480659        442859146.44290125        314026669.85560548     
   10131248.441617846        1086805227.5687346        483890593.09322757     
 </DataArray>
 <DataArray  type="Float64" Name="VM" NumberOfComponents="1" format="ascii">
   5972390474.2555141     
   5223085493.5494184     
   4483873929.1767149     
   3756890312.0747547     
   3048411039.3829875     
   4803870971.8929405     
   4157655152.0710683     
   3539290688.4163046     
   2960906792.8067856     
   2452817203.5956435     
   3778196547.9978814     
   3272656538.0647926     
   2841559035.6233578     
   2511924590.1922278     
   2333172636.4822383     
   3167476774.4836431     
   2803488690.8617401     
   2582228266.3449349     
   2520752490.0092497     
   2638417787.6423340     
   3354178083.5976872     
   3016074108.2597861     
   2871808208.2102780     
   2921380383.4491639     
   3164790633.9764438     
   3048411039.3829875     
   2359275715.5242000     
   1728533294.0851653     
   1275567383.4844100     
   1368461862.5618048     
   2452817203.5956435     
   1948428481.8365335     
   1552134569.7467134     
   1359974798.4581544     
   1524387624.7218750     
   2333172636.4822383     
   2003565965.7168794     
   1800906855.6761343     
   1757553245.5934052     
   1907971781.4446175     
   2638417787.6423340     
   2426479618.1455865     
   2323676275.2866731     
   2334279306.5271449     
   2462960144.2741518     
   3164790633.9764438     
   3019682826.5556407     
   2967919239.9854212     
   3009499874.2657781     
   3144424729.3967280     
   3354178083.5976872     
   3016074108.2597861     
   2871808208.2102780     
   2921380383.4491639     
   3164790633.9764438     
   3167476775.2317939     
   2803488691.4565587     
   2582228266.7480536     
   2520752490.2004571     
   2638417787.6287003     
   3778196548.9676814     
   3272656538.8464851     
   2841559036.1846132     
   2511924590.4951057     
   2333172636.4894967     
   4803870972.7221022     
   4157655152.7274961     
   3539290688.8970885     
   2960906793.0985188     
   2452817203.6597533     
   5972390474.8506937     
   5223085493.9913549     
   4483873929.4960823     
   3756890312.2947469     
   3048411039.5097189     
   3164790633.9764438     
   3019682826.5556407     
   2967919239.9854212     
   3009499874.2657781     
   3144424729.3967280     
   2638417787.6287003     
   2426479618.1362600     
   2323676275.2859130     
   2334279306.5372891     
   2462960144.2978516     
   2333172636.4894967     
   2003565965.7214885     
   1800906855.6852329     
   1757553245.6127703     
   1907971781.4793236     
   2452817203.6597533     
   1948428481.8860114     
   1552134569.7859280     
   1359974798.4920130     
   1524387624.7545662     
   3048411039.5097189     
   2359275715.6280618     
   1728533294.1680405     
   1275567383.5447297     
   1368461862.5851119     
 </DataArray>
 <DataArray  type="Float64" Name="strain" NumberOfComponents="3" format="ascii">
   9.8335904492202586E-002  -3.3963656792947328E-002   7.7015305098798170E-003
   8.6463224005914802E-002  -2.7940105528058479E-002   7.0705775831058915E-003
   7.4590543519627073E-002  -2.2250691956066285E-002   7.5264247528846751E-003
   6.2717863033339288E-002  -1.6895416076970388E-002   9.0690720192159596E-003
   5.0845182547051532E-002  -1.1874277890771306E-002   1.1698519382099815E-002
   7.7142303352065650E-002  -2.5472742597237558E-002   2.9076766299374418E-002
   6.6826765468724070E-002  -2.0955079147181990E-002   2.6363535407424130E-002
   5.6511227585382504E-002  -1.6688018967265544E-002   2.5677789624813568E-002
   4.6195689702040930E-002  -1.2671562057488206E-002   2.7019528951542846E-002
   3.5880151818699357E-002  -8.9057084178499613E-003   3.0388753387611808E-002
   5.3688452221876570E-002  -1.6981828401527760E-002   4.8904347062657047E-002
   4.5870741954268358E-002  -1.3970052766305474E-002   4.4192372628287721E-002
   3.8053031686660119E-002  -1.1125345978464853E-002   4.2448568316045411E-002
   3.0235321419051900E-002  -8.4477080380058554E-003   4.3672934125930110E-002
   2.2417611151443674E-002  -5.9371389449285744E-003   4.7865470057941638E-002
   2.7974351101635271E-002  -8.4909142058179690E-003   6.7184272799727621E-002
   2.3595153462547591E-002  -6.9850263854289441E-003   6.0557089245696860E-002
   1.9215955823459915E-002  -5.5626729896641226E-003   5.7838760826580175E-002
   1.4836758184372226E-002  -4.2238540185235334E-003   5.9029287542377691E-002
   1.0457560545284553E-002  -2.9685694720071251E-003   6.4128669393089255E-002
  -8.6581991576295536E-012  -1.0108178183365624E-011   8.3916543510586278E-002
  -6.4381486253317632E-012  -4.5524140013242231E-012   7.5457685259651408E-002
  -4.2181258486095885E-012  -8.6342738514488815E-013   7.1848367156417833E-002
  -1.9980909288230819E-012   9.5878686934280921E-013   7.3088589200885568E-002
   2.2195439930428051E-013   9.1421314962758515E-013   7.9178351393054597E-002
   5.0845182547051532E-002  -1.1874277890771306E-002   1.1698519382099815E-002
   3.9450179909474664E-002  -8.6205062813861227E-003   8.9727858671500571E-003
   2.8055177271897783E-002  -8.5673301327325799E-003   9.6092201928092286E-003
   1.6660174634320880E-002  -1.1714749444810350E-002   1.3607822359077336E-002
   5.2651719967440336E-003  -1.8062764217620098E-002   2.0968592365954275E-002
   3.5880151818699357E-002  -8.9057084178499613E-003   3.0388753387611808E-002
   2.7718962726430235E-002  -6.4653797110174466E-003   2.6236634610355344E-002
   1.9557773634161141E-002  -6.4254975996577909E-003   2.5189975083105547E-002
   1.1396584541892039E-002  -8.7860620837707428E-003   2.7248774805862273E-002
   3.2353954496228687E-003  -1.3547073163356127E-002   3.2413033778625699E-002
   2.2417611151443674E-002  -5.9371389449285744E-003   4.7865470057941638E-002
   1.7233527013880062E-002  -4.3102531406488745E-003   4.3087114883637444E-002
   1.2049442876316433E-002  -4.2836650665828944E-003   4.1157510368737507E-002
   6.8653587387528196E-003  -5.8573747227306924E-003   4.2076656513241890E-002
   1.6812746011892060E-003  -9.0313821090922675E-003   4.5844553317150760E-002
   1.0457560545284553E-002  -2.9685694720071251E-003   6.4128669393089255E-002
   7.9938727718241384E-003  -2.1551265702801949E-003   5.9524226686996091E-002
   5.5301849983637264E-003  -2.1418325335081628E-003   5.7511826049705048E-002
   3.0664972249033183E-003  -2.9286873616908636E-003   5.8091467481216151E-002
   6.0280945144292053E-004  -4.5156910548284079E-003   6.1263150981529152E-002
   2.2195439930428051E-013   9.1421314962758515E-013   7.9178351393054597E-002
   2.6246366191529091E-013   8.8366813866258553E-014   7.5547970020431537E-002
   3.0297292452630131E-013  -4.3335474098071813E-013   7.4252922126008272E-002
   3.4348392186078769E-013  -6.5097406631853261E-013   7.5293207709784649E-002
   3.8399838864222602E-013  -5.6443738571942959E-013   7.8668826771761069E-002
  -8.6581991576295536E-012  -1.0108178183365624E-011   8.3916543510586278E-002
  -6.4381486253317632E-012  -4.5524140013242231E-012   7.5457685259651408E-002
  -4.2181258486095885E-012  -8.6342738514488815E-013   7.1848367156417833E-002
  -1.9980909288230819E-012   9.5878686934280921E-013   7.3088589200885568E-002
   2.2195439930428051E-013   9.1421314962758515E-013   7.9178351393054597E-002
  -2.7974351118325195E-002   8.4909141933388194E-003   6.7184272809795068E-002
  -2.3595153474992393E-002   6.9850263800559503E-003   6.0557089253743278E-002
  -1.9215955831659606E-002   5.5626729889727763E-003   5.7838760832215640E-002
  -1.4836758188326797E-002   4.2238540200892679E-003   5.9029287545212236E-002
  -1.0457560544993999E-002   2.9685694734053192E-003   6.4128669392732984E-002
  -5.3688452236687001E-002   1.6981828396785817E-002   4.8904347078132078E-002
  -4.5870741965418557E-002   1.3970052764664342E-002   4.4192372641029730E-002
  -3.8053031694150127E-002   1.1125345978808997E-002   4.2448568325274480E-002
  -3.0235321422881694E-002   8.4477080392197368E-003   4.3672934130866342E-002
  -2.2417611151613254E-002   5.9371389458964530E-003   4.7865470057805275E-002
  -7.7142303363743642E-002   2.5472742600232821E-002   2.9076766315597205E-002
  -6.6826765477716696E-002   2.0955079149272724E-002   2.6363535421510785E-002
  -5.6511227591689715E-002   1.6688018968645184E-002   2.5677789635594358E-002
  -4.6195689705662735E-002   1.2671562058350086E-002   2.7019528957847847E-002
  -3.5880151819635768E-002   8.9057084183875729E-003   3.0388753388271392E-002
  -9.8335904499495141E-002   3.3963656803679826E-002   7.7015305221905528E-003
  -8.6463224011886775E-002   2.7940105533881085E-002   7.0705775951864780E-003
  -7.4590543524278352E-002   2.2250691958481457E-002   7.5264247631752282E-003
  -6.2717863036669957E-002   1.6895416077480713E-002   9.0690720261569369E-003
  -5.0845182549061563E-002   1.1874277890878637E-002   1.1698519384131398E-002
   2.2195439930428051E-013   9.1421314962758515E-013   7.9178351393054597E-002
   2.6246366191529091E-013   8.8366813866258553E-014   7.5547970020431537E-002
   3.0297292452630131E-013  -4.3335474098071813E-013   7.4252922126008272E-002
   3.4348392186078769E-013  -6.5097406631853261E-013   7.5293207709784649E-002
   3.8399838864222602E-013  -5.6443738571942959E-013   7.8668826771761069E-002
  -1.0457560544993999E-002   2.9685694734053192E-003   6.4128669392732984E-002
  -7.9938727714325836E-003   2.1551265704978576E-003   5.9524226686856467E-002
  -5.5301849978711577E-003   2.1418325329435467E-003   5.7511826049821968E-002
  -3.0664972243097119E-003   2.9286873607423693E-003   5.8091467481629480E-002
  -6.0280945074828868E-004   4.5156910538943773E-003   6.1263150982279191E-002
  -2.2417611151613254E-002   5.9371389458964530E-003   4.7865470057805275E-002
  -1.7233527013888618E-002   4.3102531409074350E-003   4.3087114883724242E-002
  -1.2049442876163986E-002   4.2836650663204238E-003   4.1157510369127487E-002
  -6.8653587384393620E-003   5.8573747221356857E-003   4.2076656514015133E-002
  -1.6812746007147175E-003   9.0313821083531920E-003   4.5844553318387202E-002
  -3.5880151819635768E-002   8.9057084183875729E-003   3.0388753388271392E-002
  -2.7718962727105646E-002   6.4653797113168997E-003   2.6236634611034936E-002
  -1.9557773634575545E-002   6.4254975996973687E-003   2.5189975083925009E-002
  -1.1396584542045432E-002   8.7860620835290715E-003   2.7248774806941874E-002
  -3.2353954495153246E-003   1.3547073162812034E-002   3.2413033780085101E-002
  -5.0845182549061563E-002   1.1874277890878637E-002   1.1698519384131398E-002
  -3.9450179911083683E-002   8.6205062817265449E-003   8.9727858687885242E-003
  -2.8055177273105802E-002   8.5673301330741469E-003   9.6092201942144968E-003
  -1.6660174635127950E-002   1.1714749444922387E-002   1.3607822360409572E-002
  -5.2651719971500421E-003   1.8062764217270821E-002   2.0968592367373196E-002
 </DataArray>
 </PointData>
 </Piece>
 </UnstructuredGrid>
 </VTKFile>
