 <VTKFile type="UnstructuredGrid"  version="0.1"   >
 <UnstructuredGrid>
 <Piece  NumberOfPoints="          1600 "  NumberOfCells="         1024 ">
 <Points>
 <DataArray  type="Float64" NumberOfComponents="3"  format="ascii" >
   0.0000000000000000        0.0000000000000000        0.0000000000000000     
   3.1250000000000000E-002   0.0000000000000000        0.0000000000000000     
   6.2500000000000000E-002   0.0000000000000000        0.0000000000000000     
   9.3750000000000000E-002   0.0000000000000000        0.0000000000000000     
  0.12500000000000000        0.0000000000000000        0.0000000000000000     
   0.0000000000000000        3.1250000000000000E-002   0.0000000000000000     
   3.1250000000000000E-002   3.1250000000000000E-002   0.0000000000000000     
   6.2500000000000000E-002   3.1250000000000000E-002   0.0000000000000000     
   9.3750000000000000E-002   3.1250000000000000E-002   0.0000000000000000     
  0.12500000000000000        3.1250000000000000E-002   0.0000000000000000     
   0.0000000000000000        6.2500000000000000E-002   0.0000000000000000     
   3.1250000000000000E-002   6.2500000000000000E-002   0.0000000000000000     
   6.2500000000000000E-002   6.2500000000000000E-002   0.0000000000000000     
   9.3750000000000000E-002   6.2500000000000000E-002   0.0000000000000000     
  0.12500000000000000        6.2500000000000000E-002   0.0000000000000000     
   0.0000000000000000        9.3750000000000000E-002   0.0000000000000000     
   3.1250000000000000E-002   9.3750000000000000E-002   0.0000000000000000     
   6.2500000000000000E-002   9.3750000000000000E-002   0.0000000000000000     
   9.3750000000000000E-002   9.3750000000000000E-002   0.0000000000000000     
  0.12500000000000000        9.3750000000000000E-002   0.0000000000000000     
   0.0000000000000000       0.12500000000000000        0.0000000000000000     
   3.1250000000000000E-002  0.12500000000000000        0.0000000000000000     
   6.2500000000000000E-002  0.12500000000000000        0.0000000000000000     
   9.3750000000000000E-002  0.12500000000000000        0.0000000000000000     
  0.12500000000000000       0.12500000000000000        0.0000000000000000     
  0.12500000000000000        0.0000000000000000        0.0000000000000000     
  0.15625000000000000        0.0000000000000000        0.0000000000000000     
  0.18750000000000000        0.0000000000000000        0.0000000000000000     
  0.21875000000000000        0.0000000000000000        0.0000000000000000     
  0.25000000000000000        0.0000000000000000        0.0000000000000000     
  0.12500000000000000        3.1250000000000000E-002   0.0000000000000000     
  0.15625000000000000        3.1250000000000000E-002   0.0000000000000000     
  0.18750000000000000        3.1250000000000000E-002   0.0000000000000000     
  0.21875000000000000        3.1250000000000000E-002   0.0000000000000000     
  0.25000000000000000        3.1250000000000000E-002   0.0000000000000000     
  0.12500000000000000        6.2500000000000000E-002   0.0000000000000000     
  0.15625000000000000        6.2500000000000000E-002   0.0000000000000000     
  0.18750000000000000        6.2500000000000000E-002   0.0000000000000000     
  0.21875000000000000        6.2500000000000000E-002   0.0000000000000000     
  0.25000000000000000        6.2500000000000000E-002   0.0000000000000000     
  0.12500000000000000        9.3750000000000000E-002   0.0000000000000000     
  0.15625000000000000        9.3750000000000000E-002   0.0000000000000000     
  0.18750000000000000        9.3750000000000000E-002   0.0000000000000000     
  0.21875000000000000        9.3750000000000000E-002   0.0000000000000000     
  0.25000000000000000        9.3750000000000000E-002   0.0000000000000000     
  0.12500000000000000       0.12500000000000000        0.0000000000000000     
  0.15625000000000000       0.12500000000000000        0.0000000000000000     
  0.18750000000000000       0.12500000000000000        0.0000000000000000     
  0.21875000000000000       0.12500000000000000        0.0000000000000000     
  0.25000000000000000       0.12500000000000000        0.0000000000000000     
  0.25000000000000000        0.0000000000000000        0.0000000000000000     
  0.28125000000000000        0.0000000000000000        0.0000000000000000     
  0.31250000000000000        0.0000000000000000        0.0000000000000000     
  0.34375000000000000        0.0000000000000000        0.0000000000000000     
  0.37500000000000000        0.0000000000000000        0.0000000000000000     
  0.25000000000000000        3.1250000000000000E-002   0.0000000000000000     
  0.28125000000000000        3.1250000000000000E-002   0.0000000000000000     
  0.31250000000000000        3.1250000000000000E-002   0.0000000000000000     
  0.34375000000000000        3.1250000000000000E-002   0.0000000000000000     
  0.37500000000000000        3.1250000000000000E-002   0.0000000000000000     
  0.25000000000000000        6.2500000000000000E-002   0.0000000000000000     
  0.28125000000000000        6.2500000000000000E-002   0.0000000000000000     
  0.31250000000000000        6.2500000000000000E-002   0.0000000000000000     
  0.34375000000000000        6.2500000000000000E-002   0.0000000000000000     
  0.37500000000000000        6.2500000000000000E-002   0.0000000000000000     
  0.25000000000000000        9.3750000000000000E-002   0.0000000000000000     
  0.28125000000000000        9.3750000000000000E-002   0.0000000000000000     
  0.31250000000000000        9.3750000000000000E-002   0.0000000000000000     
  0.34375000000000000        9.3750000000000000E-002   0.0000000000000000     
  0.37500000000000000        9.3750000000000000E-002   0.0000000000000000     
  0.25000000000000000       0.12500000000000000        0.0000000000000000     
  0.28125000000000000       0.12500000000000000        0.0000000000000000     
  0.31250000000000000       0.12500000000000000        0.0000000000000000     
  0.34375000000000000       0.12500000000000000        0.0000000000000000     
  0.37500000000000000       0.12500000000000000        0.0000000000000000     
  0.37500000000000000        0.0000000000000000        0.0000000000000000     
  0.40625000000000000        0.0000000000000000        0.0000000000000000     
  0.43750000000000000        0.0000000000000000        0.0000000000000000     
  0.46875000000000000        0.0000000000000000        0.0000000000000000     
  0.50000000000000000        0.0000000000000000        0.0000000000000000     
  0.37500000000000000        3.1250000000000000E-002   0.0000000000000000     
  0.40625000000000000        3.1250000000000000E-002   0.0000000000000000     
  0.43750000000000000        3.1250000000000000E-002   0.0000000000000000     
  0.46875000000000000        3.1250000000000000E-002   0.0000000000000000     
  0.50000000000000000        3.1250000000000000E-002   0.0000000000000000     
  0.37500000000000000        6.2500000000000000E-002   0.0000000000000000     
  0.40625000000000000        6.2500000000000000E-002   0.0000000000000000     
  0.43750000000000000        6.2500000000000000E-002   0.0000000000000000     
  0.46875000000000000        6.2500000000000000E-002   0.0000000000000000     
  0.50000000000000000        6.2500000000000000E-002   0.0000000000000000     
  0.37500000000000000        9.3750000000000000E-002   0.0000000000000000     
  0.40625000000000000        9.3750000000000000E-002   0.0000000000000000     
  0.43750000000000000        9.3750000000000000E-002   0.0000000000000000     
  0.46875000000000000        9.3750000000000000E-002   0.0000000000000000     
  0.50000000000000000        9.3750000000000000E-002   0.0000000000000000     
  0.37500000000000000       0.12500000000000000        0.0000000000000000     
  0.40625000000000000       0.12500000000000000        0.0000000000000000     
  0.43750000000000000       0.12500000000000000        0.0000000000000000     
  0.46875000000000000       0.12500000000000000        0.0000000000000000     
  0.50000000000000000       0.12500000000000000        0.0000000000000000     
  0.50000000000000000        0.0000000000000000        0.0000000000000000     
  0.53125000000000000        0.0000000000000000        0.0000000000000000     
  0.56250000000000000        0.0000000000000000        0.0000000000000000     
  0.59375000000000000        0.0000000000000000        0.0000000000000000     
  0.62500000000000000        0.0000000000000000        0.0000000000000000     
  0.50000000000000000        3.1250000000000000E-002   0.0000000000000000     
  0.53125000000000000        3.1250000000000000E-002   0.0000000000000000     
  0.56250000000000000        3.1250000000000000E-002   0.0000000000000000     
  0.59375000000000000        3.1250000000000000E-002   0.0000000000000000     
  0.62500000000000000        3.1250000000000000E-002   0.0000000000000000     
  0.50000000000000000        6.2500000000000000E-002   0.0000000000000000     
  0.53125000000000000        6.2500000000000000E-002   0.0000000000000000     
  0.56250000000000000        6.2500000000000000E-002   0.0000000000000000     
  0.59375000000000000        6.2500000000000000E-002   0.0000000000000000     
  0.62500000000000000        6.2500000000000000E-002   0.0000000000000000     
  0.50000000000000000        9.3750000000000000E-002   0.0000000000000000     
  0.53125000000000000        9.3750000000000000E-002   0.0000000000000000     
  0.56250000000000000        9.3750000000000000E-002   0.0000000000000000     
  0.59375000000000000        9.3750000000000000E-002   0.0000000000000000     
  0.62500000000000000        9.3750000000000000E-002   0.0000000000000000     
  0.50000000000000000       0.12500000000000000        0.0000000000000000     
  0.53125000000000000       0.12500000000000000        0.0000000000000000     
  0.56250000000000000       0.12500000000000000        0.0000000000000000     
  0.59375000000000000       0.12500000000000000        0.0000000000000000     
  0.62500000000000000       0.12500000000000000        0.0000000000000000     
  0.62500000000000000        0.0000000000000000        0.0000000000000000     
  0.65625000000000000        0.0000000000000000        0.0000000000000000     
  0.68750000000000000        0.0000000000000000        0.0000000000000000     
  0.71875000000000000        0.0000000000000000        0.0000000000000000     
  0.75000000000000000        0.0000000000000000        0.0000000000000000     
  0.62500000000000000        3.1250000000000000E-002   0.0000000000000000     
  0.65625000000000000        3.1250000000000000E-002   0.0000000000000000     
  0.68750000000000000        3.1250000000000000E-002   0.0000000000000000     
  0.71875000000000000        3.1250000000000000E-002   0.0000000000000000     
  0.75000000000000000        3.1250000000000000E-002   0.0000000000000000     
  0.62500000000000000        6.2500000000000000E-002   0.0000000000000000     
  0.65625000000000000        6.2500000000000000E-002   0.0000000000000000     
  0.68750000000000000        6.2500000000000000E-002   0.0000000000000000     
  0.71875000000000000        6.2500000000000000E-002   0.0000000000000000     
  0.75000000000000000        6.2500000000000000E-002   0.0000000000000000     
  0.62500000000000000        9.3750000000000000E-002   0.0000000000000000     
  0.65625000000000000        9.3750000000000000E-002   0.0000000000000000     
  0.68750000000000000        9.3750000000000000E-002   0.0000000000000000     
  0.71875000000000000        9.3750000000000000E-002   0.0000000000000000     
  0.75000000000000000        9.3750000000000000E-002   0.0000000000000000     
  0.62500000000000000       0.12500000000000000        0.0000000000000000     
  0.65625000000000000       0.12500000000000000        0.0000000000000000     
  0.68750000000000000       0.12500000000000000        0.0000000000000000     
  0.71875000000000000       0.12500000000000000        0.0000000000000000     
  0.75000000000000000       0.12500000000000000        0.0000000000000000     
  0.75000000000000000        0.0000000000000000        0.0000000000000000     
  0.78125000000000000        0.0000000000000000        0.0000000000000000     
  0.81250000000000000        0.0000000000000000        0.0000000000000000     
  0.84375000000000000        0.0000000000000000        0.0000000000000000     
  0.87500000000000000        0.0000000000000000        0.0000000000000000     
  0.75000000000000000        3.1250000000000000E-002   0.0000000000000000     
  0.78125000000000000        3.1250000000000000E-002   0.0000000000000000     
  0.81250000000000000        3.1250000000000000E-002   0.0000000000000000     
  0.84375000000000000        3.1250000000000000E-002   0.0000000000000000     
  0.87500000000000000        3.1250000000000000E-002   0.0000000000000000     
  0.75000000000000000        6.2500000000000000E-002   0.0000000000000000     
  0.78125000000000000        6.2500000000000000E-002   0.0000000000000000     
  0.81250000000000000        6.2500000000000000E-002   0.0000000000000000     
  0.84375000000000000        6.2500000000000000E-002   0.0000000000000000     
  0.87500000000000000        6.2500000000000000E-002   0.0000000000000000     
  0.75000000000000000        9.3750000000000000E-002   0.0000000000000000     
  0.78125000000000000        9.3750000000000000E-002   0.0000000000000000     
  0.81250000000000000        9.3750000000000000E-002   0.0000000000000000     
  0.84375000000000000        9.3750000000000000E-002   0.0000000000000000     
  0.87500000000000000        9.3750000000000000E-002   0.0000000000000000     
  0.75000000000000000       0.12500000000000000        0.0000000000000000     
  0.78125000000000000       0.12500000000000000        0.0000000000000000     
  0.81250000000000000       0.12500000000000000        0.0000000000000000     
  0.84375000000000000       0.12500000000000000        0.0000000000000000     
  0.87500000000000000       0.12500000000000000        0.0000000000000000     
  0.87500000000000000        0.0000000000000000        0.0000000000000000     
  0.90625000000000000        0.0000000000000000        0.0000000000000000     
  0.93750000000000000        0.0000000000000000        0.0000000000000000     
  0.96875000000000000        0.0000000000000000        0.0000000000000000     
   1.0000000000000000        0.0000000000000000        0.0000000000000000     
  0.87500000000000000        3.1250000000000000E-002   0.0000000000000000     
  0.90625000000000000        3.1250000000000000E-002   0.0000000000000000     
  0.93750000000000000        3.1250000000000000E-002   0.0000000000000000     
  0.96875000000000000        3.1250000000000000E-002   0.0000000000000000     
   1.0000000000000000        3.1250000000000000E-002   0.0000000000000000     
  0.87500000000000000        6.2500000000000000E-002   0.0000000000000000     
  0.90625000000000000        6.2500000000000000E-002   0.0000000000000000     
  0.93750000000000000        6.2500000000000000E-002   0.0000000000000000     
  0.96875000000000000        6.2500000000000000E-002   0.0000000000000000     
   1.0000000000000000        6.2500000000000000E-002   0.0000000000000000     
  0.87500000000000000        9.3750000000000000E-002   0.0000000000000000     
  0.90625000000000000        9.3750000000000000E-002   0.0000000000000000     
  0.93750000000000000        9.3750000000000000E-002   0.0000000000000000     
  0.96875000000000000        9.3750000000000000E-002   0.0000000000000000     
   1.0000000000000000        9.3750000000000000E-002   0.0000000000000000     
  0.87500000000000000       0.12500000000000000        0.0000000000000000     
  0.90625000000000000       0.12500000000000000        0.0000000000000000     
  0.93750000000000000       0.12500000000000000        0.0000000000000000     
  0.96875000000000000       0.12500000000000000        0.0000000000000000     
   1.0000000000000000       0.12500000000000000        0.0000000000000000     
   0.0000000000000000       0.12500000000000000        0.0000000000000000     
   3.1250000000000000E-002  0.12500000000000000        0.0000000000000000     
   6.2500000000000000E-002  0.12500000000000000        0.0000000000000000     
   9.3750000000000000E-002  0.12500000000000000        0.0000000000000000     
  0.12500000000000000       0.12500000000000000        0.0000000000000000     
   0.0000000000000000       0.15625000000000000        0.0000000000000000     
   3.1250000000000000E-002  0.15625000000000000        0.0000000000000000     
   6.2500000000000000E-002  0.15625000000000000        0.0000000000000000     
   9.3750000000000000E-002  0.15625000000000000        0.0000000000000000     
  0.12500000000000000       0.15625000000000000        0.0000000000000000     
   0.0000000000000000       0.18750000000000000        0.0000000000000000     
   3.1250000000000000E-002  0.18750000000000000        0.0000000000000000     
   6.2500000000000000E-002  0.18750000000000000        0.0000000000000000     
   9.3750000000000000E-002  0.18750000000000000        0.0000000000000000     
  0.12500000000000000       0.18750000000000000        0.0000000000000000     
   0.0000000000000000       0.21875000000000000        0.0000000000000000     
   3.1250000000000000E-002  0.21875000000000000        0.0000000000000000     
   6.2500000000000000E-002  0.21875000000000000        0.0000000000000000     
   9.3750000000000000E-002  0.21875000000000000        0.0000000000000000     
  0.12500000000000000       0.21875000000000000        0.0000000000000000     
   0.0000000000000000       0.25000000000000000        0.0000000000000000     
   3.1250000000000000E-002  0.25000000000000000        0.0000000000000000     
   6.2500000000000000E-002  0.25000000000000000        0.0000000000000000     
   9.3750000000000000E-002  0.25000000000000000        0.0000000000000000     
  0.12500000000000000       0.25000000000000000        0.0000000000000000     
  0.12500000000000000       0.12500000000000000        0.0000000000000000     
  0.15625000000000000       0.12500000000000000        0.0000000000000000     
  0.18750000000000000       0.12500000000000000        0.0000000000000000     
  0.21875000000000000       0.12500000000000000        0.0000000000000000     
  0.25000000000000000       0.12500000000000000        0.0000000000000000     
  0.12500000000000000       0.15625000000000000        0.0000000000000000     
  0.15625000000000000       0.15625000000000000        0.0000000000000000     
  0.18750000000000000       0.15625000000000000        0.0000000000000000     
  0.21875000000000000       0.15625000000000000        0.0000000000000000     
  0.25000000000000000       0.15625000000000000        0.0000000000000000     
  0.12500000000000000       0.18750000000000000        0.0000000000000000     
  0.15625000000000000       0.18750000000000000        0.0000000000000000     
  0.18750000000000000       0.18750000000000000        0.0000000000000000     
  0.21875000000000000       0.18750000000000000        0.0000000000000000     
  0.25000000000000000       0.18750000000000000        0.0000000000000000     
  0.12500000000000000       0.21875000000000000        0.0000000000000000     
  0.15625000000000000       0.21875000000000000        0.0000000000000000     
  0.18750000000000000       0.21875000000000000        0.0000000000000000     
  0.21875000000000000       0.21875000000000000        0.0000000000000000     
  0.25000000000000000       0.21875000000000000        0.0000000000000000     
  0.12500000000000000       0.25000000000000000        0.0000000000000000     
  0.15625000000000000       0.25000000000000000        0.0000000000000000     
  0.18750000000000000       0.25000000000000000        0.0000000000000000     
  0.21875000000000000       0.25000000000000000        0.0000000000000000     
  0.25000000000000000       0.25000000000000000        0.0000000000000000     
  0.25000000000000000       0.12500000000000000        0.0000000000000000     
  0.28125000000000000       0.12500000000000000        0.0000000000000000     
  0.31250000000000000       0.12500000000000000        0.0000000000000000     
  0.34375000000000000       0.12500000000000000        0.0000000000000000     
  0.37500000000000000       0.12500000000000000        0.0000000000000000     
  0.25000000000000000       0.15625000000000000        0.0000000000000000     
  0.28125000000000000       0.15625000000000000        0.0000000000000000     
  0.31250000000000000       0.15625000000000000        0.0000000000000000     
  0.34375000000000000       0.15625000000000000        0.0000000000000000     
  0.37500000000000000       0.15625000000000000        0.0000000000000000     
  0.25000000000000000       0.18750000000000000        0.0000000000000000     
  0.28125000000000000       0.18750000000000000        0.0000000000000000     
  0.31250000000000000       0.18750000000000000        0.0000000000000000     
  0.34375000000000000       0.18750000000000000        0.0000000000000000     
  0.37500000000000000       0.18750000000000000        0.0000000000000000     
  0.25000000000000000       0.21875000000000000        0.0000000000000000     
  0.28125000000000000       0.21875000000000000        0.0000000000000000     
  0.31250000000000000       0.21875000000000000        0.0000000000000000     
  0.34375000000000000       0.21875000000000000        0.0000000000000000     
  0.37500000000000000       0.21875000000000000        0.0000000000000000     
  0.25000000000000000       0.25000000000000000        0.0000000000000000     
  0.28125000000000000       0.25000000000000000        0.0000000000000000     
  0.31250000000000000       0.25000000000000000        0.0000000000000000     
  0.34375000000000000       0.25000000000000000        0.0000000000000000     
  0.37500000000000000       0.25000000000000000        0.0000000000000000     
  0.37500000000000000       0.12500000000000000        0.0000000000000000     
  0.40625000000000000       0.12500000000000000        0.0000000000000000     
  0.43750000000000000       0.12500000000000000        0.0000000000000000     
  0.46875000000000000       0.12500000000000000        0.0000000000000000     
  0.50000000000000000       0.12500000000000000        0.0000000000000000     
  0.37500000000000000       0.15625000000000000        0.0000000000000000     
  0.40625000000000000       0.15625000000000000        0.0000000000000000     
  0.43750000000000000       0.15625000000000000        0.0000000000000000     
  0.46875000000000000       0.15625000000000000        0.0000000000000000     
  0.50000000000000000       0.15625000000000000        0.0000000000000000     
  0.37500000000000000       0.18750000000000000        0.0000000000000000     
  0.40625000000000000       0.18750000000000000        0.0000000000000000     
  0.43750000000000000       0.18750000000000000        0.0000000000000000     
  0.46875000000000000       0.18750000000000000        0.0000000000000000     
  0.50000000000000000       0.18750000000000000        0.0000000000000000     
  0.37500000000000000       0.21875000000000000        0.0000000000000000     
  0.40625000000000000       0.21875000000000000        0.0000000000000000     
  0.43750000000000000       0.21875000000000000        0.0000000000000000     
  0.46875000000000000       0.21875000000000000        0.0000000000000000     
  0.50000000000000000       0.21875000000000000        0.0000000000000000     
  0.37500000000000000       0.25000000000000000        0.0000000000000000     
  0.40625000000000000       0.25000000000000000        0.0000000000000000     
  0.43750000000000000       0.25000000000000000        0.0000000000000000     
  0.46875000000000000       0.25000000000000000        0.0000000000000000     
  0.50000000000000000       0.25000000000000000        0.0000000000000000     
  0.50000000000000000       0.12500000000000000        0.0000000000000000     
  0.53125000000000000       0.12500000000000000        0.0000000000000000     
  0.56250000000000000       0.12500000000000000        0.0000000000000000     
  0.59375000000000000       0.12500000000000000        0.0000000000000000     
  0.62500000000000000       0.12500000000000000        0.0000000000000000     
  0.50000000000000000       0.15625000000000000        0.0000000000000000     
  0.53125000000000000       0.15625000000000000        0.0000000000000000     
  0.56250000000000000       0.15625000000000000        0.0000000000000000     
  0.59375000000000000       0.15625000000000000        0.0000000000000000     
  0.62500000000000000       0.15625000000000000        0.0000000000000000     
  0.50000000000000000       0.18750000000000000        0.0000000000000000     
  0.53125000000000000       0.18750000000000000        0.0000000000000000     
  0.56250000000000000       0.18750000000000000        0.0000000000000000     
  0.59375000000000000       0.18750000000000000        0.0000000000000000     
  0.62500000000000000       0.18750000000000000        0.0000000000000000     
  0.50000000000000000       0.21875000000000000        0.0000000000000000     
  0.53125000000000000       0.21875000000000000        0.0000000000000000     
  0.56250000000000000       0.21875000000000000        0.0000000000000000     
  0.59375000000000000       0.21875000000000000        0.0000000000000000     
  0.62500000000000000       0.21875000000000000        0.0000000000000000     
  0.50000000000000000       0.25000000000000000        0.0000000000000000     
  0.53125000000000000       0.25000000000000000        0.0000000000000000     
  0.56250000000000000       0.25000000000000000        0.0000000000000000     
  0.59375000000000000       0.25000000000000000        0.0000000000000000     
  0.62500000000000000       0.25000000000000000        0.0000000000000000     
  0.62500000000000000       0.12500000000000000        0.0000000000000000     
  0.65625000000000000       0.12500000000000000        0.0000000000000000     
  0.68750000000000000       0.12500000000000000        0.0000000000000000     
  0.71875000000000000       0.12500000000000000        0.0000000000000000     
  0.75000000000000000       0.12500000000000000        0.0000000000000000     
  0.62500000000000000       0.15625000000000000        0.0000000000000000     
  0.65625000000000000       0.15625000000000000        0.0000000000000000     
  0.68750000000000000       0.15625000000000000        0.0000000000000000     
  0.71875000000000000       0.15625000000000000        0.0000000000000000     
  0.75000000000000000       0.15625000000000000        0.0000000000000000     
  0.62500000000000000       0.18750000000000000        0.0000000000000000     
  0.65625000000000000       0.18750000000000000        0.0000000000000000     
  0.68750000000000000       0.18750000000000000        0.0000000000000000     
  0.71875000000000000       0.18750000000000000        0.0000000000000000     
  0.75000000000000000       0.18750000000000000        0.0000000000000000     
  0.62500000000000000       0.21875000000000000        0.0000000000000000     
  0.65625000000000000       0.21875000000000000        0.0000000000000000     
  0.68750000000000000       0.21875000000000000        0.0000000000000000     
  0.71875000000000000       0.21875000000000000        0.0000000000000000     
  0.75000000000000000       0.21875000000000000        0.0000000000000000     
  0.62500000000000000       0.25000000000000000        0.0000000000000000     
  0.65625000000000000       0.25000000000000000        0.0000000000000000     
  0.68750000000000000       0.25000000000000000        0.0000000000000000     
  0.71875000000000000       0.25000000000000000        0.0000000000000000     
  0.75000000000000000       0.25000000000000000        0.0000000000000000     
  0.75000000000000000       0.12500000000000000        0.0000000000000000     
  0.78125000000000000       0.12500000000000000        0.0000000000000000     
  0.81250000000000000       0.12500000000000000        0.0000000000000000     
  0.84375000000000000       0.12500000000000000        0.0000000000000000     
  0.87500000000000000       0.12500000000000000        0.0000000000000000     
  0.75000000000000000       0.15625000000000000        0.0000000000000000     
  0.78125000000000000       0.15625000000000000        0.0000000000000000     
  0.81250000000000000       0.15625000000000000        0.0000000000000000     
  0.84375000000000000       0.15625000000000000        0.0000000000000000     
  0.87500000000000000       0.15625000000000000        0.0000000000000000     
  0.75000000000000000       0.18750000000000000        0.0000000000000000     
  0.78125000000000000       0.18750000000000000        0.0000000000000000     
  0.81250000000000000       0.18750000000000000        0.0000000000000000     
  0.84375000000000000       0.18750000000000000        0.0000000000000000     
  0.87500000000000000       0.18750000000000000        0.0000000000000000     
  0.75000000000000000       0.21875000000000000        0.0000000000000000     
  0.78125000000000000       0.21875000000000000        0.0000000000000000     
  0.81250000000000000       0.21875000000000000        0.0000000000000000     
  0.84375000000000000       0.21875000000000000        0.0000000000000000     
  0.87500000000000000       0.21875000000000000        0.0000000000000000     
  0.75000000000000000       0.25000000000000000        0.0000000000000000     
  0.78125000000000000       0.25000000000000000        0.0000000000000000     
  0.81250000000000000       0.25000000000000000        0.0000000000000000     
  0.84375000000000000       0.25000000000000000        0.0000000000000000     
  0.87500000000000000       0.25000000000000000        0.0000000000000000     
  0.87500000000000000       0.12500000000000000        0.0000000000000000     
  0.90625000000000000       0.12500000000000000        0.0000000000000000     
  0.93750000000000000       0.12500000000000000        0.0000000000000000     
  0.96875000000000000       0.12500000000000000        0.0000000000000000     
   1.0000000000000000       0.12500000000000000        0.0000000000000000     
  0.87500000000000000       0.15625000000000000        0.0000000000000000     
  0.90625000000000000       0.15625000000000000        0.0000000000000000     
  0.93750000000000000       0.15625000000000000        0.0000000000000000     
  0.96875000000000000       0.15625000000000000        0.0000000000000000     
   1.0000000000000000       0.15625000000000000        0.0000000000000000     
  0.87500000000000000       0.18750000000000000        0.0000000000000000     
  0.90625000000000000       0.18750000000000000        0.0000000000000000     
  0.93750000000000000       0.18750000000000000        0.0000000000000000     
  0.96875000000000000       0.18750000000000000        0.0000000000000000     
   1.0000000000000000       0.18750000000000000        0.0000000000000000     
  0.87500000000000000       0.21875000000000000        0.0000000000000000     
  0.90625000000000000       0.21875000000000000        0.0000000000000000     
  0.93750000000000000       0.21875000000000000        0.0000000000000000     
  0.96875000000000000       0.21875000000000000        0.0000000000000000     
   1.0000000000000000       0.21875000000000000        0.0000000000000000     
  0.87500000000000000       0.25000000000000000        0.0000000000000000     
  0.90625000000000000       0.25000000000000000        0.0000000000000000     
  0.93750000000000000       0.25000000000000000        0.0000000000000000     
  0.96875000000000000       0.25000000000000000        0.0000000000000000     
   1.0000000000000000       0.25000000000000000        0.0000000000000000     
   0.0000000000000000       0.25000000000000000        0.0000000000000000     
   3.1250000000000000E-002  0.25000000000000000        0.0000000000000000     
   6.2500000000000000E-002  0.25000000000000000        0.0000000000000000     
   9.3750000000000000E-002  0.25000000000000000        0.0000000000000000     
  0.12500000000000000       0.25000000000000000        0.0000000000000000     
   0.0000000000000000       0.28125000000000000        0.0000000000000000     
   3.1250000000000000E-002  0.28125000000000000        0.0000000000000000     
   6.2500000000000000E-002  0.28125000000000000        0.0000000000000000     
   9.3750000000000000E-002  0.28125000000000000        0.0000000000000000     
  0.12500000000000000       0.28125000000000000        0.0000000000000000     
   0.0000000000000000       0.31250000000000000        0.0000000000000000     
   3.1250000000000000E-002  0.31250000000000000        0.0000000000000000     
   6.2500000000000000E-002  0.31250000000000000        0.0000000000000000     
   9.3750000000000000E-002  0.31250000000000000        0.0000000000000000     
  0.12500000000000000       0.31250000000000000        0.0000000000000000     
   0.0000000000000000       0.34375000000000000        0.0000000000000000     
   3.1250000000000000E-002  0.34375000000000000        0.0000000000000000     
   6.2500000000000000E-002  0.34375000000000000        0.0000000000000000     
   9.3750000000000000E-002  0.34375000000000000        0.0000000000000000     
  0.12500000000000000       0.34375000000000000        0.0000000000000000     
   0.0000000000000000       0.37500000000000000        0.0000000000000000     
   3.1250000000000000E-002  0.37500000000000000        0.0000000000000000     
   6.2500000000000000E-002  0.37500000000000000        0.0000000000000000     
   9.3750000000000000E-002  0.37500000000000000        0.0000000000000000     
  0.12500000000000000       0.37500000000000000        0.0000000000000000     
  0.12500000000000000       0.25000000000000000        0.0000000000000000     
  0.15625000000000000       0.25000000000000000        0.0000000000000000     
  0.18750000000000000       0.25000000000000000        0.0000000000000000     
  0.21875000000000000       0.25000000000000000        0.0000000000000000     
  0.25000000000000000       0.25000000000000000        0.0000000000000000     
  0.12500000000000000       0.28125000000000000        0.0000000000000000     
  0.15625000000000000       0.28125000000000000        0.0000000000000000     
  0.18750000000000000       0.28125000000000000        0.0000000000000000     
  0.21875000000000000       0.28125000000000000        0.0000000000000000     
  0.25000000000000000       0.28125000000000000        0.0000000000000000     
  0.12500000000000000       0.31250000000000000        0.0000000000000000     
  0.15625000000000000       0.31250000000000000        0.0000000000000000     
  0.18750000000000000       0.31250000000000000        0.0000000000000000     
  0.21875000000000000       0.31250000000000000        0.0000000000000000     
  0.25000000000000000       0.31250000000000000        0.0000000000000000     
  0.12500000000000000       0.34375000000000000        0.0000000000000000     
  0.15625000000000000       0.34375000000000000        0.0000000000000000     
  0.18750000000000000       0.34375000000000000        0.0000000000000000     
  0.21875000000000000       0.34375000000000000        0.0000000000000000     
  0.25000000000000000       0.34375000000000000        0.0000000000000000     
  0.12500000000000000       0.37500000000000000        0.0000000000000000     
  0.15625000000000000       0.37500000000000000        0.0000000000000000     
  0.18750000000000000       0.37500000000000000        0.0000000000000000     
  0.21875000000000000       0.37500000000000000        0.0000000000000000     
  0.25000000000000000       0.37500000000000000        0.0000000000000000     
  0.25000000000000000       0.25000000000000000        0.0000000000000000     
  0.28125000000000000       0.25000000000000000        0.0000000000000000     
  0.31250000000000000       0.25000000000000000        0.0000000000000000     
  0.34375000000000000       0.25000000000000000        0.0000000000000000     
  0.37500000000000000       0.25000000000000000        0.0000000000000000     
  0.25000000000000000       0.28125000000000000        0.0000000000000000     
  0.28125000000000000       0.28125000000000000        0.0000000000000000     
  0.31250000000000000       0.28125000000000000        0.0000000000000000     
  0.34375000000000000       0.28125000000000000        0.0000000000000000     
  0.37500000000000000       0.28125000000000000        0.0000000000000000     
  0.25000000000000000       0.31250000000000000        0.0000000000000000     
  0.28125000000000000       0.31250000000000000        0.0000000000000000     
  0.31250000000000000       0.31250000000000000        0.0000000000000000     
  0.34375000000000000       0.31250000000000000        0.0000000000000000     
  0.37500000000000000       0.31250000000000000        0.0000000000000000     
  0.25000000000000000       0.34375000000000000        0.0000000000000000     
  0.28125000000000000       0.34375000000000000        0.0000000000000000     
  0.31250000000000000       0.34375000000000000        0.0000000000000000     
  0.34375000000000000       0.34375000000000000        0.0000000000000000     
  0.37500000000000000       0.34375000000000000        0.0000000000000000     
  0.25000000000000000       0.37500000000000000        0.0000000000000000     
  0.28125000000000000       0.37500000000000000        0.0000000000000000     
  0.31250000000000000       0.37500000000000000        0.0000000000000000     
  0.34375000000000000       0.37500000000000000        0.0000000000000000     
  0.37500000000000000       0.37500000000000000        0.0000000000000000     
  0.37500000000000000       0.25000000000000000        0.0000000000000000     
  0.40625000000000000       0.25000000000000000        0.0000000000000000     
  0.43750000000000000       0.25000000000000000        0.0000000000000000     
  0.46875000000000000       0.25000000000000000        0.0000000000000000     
  0.50000000000000000       0.25000000000000000        0.0000000000000000     
  0.37500000000000000       0.28125000000000000        0.0000000000000000     
  0.40625000000000000       0.28125000000000000        0.0000000000000000     
  0.43750000000000000       0.28125000000000000        0.0000000000000000     
  0.46875000000000000       0.28125000000000000        0.0000000000000000     
  0.50000000000000000       0.28125000000000000        0.0000000000000000     
  0.37500000000000000       0.31250000000000000        0.0000000000000000     
  0.40625000000000000       0.31250000000000000        0.0000000000000000     
  0.43750000000000000       0.31250000000000000        0.0000000000000000     
  0.46875000000000000       0.31250000000000000        0.0000000000000000     
  0.50000000000000000       0.31250000000000000        0.0000000000000000     
  0.37500000000000000       0.34375000000000000        0.0000000000000000     
  0.40625000000000000       0.34375000000000000        0.0000000000000000     
  0.43750000000000000       0.34375000000000000        0.0000000000000000     
  0.46875000000000000       0.34375000000000000        0.0000000000000000     
  0.50000000000000000       0.34375000000000000        0.0000000000000000     
  0.37500000000000000       0.37500000000000000        0.0000000000000000     
  0.40625000000000000       0.37500000000000000        0.0000000000000000     
  0.43750000000000000       0.37500000000000000        0.0000000000000000     
  0.46875000000000000       0.37500000000000000        0.0000000000000000     
  0.50000000000000000       0.37500000000000000        0.0000000000000000     
  0.50000000000000000       0.25000000000000000        0.0000000000000000     
  0.53125000000000000       0.25000000000000000        0.0000000000000000     
  0.56250000000000000       0.25000000000000000        0.0000000000000000     
  0.59375000000000000       0.25000000000000000        0.0000000000000000     
  0.62500000000000000       0.25000000000000000        0.0000000000000000     
  0.50000000000000000       0.28125000000000000        0.0000000000000000     
  0.53125000000000000       0.28125000000000000        0.0000000000000000     
  0.56250000000000000       0.28125000000000000        0.0000000000000000     
  0.59375000000000000       0.28125000000000000        0.0000000000000000     
  0.62500000000000000       0.28125000000000000        0.0000000000000000     
  0.50000000000000000       0.31250000000000000        0.0000000000000000     
  0.53125000000000000       0.31250000000000000        0.0000000000000000     
  0.56250000000000000       0.31250000000000000        0.0000000000000000     
  0.59375000000000000       0.31250000000000000        0.0000000000000000     
  0.62500000000000000       0.31250000000000000        0.0000000000000000     
  0.50000000000000000       0.34375000000000000        0.0000000000000000     
  0.53125000000000000       0.34375000000000000        0.0000000000000000     
  0.56250000000000000       0.34375000000000000        0.0000000000000000     
  0.59375000000000000       0.34375000000000000        0.0000000000000000     
  0.62500000000000000       0.34375000000000000        0.0000000000000000     
  0.50000000000000000       0.37500000000000000        0.0000000000000000     
  0.53125000000000000       0.37500000000000000        0.0000000000000000     
  0.56250000000000000       0.37500000000000000        0.0000000000000000     
  0.59375000000000000       0.37500000000000000        0.0000000000000000     
  0.62500000000000000       0.37500000000000000        0.0000000000000000     
  0.62500000000000000       0.25000000000000000        0.0000000000000000     
  0.65625000000000000       0.25000000000000000        0.0000000000000000     
  0.68750000000000000       0.25000000000000000        0.0000000000000000     
  0.71875000000000000       0.25000000000000000        0.0000000000000000     
  0.75000000000000000       0.25000000000000000        0.0000000000000000     
  0.62500000000000000       0.28125000000000000        0.0000000000000000     
  0.65625000000000000       0.28125000000000000        0.0000000000000000     
  0.68750000000000000       0.28125000000000000        0.0000000000000000     
  0.71875000000000000       0.28125000000000000        0.0000000000000000     
  0.75000000000000000       0.28125000000000000        0.0000000000000000     
  0.62500000000000000       0.31250000000000000        0.0000000000000000     
  0.65625000000000000       0.31250000000000000        0.0000000000000000     
  0.68750000000000000       0.31250000000000000        0.0000000000000000     
  0.71875000000000000       0.31250000000000000        0.0000000000000000     
  0.75000000000000000       0.31250000000000000        0.0000000000000000     
  0.62500000000000000       0.34375000000000000        0.0000000000000000     
  0.65625000000000000       0.34375000000000000        0.0000000000000000     
  0.68750000000000000       0.34375000000000000        0.0000000000000000     
  0.71875000000000000       0.34375000000000000        0.0000000000000000     
  0.75000000000000000       0.34375000000000000        0.0000000000000000     
  0.62500000000000000       0.37500000000000000        0.0000000000000000     
  0.65625000000000000       0.37500000000000000        0.0000000000000000     
  0.68750000000000000       0.37500000000000000        0.0000000000000000     
  0.71875000000000000       0.37500000000000000        0.0000000000000000     
  0.75000000000000000       0.37500000000000000        0.0000000000000000     
  0.75000000000000000       0.25000000000000000        0.0000000000000000     
  0.78125000000000000       0.25000000000000000        0.0000000000000000     
  0.81250000000000000       0.25000000000000000        0.0000000000000000     
  0.84375000000000000       0.25000000000000000        0.0000000000000000     
  0.87500000000000000       0.25000000000000000        0.0000000000000000     
  0.75000000000000000       0.28125000000000000        0.0000000000000000     
  0.78125000000000000       0.28125000000000000        0.0000000000000000     
  0.81250000000000000       0.28125000000000000        0.0000000000000000     
  0.84375000000000000       0.28125000000000000        0.0000000000000000     
  0.87500000000000000       0.28125000000000000        0.0000000000000000     
  0.75000000000000000       0.31250000000000000        0.0000000000000000     
  0.78125000000000000       0.31250000000000000        0.0000000000000000     
  0.81250000000000000       0.31250000000000000        0.0000000000000000     
  0.84375000000000000       0.31250000000000000        0.0000000000000000     
  0.87500000000000000       0.31250000000000000        0.0000000000000000     
  0.75000000000000000       0.34375000000000000        0.0000000000000000     
  0.78125000000000000       0.34375000000000000        0.0000000000000000     
  0.81250000000000000       0.34375000000000000        0.0000000000000000     
  0.84375000000000000       0.34375000000000000        0.0000000000000000     
  0.87500000000000000       0.34375000000000000        0.0000000000000000     
  0.75000000000000000       0.37500000000000000        0.0000000000000000     
  0.78125000000000000       0.37500000000000000        0.0000000000000000     
  0.81250000000000000       0.37500000000000000        0.0000000000000000     
  0.84375000000000000       0.37500000000000000        0.0000000000000000     
  0.87500000000000000       0.37500000000000000        0.0000000000000000     
  0.87500000000000000       0.25000000000000000        0.0000000000000000     
  0.90625000000000000       0.25000000000000000        0.0000000000000000     
  0.93750000000000000       0.25000000000000000        0.0000000000000000     
  0.96875000000000000       0.25000000000000000        0.0000000000000000     
   1.0000000000000000       0.25000000000000000        0.0000000000000000     
  0.87500000000000000       0.28125000000000000        0.0000000000000000     
  0.90625000000000000       0.28125000000000000        0.0000000000000000     
  0.93750000000000000       0.28125000000000000        0.0000000000000000     
  0.96875000000000000       0.28125000000000000        0.0000000000000000     
   1.0000000000000000       0.28125000000000000        0.0000000000000000     
  0.87500000000000000       0.31250000000000000        0.0000000000000000     
  0.90625000000000000       0.31250000000000000        0.0000000000000000     
  0.93750000000000000       0.31250000000000000        0.0000000000000000     
  0.96875000000000000       0.31250000000000000        0.0000000000000000     
   1.0000000000000000       0.31250000000000000        0.0000000000000000     
  0.87500000000000000       0.34375000000000000        0.0000000000000000     
  0.90625000000000000       0.34375000000000000        0.0000000000000000     
  0.93750000000000000       0.34375000000000000        0.0000000000000000     
  0.96875000000000000       0.34375000000000000        0.0000000000000000     
   1.0000000000000000       0.34375000000000000        0.0000000000000000     
  0.87500000000000000       0.37500000000000000        0.0000000000000000     
  0.90625000000000000       0.37500000000000000        0.0000000000000000     
  0.93750000000000000       0.37500000000000000        0.0000000000000000     
  0.96875000000000000       0.37500000000000000        0.0000000000000000     
   1.0000000000000000       0.37500000000000000        0.0000000000000000     
   0.0000000000000000       0.37500000000000000        0.0000000000000000     
   3.1250000000000000E-002  0.37500000000000000        0.0000000000000000     
   6.2500000000000000E-002  0.37500000000000000        0.0000000000000000     
   9.3750000000000000E-002  0.37500000000000000        0.0000000000000000     
  0.12500000000000000       0.37500000000000000        0.0000000000000000     
   0.0000000000000000       0.40625000000000000        0.0000000000000000     
   3.1250000000000000E-002  0.40625000000000000        0.0000000000000000     
   6.2500000000000000E-002  0.40625000000000000        0.0000000000000000     
   9.3750000000000000E-002  0.40625000000000000        0.0000000000000000     
  0.12500000000000000       0.40625000000000000        0.0000000000000000     
   0.0000000000000000       0.43750000000000000        0.0000000000000000     
   3.1250000000000000E-002  0.43750000000000000        0.0000000000000000     
   6.2500000000000000E-002  0.43750000000000000        0.0000000000000000     
   9.3750000000000000E-002  0.43750000000000000        0.0000000000000000     
  0.12500000000000000       0.43750000000000000        0.0000000000000000     
   0.0000000000000000       0.46875000000000000        0.0000000000000000     
   3.1250000000000000E-002  0.46875000000000000        0.0000000000000000     
   6.2500000000000000E-002  0.46875000000000000        0.0000000000000000     
   9.3750000000000000E-002  0.46875000000000000        0.0000000000000000     
  0.12500000000000000       0.46875000000000000        0.0000000000000000     
   0.0000000000000000       0.50000000000000000        0.0000000000000000     
   3.1250000000000000E-002  0.50000000000000000        0.0000000000000000     
   6.2500000000000000E-002  0.50000000000000000        0.0000000000000000     
   9.3750000000000000E-002  0.50000000000000000        0.0000000000000000     
  0.12500000000000000       0.50000000000000000        0.0000000000000000     
  0.12500000000000000       0.37500000000000000        0.0000000000000000     
  0.15625000000000000       0.37500000000000000        0.0000000000000000     
  0.18750000000000000       0.37500000000000000        0.0000000000000000     
  0.21875000000000000       0.37500000000000000        0.0000000000000000     
  0.25000000000000000       0.37500000000000000        0.0000000000000000     
  0.12500000000000000       0.40625000000000000        0.0000000000000000     
  0.15625000000000000       0.40625000000000000        0.0000000000000000     
  0.18750000000000000       0.40625000000000000        0.0000000000000000     
  0.21875000000000000       0.40625000000000000        0.0000000000000000     
  0.25000000000000000       0.40625000000000000        0.0000000000000000     
  0.12500000000000000       0.43750000000000000        0.0000000000000000     
  0.15625000000000000       0.43750000000000000        0.0000000000000000     
  0.18750000000000000       0.43750000000000000        0.0000000000000000     
  0.21875000000000000       0.43750000000000000        0.0000000000000000     
  0.25000000000000000       0.43750000000000000        0.0000000000000000     
  0.12500000000000000       0.46875000000000000        0.0000000000000000     
  0.15625000000000000       0.46875000000000000        0.0000000000000000     
  0.18750000000000000       0.46875000000000000        0.0000000000000000     
  0.21875000000000000       0.46875000000000000        0.0000000000000000     
  0.25000000000000000       0.46875000000000000        0.0000000000000000     
  0.12500000000000000       0.50000000000000000        0.0000000000000000     
  0.15625000000000000       0.50000000000000000        0.0000000000000000     
  0.18750000000000000       0.50000000000000000        0.0000000000000000     
  0.21875000000000000       0.50000000000000000        0.0000000000000000     
  0.25000000000000000       0.50000000000000000        0.0000000000000000     
  0.25000000000000000       0.37500000000000000        0.0000000000000000     
  0.28125000000000000       0.37500000000000000        0.0000000000000000     
  0.31250000000000000       0.37500000000000000        0.0000000000000000     
  0.34375000000000000       0.37500000000000000        0.0000000000000000     
  0.37500000000000000       0.37500000000000000        0.0000000000000000     
  0.25000000000000000       0.40625000000000000        0.0000000000000000     
  0.28125000000000000       0.40625000000000000        0.0000000000000000     
  0.31250000000000000       0.40625000000000000        0.0000000000000000     
  0.34375000000000000       0.40625000000000000        0.0000000000000000     
  0.37500000000000000       0.40625000000000000        0.0000000000000000     
  0.25000000000000000       0.43750000000000000        0.0000000000000000     
  0.28125000000000000       0.43750000000000000        0.0000000000000000     
  0.31250000000000000       0.43750000000000000        0.0000000000000000     
  0.34375000000000000       0.43750000000000000        0.0000000000000000     
  0.37500000000000000       0.43750000000000000        0.0000000000000000     
  0.25000000000000000       0.46875000000000000        0.0000000000000000     
  0.28125000000000000       0.46875000000000000        0.0000000000000000     
  0.31250000000000000       0.46875000000000000        0.0000000000000000     
  0.34375000000000000       0.46875000000000000        0.0000000000000000     
  0.37500000000000000       0.46875000000000000        0.0000000000000000     
  0.25000000000000000       0.50000000000000000        0.0000000000000000     
  0.28125000000000000       0.50000000000000000        0.0000000000000000     
  0.31250000000000000       0.50000000000000000        0.0000000000000000     
  0.34375000000000000       0.50000000000000000        0.0000000000000000     
  0.37500000000000000       0.50000000000000000        0.0000000000000000     
  0.37500000000000000       0.37500000000000000        0.0000000000000000     
  0.40625000000000000       0.37500000000000000        0.0000000000000000     
  0.43750000000000000       0.37500000000000000        0.0000000000000000     
  0.46875000000000000       0.37500000000000000        0.0000000000000000     
  0.50000000000000000       0.37500000000000000        0.0000000000000000     
  0.37500000000000000       0.40625000000000000        0.0000000000000000     
  0.40625000000000000       0.40625000000000000        0.0000000000000000     
  0.43750000000000000       0.40625000000000000        0.0000000000000000     
  0.46875000000000000       0.40625000000000000        0.0000000000000000     
  0.50000000000000000       0.40625000000000000        0.0000000000000000     
  0.37500000000000000       0.43750000000000000        0.0000000000000000     
  0.40625000000000000       0.43750000000000000        0.0000000000000000     
  0.43750000000000000       0.43750000000000000        0.0000000000000000     
  0.46875000000000000       0.43750000000000000        0.0000000000000000     
  0.50000000000000000       0.43750000000000000        0.0000000000000000     
  0.37500000000000000       0.46875000000000000        0.0000000000000000     
  0.40625000000000000       0.46875000000000000        0.0000000000000000     
  0.43750000000000000       0.46875000000000000        0.0000000000000000     
  0.46875000000000000       0.46875000000000000        0.0000000000000000     
  0.50000000000000000       0.46875000000000000        0.0000000000000000     
  0.37500000000000000       0.50000000000000000        0.0000000000000000     
  0.40625000000000000       0.50000000000000000        0.0000000000000000     
  0.43750000000000000       0.50000000000000000        0.0000000000000000     
  0.46875000000000000       0.50000000000000000        0.0000000000000000     
  0.50000000000000000       0.50000000000000000        0.0000000000000000     
  0.50000000000000000       0.37500000000000000        0.0000000000000000     
  0.53125000000000000       0.37500000000000000        0.0000000000000000     
  0.56250000000000000       0.37500000000000000        0.0000000000000000     
  0.59375000000000000       0.37500000000000000        0.0000000000000000     
  0.62500000000000000       0.37500000000000000        0.0000000000000000     
  0.50000000000000000       0.40625000000000000        0.0000000000000000     
  0.53125000000000000       0.40625000000000000        0.0000000000000000     
  0.56250000000000000       0.40625000000000000        0.0000000000000000     
  0.59375000000000000       0.40625000000000000        0.0000000000000000     
  0.62500000000000000       0.40625000000000000        0.0000000000000000     
  0.50000000000000000       0.43750000000000000        0.0000000000000000     
  0.53125000000000000       0.43750000000000000        0.0000000000000000     
  0.56250000000000000       0.43750000000000000        0.0000000000000000     
  0.59375000000000000       0.43750000000000000        0.0000000000000000     
  0.62500000000000000       0.43750000000000000        0.0000000000000000     
  0.50000000000000000       0.46875000000000000        0.0000000000000000     
  0.53125000000000000       0.46875000000000000        0.0000000000000000     
  0.56250000000000000       0.46875000000000000        0.0000000000000000     
  0.59375000000000000       0.46875000000000000        0.0000000000000000     
  0.62500000000000000       0.46875000000000000        0.0000000000000000     
  0.50000000000000000       0.50000000000000000        0.0000000000000000     
  0.53125000000000000       0.50000000000000000        0.0000000000000000     
  0.56250000000000000       0.50000000000000000        0.0000000000000000     
  0.59375000000000000       0.50000000000000000        0.0000000000000000     
  0.62500000000000000       0.50000000000000000        0.0000000000000000     
  0.62500000000000000       0.37500000000000000        0.0000000000000000     
  0.65625000000000000       0.37500000000000000        0.0000000000000000     
  0.68750000000000000       0.37500000000000000        0.0000000000000000     
  0.71875000000000000       0.37500000000000000        0.0000000000000000     
  0.75000000000000000       0.37500000000000000        0.0000000000000000     
  0.62500000000000000       0.40625000000000000        0.0000000000000000     
  0.65625000000000000       0.40625000000000000        0.0000000000000000     
  0.68750000000000000       0.40625000000000000        0.0000000000000000     
  0.71875000000000000       0.40625000000000000        0.0000000000000000     
  0.75000000000000000       0.40625000000000000        0.0000000000000000     
  0.62500000000000000       0.43750000000000000        0.0000000000000000     
  0.65625000000000000       0.43750000000000000        0.0000000000000000     
  0.68750000000000000       0.43750000000000000        0.0000000000000000     
  0.71875000000000000       0.43750000000000000        0.0000000000000000     
  0.75000000000000000       0.43750000000000000        0.0000000000000000     
  0.62500000000000000       0.46875000000000000        0.0000000000000000     
  0.65625000000000000       0.46875000000000000        0.0000000000000000     
  0.68750000000000000       0.46875000000000000        0.0000000000000000     
  0.71875000000000000       0.46875000000000000        0.0000000000000000     
  0.75000000000000000       0.46875000000000000        0.0000000000000000     
  0.62500000000000000       0.50000000000000000        0.0000000000000000     
  0.65625000000000000       0.50000000000000000        0.0000000000000000     
  0.68750000000000000       0.50000000000000000        0.0000000000000000     
  0.71875000000000000       0.50000000000000000        0.0000000000000000     
  0.75000000000000000       0.50000000000000000        0.0000000000000000     
  0.75000000000000000       0.37500000000000000        0.0000000000000000     
  0.78125000000000000       0.37500000000000000        0.0000000000000000     
  0.81250000000000000       0.37500000000000000        0.0000000000000000     
  0.84375000000000000       0.37500000000000000        0.0000000000000000     
  0.87500000000000000       0.37500000000000000        0.0000000000000000     
  0.75000000000000000       0.40625000000000000        0.0000000000000000     
  0.78125000000000000       0.40625000000000000        0.0000000000000000     
  0.81250000000000000       0.40625000000000000        0.0000000000000000     
  0.84375000000000000       0.40625000000000000        0.0000000000000000     
  0.87500000000000000       0.40625000000000000        0.0000000000000000     
  0.75000000000000000       0.43750000000000000        0.0000000000000000     
  0.78125000000000000       0.43750000000000000        0.0000000000000000     
  0.81250000000000000       0.43750000000000000        0.0000000000000000     
  0.84375000000000000       0.43750000000000000        0.0000000000000000     
  0.87500000000000000       0.43750000000000000        0.0000000000000000     
  0.75000000000000000       0.46875000000000000        0.0000000000000000     
  0.78125000000000000       0.46875000000000000        0.0000000000000000     
  0.81250000000000000       0.46875000000000000        0.0000000000000000     
  0.84375000000000000       0.46875000000000000        0.0000000000000000     
  0.87500000000000000       0.46875000000000000        0.0000000000000000     
  0.75000000000000000       0.50000000000000000        0.0000000000000000     
  0.78125000000000000       0.50000000000000000        0.0000000000000000     
  0.81250000000000000       0.50000000000000000        0.0000000000000000     
  0.84375000000000000       0.50000000000000000        0.0000000000000000     
  0.87500000000000000       0.50000000000000000        0.0000000000000000     
  0.87500000000000000       0.37500000000000000        0.0000000000000000     
  0.90625000000000000       0.37500000000000000        0.0000000000000000     
  0.93750000000000000       0.37500000000000000        0.0000000000000000     
  0.96875000000000000       0.37500000000000000        0.0000000000000000     
   1.0000000000000000       0.37500000000000000        0.0000000000000000     
  0.87500000000000000       0.40625000000000000        0.0000000000000000     
  0.90625000000000000       0.40625000000000000        0.0000000000000000     
  0.93750000000000000       0.40625000000000000        0.0000000000000000     
  0.96875000000000000       0.40625000000000000        0.0000000000000000     
   1.0000000000000000       0.40625000000000000        0.0000000000000000     
  0.87500000000000000       0.43750000000000000        0.0000000000000000     
  0.90625000000000000       0.43750000000000000        0.0000000000000000     
  0.93750000000000000       0.43750000000000000        0.0000000000000000     
  0.96875000000000000       0.43750000000000000        0.0000000000000000     
   1.0000000000000000       0.43750000000000000        0.0000000000000000     
  0.87500000000000000       0.46875000000000000        0.0000000000000000     
  0.90625000000000000       0.46875000000000000        0.0000000000000000     
  0.93750000000000000       0.46875000000000000        0.0000000000000000     
  0.96875000000000000       0.46875000000000000        0.0000000000000000     
   1.0000000000000000       0.46875000000000000        0.0000000000000000     
  0.87500000000000000       0.50000000000000000        0.0000000000000000     
  0.90625000000000000       0.50000000000000000        0.0000000000000000     
  0.93750000000000000       0.50000000000000000        0.0000000000000000     
  0.96875000000000000       0.50000000000000000        0.0000000000000000     
   1.0000000000000000       0.50000000000000000        0.0000000000000000     
   0.0000000000000000       0.50000000000000000        0.0000000000000000     
   3.1250000000000000E-002  0.50000000000000000        0.0000000000000000     
   6.2500000000000000E-002  0.50000000000000000        0.0000000000000000     
   9.3750000000000000E-002  0.50000000000000000        0.0000000000000000     
  0.12500000000000000       0.50000000000000000        0.0000000000000000     
   0.0000000000000000       0.53125000000000000        0.0000000000000000     
   3.1250000000000000E-002  0.53125000000000000        0.0000000000000000     
   6.2500000000000000E-002  0.53125000000000000        0.0000000000000000     
   9.3750000000000000E-002  0.53125000000000000        0.0000000000000000     
  0.12500000000000000       0.53125000000000000        0.0000000000000000     
   0.0000000000000000       0.56250000000000000        0.0000000000000000     
   3.1250000000000000E-002  0.56250000000000000        0.0000000000000000     
   6.2500000000000000E-002  0.56250000000000000        0.0000000000000000     
   9.3750000000000000E-002  0.56250000000000000        0.0000000000000000     
  0.12500000000000000       0.56250000000000000        0.0000000000000000     
   0.0000000000000000       0.59375000000000000        0.0000000000000000     
   3.1250000000000000E-002  0.59375000000000000        0.0000000000000000     
   6.2500000000000000E-002  0.59375000000000000        0.0000000000000000     
   9.3750000000000000E-002  0.59375000000000000        0.0000000000000000     
  0.12500000000000000       0.59375000000000000        0.0000000000000000     
   0.0000000000000000       0.62500000000000000        0.0000000000000000     
   3.1250000000000000E-002  0.62500000000000000        0.0000000000000000     
   6.2500000000000000E-002  0.62500000000000000        0.0000000000000000     
   9.3750000000000000E-002  0.62500000000000000        0.0000000000000000     
  0.12500000000000000       0.62500000000000000        0.0000000000000000     
  0.12500000000000000       0.50000000000000000        0.0000000000000000     
  0.15625000000000000       0.50000000000000000        0.0000000000000000     
  0.18750000000000000       0.50000000000000000        0.0000000000000000     
  0.21875000000000000       0.50000000000000000        0.0000000000000000     
  0.25000000000000000       0.50000000000000000        0.0000000000000000     
  0.12500000000000000       0.53125000000000000        0.0000000000000000     
  0.15625000000000000       0.53125000000000000        0.0000000000000000     
  0.18750000000000000       0.53125000000000000        0.0000000000000000     
  0.21875000000000000       0.53125000000000000        0.0000000000000000     
  0.25000000000000000       0.53125000000000000        0.0000000000000000     
  0.12500000000000000       0.56250000000000000        0.0000000000000000     
  0.15625000000000000       0.56250000000000000        0.0000000000000000     
  0.18750000000000000       0.56250000000000000        0.0000000000000000     
  0.21875000000000000       0.56250000000000000        0.0000000000000000     
  0.25000000000000000       0.56250000000000000        0.0000000000000000     
  0.12500000000000000       0.59375000000000000        0.0000000000000000     
  0.15625000000000000       0.59375000000000000        0.0000000000000000     
  0.18750000000000000       0.59375000000000000        0.0000000000000000     
  0.21875000000000000       0.59375000000000000        0.0000000000000000     
  0.25000000000000000       0.59375000000000000        0.0000000000000000     
  0.12500000000000000       0.62500000000000000        0.0000000000000000     
  0.15625000000000000       0.62500000000000000        0.0000000000000000     
  0.18750000000000000       0.62500000000000000        0.0000000000000000     
  0.21875000000000000       0.62500000000000000        0.0000000000000000     
  0.25000000000000000       0.62500000000000000        0.0000000000000000     
  0.25000000000000000       0.50000000000000000        0.0000000000000000     
  0.28125000000000000       0.50000000000000000        0.0000000000000000     
  0.31250000000000000       0.50000000000000000        0.0000000000000000     
  0.34375000000000000       0.50000000000000000        0.0000000000000000     
  0.37500000000000000       0.50000000000000000        0.0000000000000000     
  0.25000000000000000       0.53125000000000000        0.0000000000000000     
  0.28125000000000000       0.53125000000000000        0.0000000000000000     
  0.31250000000000000       0.53125000000000000        0.0000000000000000     
  0.34375000000000000       0.53125000000000000        0.0000000000000000     
  0.37500000000000000       0.53125000000000000        0.0000000000000000     
  0.25000000000000000       0.56250000000000000        0.0000000000000000     
  0.28125000000000000       0.56250000000000000        0.0000000000000000     
  0.31250000000000000       0.56250000000000000        0.0000000000000000     
  0.34375000000000000       0.56250000000000000        0.0000000000000000     
  0.37500000000000000       0.56250000000000000        0.0000000000000000     
  0.25000000000000000       0.59375000000000000        0.0000000000000000     
  0.28125000000000000       0.59375000000000000        0.0000000000000000     
  0.31250000000000000       0.59375000000000000        0.0000000000000000     
  0.34375000000000000       0.59375000000000000        0.0000000000000000     
  0.37500000000000000       0.59375000000000000        0.0000000000000000     
  0.25000000000000000       0.62500000000000000        0.0000000000000000     
  0.28125000000000000       0.62500000000000000        0.0000000000000000     
  0.31250000000000000       0.62500000000000000        0.0000000000000000     
  0.34375000000000000       0.62500000000000000        0.0000000000000000     
  0.37500000000000000       0.62500000000000000        0.0000000000000000     
  0.37500000000000000       0.50000000000000000        0.0000000000000000     
  0.40625000000000000       0.50000000000000000        0.0000000000000000     
  0.43750000000000000       0.50000000000000000        0.0000000000000000     
  0.46875000000000000       0.50000000000000000        0.0000000000000000     
  0.50000000000000000       0.50000000000000000        0.0000000000000000     
  0.37500000000000000       0.53125000000000000        0.0000000000000000     
  0.40625000000000000       0.53125000000000000        0.0000000000000000     
  0.43750000000000000       0.53125000000000000        0.0000000000000000     
  0.46875000000000000       0.53125000000000000        0.0000000000000000     
  0.50000000000000000       0.53125000000000000        0.0000000000000000     
  0.37500000000000000       0.56250000000000000        0.0000000000000000     
  0.40625000000000000       0.56250000000000000        0.0000000000000000     
  0.43750000000000000       0.56250000000000000        0.0000000000000000     
  0.46875000000000000       0.56250000000000000        0.0000000000000000     
  0.50000000000000000       0.56250000000000000        0.0000000000000000     
  0.37500000000000000       0.59375000000000000        0.0000000000000000     
  0.40625000000000000       0.59375000000000000        0.0000000000000000     
  0.43750000000000000       0.59375000000000000        0.0000000000000000     
  0.46875000000000000       0.59375000000000000        0.0000000000000000     
  0.50000000000000000       0.59375000000000000        0.0000000000000000     
  0.37500000000000000       0.62500000000000000        0.0000000000000000     
  0.40625000000000000       0.62500000000000000        0.0000000000000000     
  0.43750000000000000       0.62500000000000000        0.0000000000000000     
  0.46875000000000000       0.62500000000000000        0.0000000000000000     
  0.50000000000000000       0.62500000000000000        0.0000000000000000     
  0.50000000000000000       0.50000000000000000        0.0000000000000000     
  0.53125000000000000       0.50000000000000000        0.0000000000000000     
  0.56250000000000000       0.50000000000000000        0.0000000000000000     
  0.59375000000000000       0.50000000000000000        0.0000000000000000     
  0.62500000000000000       0.50000000000000000        0.0000000000000000     
  0.50000000000000000       0.53125000000000000        0.0000000000000000     
  0.53125000000000000       0.53125000000000000        0.0000000000000000     
  0.56250000000000000       0.53125000000000000        0.0000000000000000     
  0.59375000000000000       0.53125000000000000        0.0000000000000000     
  0.62500000000000000       0.53125000000000000        0.0000000000000000     
  0.50000000000000000       0.56250000000000000        0.0000000000000000     
  0.53125000000000000       0.56250000000000000        0.0000000000000000     
  0.56250000000000000       0.56250000000000000        0.0000000000000000     
  0.59375000000000000       0.56250000000000000        0.0000000000000000     
  0.62500000000000000       0.56250000000000000        0.0000000000000000     
  0.50000000000000000       0.59375000000000000        0.0000000000000000     
  0.53125000000000000       0.59375000000000000        0.0000000000000000     
  0.56250000000000000       0.59375000000000000        0.0000000000000000     
  0.59375000000000000       0.59375000000000000        0.0000000000000000     
  0.62500000000000000       0.59375000000000000        0.0000000000000000     
  0.50000000000000000       0.62500000000000000        0.0000000000000000     
  0.53125000000000000       0.62500000000000000        0.0000000000000000     
  0.56250000000000000       0.62500000000000000        0.0000000000000000     
  0.59375000000000000       0.62500000000000000        0.0000000000000000     
  0.62500000000000000       0.62500000000000000        0.0000000000000000     
  0.62500000000000000       0.50000000000000000        0.0000000000000000     
  0.65625000000000000       0.50000000000000000        0.0000000000000000     
  0.68750000000000000       0.50000000000000000        0.0000000000000000     
  0.71875000000000000       0.50000000000000000        0.0000000000000000     
  0.75000000000000000       0.50000000000000000        0.0000000000000000     
  0.62500000000000000       0.53125000000000000        0.0000000000000000     
  0.65625000000000000       0.53125000000000000        0.0000000000000000     
  0.68750000000000000       0.53125000000000000        0.0000000000000000     
  0.71875000000000000       0.53125000000000000        0.0000000000000000     
  0.75000000000000000       0.53125000000000000        0.0000000000000000     
  0.62500000000000000       0.56250000000000000        0.0000000000000000     
  0.65625000000000000       0.56250000000000000        0.0000000000000000     
  0.68750000000000000       0.56250000000000000        0.0000000000000000     
  0.71875000000000000       0.56250000000000000        0.0000000000000000     
  0.75000000000000000       0.56250000000000000        0.0000000000000000     
  0.62500000000000000       0.59375000000000000        0.0000000000000000     
  0.65625000000000000       0.59375000000000000        0.0000000000000000     
  0.68750000000000000       0.59375000000000000        0.0000000000000000     
  0.71875000000000000       0.59375000000000000        0.0000000000000000     
  0.75000000000000000       0.59375000000000000        0.0000000000000000     
  0.62500000000000000       0.62500000000000000        0.0000000000000000     
  0.65625000000000000       0.62500000000000000        0.0000000000000000     
  0.68750000000000000       0.62500000000000000        0.0000000000000000     
  0.71875000000000000       0.62500000000000000        0.0000000000000000     
  0.75000000000000000       0.62500000000000000        0.0000000000000000     
  0.75000000000000000       0.50000000000000000        0.0000000000000000     
  0.78125000000000000       0.50000000000000000        0.0000000000000000     
  0.81250000000000000       0.50000000000000000        0.0000000000000000     
  0.84375000000000000       0.50000000000000000        0.0000000000000000     
  0.87500000000000000       0.50000000000000000        0.0000000000000000     
  0.75000000000000000       0.53125000000000000        0.0000000000000000     
  0.78125000000000000       0.53125000000000000        0.0000000000000000     
  0.81250000000000000       0.53125000000000000        0.0000000000000000     
  0.84375000000000000       0.53125000000000000        0.0000000000000000     
  0.87500000000000000       0.53125000000000000        0.0000000000000000     
  0.75000000000000000       0.56250000000000000        0.0000000000000000     
  0.78125000000000000       0.56250000000000000        0.0000000000000000     
  0.81250000000000000       0.56250000000000000        0.0000000000000000     
  0.84375000000000000       0.56250000000000000        0.0000000000000000     
  0.87500000000000000       0.56250000000000000        0.0000000000000000     
  0.75000000000000000       0.59375000000000000        0.0000000000000000     
  0.78125000000000000       0.59375000000000000        0.0000000000000000     
  0.81250000000000000       0.59375000000000000        0.0000000000000000     
  0.84375000000000000       0.59375000000000000        0.0000000000000000     
  0.87500000000000000       0.59375000000000000        0.0000000000000000     
  0.75000000000000000       0.62500000000000000        0.0000000000000000     
  0.78125000000000000       0.62500000000000000        0.0000000000000000     
  0.81250000000000000       0.62500000000000000        0.0000000000000000     
  0.84375000000000000       0.62500000000000000        0.0000000000000000     
  0.87500000000000000       0.62500000000000000        0.0000000000000000     
  0.87500000000000000       0.50000000000000000        0.0000000000000000     
  0.90625000000000000       0.50000000000000000        0.0000000000000000     
  0.93750000000000000       0.50000000000000000        0.0000000000000000     
  0.96875000000000000       0.50000000000000000        0.0000000000000000     
   1.0000000000000000       0.50000000000000000        0.0000000000000000     
  0.87500000000000000       0.53125000000000000        0.0000000000000000     
  0.90625000000000000       0.53125000000000000        0.0000000000000000     
  0.93750000000000000       0.53125000000000000        0.0000000000000000     
  0.96875000000000000       0.53125000000000000        0.0000000000000000     
   1.0000000000000000       0.53125000000000000        0.0000000000000000     
  0.87500000000000000       0.56250000000000000        0.0000000000000000     
  0.90625000000000000       0.56250000000000000        0.0000000000000000     
  0.93750000000000000       0.56250000000000000        0.0000000000000000     
  0.96875000000000000       0.56250000000000000        0.0000000000000000     
   1.0000000000000000       0.56250000000000000        0.0000000000000000     
  0.87500000000000000       0.59375000000000000        0.0000000000000000     
  0.90625000000000000       0.59375000000000000        0.0000000000000000     
  0.93750000000000000       0.59375000000000000        0.0000000000000000     
  0.96875000000000000       0.59375000000000000        0.0000000000000000     
   1.0000000000000000       0.59375000000000000        0.0000000000000000     
  0.87500000000000000       0.62500000000000000        0.0000000000000000     
  0.90625000000000000       0.62500000000000000        0.0000000000000000     
  0.93750000000000000       0.62500000000000000        0.0000000000000000     
  0.96875000000000000       0.62500000000000000        0.0000000000000000     
   1.0000000000000000       0.62500000000000000        0.0000000000000000     
   0.0000000000000000       0.62500000000000000        0.0000000000000000     
   3.1250000000000000E-002  0.62500000000000000        0.0000000000000000     
   6.2500000000000000E-002  0.62500000000000000        0.0000000000000000     
   9.3750000000000000E-002  0.62500000000000000        0.0000000000000000     
  0.12500000000000000       0.62500000000000000        0.0000000000000000     
   0.0000000000000000       0.65625000000000000        0.0000000000000000     
   3.1250000000000000E-002  0.65625000000000000        0.0000000000000000     
   6.2500000000000000E-002  0.65625000000000000        0.0000000000000000     
   9.3750000000000000E-002  0.65625000000000000        0.0000000000000000     
  0.12500000000000000       0.65625000000000000        0.0000000000000000     
   0.0000000000000000       0.68750000000000000        0.0000000000000000     
   3.1250000000000000E-002  0.68750000000000000        0.0000000000000000     
   6.2500000000000000E-002  0.68750000000000000        0.0000000000000000     
   9.3750000000000000E-002  0.68750000000000000        0.0000000000000000     
  0.12500000000000000       0.68750000000000000        0.0000000000000000     
   0.0000000000000000       0.71875000000000000        0.0000000000000000     
   3.1250000000000000E-002  0.71875000000000000        0.0000000000000000     
   6.2500000000000000E-002  0.71875000000000000        0.0000000000000000     
   9.3750000000000000E-002  0.71875000000000000        0.0000000000000000     
  0.12500000000000000       0.71875000000000000        0.0000000000000000     
   0.0000000000000000       0.75000000000000000        0.0000000000000000     
   3.1250000000000000E-002  0.75000000000000000        0.0000000000000000     
   6.2500000000000000E-002  0.75000000000000000        0.0000000000000000     
   9.3750000000000000E-002  0.75000000000000000        0.0000000000000000     
  0.12500000000000000       0.75000000000000000        0.0000000000000000     
  0.12500000000000000       0.62500000000000000        0.0000000000000000     
  0.15625000000000000       0.62500000000000000        0.0000000000000000     
  0.18750000000000000       0.62500000000000000        0.0000000000000000     
  0.21875000000000000       0.62500000000000000        0.0000000000000000     
  0.25000000000000000       0.62500000000000000        0.0000000000000000     
  0.12500000000000000       0.65625000000000000        0.0000000000000000     
  0.15625000000000000       0.65625000000000000        0.0000000000000000     
  0.18750000000000000       0.65625000000000000        0.0000000000000000     
  0.21875000000000000       0.65625000000000000        0.0000000000000000     
  0.25000000000000000       0.65625000000000000        0.0000000000000000     
  0.12500000000000000       0.68750000000000000        0.0000000000000000     
  0.15625000000000000       0.68750000000000000        0.0000000000000000     
  0.18750000000000000       0.68750000000000000        0.0000000000000000     
  0.21875000000000000       0.68750000000000000        0.0000000000000000     
  0.25000000000000000       0.68750000000000000        0.0000000000000000     
  0.12500000000000000       0.71875000000000000        0.0000000000000000     
  0.15625000000000000       0.71875000000000000        0.0000000000000000     
  0.18750000000000000       0.71875000000000000        0.0000000000000000     
  0.21875000000000000       0.71875000000000000        0.0000000000000000     
  0.25000000000000000       0.71875000000000000        0.0000000000000000     
  0.12500000000000000       0.75000000000000000        0.0000000000000000     
  0.15625000000000000       0.75000000000000000        0.0000000000000000     
  0.18750000000000000       0.75000000000000000        0.0000000000000000     
  0.21875000000000000       0.75000000000000000        0.0000000000000000     
  0.25000000000000000       0.75000000000000000        0.0000000000000000     
  0.25000000000000000       0.62500000000000000        0.0000000000000000     
  0.28125000000000000       0.62500000000000000        0.0000000000000000     
  0.31250000000000000       0.62500000000000000        0.0000000000000000     
  0.34375000000000000       0.62500000000000000        0.0000000000000000     
  0.37500000000000000       0.62500000000000000        0.0000000000000000     
  0.25000000000000000       0.65625000000000000        0.0000000000000000     
  0.28125000000000000       0.65625000000000000        0.0000000000000000     
  0.31250000000000000       0.65625000000000000        0.0000000000000000     
  0.34375000000000000       0.65625000000000000        0.0000000000000000     
  0.37500000000000000       0.65625000000000000        0.0000000000000000     
  0.25000000000000000       0.68750000000000000        0.0000000000000000     
  0.28125000000000000       0.68750000000000000        0.0000000000000000     
  0.31250000000000000       0.68750000000000000        0.0000000000000000     
  0.34375000000000000       0.68750000000000000        0.0000000000000000     
  0.37500000000000000       0.68750000000000000        0.0000000000000000     
  0.25000000000000000       0.71875000000000000        0.0000000000000000     
  0.28125000000000000       0.71875000000000000        0.0000000000000000     
  0.31250000000000000       0.71875000000000000        0.0000000000000000     
  0.34375000000000000       0.71875000000000000        0.0000000000000000     
  0.37500000000000000       0.71875000000000000        0.0000000000000000     
  0.25000000000000000       0.75000000000000000        0.0000000000000000     
  0.28125000000000000       0.75000000000000000        0.0000000000000000     
  0.31250000000000000       0.75000000000000000        0.0000000000000000     
  0.34375000000000000       0.75000000000000000        0.0000000000000000     
  0.37500000000000000       0.75000000000000000        0.0000000000000000     
  0.37500000000000000       0.62500000000000000        0.0000000000000000     
  0.40625000000000000       0.62500000000000000        0.0000000000000000     
  0.43750000000000000       0.62500000000000000        0.0000000000000000     
  0.46875000000000000       0.62500000000000000        0.0000000000000000     
  0.50000000000000000       0.62500000000000000        0.0000000000000000     
  0.37500000000000000       0.65625000000000000        0.0000000000000000     
  0.40625000000000000       0.65625000000000000        0.0000000000000000     
  0.43750000000000000       0.65625000000000000        0.0000000000000000     
  0.46875000000000000       0.65625000000000000        0.0000000000000000     
  0.50000000000000000       0.65625000000000000        0.0000000000000000     
  0.37500000000000000       0.68750000000000000        0.0000000000000000     
  0.40625000000000000       0.68750000000000000        0.0000000000000000     
  0.43750000000000000       0.68750000000000000        0.0000000000000000     
  0.46875000000000000       0.68750000000000000        0.0000000000000000     
  0.50000000000000000       0.68750000000000000        0.0000000000000000     
  0.37500000000000000       0.71875000000000000        0.0000000000000000     
  0.40625000000000000       0.71875000000000000        0.0000000000000000     
  0.43750000000000000       0.71875000000000000        0.0000000000000000     
  0.46875000000000000       0.71875000000000000        0.0000000000000000     
  0.50000000000000000       0.71875000000000000        0.0000000000000000     
  0.37500000000000000       0.75000000000000000        0.0000000000000000     
  0.40625000000000000       0.75000000000000000        0.0000000000000000     
  0.43750000000000000       0.75000000000000000        0.0000000000000000     
  0.46875000000000000       0.75000000000000000        0.0000000000000000     
  0.50000000000000000       0.75000000000000000        0.0000000000000000     
  0.50000000000000000       0.62500000000000000        0.0000000000000000     
  0.53125000000000000       0.62500000000000000        0.0000000000000000     
  0.56250000000000000       0.62500000000000000        0.0000000000000000     
  0.59375000000000000       0.62500000000000000        0.0000000000000000     
  0.62500000000000000       0.62500000000000000        0.0000000000000000     
  0.50000000000000000       0.65625000000000000        0.0000000000000000     
  0.53125000000000000       0.65625000000000000        0.0000000000000000     
  0.56250000000000000       0.65625000000000000        0.0000000000000000     
  0.59375000000000000       0.65625000000000000        0.0000000000000000     
  0.62500000000000000       0.65625000000000000        0.0000000000000000     
  0.50000000000000000       0.68750000000000000        0.0000000000000000     
  0.53125000000000000       0.68750000000000000        0.0000000000000000     
  0.56250000000000000       0.68750000000000000        0.0000000000000000     
  0.59375000000000000       0.68750000000000000        0.0000000000000000     
  0.62500000000000000       0.68750000000000000        0.0000000000000000     
  0.50000000000000000       0.71875000000000000        0.0000000000000000     
  0.53125000000000000       0.71875000000000000        0.0000000000000000     
  0.56250000000000000       0.71875000000000000        0.0000000000000000     
  0.59375000000000000       0.71875000000000000        0.0000000000000000     
  0.62500000000000000       0.71875000000000000        0.0000000000000000     
  0.50000000000000000       0.75000000000000000        0.0000000000000000     
  0.53125000000000000       0.75000000000000000        0.0000000000000000     
  0.56250000000000000       0.75000000000000000        0.0000000000000000     
  0.59375000000000000       0.75000000000000000        0.0000000000000000     
  0.62500000000000000       0.75000000000000000        0.0000000000000000     
  0.62500000000000000       0.62500000000000000        0.0000000000000000     
  0.65625000000000000       0.62500000000000000        0.0000000000000000     
  0.68750000000000000       0.62500000000000000        0.0000000000000000     
  0.71875000000000000       0.62500000000000000        0.0000000000000000     
  0.75000000000000000       0.62500000000000000        0.0000000000000000     
  0.62500000000000000       0.65625000000000000        0.0000000000000000     
  0.65625000000000000       0.65625000000000000        0.0000000000000000     
  0.68750000000000000       0.65625000000000000        0.0000000000000000     
  0.71875000000000000       0.65625000000000000        0.0000000000000000     
  0.75000000000000000       0.65625000000000000        0.0000000000000000     
  0.62500000000000000       0.68750000000000000        0.0000000000000000     
  0.65625000000000000       0.68750000000000000        0.0000000000000000     
  0.68750000000000000       0.68750000000000000        0.0000000000000000     
  0.71875000000000000       0.68750000000000000        0.0000000000000000     
  0.75000000000000000       0.68750000000000000        0.0000000000000000     
  0.62500000000000000       0.71875000000000000        0.0000000000000000     
  0.65625000000000000       0.71875000000000000        0.0000000000000000     
  0.68750000000000000       0.71875000000000000        0.0000000000000000     
  0.71875000000000000       0.71875000000000000        0.0000000000000000     
  0.75000000000000000       0.71875000000000000        0.0000000000000000     
  0.62500000000000000       0.75000000000000000        0.0000000000000000     
  0.65625000000000000       0.75000000000000000        0.0000000000000000     
  0.68750000000000000       0.75000000000000000        0.0000000000000000     
  0.71875000000000000       0.75000000000000000        0.0000000000000000     
  0.75000000000000000       0.75000000000000000        0.0000000000000000     
  0.75000000000000000       0.62500000000000000        0.0000000000000000     
  0.78125000000000000       0.62500000000000000        0.0000000000000000     
  0.81250000000000000       0.62500000000000000        0.0000000000000000     
  0.84375000000000000       0.62500000000000000        0.0000000000000000     
  0.87500000000000000       0.62500000000000000        0.0000000000000000     
  0.75000000000000000       0.65625000000000000        0.0000000000000000     
  0.78125000000000000       0.65625000000000000        0.0000000000000000     
  0.81250000000000000       0.65625000000000000        0.0000000000000000     
  0.84375000000000000       0.65625000000000000        0.0000000000000000     
  0.87500000000000000       0.65625000000000000        0.0000000000000000     
  0.75000000000000000       0.68750000000000000        0.0000000000000000     
  0.78125000000000000       0.68750000000000000        0.0000000000000000     
  0.81250000000000000       0.68750000000000000        0.0000000000000000     
  0.84375000000000000       0.68750000000000000        0.0000000000000000     
  0.87500000000000000       0.68750000000000000        0.0000000000000000     
  0.75000000000000000       0.71875000000000000        0.0000000000000000     
  0.78125000000000000       0.71875000000000000        0.0000000000000000     
  0.81250000000000000       0.71875000000000000        0.0000000000000000     
  0.84375000000000000       0.71875000000000000        0.0000000000000000     
  0.87500000000000000       0.71875000000000000        0.0000000000000000     
  0.75000000000000000       0.75000000000000000        0.0000000000000000     
  0.78125000000000000       0.75000000000000000        0.0000000000000000     
  0.81250000000000000       0.75000000000000000        0.0000000000000000     
  0.84375000000000000       0.75000000000000000        0.0000000000000000     
  0.87500000000000000       0.75000000000000000        0.0000000000000000     
  0.87500000000000000       0.62500000000000000        0.0000000000000000     
  0.90625000000000000       0.62500000000000000        0.0000000000000000     
  0.93750000000000000       0.62500000000000000        0.0000000000000000     
  0.96875000000000000       0.62500000000000000        0.0000000000000000     
   1.0000000000000000       0.62500000000000000        0.0000000000000000     
  0.87500000000000000       0.65625000000000000        0.0000000000000000     
  0.90625000000000000       0.65625000000000000        0.0000000000000000     
  0.93750000000000000       0.65625000000000000        0.0000000000000000     
  0.96875000000000000       0.65625000000000000        0.0000000000000000     
   1.0000000000000000       0.65625000000000000        0.0000000000000000     
  0.87500000000000000       0.68750000000000000        0.0000000000000000     
  0.90625000000000000       0.68750000000000000        0.0000000000000000     
  0.93750000000000000       0.68750000000000000        0.0000000000000000     
  0.96875000000000000       0.68750000000000000        0.0000000000000000     
   1.0000000000000000       0.68750000000000000        0.0000000000000000     
  0.87500000000000000       0.71875000000000000        0.0000000000000000     
  0.90625000000000000       0.71875000000000000        0.0000000000000000     
  0.93750000000000000       0.71875000000000000        0.0000000000000000     
  0.96875000000000000       0.71875000000000000        0.0000000000000000     
   1.0000000000000000       0.71875000000000000        0.0000000000000000     
  0.87500000000000000       0.75000000000000000        0.0000000000000000     
  0.90625000000000000       0.75000000000000000        0.0000000000000000     
  0.93750000000000000       0.75000000000000000        0.0000000000000000     
  0.96875000000000000       0.75000000000000000        0.0000000000000000     
   1.0000000000000000       0.75000000000000000        0.0000000000000000     
   0.0000000000000000       0.75000000000000000        0.0000000000000000     
   3.1250000000000000E-002  0.75000000000000000        0.0000000000000000     
   6.2500000000000000E-002  0.75000000000000000        0.0000000000000000     
   9.3750000000000000E-002  0.75000000000000000        0.0000000000000000     
  0.12500000000000000       0.75000000000000000        0.0000000000000000     
   0.0000000000000000       0.78125000000000000        0.0000000000000000     
   3.1250000000000000E-002  0.78125000000000000        0.0000000000000000     
   6.2500000000000000E-002  0.78125000000000000        0.0000000000000000     
   9.3750000000000000E-002  0.78125000000000000        0.0000000000000000     
  0.12500000000000000       0.78125000000000000        0.0000000000000000     
   0.0000000000000000       0.81250000000000000        0.0000000000000000     
   3.1250000000000000E-002  0.81250000000000000        0.0000000000000000     
   6.2500000000000000E-002  0.81250000000000000        0.0000000000000000     
   9.3750000000000000E-002  0.81250000000000000        0.0000000000000000     
  0.12500000000000000       0.81250000000000000        0.0000000000000000     
   0.0000000000000000       0.84375000000000000        0.0000000000000000     
   3.1250000000000000E-002  0.84375000000000000        0.0000000000000000     
   6.2500000000000000E-002  0.84375000000000000        0.0000000000000000     
   9.3750000000000000E-002  0.84375000000000000        0.0000000000000000     
  0.12500000000000000       0.84375000000000000        0.0000000000000000     
   0.0000000000000000       0.87500000000000000        0.0000000000000000     
   3.1250000000000000E-002  0.87500000000000000        0.0000000000000000     
   6.2500000000000000E-002  0.87500000000000000        0.0000000000000000     
   9.3750000000000000E-002  0.87500000000000000        0.0000000000000000     
  0.12500000000000000       0.87500000000000000        0.0000000000000000     
  0.12500000000000000       0.75000000000000000        0.0000000000000000     
  0.15625000000000000       0.75000000000000000        0.0000000000000000     
  0.18750000000000000       0.75000000000000000        0.0000000000000000     
  0.21875000000000000       0.75000000000000000        0.0000000000000000     
  0.25000000000000000       0.75000000000000000        0.0000000000000000     
  0.12500000000000000       0.78125000000000000        0.0000000000000000     
  0.15625000000000000       0.78125000000000000        0.0000000000000000     
  0.18750000000000000       0.78125000000000000        0.0000000000000000     
  0.21875000000000000       0.78125000000000000        0.0000000000000000     
  0.25000000000000000       0.78125000000000000        0.0000000000000000     
  0.12500000000000000       0.81250000000000000        0.0000000000000000     
  0.15625000000000000       0.81250000000000000        0.0000000000000000     
  0.18750000000000000       0.81250000000000000        0.0000000000000000     
  0.21875000000000000       0.81250000000000000        0.0000000000000000     
  0.25000000000000000       0.81250000000000000        0.0000000000000000     
  0.12500000000000000       0.84375000000000000        0.0000000000000000     
  0.15625000000000000       0.84375000000000000        0.0000000000000000     
  0.18750000000000000       0.84375000000000000        0.0000000000000000     
  0.21875000000000000       0.84375000000000000        0.0000000000000000     
  0.25000000000000000       0.84375000000000000        0.0000000000000000     
  0.12500000000000000       0.87500000000000000        0.0000000000000000     
  0.15625000000000000       0.87500000000000000        0.0000000000000000     
  0.18750000000000000       0.87500000000000000        0.0000000000000000     
  0.21875000000000000       0.87500000000000000        0.0000000000000000     
  0.25000000000000000       0.87500000000000000        0.0000000000000000     
  0.25000000000000000       0.75000000000000000        0.0000000000000000     
  0.28125000000000000       0.75000000000000000        0.0000000000000000     
  0.31250000000000000       0.75000000000000000        0.0000000000000000     
  0.34375000000000000       0.75000000000000000        0.0000000000000000     
  0.37500000000000000       0.75000000000000000        0.0000000000000000     
  0.25000000000000000       0.78125000000000000        0.0000000000000000     
  0.28125000000000000       0.78125000000000000        0.0000000000000000     
  0.31250000000000000       0.78125000000000000        0.0000000000000000     
  0.34375000000000000       0.78125000000000000        0.0000000000000000     
  0.37500000000000000       0.78125000000000000        0.0000000000000000     
  0.25000000000000000       0.81250000000000000        0.0000000000000000     
  0.28125000000000000       0.81250000000000000        0.0000000000000000     
  0.31250000000000000       0.81250000000000000        0.0000000000000000     
  0.34375000000000000       0.81250000000000000        0.0000000000000000     
  0.37500000000000000       0.81250000000000000        0.0000000000000000     
  0.25000000000000000       0.84375000000000000        0.0000000000000000     
  0.28125000000000000       0.84375000000000000        0.0000000000000000     
  0.31250000000000000       0.84375000000000000        0.0000000000000000     
  0.34375000000000000       0.84375000000000000        0.0000000000000000     
  0.37500000000000000       0.84375000000000000        0.0000000000000000     
  0.25000000000000000       0.87500000000000000        0.0000000000000000     
  0.28125000000000000       0.87500000000000000        0.0000000000000000     
  0.31250000000000000       0.87500000000000000        0.0000000000000000     
  0.34375000000000000       0.87500000000000000        0.0000000000000000     
  0.37500000000000000       0.87500000000000000        0.0000000000000000     
  0.37500000000000000       0.75000000000000000        0.0000000000000000     
  0.40625000000000000       0.75000000000000000        0.0000000000000000     
  0.43750000000000000       0.75000000000000000        0.0000000000000000     
  0.46875000000000000       0.75000000000000000        0.0000000000000000     
  0.50000000000000000       0.75000000000000000        0.0000000000000000     
  0.37500000000000000       0.78125000000000000        0.0000000000000000     
  0.40625000000000000       0.78125000000000000        0.0000000000000000     
  0.43750000000000000       0.78125000000000000        0.0000000000000000     
  0.46875000000000000       0.78125000000000000        0.0000000000000000     
  0.50000000000000000       0.78125000000000000        0.0000000000000000     
  0.37500000000000000       0.81250000000000000        0.0000000000000000     
  0.40625000000000000       0.81250000000000000        0.0000000000000000     
  0.43750000000000000       0.81250000000000000        0.0000000000000000     
  0.46875000000000000       0.81250000000000000        0.0000000000000000     
  0.50000000000000000       0.81250000000000000        0.0000000000000000     
  0.37500000000000000       0.84375000000000000        0.0000000000000000     
  0.40625000000000000       0.84375000000000000        0.0000000000000000     
  0.43750000000000000       0.84375000000000000        0.0000000000000000     
  0.46875000000000000       0.84375000000000000        0.0000000000000000     
  0.50000000000000000       0.84375000000000000        0.0000000000000000     
  0.37500000000000000       0.87500000000000000        0.0000000000000000     
  0.40625000000000000       0.87500000000000000        0.0000000000000000     
  0.43750000000000000       0.87500000000000000        0.0000000000000000     
  0.46875000000000000       0.87500000000000000        0.0000000000000000     
  0.50000000000000000       0.87500000000000000        0.0000000000000000     
  0.50000000000000000       0.75000000000000000        0.0000000000000000     
  0.53125000000000000       0.75000000000000000        0.0000000000000000     
  0.56250000000000000       0.75000000000000000        0.0000000000000000     
  0.59375000000000000       0.75000000000000000        0.0000000000000000     
  0.62500000000000000       0.75000000000000000        0.0000000000000000     
  0.50000000000000000       0.78125000000000000        0.0000000000000000     
  0.53125000000000000       0.78125000000000000        0.0000000000000000     
  0.56250000000000000       0.78125000000000000        0.0000000000000000     
  0.59375000000000000       0.78125000000000000        0.0000000000000000     
  0.62500000000000000       0.78125000000000000        0.0000000000000000     
  0.50000000000000000       0.81250000000000000        0.0000000000000000     
  0.53125000000000000       0.81250000000000000        0.0000000000000000     
  0.56250000000000000       0.81250000000000000        0.0000000000000000     
  0.59375000000000000       0.81250000000000000        0.0000000000000000     
  0.62500000000000000       0.81250000000000000        0.0000000000000000     
  0.50000000000000000       0.84375000000000000        0.0000000000000000     
  0.53125000000000000       0.84375000000000000        0.0000000000000000     
  0.56250000000000000       0.84375000000000000        0.0000000000000000     
  0.59375000000000000       0.84375000000000000        0.0000000000000000     
  0.62500000000000000       0.84375000000000000        0.0000000000000000     
  0.50000000000000000       0.87500000000000000        0.0000000000000000     
  0.53125000000000000       0.87500000000000000        0.0000000000000000     
  0.56250000000000000       0.87500000000000000        0.0000000000000000     
  0.59375000000000000       0.87500000000000000        0.0000000000000000     
  0.62500000000000000       0.87500000000000000        0.0000000000000000     
  0.62500000000000000       0.75000000000000000        0.0000000000000000     
  0.65625000000000000       0.75000000000000000        0.0000000000000000     
  0.68750000000000000       0.75000000000000000        0.0000000000000000     
  0.71875000000000000       0.75000000000000000        0.0000000000000000     
  0.75000000000000000       0.75000000000000000        0.0000000000000000     
  0.62500000000000000       0.78125000000000000        0.0000000000000000     
  0.65625000000000000       0.78125000000000000        0.0000000000000000     
  0.68750000000000000       0.78125000000000000        0.0000000000000000     
  0.71875000000000000       0.78125000000000000        0.0000000000000000     
  0.75000000000000000       0.78125000000000000        0.0000000000000000     
  0.62500000000000000       0.81250000000000000        0.0000000000000000     
  0.65625000000000000       0.81250000000000000        0.0000000000000000     
  0.68750000000000000       0.81250000000000000        0.0000000000000000     
  0.71875000000000000       0.81250000000000000        0.0000000000000000     
  0.75000000000000000       0.81250000000000000        0.0000000000000000     
  0.62500000000000000       0.84375000000000000        0.0000000000000000     
  0.65625000000000000       0.84375000000000000        0.0000000000000000     
  0.68750000000000000       0.84375000000000000        0.0000000000000000     
  0.71875000000000000       0.84375000000000000        0.0000000000000000     
  0.75000000000000000       0.84375000000000000        0.0000000000000000     
  0.62500000000000000       0.87500000000000000        0.0000000000000000     
  0.65625000000000000       0.87500000000000000        0.0000000000000000     
  0.68750000000000000       0.87500000000000000        0.0000000000000000     
  0.71875000000000000       0.87500000000000000        0.0000000000000000     
  0.75000000000000000       0.87500000000000000        0.0000000000000000     
  0.75000000000000000       0.75000000000000000        0.0000000000000000     
  0.78125000000000000       0.75000000000000000        0.0000000000000000     
  0.81250000000000000       0.75000000000000000        0.0000000000000000     
  0.84375000000000000       0.75000000000000000        0.0000000000000000     
  0.87500000000000000       0.75000000000000000        0.0000000000000000     
  0.75000000000000000       0.78125000000000000        0.0000000000000000     
  0.78125000000000000       0.78125000000000000        0.0000000000000000     
  0.81250000000000000       0.78125000000000000        0.0000000000000000     
  0.84375000000000000       0.78125000000000000        0.0000000000000000     
  0.87500000000000000       0.78125000000000000        0.0000000000000000     
  0.75000000000000000       0.81250000000000000        0.0000000000000000     
  0.78125000000000000       0.81250000000000000        0.0000000000000000     
  0.81250000000000000       0.81250000000000000        0.0000000000000000     
  0.84375000000000000       0.81250000000000000        0.0000000000000000     
  0.87500000000000000       0.81250000000000000        0.0000000000000000     
  0.75000000000000000       0.84375000000000000        0.0000000000000000     
  0.78125000000000000       0.84375000000000000        0.0000000000000000     
  0.81250000000000000       0.84375000000000000        0.0000000000000000     
  0.84375000000000000       0.84375000000000000        0.0000000000000000     
  0.87500000000000000       0.84375000000000000        0.0000000000000000     
  0.75000000000000000       0.87500000000000000        0.0000000000000000     
  0.78125000000000000       0.87500000000000000        0.0000000000000000     
  0.81250000000000000       0.87500000000000000        0.0000000000000000     
  0.84375000000000000       0.87500000000000000        0.0000000000000000     
  0.87500000000000000       0.87500000000000000        0.0000000000000000     
  0.87500000000000000       0.75000000000000000        0.0000000000000000     
  0.90625000000000000       0.75000000000000000        0.0000000000000000     
  0.93750000000000000       0.75000000000000000        0.0000000000000000     
  0.96875000000000000       0.75000000000000000        0.0000000000000000     
   1.0000000000000000       0.75000000000000000        0.0000000000000000     
  0.87500000000000000       0.78125000000000000        0.0000000000000000     
  0.90625000000000000       0.78125000000000000        0.0000000000000000     
  0.93750000000000000       0.78125000000000000        0.0000000000000000     
  0.96875000000000000       0.78125000000000000        0.0000000000000000     
   1.0000000000000000       0.78125000000000000        0.0000000000000000     
  0.87500000000000000       0.81250000000000000        0.0000000000000000     
  0.90625000000000000       0.81250000000000000        0.0000000000000000     
  0.93750000000000000       0.81250000000000000        0.0000000000000000     
  0.96875000000000000       0.81250000000000000        0.0000000000000000     
   1.0000000000000000       0.81250000000000000        0.0000000000000000     
  0.87500000000000000       0.84375000000000000        0.0000000000000000     
  0.90625000000000000       0.84375000000000000        0.0000000000000000     
  0.93750000000000000       0.84375000000000000        0.0000000000000000     
  0.96875000000000000       0.84375000000000000        0.0000000000000000     
   1.0000000000000000       0.84375000000000000        0.0000000000000000     
  0.87500000000000000       0.87500000000000000        0.0000000000000000     
  0.90625000000000000       0.87500000000000000        0.0000000000000000     
  0.93750000000000000       0.87500000000000000        0.0000000000000000     
  0.96875000000000000       0.87500000000000000        0.0000000000000000     
   1.0000000000000000       0.87500000000000000        0.0000000000000000     
   0.0000000000000000       0.87500000000000000        0.0000000000000000     
   3.1250000000000000E-002  0.87500000000000000        0.0000000000000000     
   6.2500000000000000E-002  0.87500000000000000        0.0000000000000000     
   9.3750000000000000E-002  0.87500000000000000        0.0000000000000000     
  0.12500000000000000       0.87500000000000000        0.0000000000000000     
   0.0000000000000000       0.90625000000000000        0.0000000000000000     
   3.1250000000000000E-002  0.90625000000000000        0.0000000000000000     
   6.2500000000000000E-002  0.90625000000000000        0.0000000000000000     
   9.3750000000000000E-002  0.90625000000000000        0.0000000000000000     
  0.12500000000000000       0.90625000000000000        0.0000000000000000     
   0.0000000000000000       0.93750000000000000        0.0000000000000000     
   3.1250000000000000E-002  0.93750000000000000        0.0000000000000000     
   6.2500000000000000E-002  0.93750000000000000        0.0000000000000000     
   9.3750000000000000E-002  0.93750000000000000        0.0000000000000000     
  0.12500000000000000       0.93750000000000000        0.0000000000000000     
   0.0000000000000000       0.96875000000000000        0.0000000000000000     
   3.1250000000000000E-002  0.96875000000000000        0.0000000000000000     
   6.2500000000000000E-002  0.96875000000000000        0.0000000000000000     
   9.3750000000000000E-002  0.96875000000000000        0.0000000000000000     
  0.12500000000000000       0.96875000000000000        0.0000000000000000     
   0.0000000000000000        1.0000000000000000        0.0000000000000000     
   3.1250000000000000E-002   1.0000000000000000        0.0000000000000000     
   6.2500000000000000E-002   1.0000000000000000        0.0000000000000000     
   9.3750000000000000E-002   1.0000000000000000        0.0000000000000000     
  0.12500000000000000        1.0000000000000000        0.0000000000000000     
  0.12500000000000000       0.87500000000000000        0.0000000000000000     
  0.15625000000000000       0.87500000000000000        0.0000000000000000     
  0.18750000000000000       0.87500000000000000        0.0000000000000000     
  0.21875000000000000       0.87500000000000000        0.0000000000000000     
  0.25000000000000000       0.87500000000000000        0.0000000000000000     
  0.12500000000000000       0.90625000000000000        0.0000000000000000     
  0.15625000000000000       0.90625000000000000        0.0000000000000000     
  0.18750000000000000       0.90625000000000000        0.0000000000000000     
  0.21875000000000000       0.90625000000000000        0.0000000000000000     
  0.25000000000000000       0.90625000000000000        0.0000000000000000     
  0.12500000000000000       0.93750000000000000        0.0000000000000000     
  0.15625000000000000       0.93750000000000000        0.0000000000000000     
  0.18750000000000000       0.93750000000000000        0.0000000000000000     
  0.21875000000000000       0.93750000000000000        0.0000000000000000     
  0.25000000000000000       0.93750000000000000        0.0000000000000000     
  0.12500000000000000       0.96875000000000000        0.0000000000000000     
  0.15625000000000000       0.96875000000000000        0.0000000000000000     
  0.18750000000000000       0.96875000000000000        0.0000000000000000     
  0.21875000000000000       0.96875000000000000        0.0000000000000000     
  0.25000000000000000       0.96875000000000000        0.0000000000000000     
  0.12500000000000000        1.0000000000000000        0.0000000000000000     
  0.15625000000000000        1.0000000000000000        0.0000000000000000     
  0.18750000000000000        1.0000000000000000        0.0000000000000000     
  0.21875000000000000        1.0000000000000000        0.0000000000000000     
  0.25000000000000000        1.0000000000000000        0.0000000000000000     
  0.25000000000000000       0.87500000000000000        0.0000000000000000     
  0.28125000000000000       0.87500000000000000        0.0000000000000000     
  0.31250000000000000       0.87500000000000000        0.0000000000000000     
  0.34375000000000000       0.87500000000000000        0.0000000000000000     
  0.37500000000000000       0.87500000000000000        0.0000000000000000     
  0.25000000000000000       0.90625000000000000        0.0000000000000000     
  0.28125000000000000       0.90625000000000000        0.0000000000000000     
  0.31250000000000000       0.90625000000000000        0.0000000000000000     
  0.34375000000000000       0.90625000000000000        0.0000000000000000     
  0.37500000000000000       0.90625000000000000        0.0000000000000000     
  0.25000000000000000       0.93750000000000000        0.0000000000000000     
  0.28125000000000000       0.93750000000000000        0.0000000000000000     
  0.31250000000000000       0.93750000000000000        0.0000000000000000     
  0.34375000000000000       0.93750000000000000        0.0000000000000000     
  0.37500000000000000       0.93750000000000000        0.0000000000000000     
  0.25000000000000000       0.96875000000000000        0.0000000000000000     
  0.28125000000000000       0.96875000000000000        0.0000000000000000     
  0.31250000000000000       0.96875000000000000        0.0000000000000000     
  0.34375000000000000       0.96875000000000000        0.0000000000000000     
  0.37500000000000000       0.96875000000000000        0.0000000000000000     
  0.25000000000000000        1.0000000000000000        0.0000000000000000     
  0.28125000000000000        1.0000000000000000        0.0000000000000000     
  0.31250000000000000        1.0000000000000000        0.0000000000000000     
  0.34375000000000000        1.0000000000000000        0.0000000000000000     
  0.37500000000000000        1.0000000000000000        0.0000000000000000     
  0.37500000000000000       0.87500000000000000        0.0000000000000000     
  0.40625000000000000       0.87500000000000000        0.0000000000000000     
  0.43750000000000000       0.87500000000000000        0.0000000000000000     
  0.46875000000000000       0.87500000000000000        0.0000000000000000     
  0.50000000000000000       0.87500000000000000        0.0000000000000000     
  0.37500000000000000       0.90625000000000000        0.0000000000000000     
  0.40625000000000000       0.90625000000000000        0.0000000000000000     
  0.43750000000000000       0.90625000000000000        0.0000000000000000     
  0.46875000000000000       0.90625000000000000        0.0000000000000000     
  0.50000000000000000       0.90625000000000000        0.0000000000000000     
  0.37500000000000000       0.93750000000000000        0.0000000000000000     
  0.40625000000000000       0.93750000000000000        0.0000000000000000     
  0.43750000000000000       0.93750000000000000        0.0000000000000000     
  0.46875000000000000       0.93750000000000000        0.0000000000000000     
  0.50000000000000000       0.93750000000000000        0.0000000000000000     
  0.37500000000000000       0.96875000000000000        0.0000000000000000     
  0.40625000000000000       0.96875000000000000        0.0000000000000000     
  0.43750000000000000       0.96875000000000000        0.0000000000000000     
  0.46875000000000000       0.96875000000000000        0.0000000000000000     
  0.50000000000000000       0.96875000000000000        0.0000000000000000     
  0.37500000000000000        1.0000000000000000        0.0000000000000000     
  0.40625000000000000        1.0000000000000000        0.0000000000000000     
  0.43750000000000000        1.0000000000000000        0.0000000000000000     
  0.46875000000000000        1.0000000000000000        0.0000000000000000     
  0.50000000000000000        1.0000000000000000        0.0000000000000000     
  0.50000000000000000       0.87500000000000000        0.0000000000000000     
  0.53125000000000000       0.87500000000000000        0.0000000000000000     
  0.56250000000000000       0.87500000000000000        0.0000000000000000     
  0.59375000000000000       0.87500000000000000        0.0000000000000000     
  0.62500000000000000       0.87500000000000000        0.0000000000000000     
  0.50000000000000000       0.90625000000000000        0.0000000000000000     
  0.53125000000000000       0.90625000000000000        0.0000000000000000     
  0.56250000000000000       0.90625000000000000        0.0000000000000000     
  0.59375000000000000       0.90625000000000000        0.0000000000000000     
  0.62500000000000000       0.90625000000000000        0.0000000000000000     
  0.50000000000000000       0.93750000000000000        0.0000000000000000     
  0.53125000000000000       0.93750000000000000        0.0000000000000000     
  0.56250000000000000       0.93750000000000000        0.0000000000000000     
  0.59375000000000000       0.93750000000000000        0.0000000000000000     
  0.62500000000000000       0.93750000000000000        0.0000000000000000     
  0.50000000000000000       0.96875000000000000        0.0000000000000000     
  0.53125000000000000       0.96875000000000000        0.0000000000000000     
  0.56250000000000000       0.96875000000000000        0.0000000000000000     
  0.59375000000000000       0.96875000000000000        0.0000000000000000     
  0.62500000000000000       0.96875000000000000        0.0000000000000000     
  0.50000000000000000        1.0000000000000000        0.0000000000000000     
  0.53125000000000000        1.0000000000000000        0.0000000000000000     
  0.56250000000000000        1.0000000000000000        0.0000000000000000     
  0.59375000000000000        1.0000000000000000        0.0000000000000000     
  0.62500000000000000        1.0000000000000000        0.0000000000000000     
  0.62500000000000000       0.87500000000000000        0.0000000000000000     
  0.65625000000000000       0.87500000000000000        0.0000000000000000     
  0.68750000000000000       0.87500000000000000        0.0000000000000000     
  0.71875000000000000       0.87500000000000000        0.0000000000000000     
  0.75000000000000000       0.87500000000000000        0.0000000000000000     
  0.62500000000000000       0.90625000000000000        0.0000000000000000     
  0.65625000000000000       0.90625000000000000        0.0000000000000000     
  0.68750000000000000       0.90625000000000000        0.0000000000000000     
  0.71875000000000000       0.90625000000000000        0.0000000000000000     
  0.75000000000000000       0.90625000000000000        0.0000000000000000     
  0.62500000000000000       0.93750000000000000        0.0000000000000000     
  0.65625000000000000       0.93750000000000000        0.0000000000000000     
  0.68750000000000000       0.93750000000000000        0.0000000000000000     
  0.71875000000000000       0.93750000000000000        0.0000000000000000     
  0.75000000000000000       0.93750000000000000        0.0000000000000000     
  0.62500000000000000       0.96875000000000000        0.0000000000000000     
  0.65625000000000000       0.96875000000000000        0.0000000000000000     
  0.68750000000000000       0.96875000000000000        0.0000000000000000     
  0.71875000000000000       0.96875000000000000        0.0000000000000000     
  0.75000000000000000       0.96875000000000000        0.0000000000000000     
  0.62500000000000000        1.0000000000000000        0.0000000000000000     
  0.65625000000000000        1.0000000000000000        0.0000000000000000     
  0.68750000000000000        1.0000000000000000        0.0000000000000000     
  0.71875000000000000        1.0000000000000000        0.0000000000000000     
  0.75000000000000000        1.0000000000000000        0.0000000000000000     
  0.75000000000000000       0.87500000000000000        0.0000000000000000     
  0.78125000000000000       0.87500000000000000        0.0000000000000000     
  0.81250000000000000       0.87500000000000000        0.0000000000000000     
  0.84375000000000000       0.87500000000000000        0.0000000000000000     
  0.87500000000000000       0.87500000000000000        0.0000000000000000     
  0.75000000000000000       0.90625000000000000        0.0000000000000000     
  0.78125000000000000       0.90625000000000000        0.0000000000000000     
  0.81250000000000000       0.90625000000000000        0.0000000000000000     
  0.84375000000000000       0.90625000000000000        0.0000000000000000     
  0.87500000000000000       0.90625000000000000        0.0000000000000000     
  0.75000000000000000       0.93750000000000000        0.0000000000000000     
  0.78125000000000000       0.93750000000000000        0.0000000000000000     
  0.81250000000000000       0.93750000000000000        0.0000000000000000     
  0.84375000000000000       0.93750000000000000        0.0000000000000000     
  0.87500000000000000       0.93750000000000000        0.0000000000000000     
  0.75000000000000000       0.96875000000000000        0.0000000000000000     
  0.78125000000000000       0.96875000000000000        0.0000000000000000     
  0.81250000000000000       0.96875000000000000        0.0000000000000000     
  0.84375000000000000       0.96875000000000000        0.0000000000000000     
  0.87500000000000000       0.96875000000000000        0.0000000000000000     
  0.75000000000000000        1.0000000000000000        0.0000000000000000     
  0.78125000000000000        1.0000000000000000        0.0000000000000000     
  0.81250000000000000        1.0000000000000000        0.0000000000000000     
  0.84375000000000000        1.0000000000000000        0.0000000000000000     
  0.87500000000000000        1.0000000000000000        0.0000000000000000     
  0.87500000000000000       0.87500000000000000        0.0000000000000000     
  0.90625000000000000       0.87500000000000000        0.0000000000000000     
  0.93750000000000000       0.87500000000000000        0.0000000000000000     
  0.96875000000000000       0.87500000000000000        0.0000000000000000     
   1.0000000000000000       0.87500000000000000        0.0000000000000000     
  0.87500000000000000       0.90625000000000000        0.0000000000000000     
  0.90625000000000000       0.90625000000000000        0.0000000000000000     
  0.93750000000000000       0.90625000000000000        0.0000000000000000     
  0.96875000000000000       0.90625000000000000        0.0000000000000000     
   1.0000000000000000       0.90625000000000000        0.0000000000000000     
  0.87500000000000000       0.93750000000000000        0.0000000000000000     
  0.90625000000000000       0.93750000000000000        0.0000000000000000     
  0.93750000000000000       0.93750000000000000        0.0000000000000000     
  0.96875000000000000       0.93750000000000000        0.0000000000000000     
   1.0000000000000000       0.93750000000000000        0.0000000000000000     
  0.87500000000000000       0.96875000000000000        0.0000000000000000     
  0.90625000000000000       0.96875000000000000        0.0000000000000000     
  0.93750000000000000       0.96875000000000000        0.0000000000000000     
  0.96875000000000000       0.96875000000000000        0.0000000000000000     
   1.0000000000000000       0.96875000000000000        0.0000000000000000     
  0.87500000000000000        1.0000000000000000        0.0000000000000000     
  0.90625000000000000        1.0000000000000000        0.0000000000000000     
  0.93750000000000000        1.0000000000000000        0.0000000000000000     
  0.96875000000000000        1.0000000000000000        0.0000000000000000     
   1.0000000000000000        1.0000000000000000        0.0000000000000000     
 </DataArray>
 </Points>
 <Cells>
 <DataArray  type="Int32"  Name="connectivity"  format="ascii">
           0           1           6           5
           1           2           7           6
           2           3           8           7
           3           4           9           8
           5           6          11          10
           6           7          12          11
           7           8          13          12
           8           9          14          13
          10          11          16          15
          11          12          17          16
          12          13          18          17
          13          14          19          18
          15          16          21          20
          16          17          22          21
          17          18          23          22
          18          19          24          23
          25          26          31          30
          26          27          32          31
          27          28          33          32
          28          29          34          33
          30          31          36          35
          31          32          37          36
          32          33          38          37
          33          34          39          38
          35          36          41          40
          36          37          42          41
          37          38          43          42
          38          39          44          43
          40          41          46          45
          41          42          47          46
          42          43          48          47
          43          44          49          48
          50          51          56          55
          51          52          57          56
          52          53          58          57
          53          54          59          58
          55          56          61          60
          56          57          62          61
          57          58          63          62
          58          59          64          63
          60          61          66          65
          61          62          67          66
          62          63          68          67
          63          64          69          68
          65          66          71          70
          66          67          72          71
          67          68          73          72
          68          69          74          73
          75          76          81          80
          76          77          82          81
          77          78          83          82
          78          79          84          83
          80          81          86          85
          81          82          87          86
          82          83          88          87
          83          84          89          88
          85          86          91          90
          86          87          92          91
          87          88          93          92
          88          89          94          93
          90          91          96          95
          91          92          97          96
          92          93          98          97
          93          94          99          98
         100         101         106         105
         101         102         107         106
         102         103         108         107
         103         104         109         108
         105         106         111         110
         106         107         112         111
         107         108         113         112
         108         109         114         113
         110         111         116         115
         111         112         117         116
         112         113         118         117
         113         114         119         118
         115         116         121         120
         116         117         122         121
         117         118         123         122
         118         119         124         123
         125         126         131         130
         126         127         132         131
         127         128         133         132
         128         129         134         133
         130         131         136         135
         131         132         137         136
         132         133         138         137
         133         134         139         138
         135         136         141         140
         136         137         142         141
         137         138         143         142
         138         139         144         143
         140         141         146         145
         141         142         147         146
         142         143         148         147
         143         144         149         148
         150         151         156         155
         151         152         157         156
         152         153         158         157
         153         154         159         158
         155         156         161         160
         156         157         162         161
         157         158         163         162
         158         159         164         163
         160         161         166         165
         161         162         167         166
         162         163         168         167
         163         164         169         168
         165         166         171         170
         166         167         172         171
         167         168         173         172
         168         169         174         173
         175         176         181         180
         176         177         182         181
         177         178         183         182
         178         179         184         183
         180         181         186         185
         181         182         187         186
         182         183         188         187
         183         184         189         188
         185         186         191         190
         186         187         192         191
         187         188         193         192
         188         189         194         193
         190         191         196         195
         191         192         197         196
         192         193         198         197
         193         194         199         198
         200         201         206         205
         201         202         207         206
         202         203         208         207
         203         204         209         208
         205         206         211         210
         206         207         212         211
         207         208         213         212
         208         209         214         213
         210         211         216         215
         211         212         217         216
         212         213         218         217
         213         214         219         218
         215         216         221         220
         216         217         222         221
         217         218         223         222
         218         219         224         223
         225         226         231         230
         226         227         232         231
         227         228         233         232
         228         229         234         233
         230         231         236         235
         231         232         237         236
         232         233         238         237
         233         234         239         238
         235         236         241         240
         236         237         242         241
         237         238         243         242
         238         239         244         243
         240         241         246         245
         241         242         247         246
         242         243         248         247
         243         244         249         248
         250         251         256         255
         251         252         257         256
         252         253         258         257
         253         254         259         258
         255         256         261         260
         256         257         262         261
         257         258         263         262
         258         259         264         263
         260         261         266         265
         261         262         267         266
         262         263         268         267
         263         264         269         268
         265         266         271         270
         266         267         272         271
         267         268         273         272
         268         269         274         273
         275         276         281         280
         276         277         282         281
         277         278         283         282
         278         279         284         283
         280         281         286         285
         281         282         287         286
         282         283         288         287
         283         284         289         288
         285         286         291         290
         286         287         292         291
         287         288         293         292
         288         289         294         293
         290         291         296         295
         291         292         297         296
         292         293         298         297
         293         294         299         298
         300         301         306         305
         301         302         307         306
         302         303         308         307
         303         304         309         308
         305         306         311         310
         306         307         312         311
         307         308         313         312
         308         309         314         313
         310         311         316         315
         311         312         317         316
         312         313         318         317
         313         314         319         318
         315         316         321         320
         316         317         322         321
         317         318         323         322
         318         319         324         323
         325         326         331         330
         326         327         332         331
         327         328         333         332
         328         329         334         333
         330         331         336         335
         331         332         337         336
         332         333         338         337
         333         334         339         338
         335         336         341         340
         336         337         342         341
         337         338         343         342
         338         339         344         343
         340         341         346         345
         341         342         347         346
         342         343         348         347
         343         344         349         348
         350         351         356         355
         351         352         357         356
         352         353         358         357
         353         354         359         358
         355         356         361         360
         356         357         362         361
         357         358         363         362
         358         359         364         363
         360         361         366         365
         361         362         367         366
         362         363         368         367
         363         364         369         368
         365         366         371         370
         366         367         372         371
         367         368         373         372
         368         369         374         373
         375         376         381         380
         376         377         382         381
         377         378         383         382
         378         379         384         383
         380         381         386         385
         381         382         387         386
         382         383         388         387
         383         384         389         388
         385         386         391         390
         386         387         392         391
         387         388         393         392
         388         389         394         393
         390         391         396         395
         391         392         397         396
         392         393         398         397
         393         394         399         398
         400         401         406         405
         401         402         407         406
         402         403         408         407
         403         404         409         408
         405         406         411         410
         406         407         412         411
         407         408         413         412
         408         409         414         413
         410         411         416         415
         411         412         417         416
         412         413         418         417
         413         414         419         418
         415         416         421         420
         416         417         422         421
         417         418         423         422
         418         419         424         423
         425         426         431         430
         426         427         432         431
         427         428         433         432
         428         429         434         433
         430         431         436         435
         431         432         437         436
         432         433         438         437
         433         434         439         438
         435         436         441         440
         436         437         442         441
         437         438         443         442
         438         439         444         443
         440         441         446         445
         441         442         447         446
         442         443         448         447
         443         444         449         448
         450         451         456         455
         451         452         457         456
         452         453         458         457
         453         454         459         458
         455         456         461         460
         456         457         462         461
         457         458         463         462
         458         459         464         463
         460         461         466         465
         461         462         467         466
         462         463         468         467
         463         464         469         468
         465         466         471         470
         466         467         472         471
         467         468         473         472
         468         469         474         473
         475         476         481         480
         476         477         482         481
         477         478         483         482
         478         479         484         483
         480         481         486         485
         481         482         487         486
         482         483         488         487
         483         484         489         488
         485         486         491         490
         486         487         492         491
         487         488         493         492
         488         489         494         493
         490         491         496         495
         491         492         497         496
         492         493         498         497
         493         494         499         498
         500         501         506         505
         501         502         507         506
         502         503         508         507
         503         504         509         508
         505         506         511         510
         506         507         512         511
         507         508         513         512
         508         509         514         513
         510         511         516         515
         511         512         517         516
         512         513         518         517
         513         514         519         518
         515         516         521         520
         516         517         522         521
         517         518         523         522
         518         519         524         523
         525         526         531         530
         526         527         532         531
         527         528         533         532
         528         529         534         533
         530         531         536         535
         531         532         537         536
         532         533         538         537
         533         534         539         538
         535         536         541         540
         536         537         542         541
         537         538         543         542
         538         539         544         543
         540         541         546         545
         541         542         547         546
         542         543         548         547
         543         544         549         548
         550         551         556         555
         551         552         557         556
         552         553         558         557
         553         554         559         558
         555         556         561         560
         556         557         562         561
         557         558         563         562
         558         559         564         563
         560         561         566         565
         561         562         567         566
         562         563         568         567
         563         564         569         568
         565         566         571         570
         566         567         572         571
         567         568         573         572
         568         569         574         573
         575         576         581         580
         576         577         582         581
         577         578         583         582
         578         579         584         583
         580         581         586         585
         581         582         587         586
         582         583         588         587
         583         584         589         588
         585         586         591         590
         586         587         592         591
         587         588         593         592
         588         589         594         593
         590         591         596         595
         591         592         597         596
         592         593         598         597
         593         594         599         598
         600         601         606         605
         601         602         607         606
         602         603         608         607
         603         604         609         608
         605         606         611         610
         606         607         612         611
         607         608         613         612
         608         609         614         613
         610         611         616         615
         611         612         617         616
         612         613         618         617
         613         614         619         618
         615         616         621         620
         616         617         622         621
         617         618         623         622
         618         619         624         623
         625         626         631         630
         626         627         632         631
         627         628         633         632
         628         629         634         633
         630         631         636         635
         631         632         637         636
         632         633         638         637
         633         634         639         638
         635         636         641         640
         636         637         642         641
         637         638         643         642
         638         639         644         643
         640         641         646         645
         641         642         647         646
         642         643         648         647
         643         644         649         648
         650         651         656         655
         651         652         657         656
         652         653         658         657
         653         654         659         658
         655         656         661         660
         656         657         662         661
         657         658         663         662
         658         659         664         663
         660         661         666         665
         661         662         667         666
         662         663         668         667
         663         664         669         668
         665         666         671         670
         666         667         672         671
         667         668         673         672
         668         669         674         673
         675         676         681         680
         676         677         682         681
         677         678         683         682
         678         679         684         683
         680         681         686         685
         681         682         687         686
         682         683         688         687
         683         684         689         688
         685         686         691         690
         686         687         692         691
         687         688         693         692
         688         689         694         693
         690         691         696         695
         691         692         697         696
         692         693         698         697
         693         694         699         698
         700         701         706         705
         701         702         707         706
         702         703         708         707
         703         704         709         708
         705         706         711         710
         706         707         712         711
         707         708         713         712
         708         709         714         713
         710         711         716         715
         711         712         717         716
         712         713         718         717
         713         714         719         718
         715         716         721         720
         716         717         722         721
         717         718         723         722
         718         719         724         723
         725         726         731         730
         726         727         732         731
         727         728         733         732
         728         729         734         733
         730         731         736         735
         731         732         737         736
         732         733         738         737
         733         734         739         738
         735         736         741         740
         736         737         742         741
         737         738         743         742
         738         739         744         743
         740         741         746         745
         741         742         747         746
         742         743         748         747
         743         744         749         748
         750         751         756         755
         751         752         757         756
         752         753         758         757
         753         754         759         758
         755         756         761         760
         756         757         762         761
         757         758         763         762
         758         759         764         763
         760         761         766         765
         761         762         767         766
         762         763         768         767
         763         764         769         768
         765         766         771         770
         766         767         772         771
         767         768         773         772
         768         769         774         773
         775         776         781         780
         776         777         782         781
         777         778         783         782
         778         779         784         783
         780         781         786         785
         781         782         787         786
         782         783         788         787
         783         784         789         788
         785         786         791         790
         786         787         792         791
         787         788         793         792
         788         789         794         793
         790         791         796         795
         791         792         797         796
         792         793         798         797
         793         794         799         798
         800         801         806         805
         801         802         807         806
         802         803         808         807
         803         804         809         808
         805         806         811         810
         806         807         812         811
         807         808         813         812
         808         809         814         813
         810         811         816         815
         811         812         817         816
         812         813         818         817
         813         814         819         818
         815         816         821         820
         816         817         822         821
         817         818         823         822
         818         819         824         823
         825         826         831         830
         826         827         832         831
         827         828         833         832
         828         829         834         833
         830         831         836         835
         831         832         837         836
         832         833         838         837
         833         834         839         838
         835         836         841         840
         836         837         842         841
         837         838         843         842
         838         839         844         843
         840         841         846         845
         841         842         847         846
         842         843         848         847
         843         844         849         848
         850         851         856         855
         851         852         857         856
         852         853         858         857
         853         854         859         858
         855         856         861         860
         856         857         862         861
         857         858         863         862
         858         859         864         863
         860         861         866         865
         861         862         867         866
         862         863         868         867
         863         864         869         868
         865         866         871         870
         866         867         872         871
         867         868         873         872
         868         869         874         873
         875         876         881         880
         876         877         882         881
         877         878         883         882
         878         879         884         883
         880         881         886         885
         881         882         887         886
         882         883         888         887
         883         884         889         888
         885         886         891         890
         886         887         892         891
         887         888         893         892
         888         889         894         893
         890         891         896         895
         891         892         897         896
         892         893         898         897
         893         894         899         898
         900         901         906         905
         901         902         907         906
         902         903         908         907
         903         904         909         908
         905         906         911         910
         906         907         912         911
         907         908         913         912
         908         909         914         913
         910         911         916         915
         911         912         917         916
         912         913         918         917
         913         914         919         918
         915         916         921         920
         916         917         922         921
         917         918         923         922
         918         919         924         923
         925         926         931         930
         926         927         932         931
         927         928         933         932
         928         929         934         933
         930         931         936         935
         931         932         937         936
         932         933         938         937
         933         934         939         938
         935         936         941         940
         936         937         942         941
         937         938         943         942
         938         939         944         943
         940         941         946         945
         941         942         947         946
         942         943         948         947
         943         944         949         948
         950         951         956         955
         951         952         957         956
         952         953         958         957
         953         954         959         958
         955         956         961         960
         956         957         962         961
         957         958         963         962
         958         959         964         963
         960         961         966         965
         961         962         967         966
         962         963         968         967
         963         964         969         968
         965         966         971         970
         966         967         972         971
         967         968         973         972
         968         969         974         973
         975         976         981         980
         976         977         982         981
         977         978         983         982
         978         979         984         983
         980         981         986         985
         981         982         987         986
         982         983         988         987
         983         984         989         988
         985         986         991         990
         986         987         992         991
         987         988         993         992
         988         989         994         993
         990         991         996         995
         991         992         997         996
         992         993         998         997
         993         994         999         998
        1000        1001        1006        1005
        1001        1002        1007        1006
        1002        1003        1008        1007
        1003        1004        1009        1008
        1005        1006        1011        1010
        1006        1007        1012        1011
        1007        1008        1013        1012
        1008        1009        1014        1013
        1010        1011        1016        1015
        1011        1012        1017        1016
        1012        1013        1018        1017
        1013        1014        1019        1018
        1015        1016        1021        1020
        1016        1017        1022        1021
        1017        1018        1023        1022
        1018        1019        1024        1023
        1025        1026        1031        1030
        1026        1027        1032        1031
        1027        1028        1033        1032
        1028        1029        1034        1033
        1030        1031        1036        1035
        1031        1032        1037        1036
        1032        1033        1038        1037
        1033        1034        1039        1038
        1035        1036        1041        1040
        1036        1037        1042        1041
        1037        1038        1043        1042
        1038        1039        1044        1043
        1040        1041        1046        1045
        1041        1042        1047        1046
        1042        1043        1048        1047
        1043        1044        1049        1048
        1050        1051        1056        1055
        1051        1052        1057        1056
        1052        1053        1058        1057
        1053        1054        1059        1058
        1055        1056        1061        1060
        1056        1057        1062        1061
        1057        1058        1063        1062
        1058        1059        1064        1063
        1060        1061        1066        1065
        1061        1062        1067        1066
        1062        1063        1068        1067
        1063        1064        1069        1068
        1065        1066        1071        1070
        1066        1067        1072        1071
        1067        1068        1073        1072
        1068        1069        1074        1073
        1075        1076        1081        1080
        1076        1077        1082        1081
        1077        1078        1083        1082
        1078        1079        1084        1083
        1080        1081        1086        1085
        1081        1082        1087        1086
        1082        1083        1088        1087
        1083        1084        1089        1088
        1085        1086        1091        1090
        1086        1087        1092        1091
        1087        1088        1093        1092
        1088        1089        1094        1093
        1090        1091        1096        1095
        1091        1092        1097        1096
        1092        1093        1098        1097
        1093        1094        1099        1098
        1100        1101        1106        1105
        1101        1102        1107        1106
        1102        1103        1108        1107
        1103        1104        1109        1108
        1105        1106        1111        1110
        1106        1107        1112        1111
        1107        1108        1113        1112
        1108        1109        1114        1113
        1110        1111        1116        1115
        1111        1112        1117        1116
        1112        1113        1118        1117
        1113        1114        1119        1118
        1115        1116        1121        1120
        1116        1117        1122        1121
        1117        1118        1123        1122
        1118        1119        1124        1123
        1125        1126        1131        1130
        1126        1127        1132        1131
        1127        1128        1133        1132
        1128        1129        1134        1133
        1130        1131        1136        1135
        1131        1132        1137        1136
        1132        1133        1138        1137
        1133        1134        1139        1138
        1135        1136        1141        1140
        1136        1137        1142        1141
        1137        1138        1143        1142
        1138        1139        1144        1143
        1140        1141        1146        1145
        1141        1142        1147        1146
        1142        1143        1148        1147
        1143        1144        1149        1148
        1150        1151        1156        1155
        1151        1152        1157        1156
        1152        1153        1158        1157
        1153        1154        1159        1158
        1155        1156        1161        1160
        1156        1157        1162        1161
        1157        1158        1163        1162
        1158        1159        1164        1163
        1160        1161        1166        1165
        1161        1162        1167        1166
        1162        1163        1168        1167
        1163        1164        1169        1168
        1165        1166        1171        1170
        1166        1167        1172        1171
        1167        1168        1173        1172
        1168        1169        1174        1173
        1175        1176        1181        1180
        1176        1177        1182        1181
        1177        1178        1183        1182
        1178        1179        1184        1183
        1180        1181        1186        1185
        1181        1182        1187        1186
        1182        1183        1188        1187
        1183        1184        1189        1188
        1185        1186        1191        1190
        1186        1187        1192        1191
        1187        1188        1193        1192
        1188        1189        1194        1193
        1190        1191        1196        1195
        1191        1192        1197        1196
        1192        1193        1198        1197
        1193        1194        1199        1198
        1200        1201        1206        1205
        1201        1202        1207        1206
        1202        1203        1208        1207
        1203        1204        1209        1208
        1205        1206        1211        1210
        1206        1207        1212        1211
        1207        1208        1213        1212
        1208        1209        1214        1213
        1210        1211        1216        1215
        1211        1212        1217        1216
        1212        1213        1218        1217
        1213        1214        1219        1218
        1215        1216        1221        1220
        1216        1217        1222        1221
        1217        1218        1223        1222
        1218        1219        1224        1223
        1225        1226        1231        1230
        1226        1227        1232        1231
        1227        1228        1233        1232
        1228        1229        1234        1233
        1230        1231        1236        1235
        1231        1232        1237        1236
        1232        1233        1238        1237
        1233        1234        1239        1238
        1235        1236        1241        1240
        1236        1237        1242        1241
        1237        1238        1243        1242
        1238        1239        1244        1243
        1240        1241        1246        1245
        1241        1242        1247        1246
        1242        1243        1248        1247
        1243        1244        1249        1248
        1250        1251        1256        1255
        1251        1252        1257        1256
        1252        1253        1258        1257
        1253        1254        1259        1258
        1255        1256        1261        1260
        1256        1257        1262        1261
        1257        1258        1263        1262
        1258        1259        1264        1263
        1260        1261        1266        1265
        1261        1262        1267        1266
        1262        1263        1268        1267
        1263        1264        1269        1268
        1265        1266        1271        1270
        1266        1267        1272        1271
        1267        1268        1273        1272
        1268        1269        1274        1273
        1275        1276        1281        1280
        1276        1277        1282        1281
        1277        1278        1283        1282
        1278        1279        1284        1283
        1280        1281        1286        1285
        1281        1282        1287        1286
        1282        1283        1288        1287
        1283        1284        1289        1288
        1285        1286        1291        1290
        1286        1287        1292        1291
        1287        1288        1293        1292
        1288        1289        1294        1293
        1290        1291        1296        1295
        1291        1292        1297        1296
        1292        1293        1298        1297
        1293        1294        1299        1298
        1300        1301        1306        1305
        1301        1302        1307        1306
        1302        1303        1308        1307
        1303        1304        1309        1308
        1305        1306        1311        1310
        1306        1307        1312        1311
        1307        1308        1313        1312
        1308        1309        1314        1313
        1310        1311        1316        1315
        1311        1312        1317        1316
        1312        1313        1318        1317
        1313        1314        1319        1318
        1315        1316        1321        1320
        1316        1317        1322        1321
        1317        1318        1323        1322
        1318        1319        1324        1323
        1325        1326        1331        1330
        1326        1327        1332        1331
        1327        1328        1333        1332
        1328        1329        1334        1333
        1330        1331        1336        1335
        1331        1332        1337        1336
        1332        1333        1338        1337
        1333        1334        1339        1338
        1335        1336        1341        1340
        1336        1337        1342        1341
        1337        1338        1343        1342
        1338        1339        1344        1343
        1340        1341        1346        1345
        1341        1342        1347        1346
        1342        1343        1348        1347
        1343        1344        1349        1348
        1350        1351        1356        1355
        1351        1352        1357        1356
        1352        1353        1358        1357
        1353        1354        1359        1358
        1355        1356        1361        1360
        1356        1357        1362        1361
        1357        1358        1363        1362
        1358        1359        1364        1363
        1360        1361        1366        1365
        1361        1362        1367        1366
        1362        1363        1368        1367
        1363        1364        1369        1368
        1365        1366        1371        1370
        1366        1367        1372        1371
        1367        1368        1373        1372
        1368        1369        1374        1373
        1375        1376        1381        1380
        1376        1377        1382        1381
        1377        1378        1383        1382
        1378        1379        1384        1383
        1380        1381        1386        1385
        1381        1382        1387        1386
        1382        1383        1388        1387
        1383        1384        1389        1388
        1385        1386        1391        1390
        1386        1387        1392        1391
        1387        1388        1393        1392
        1388        1389        1394        1393
        1390        1391        1396        1395
        1391        1392        1397        1396
        1392        1393        1398        1397
        1393        1394        1399        1398
        1400        1401        1406        1405
        1401        1402        1407        1406
        1402        1403        1408        1407
        1403        1404        1409        1408
        1405        1406        1411        1410
        1406        1407        1412        1411
        1407        1408        1413        1412
        1408        1409        1414        1413
        1410        1411        1416        1415
        1411        1412        1417        1416
        1412        1413        1418        1417
        1413        1414        1419        1418
        1415        1416        1421        1420
        1416        1417        1422        1421
        1417        1418        1423        1422
        1418        1419        1424        1423
        1425        1426        1431        1430
        1426        1427        1432        1431
        1427        1428        1433        1432
        1428        1429        1434        1433
        1430        1431        1436        1435
        1431        1432        1437        1436
        1432        1433        1438        1437
        1433        1434        1439        1438
        1435        1436        1441        1440
        1436        1437        1442        1441
        1437        1438        1443        1442
        1438        1439        1444        1443
        1440        1441        1446        1445
        1441        1442        1447        1446
        1442        1443        1448        1447
        1443        1444        1449        1448
        1450        1451        1456        1455
        1451        1452        1457        1456
        1452        1453        1458        1457
        1453        1454        1459        1458
        1455        1456        1461        1460
        1456        1457        1462        1461
        1457        1458        1463        1462
        1458        1459        1464        1463
        1460        1461        1466        1465
        1461        1462        1467        1466
        1462        1463        1468        1467
        1463        1464        1469        1468
        1465        1466        1471        1470
        1466        1467        1472        1471
        1467        1468        1473        1472
        1468        1469        1474        1473
        1475        1476        1481        1480
        1476        1477        1482        1481
        1477        1478        1483        1482
        1478        1479        1484        1483
        1480        1481        1486        1485
        1481        1482        1487        1486
        1482        1483        1488        1487
        1483        1484        1489        1488
        1485        1486        1491        1490
        1486        1487        1492        1491
        1487        1488        1493        1492
        1488        1489        1494        1493
        1490        1491        1496        1495
        1491        1492        1497        1496
        1492        1493        1498        1497
        1493        1494        1499        1498
        1500        1501        1506        1505
        1501        1502        1507        1506
        1502        1503        1508        1507
        1503        1504        1509        1508
        1505        1506        1511        1510
        1506        1507        1512        1511
        1507        1508        1513        1512
        1508        1509        1514        1513
        1510        1511        1516        1515
        1511        1512        1517        1516
        1512        1513        1518        1517
        1513        1514        1519        1518
        1515        1516        1521        1520
        1516        1517        1522        1521
        1517        1518        1523        1522
        1518        1519        1524        1523
        1525        1526        1531        1530
        1526        1527        1532        1531
        1527        1528        1533        1532
        1528        1529        1534        1533
        1530        1531        1536        1535
        1531        1532        1537        1536
        1532        1533        1538        1537
        1533        1534        1539        1538
        1535        1536        1541        1540
        1536        1537        1542        1541
        1537        1538        1543        1542
        1538        1539        1544        1543
        1540        1541        1546        1545
        1541        1542        1547        1546
        1542        1543        1548        1547
        1543        1544        1549        1548
        1550        1551        1556        1555
        1551        1552        1557        1556
        1552        1553        1558        1557
        1553        1554        1559        1558
        1555        1556        1561        1560
        1556        1557        1562        1561
        1557        1558        1563        1562
        1558        1559        1564        1563
        1560        1561        1566        1565
        1561        1562        1567        1566
        1562        1563        1568        1567
        1563        1564        1569        1568
        1565        1566        1571        1570
        1566        1567        1572        1571
        1567        1568        1573        1572
        1568        1569        1574        1573
        1575        1576        1581        1580
        1576        1577        1582        1581
        1577        1578        1583        1582
        1578        1579        1584        1583
        1580        1581        1586        1585
        1581        1582        1587        1586
        1582        1583        1588        1587
        1583        1584        1589        1588
        1585        1586        1591        1590
        1586        1587        1592        1591
        1587        1588        1593        1592
        1588        1589        1594        1593
        1590        1591        1596        1595
        1591        1592        1597        1596
        1592        1593        1598        1597
        1593        1594        1599        1598
 </DataArray>
 <DataArray  type="Int32"  Name="offsets"  format="ascii"> 
           4
           8
          12
          16
          20
          24
          28
          32
          36
          40
          44
          48
          52
          56
          60
          64
          68
          72
          76
          80
          84
          88
          92
          96
         100
         104
         108
         112
         116
         120
         124
         128
         132
         136
         140
         144
         148
         152
         156
         160
         164
         168
         172
         176
         180
         184
         188
         192
         196
         200
         204
         208
         212
         216
         220
         224
         228
         232
         236
         240
         244
         248
         252
         256
         260
         264
         268
         272
         276
         280
         284
         288
         292
         296
         300
         304
         308
         312
         316
         320
         324
         328
         332
         336
         340
         344
         348
         352
         356
         360
         364
         368
         372
         376
         380
         384
         388
         392
         396
         400
         404
         408
         412
         416
         420
         424
         428
         432
         436
         440
         444
         448
         452
         456
         460
         464
         468
         472
         476
         480
         484
         488
         492
         496
         500
         504
         508
         512
         516
         520
         524
         528
         532
         536
         540
         544
         548
         552
         556
         560
         564
         568
         572
         576
         580
         584
         588
         592
         596
         600
         604
         608
         612
         616
         620
         624
         628
         632
         636
         640
         644
         648
         652
         656
         660
         664
         668
         672
         676
         680
         684
         688
         692
         696
         700
         704
         708
         712
         716
         720
         724
         728
         732
         736
         740
         744
         748
         752
         756
         760
         764
         768
         772
         776
         780
         784
         788
         792
         796
         800
         804
         808
         812
         816
         820
         824
         828
         832
         836
         840
         844
         848
         852
         856
         860
         864
         868
         872
         876
         880
         884
         888
         892
         896
         900
         904
         908
         912
         916
         920
         924
         928
         932
         936
         940
         944
         948
         952
         956
         960
         964
         968
         972
         976
         980
         984
         988
         992
         996
        1000
        1004
        1008
        1012
        1016
        1020
        1024
        1028
        1032
        1036
        1040
        1044
        1048
        1052
        1056
        1060
        1064
        1068
        1072
        1076
        1080
        1084
        1088
        1092
        1096
        1100
        1104
        1108
        1112
        1116
        1120
        1124
        1128
        1132
        1136
        1140
        1144
        1148
        1152
        1156
        1160
        1164
        1168
        1172
        1176
        1180
        1184
        1188
        1192
        1196
        1200
        1204
        1208
        1212
        1216
        1220
        1224
        1228
        1232
        1236
        1240
        1244
        1248
        1252
        1256
        1260
        1264
        1268
        1272
        1276
        1280
        1284
        1288
        1292
        1296
        1300
        1304
        1308
        1312
        1316
        1320
        1324
        1328
        1332
        1336
        1340
        1344
        1348
        1352
        1356
        1360
        1364
        1368
        1372
        1376
        1380
        1384
        1388
        1392
        1396
        1400
        1404
        1408
        1412
        1416
        1420
        1424
        1428
        1432
        1436
        1440
        1444
        1448
        1452
        1456
        1460
        1464
        1468
        1472
        1476
        1480
        1484
        1488
        1492
        1496
        1500
        1504
        1508
        1512
        1516
        1520
        1524
        1528
        1532
        1536
        1540
        1544
        1548
        1552
        1556
        1560
        1564
        1568
        1572
        1576
        1580
        1584
        1588
        1592
        1596
        1600
        1604
        1608
        1612
        1616
        1620
        1624
        1628
        1632
        1636
        1640
        1644
        1648
        1652
        1656
        1660
        1664
        1668
        1672
        1676
        1680
        1684
        1688
        1692
        1696
        1700
        1704
        1708
        1712
        1716
        1720
        1724
        1728
        1732
        1736
        1740
        1744
        1748
        1752
        1756
        1760
        1764
        1768
        1772
        1776
        1780
        1784
        1788
        1792
        1796
        1800
        1804
        1808
        1812
        1816
        1820
        1824
        1828
        1832
        1836
        1840
        1844
        1848
        1852
        1856
        1860
        1864
        1868
        1872
        1876
        1880
        1884
        1888
        1892
        1896
        1900
        1904
        1908
        1912
        1916
        1920
        1924
        1928
        1932
        1936
        1940
        1944
        1948
        1952
        1956
        1960
        1964
        1968
        1972
        1976
        1980
        1984
        1988
        1992
        1996
        2000
        2004
        2008
        2012
        2016
        2020
        2024
        2028
        2032
        2036
        2040
        2044
        2048
        2052
        2056
        2060
        2064
        2068
        2072
        2076
        2080
        2084
        2088
        2092
        2096
        2100
        2104
        2108
        2112
        2116
        2120
        2124
        2128
        2132
        2136
        2140
        2144
        2148
        2152
        2156
        2160
        2164
        2168
        2172
        2176
        2180
        2184
        2188
        2192
        2196
        2200
        2204
        2208
        2212
        2216
        2220
        2224
        2228
        2232
        2236
        2240
        2244
        2248
        2252
        2256
        2260
        2264
        2268
        2272
        2276
        2280
        2284
        2288
        2292
        2296
        2300
        2304
        2308
        2312
        2316
        2320
        2324
        2328
        2332
        2336
        2340
        2344
        2348
        2352
        2356
        2360
        2364
        2368
        2372
        2376
        2380
        2384
        2388
        2392
        2396
        2400
        2404
        2408
        2412
        2416
        2420
        2424
        2428
        2432
        2436
        2440
        2444
        2448
        2452
        2456
        2460
        2464
        2468
        2472
        2476
        2480
        2484
        2488
        2492
        2496
        2500
        2504
        2508
        2512
        2516
        2520
        2524
        2528
        2532
        2536
        2540
        2544
        2548
        2552
        2556
        2560
        2564
        2568
        2572
        2576
        2580
        2584
        2588
        2592
        2596
        2600
        2604
        2608
        2612
        2616
        2620
        2624
        2628
        2632
        2636
        2640
        2644
        2648
        2652
        2656
        2660
        2664
        2668
        2672
        2676
        2680
        2684
        2688
        2692
        2696
        2700
        2704
        2708
        2712
        2716
        2720
        2724
        2728
        2732
        2736
        2740
        2744
        2748
        2752
        2756
        2760
        2764
        2768
        2772
        2776
        2780
        2784
        2788
        2792
        2796
        2800
        2804
        2808
        2812
        2816
        2820
        2824
        2828
        2832
        2836
        2840
        2844
        2848
        2852
        2856
        2860
        2864
        2868
        2872
        2876
        2880
        2884
        2888
        2892
        2896
        2900
        2904
        2908
        2912
        2916
        2920
        2924
        2928
        2932
        2936
        2940
        2944
        2948
        2952
        2956
        2960
        2964
        2968
        2972
        2976
        2980
        2984
        2988
        2992
        2996
        3000
        3004
        3008
        3012
        3016
        3020
        3024
        3028
        3032
        3036
        3040
        3044
        3048
        3052
        3056
        3060
        3064
        3068
        3072
        3076
        3080
        3084
        3088
        3092
        3096
        3100
        3104
        3108
        3112
        3116
        3120
        3124
        3128
        3132
        3136
        3140
        3144
        3148
        3152
        3156
        3160
        3164
        3168
        3172
        3176
        3180
        3184
        3188
        3192
        3196
        3200
        3204
        3208
        3212
        3216
        3220
        3224
        3228
        3232
        3236
        3240
        3244
        3248
        3252
        3256
        3260
        3264
        3268
        3272
        3276
        3280
        3284
        3288
        3292
        3296
        3300
        3304
        3308
        3312
        3316
        3320
        3324
        3328
        3332
        3336
        3340
        3344
        3348
        3352
        3356
        3360
        3364
        3368
        3372
        3376
        3380
        3384
        3388
        3392
        3396
        3400
        3404
        3408
        3412
        3416
        3420
        3424
        3428
        3432
        3436
        3440
        3444
        3448
        3452
        3456
        3460
        3464
        3468
        3472
        3476
        3480
        3484
        3488
        3492
        3496
        3500
        3504
        3508
        3512
        3516
        3520
        3524
        3528
        3532
        3536
        3540
        3544
        3548
        3552
        3556
        3560
        3564
        3568
        3572
        3576
        3580
        3584
        3588
        3592
        3596
        3600
        3604
        3608
        3612
        3616
        3620
        3624
        3628
        3632
        3636
        3640
        3644
        3648
        3652
        3656
        3660
        3664
        3668
        3672
        3676
        3680
        3684
        3688
        3692
        3696
        3700
        3704
        3708
        3712
        3716
        3720
        3724
        3728
        3732
        3736
        3740
        3744
        3748
        3752
        3756
        3760
        3764
        3768
        3772
        3776
        3780
        3784
        3788
        3792
        3796
        3800
        3804
        3808
        3812
        3816
        3820
        3824
        3828
        3832
        3836
        3840
        3844
        3848
        3852
        3856
        3860
        3864
        3868
        3872
        3876
        3880
        3884
        3888
        3892
        3896
        3900
        3904
        3908
        3912
        3916
        3920
        3924
        3928
        3932
        3936
        3940
        3944
        3948
        3952
        3956
        3960
        3964
        3968
        3972
        3976
        3980
        3984
        3988
        3992
        3996
        4000
        4004
        4008
        4012
        4016
        4020
        4024
        4028
        4032
        4036
        4040
        4044
        4048
        4052
        4056
        4060
        4064
        4068
        4072
        4076
        4080
        4084
        4088
        4092
        4096
 </DataArray>
 <DataArray  type="UInt8"  Name="types"  format="ascii">
 9
 9
 9
 9
 9
 9
 9
 9
 9
 9
 9
 9
 9
 9
 9
 9
 9
 9
 9
 9
 9
 9
 9
 9
 9
 9
 9
 9
 9
 9
 9
 9
 9
 9
 9
 9
 9
 9
 9
 9
 9
 9
 9
 9
 9
 9
 9
 9
 9
 9
 9
 9
 9
 9
 9
 9
 9
 9
 9
 9
 9
 9
 9
 9
 9
 9
 9
 9
 9
 9
 9
 9
 9
 9
 9
 9
 9
 9
 9
 9
 9
 9
 9
 9
 9
 9
 9
 9
 9
 9
 9
 9
 9
 9
 9
 9
 9
 9
 9
 9
 9
 9
 9
 9
 9
 9
 9
 9
 9
 9
 9
 9
 9
 9
 9
 9
 9
 9
 9
 9
 9
 9
 9
 9
 9
 9
 9
 9
 9
 9
 9
 9
 9
 9
 9
 9
 9
 9
 9
 9
 9
 9
 9
 9
 9
 9
 9
 9
 9
 9
 9
 9
 9
 9
 9
 9
 9
 9
 9
 9
 9
 9
 9
 9
 9
 9
 9
 9
 9
 9
 9
 9
 9
 9
 9
 9
 9
 9
 9
 9
 9
 9
 9
 9
 9
 9
 9
 9
 9
 9
 9
 9
 9
 9
 9
 9
 9
 9
 9
 9
 9
 9
 9
 9
 9
 9
 9
 9
 9
 9
 9
 9
 9
 9
 9
 9
 9
 9
 9
 9
 9
 9
 9
 9
 9
 9
 9
 9
 9
 9
 9
 9
 9
 9
 9
 9
 9
 9
 9
 9
 9
 9
 9
 9
 9
 9
 9
 9
 9
 9
 9
 9
 9
 9
 9
 9
 9
 9
 9
 9
 9
 9
 9
 9
 9
 9
 9
 9
 9
 9
 9
 9
 9
 9
 9
 9
 9
 9
 9
 9
 9
 9
 9
 9
 9
 9
 9
 9
 9
 9
 9
 9
 9
 9
 9
 9
 9
 9
 9
 9
 9
 9
 9
 9
 9
 9
 9
 9
 9
 9
 9
 9
 9
 9
 9
 9
 9
 9
 9
 9
 9
 9
 9
 9
 9
 9
 9
 9
 9
 9
 9
 9
 9
 9
 9
 9
 9
 9
 9
 9
 9
 9
 9
 9
 9
 9
 9
 9
 9
 9
 9
 9
 9
 9
 9
 9
 9
 9
 9
 9
 9
 9
 9
 9
 9
 9
 9
 9
 9
 9
 9
 9
 9
 9
 9
 9
 9
 9
 9
 9
 9
 9
 9
 9
 9
 9
 9
 9
 9
 9
 9
 9
 9
 9
 9
 9
 9
 9
 9
 9
 9
 9
 9
 9
 9
 9
 9
 9
 9
 9
 9
 9
 9
 9
 9
 9
 9
 9
 9
 9
 9
 9
 9
 9
 9
 9
 9
 9
 9
 9
 9
 9
 9
 9
 9
 9
 9
 9
 9
 9
 9
 9
 9
 9
 9
 9
 9
 9
 9
 9
 9
 9
 9
 9
 9
 9
 9
 9
 9
 9
 9
 9
 9
 9
 9
 9
 9
 9
 9
 9
 9
 9
 9
 9
 9
 9
 9
 9
 9
 9
 9
 9
 9
 9
 9
 9
 9
 9
 9
 9
 9
 9
 9
 9
 9
 9
 9
 9
 9
 9
 9
 9
 9
 9
 9
 9
 9
 9
 9
 9
 9
 9
 9
 9
 9
 9
 9
 9
 9
 9
 9
 9
 9
 9
 9
 9
 9
 9
 9
 9
 9
 9
 9
 9
 9
 9
 9
 9
 9
 9
 9
 9
 9
 9
 9
 9
 9
 9
 9
 9
 9
 9
 9
 9
 9
 9
 9
 9
 9
 9
 9
 9
 9
 9
 9
 9
 9
 9
 9
 9
 9
 9
 9
 9
 9
 9
 9
 9
 9
 9
 9
 9
 9
 9
 9
 9
 9
 9
 9
 9
 9
 9
 9
 9
 9
 9
 9
 9
 9
 9
 9
 9
 9
 9
 9
 9
 9
 9
 9
 9
 9
 9
 9
 9
 9
 9
 9
 9
 9
 9
 9
 9
 9
 9
 9
 9
 9
 9
 9
 9
 9
 9
 9
 9
 9
 9
 9
 9
 9
 9
 9
 9
 9
 9
 9
 9
 9
 9
 9
 9
 9
 9
 9
 9
 9
 9
 9
 9
 9
 9
 9
 9
 9
 9
 9
 9
 9
 9
 9
 9
 9
 9
 9
 9
 9
 9
 9
 9
 9
 9
 9
 9
 9
 9
 9
 9
 9
 9
 9
 9
 9
 9
 9
 9
 9
 9
 9
 9
 9
 9
 9
 9
 9
 9
 9
 9
 9
 9
 9
 9
 9
 9
 9
 9
 9
 9
 9
 9
 9
 9
 9
 9
 9
 9
 9
 9
 9
 9
 9
 9
 9
 9
 9
 9
 9
 9
 9
 9
 9
 9
 9
 9
 9
 9
 9
 9
 9
 9
 9
 9
 9
 9
 9
 9
 9
 9
 9
 9
 9
 9
 9
 9
 9
 9
 9
 9
 9
 9
 9
 9
 9
 9
 9
 9
 9
 9
 9
 9
 9
 9
 9
 9
 9
 9
 9
 9
 9
 9
 9
 9
 9
 9
 9
 9
 9
 9
 9
 9
 9
 9
 9
 9
 9
 9
 9
 9
 9
 9
 9
 9
 9
 9
 9
 9
 9
 9
 9
 9
 9
 9
 9
 9
 9
 9
 9
 9
 9
 9
 9
 9
 9
 9
 9
 9
 9
 9
 9
 9
 9
 9
 9
 9
 9
 9
 9
 9
 9
 9
 9
 9
 9
 9
 9
 9
 9
 9
 9
 9
 9
 9
 9
 9
 9
 9
 9
 9
 9
 9
 9
 9
 9
 9
 9
 9
 9
 9
 9
 9
 9
 9
 9
 9
 9
 9
 9
 9
 9
 9
 9
 9
 9
 9
 9
 9
 9
 9
 9
 9
 9
 9
 9
 9
 9
 9
 9
 9
 9
 9
 9
 9
 9
 9
 9
 9
 9
 9
 9
 9
 9
 9
 9
 9
 9
 9
 9
 9
 9
 9
 9
 9
 9
 9
 9
 9
 9
 9
 9
 9
 9
 9
 9
 9
 9
 9
 9
 9
 9
 9
 9
 9
 9
 9
 9
 9
 9
 9
 9
 9
 9
 9
 9
 9
 9
 9
 9
 9
 9
 9
 9
 9
 9
 9
 9
 9
 9
 9
 9
 9
 9
 9
 9
 9
 9
 9
 9
 9
 9
 9
 9
 9
 9
 9
 9
 9
 9
 9
 9
 9
 9
 9
 9
 9
 9
 9
 9
 9
 9
 9
 9
 9
 9
 9
 9
 9
 9
 9
 9
 9
 9
 9
 9
 9
 9
 9
 </DataArray>
 </Cells> 
 <PointData>
 <DataArray  type="Float64" Name="disp" NumberOfComponents="3" format="ascii">
   0.0000000000000000        0.0000000000000000        0.0000000000000000     
   6.0968344973749379E-003   3.7896551794638035E-003   0.0000000000000000     
   1.1668287260793235E-002   7.3219739312824998E-003   0.0000000000000000     
   1.6714358290254888E-002   1.0596956255456090E-002   0.0000000000000000     
   2.1235047585759902E-002   1.3614602151984571E-002   0.0000000000000000     
   0.0000000000000000        0.0000000000000000        0.0000000000000000     
   4.8923997535471192E-003   3.0208530243858124E-003   0.0000000000000000     
   9.5765138201537228E-003   6.0578664624181561E-003   0.0000000000000000     
   1.4052342199819809E-002   9.1110403140970339E-003   0.0000000000000000     
   1.8319884892545379E-002   1.2180374579422441E-002   0.0000000000000000     
   0.0000000000000000        0.0000000000000000        0.0000000000000000     
   3.9549872367535908E-003   2.4234066473433169E-003   0.0000000000000000     
   7.9137200164768051E-003   5.0595637573593909E-003   0.0000000000000000     
   1.1876198339169643E-002   7.9084713300482251E-003   0.0000000000000000     
   1.5842422204832105E-002   1.0970129365409812E-002   0.0000000000000000     
   0.0000000000000000        0.0000000000000000        0.0000000000000000     
   3.2845969469943530E-003   1.9973160483363174E-003   0.0000000000000000     
   6.6799058497624842E-003   4.3270658161062040E-003   0.0000000000000000     
   1.0185926708304392E-002   6.9892493033096598E-003   0.0000000000000000     
   1.3802659522620079E-002   9.9838665099466848E-003   0.0000000000000000     
   0.0000000000000000        0.0000000000000000        0.0000000000000000     
   2.8812288842694064E-003   1.7425812273648140E-003   0.0000000000000000     
   5.8750713200107583E-003   3.8603726386585947E-003   0.0000000000000000     
   8.9815273072240565E-003   6.3533742338813416E-003   0.0000000000000000     
   1.2200596845909300E-002   9.2215860130330559E-003   0.0000000000000000     
   2.1235047585759902E-002   1.3614602151984571E-002   0.0000000000000000     
   2.5443133061027152E-002   1.6606121552669471E-002   0.0000000000000000     
   2.9551392629775523E-002   1.9802724389312323E-002   0.0000000000000000     
   3.3559826292005004E-002   2.3204410661913109E-002   0.0000000000000000     
   3.7468434047715611E-002   2.6811180370471848E-002   0.0000000000000000     
   1.8319884892545379E-002   1.2180374579422441E-002   0.0000000000000000     
   2.2417271106479786E-002   1.5334565072068018E-002   0.0000000000000000     
   2.6382630049772367E-002   1.8642307605707398E-002   0.0000000000000000     
   3.0215961722423128E-002   2.2103602180340576E-002   0.0000000000000000     
   3.3917266124432063E-002   2.5718448795967561E-002   0.0000000000000000     
   1.5842422204832105E-002   1.0970129365409812E-002   0.0000000000000000     
   1.9740552886569635E-002   1.4203518796084936E-002   0.0000000000000000     
   2.3498751657487688E-002   1.7567620554714367E-002   0.0000000000000000     
   2.7117018517586255E-002   2.1062434641298103E-002   0.0000000000000000     
   3.0595353466865337E-002   2.4687961055836146E-002   0.0000000000000000     
   1.3802659522620079E-002   9.9838665099466848E-003   0.0000000000000000     
   1.7412978401296721E-002   1.3212982724720223E-002   0.0000000000000000     
   2.0899757452921493E-002   1.6578663236333224E-002   0.0000000000000000     
   2.4262996677494396E-002   2.0080908044785684E-002   0.0000000000000000     
   2.7502696075015425E-002   2.3719717150077611E-002   0.0000000000000000     
   1.2200596845909300E-002   9.2215860130330559E-003   0.0000000000000000     
   1.5434547650661025E-002   1.2362956857973883E-002   0.0000000000000000     
   1.8585647436073775E-002   1.5675435650563976E-002   0.0000000000000000     
   2.1653896202147537E-002   1.9159022390803328E-002   0.0000000000000000     
   2.4639293948882326E-002   2.2813717078691943E-002   0.0000000000000000     
   3.7468434047715611E-002   2.6811180370471848E-002   0.0000000000000000     
   4.1281727188399481E-002   3.0617884536506872E-002   0.0000000000000000     
   4.5004217005548776E-002   3.4619374181536516E-002   0.0000000000000000     
   4.8635903499163476E-002   3.8815649305560786E-002   0.0000000000000000     
   5.2176786669243608E-002   4.3206709908579680E-002   0.0000000000000000     
   3.3917266124432063E-002   2.5718448795967561E-002   0.0000000000000000     
   3.7510013189102867E-002   2.9515607954327987E-002   0.0000000000000000     
   4.1017672849739173E-002   3.3523840157161505E-002   0.0000000000000000     
   4.4440245106341002E-002   3.7743145404468111E-002   0.0000000000000000     
   4.7777729958908374E-002   4.2173523696247814E-002   0.0000000000000000     
   3.0595353466865337E-002   2.4687961055836146E-002   0.0000000000000000     
   3.3963540223006433E-002   2.8488960670184540E-002   0.0000000000000000     
   3.7251362503691043E-002   3.2510194356199326E-002   0.0000000000000000     
   4.0458820308919154E-002   3.6751662113880507E-002   0.0000000000000000     
   4.3585913638690785E-002   4.1213363943228082E-002   0.0000000000000000     
   2.7502696075015425E-002   2.3719717150077611E-002   0.0000000000000000     
   3.0642308290110210E-002   2.7537942684076531E-002   0.0000000000000000     
   3.3705285967404373E-002   3.1578436778649986E-002   0.0000000000000000     
   3.6691629106897924E-002   3.5841199433797981E-002   0.0000000000000000     
   3.9601337708590846E-002   4.0326230649520498E-002   0.0000000000000000     
   2.4639293948882326E-002   2.2813717078691943E-002   0.0000000000000000     
   2.7546317390414184E-002   2.6662553996003955E-002   0.0000000000000000     
   3.0379443240879180E-002   3.0728567424513475E-002   0.0000000000000000     
   3.3138671500277300E-002   3.5011757364220512E-002   0.0000000000000000     
   3.5824002168608558E-002   3.9512123815125068E-002   0.0000000000000000     
   5.2176786669243608E-002   4.3206709908579680E-002   0.0000000000000000     
   5.5623138029349165E-002   4.7798145955251656E-002   0.0000000000000000     
   5.8971229093040187E-002   5.2595547410235158E-002   0.0000000000000000     
   6.2221059860316653E-002   5.7598914273530193E-002   0.0000000000000000     
   6.5372630331178586E-002   6.2808246545136753E-002   0.0000000000000000     
   4.7777729958908374E-002   4.2173523696247814E-002   0.0000000000000000     
   5.1024575195516064E-002   4.6808776135791839E-002   0.0000000000000000     
   5.4175228604238908E-002   5.1642703826391446E-002   0.0000000000000000     
   5.7229690185076884E-002   5.6675306768046635E-002   0.0000000000000000     
   6.0187959938030035E-002   6.1906584960757391E-002   0.0000000000000000     
   4.3585913638690785E-002   4.1213363943228082E-002   0.0000000000000000     
   4.6626916698085628E-002   4.5882628476018296E-002   0.0000000000000000     
   4.9576103692183397E-002   5.0746784344027386E-002   0.0000000000000000     
   5.2433474620984098E-002   5.5805831547255359E-002   0.0000000000000000     
   5.5199029484487724E-002   6.1059770085702215E-002   0.0000000000000000     
   3.9601337708590846E-002   4.0326230649520498E-002   0.0000000000000000     
   4.2430162537057850E-002   4.5019702975931011E-002   0.0000000000000000     
   4.5173854356873669E-002   4.9907788963142963E-002   0.0000000000000000     
   4.7832413168038268E-002   5.4990488611156373E-002   0.0000000000000000     
   5.0405838970551661E-002   6.0267801919971206E-002   0.0000000000000000     
   3.5824002168608558E-002   3.9512123815125068E-002   0.0000000000000000     
   3.8434312712432743E-002   4.4219999635530013E-002   0.0000000000000000     
   4.0968480598309695E-002   4.9125717683738211E-002   0.0000000000000000     
   4.3426505826239394E-002   5.4229277959749668E-002   0.0000000000000000     
   4.5808388396221845E-002   5.9530680463564377E-002   0.0000000000000000     
   6.5372630331178586E-002   6.2808246545136753E-002   0.0000000000000000     
   6.8432396761609615E-002   6.8208718676781521E-002   0.0000000000000000     
   7.1406815407593416E-002   7.3785505120191150E-002   0.0000000000000000     
   7.4295886269129974E-002   7.9538605875365653E-002   0.0000000000000000     
   7.7099609346219289E-002   8.5468020942305045E-002   0.0000000000000000     
   6.0187959938030035E-002   6.1906584960757391E-002   0.0000000000000000     
   6.3059019020519511E-002   6.7327551931430626E-002   0.0000000000000000     
   6.5851848589966552E-002   7.2929221206973205E-002   0.0000000000000000     
   6.8566448646371139E-002   7.8711592787385126E-002   0.0000000000000000     
   7.1202819189733271E-002   8.4674666672666404E-002   0.0000000000000000     
   5.5199029484487724E-002   6.1059770085702215E-002   0.0000000000000000     
   5.7882221179042952E-002   6.6502733782070902E-002   0.0000000000000000     
   6.0492502600998470E-002   7.2128856459064333E-002   0.0000000000000000     
   6.3029873750354265E-002   7.7938138116682529E-002   0.0000000000000000     
   6.5494334627110365E-002   8.3930578754925461E-002   0.0000000000000000     
   5.0405838970551661E-002   6.0267801919971206E-002   0.0000000000000000     
   5.2902003237179931E-002   6.5734264228702322E-002   0.0000000000000000     
   5.5328777440689175E-002   7.1384410876464549E-002   0.0000000000000000     
   5.7686161581079386E-002   7.7218241863257833E-002   0.0000000000000000     
   5.9974155658350556E-002   8.3235757189082243E-002   0.0000000000000000     
   4.5808388396221845E-002   5.9530680463564377E-002   0.0000000000000000     
   4.8118365194930457E-002   6.5022143271324911E-002   0.0000000000000000     
   5.0360673109038662E-002   7.0695884459173811E-002   0.0000000000000000     
   5.2535312138546460E-002   7.6551904027111095E-002   0.0000000000000000     
   5.4642282283453844E-002   8.2590201975136751E-002   0.0000000000000000     
   7.7099609346219289E-002   8.5468020942305045E-002   0.0000000000000000     
   7.9803144190559852E-002   9.1566094714150517E-002   0.0000000000000000     
   8.2391650353850154E-002   9.7825171584043275E-002   0.0000000000000000     
   8.4865127836090223E-002  0.10424525155198330        0.0000000000000000     
   8.7223576637280031E-002  0.11082633461797065        0.0000000000000000     
   7.1202819189733271E-002   8.4674666672666404E-002   0.0000000000000000     
   7.3743870121579388E-002   9.0806614284718326E-002   0.0000000000000000     
   7.6172511343435945E-002   9.7095607045442262E-002   0.0000000000000000     
   7.8488742855302898E-002  0.10354164495483820        0.0000000000000000     
   8.0692564657180291E-002  0.11014472801290615        0.0000000000000000     
   6.5494334627110365E-002   8.3930578754925461E-002   0.0000000000000000     
   6.7869157828314389E-002   9.0092056949630739E-002   0.0000000000000000     
   7.0137615951013990E-002   9.6408451276636012E-002   0.0000000000000000     
   7.2299708995209169E-002  0.10287976173594116        0.0000000000000000     
   7.4355436960899940E-002  0.10950598832754629        0.0000000000000000     
   5.9974155658350556E-002   8.3235757189082243E-002   0.0000000000000000     
   6.2179007310764832E-002   8.9422422708887769E-002   0.0000000000000000     
   6.4286964176584319E-002   9.5763704277624387E-002   0.0000000000000000     
   6.6298026255809023E-002  0.10225960189529218        0.0000000000000000     
   6.8212193548438979E-002  0.10891011556189110        0.0000000000000000     
   5.4642282283453844E-002   8.2590201975136751E-002   0.0000000000000000     
   5.6673418568930704E-002   8.8797711562489362E-002   0.0000000000000000     
   5.8620556020146916E-002   9.5161366048407525E-002   0.0000000000000000     
   6.0483694637102473E-002  0.10168116543289127        0.0000000000000000     
   6.2262834419797367E-002  0.10835710971594052        0.0000000000000000     
   8.7223576637280031E-002  0.11082633461797065        0.0000000000000000     
   8.9492176481325292E-002  0.11755311213300942        0.0000000000000000     
   9.1696107092131732E-002  0.12441027544810382        0.0000000000000000     
   9.3835368469699337E-002  0.13139782456325383        0.0000000000000000     
   9.5909960614028095E-002  0.13851575947845951        0.0000000000000000     
   8.0692564657180291E-002  0.11014472801290615        0.0000000000000000     
   8.2813722044441956E-002  0.11689376155652367        0.0000000000000000     
   8.4881960312461827E-002  0.12377765092256841        0.0000000000000000     
   8.6897279461239846E-002  0.13079639611104030        0.0000000000000000     
   8.8859679490776056E-002  0.13794999712193945        0.0000000000000000     
   7.4355436960899940E-002  0.10950598832754629        0.0000000000000000     
   7.6334199857200302E-002  0.11627818011897570        0.0000000000000000     
   7.8265397693224339E-002  0.12318738617775377        0.0000000000000000     
   8.0149030468971968E-002  0.13023360650388047        0.0000000000000000     
   8.1985098184443259E-002  0.13741684109735580        0.0000000000000000     
   6.8212193548438979E-002  0.10891011556189110        0.0000000000000000     
   7.0053609919600288E-002  0.11570636782036553        0.0000000000000000     
   7.1846419234419215E-002  0.12263948121365992        0.0000000000000000     
   7.3590621492895678E-002  0.12970945574177428        0.0000000000000000     
   7.5286216695029717E-002  0.13691629140470862        0.0000000000000000     
   6.2262834419797367E-002  0.10835710971594052        0.0000000000000000     
   6.3971952231641940E-002  0.11517832466069314        0.0000000000000000     
   6.5625024936046480E-002  0.12213393603028691        0.0000000000000000     
   6.7222052533010987E-002  0.12922394382472180        0.0000000000000000     
   6.8763035022535460E-002  0.13644834804399786        0.0000000000000000     
   9.5909960614028095E-002  0.13851575947845951        0.0000000000000000     
   9.7880211907094256E-002  0.14575567612666929        0.0000000000000000     
   9.9706450730873947E-002  0.15310917044083167        0.0000000000000000     
  0.10138867708536722       0.16057624242094673        0.0000000000000000     
  0.10292689097057406       0.16815689206701442        0.0000000000000000     
   8.8859679490776056E-002  0.13794999712193945        0.0000000000000000     
   9.0719700965280009E-002  0.14522381856487443        0.0000000000000000     
   9.2427884448961328E-002  0.15260322504945392        0.0000000000000000     
   9.3984229941820013E-002  0.16008821657567798        0.0000000000000000     
   9.5388737443856064E-002  0.16767879314354656        0.0000000000000000     
   8.1985098184443259E-002  0.13741684109735580        0.0000000000000000     
   8.3724425326892504E-002  0.14471999117772502        0.0000000000000000     
   8.5317836383574069E-002  0.15212595796453332        0.0000000000000000     
   8.6765331354487885E-002  0.15963474145778070        0.0000000000000000     
   8.8066910239634033E-002  0.16724634165746721        0.0000000000000000     
   7.5286216695029717E-002  0.13691629140470862        0.0000000000000000     
   7.6894384991931755E-002  0.14424419396522109        0.0000000000000000     
   7.8376306534712101E-002  0.15167736918606983        0.0000000000000000     
   7.9731981323370865E-002  0.15921581706725491        0.0000000000000000     
   8.0961409357907937E-002  0.16685953760877634        0.0000000000000000     
   6.8763035022535460E-002  0.13644834804399786        0.0000000000000000     
   7.0229579960397706E-002  0.14379642692736258        0.0000000000000000     
   7.1603294902375506E-002  0.15125745871406351        0.0000000000000000     
   7.2884179848468858E-002  0.15883144340410069        0.0000000000000000     
   7.4072234798677805E-002  0.16651838099747404        0.0000000000000000     
   0.0000000000000000        0.0000000000000000        0.0000000000000000     
   2.8812288842694064E-003   1.7425812273648140E-003   0.0000000000000000     
   5.8750713200107583E-003   3.8603726386585947E-003   0.0000000000000000     
   8.9815273072240565E-003   6.3533742338813416E-003   0.0000000000000000     
   1.2200596845909300E-002   9.2215860130330559E-003   0.0000000000000000     
   0.0000000000000000        0.0000000000000000        0.0000000000000000     
   2.6111328812942385E-003   1.5865392999139761E-003   0.0000000000000000     
   5.2914074388019580E-003   3.5521896678095380E-003   0.0000000000000000     
   8.0408236725231577E-003   5.8969511036866869E-003   0.0000000000000000     
   1.0859381582457840E-002   8.6208236075454216E-003   0.0000000000000000     
   0.0000000000000000        0.0000000000000000        0.0000000000000000     
   2.3405587707843391E-003   1.4565273814689732E-003   0.0000000000000000     
   4.7211052177164141E-003   3.2952223463520109E-003   0.0000000000000000     
   7.1416393407962254E-003   5.5160848946491118E-003   0.0000000000000000     
   9.6021611400237735E-003   8.1191150263602782E-003   0.0000000000000000     
   0.0000000000000000        0.0000000000000000        0.0000000000000000     
   2.0695065527397069E-003   1.3525454720298054E-003   0.0000000000000000     
   4.1641646567541256E-003   3.0894706742860107E-003   0.0000000000000000     
   6.2839743120432553E-003   5.2107756067686171E-003   0.0000000000000000     
   8.4289355186070985E-003   7.7164602694776221E-003   0.0000000000000000     
   0.0000000000000000        0.0000000000000000        0.0000000000000000     
   1.7979762271603424E-003   1.2745935715964729E-003   0.0000000000000000     
   3.6205857559150922E-003   2.9349346516115401E-003   0.0000000000000000     
   5.4678285862642499E-003   4.9810232400452018E-003   0.0000000000000000     
   7.3397047182078134E-003   7.4128593368974569E-003   0.0000000000000000     
   1.2200596845909300E-002   9.2215860130330559E-003   0.0000000000000000     
   1.5434547650661025E-002   1.2362956857973883E-002   0.0000000000000000     
   1.8585647436073775E-002   1.5675435650563976E-002   0.0000000000000000     
   2.1653896202147537E-002   1.9159022390803328E-002   0.0000000000000000     
   2.4639293948882326E-002   2.2813717078691943E-002   0.0000000000000000     
   1.0859381582457840E-002   8.6208236075454216E-003   0.0000000000000000     
   1.3693774300419018E-002   1.1641569555194287E-002   0.0000000000000000     
   1.6490694958219709E-002   1.4876951322441826E-002   0.0000000000000000     
   1.9250143555859911E-002   1.8326968909288036E-002   0.0000000000000000     
   2.1972120093339622E-002   2.1991622315732928E-002   0.0000000000000000     
   9.6021611400237735E-003   8.1191150263602782E-003   0.0000000000000000     
   1.2079172016327156E-002   1.1036949175729803E-002   0.0000000000000000     
   1.4549173370634470E-002   1.4202223777001987E-002   0.0000000000000000     
   1.7012165202945718E-002   1.7614938830176823E-002   0.0000000000000000     
   1.9468147513260897E-002   2.1275094335254329E-002   0.0000000000000000     
   8.4289355186070985E-003   7.7164602694776221E-003   0.0000000000000000     
   1.0590740798385439E-002   1.0549095719580435E-002   0.0000000000000000     
   1.2761082673318061E-002   1.3651253014244460E-002   0.0000000000000000     
   1.4939961143404967E-002   1.7022932153469696E-002   0.0000000000000000     
   1.7127376208646152E-002   2.0664133137256142E-002   0.0000000000000000     
   7.3397047182078134E-003   7.4128593368974569E-003   0.0000000000000000     
   9.2284806465938625E-003   1.0178009186746179E-002   0.0000000000000000     
   1.1126422866270476E-002   1.3224039034169240E-002   0.0000000000000000     
   1.3033531377237648E-002   1.6550948879166638E-002   0.0000000000000000     
   1.4949806179495385E-002   2.0158738721738380E-002   0.0000000000000000     
   2.4639293948882326E-002   2.2813717078691943E-002   0.0000000000000000     
   2.7546317390414184E-002   2.6662553996003955E-002   0.0000000000000000     
   3.0379443240879180E-002   3.0728567424513475E-002   0.0000000000000000     
   3.3138671500277300E-002   3.5011757364220512E-002   0.0000000000000000     
   3.5824002168608558E-002   3.9512123815125068E-002   0.0000000000000000     
   2.1972120093339622E-002   2.1991622315732928E-002   0.0000000000000000     
   2.4640299998624236E-002   2.5869144664675006E-002   0.0000000000000000     
   2.7238358699679135E-002   2.9957769079012781E-002   0.0000000000000000     
   2.9766296196504321E-002   3.4257495558746263E-002   0.0000000000000000     
   3.2224112489099795E-002   3.8768324103875443E-002   0.0000000000000000     
   1.9468147513260897E-002   2.1275094335254329E-002   0.0000000000000000     
   2.1888988589446230E-002   2.5164064748797885E-002   0.0000000000000000     
   2.4246556719367929E-002   2.9263224527370894E-002   0.0000000000000000     
   2.6540851903025998E-002   3.3572573670973369E-002   0.0000000000000000     
   2.8771874140420435E-002   3.8092112179605293E-002   0.0000000000000000     
   1.7127376208646152E-002   2.0664133137256142E-002   0.0000000000000000     
   1.9292383162880167E-002   2.4547314248372594E-002   0.0000000000000000     
   2.1404037299945562E-002   2.8644933769587818E-002   0.0000000000000000     
   2.3462338619842329E-002   3.2956991700901835E-002   0.0000000000000000     
   2.5467287122570476E-002   3.7483488042314612E-002   0.0000000000000000     
   1.4949806179495385E-002   2.0158738721738380E-002   0.0000000000000000     
   1.6850483718926054E-002   2.4018893163399124E-002   0.0000000000000000     
   1.8710800441412039E-002   2.8102896805663545E-002   0.0000000000000000     
   2.0530756346953321E-002   3.2410749648531641E-002   0.0000000000000000     
   2.2310351435549922E-002   3.6942451692003400E-002   0.0000000000000000     
   3.5824002168608558E-002   3.9512123815125068E-002   0.0000000000000000     
   3.8434312712432743E-002   4.4219999635530013E-002   0.0000000000000000     
   4.0968480598309695E-002   4.9125717683738211E-002   0.0000000000000000     
   4.3426505826239394E-002   5.4229277959749668E-002   0.0000000000000000     
   4.5808388396221845E-002   5.9530680463564377E-002   0.0000000000000000     
   3.2224112489099795E-002   3.8768324103875443E-002   0.0000000000000000     
   3.4613487333069702E-002   4.3485795302134041E-002   0.0000000000000000     
   3.6936100484018200E-002   4.8405449741255754E-002   0.0000000000000000     
   3.9191951941945281E-002   5.3527287421240605E-002   0.0000000000000000     
   4.1381041706850939E-002   5.8851308342088564E-002   0.0000000000000000     
   2.8771874140420435E-002   3.8092112179605293E-002   0.0000000000000000     
   3.0941806507828101E-002   4.2819366823061859E-002   0.0000000000000000     
   3.3052832081525853E-002   4.7751864371138285E-002   0.0000000000000000     
   3.5104950861513710E-002   5.2889604823834528E-002   0.0000000000000000     
   3.7098162847791639E-002   5.8232588181150610E-002   0.0000000000000000     
   2.5467287122570476E-002   3.7483488042314612E-002   0.0000000000000000     
   2.7419270236707944E-002   4.2220714198313497E-002   0.0000000000000000     
   2.9318675390832674E-002   4.7164961573385775E-002   0.0000000000000000     
   3.1165502584944674E-002   5.2316230167531438E-002   0.0000000000000000     
   3.2959751819043925E-002   5.7674519980750523E-002   0.0000000000000000     
   2.2310351435549922E-002   3.6942451692003400E-002   0.0000000000000000     
   2.4045878519709227E-002   4.1689837427888912E-002   0.0000000000000000     
   2.5733630411938643E-002   4.6644741347998231E-002   0.0000000000000000     
   2.7373607112238171E-002   5.1807163452331356E-002   0.0000000000000000     
   2.8965808620607811E-002   5.7177103740888302E-002   0.0000000000000000     
   4.5808388396221845E-002   5.9530680463564377E-002   0.0000000000000000     
   4.8118365194930457E-002   6.5022143271324911E-002   0.0000000000000000     
   5.0360673109038662E-002   7.0695884459173811E-002   0.0000000000000000     
   5.2535312138546460E-002   7.6551904027111095E-002   0.0000000000000000     
   5.4642282283453844E-002   8.2590201975136751E-002   0.0000000000000000     
   4.1381041706850939E-002   5.8851308342088564E-002   0.0000000000000000     
   4.3503977595760655E-002   6.4366689456984261E-002   0.0000000000000000     
   4.5561367425699884E-002   7.0062607719112338E-002   0.0000000000000000     
   4.7553211196668610E-002   7.5939063128472761E-002   0.0000000000000000     
   4.9479508908666862E-002   8.1996055685065516E-002   0.0000000000000000     
   3.7098162847791639E-002   5.8232588181150610E-002   0.0000000000000000     
   3.9031510983136661E-002   6.3768221332726027E-002   0.0000000000000000     
   4.0904038210325767E-002   6.9483911168200255E-002   0.0000000000000000     
   4.2715744529358939E-002   7.5379657687573307E-002   0.0000000000000000     
   4.4466629940236202E-002   8.1455460890845169E-002   0.0000000000000000     
   3.2959751819043925E-002   5.7674519980750523E-002   0.0000000000000000     
   3.4700965357058466E-002   6.3226738898550183E-002   0.0000000000000000     
   3.6388685462916306E-002   6.8959794806437574E-002   0.0000000000000000     
   3.8022912136617439E-002   7.4873687704412759E-002   0.0000000000000000     
   3.9603645378161870E-002   8.0968417592475653E-002   0.0000000000000000     
   2.8965808620607811E-002   5.7177103740888302E-002   0.0000000000000000     
   3.0512340717526079E-002   6.2742242154456729E-002   0.0000000000000000     
   3.2015309183471514E-002   6.8490258633824311E-002   0.0000000000000000     
   3.3474714018444110E-002   7.4421153178991062E-002   0.0000000000000000     
   3.4890555222443873E-002   8.0534925789956996E-002   0.0000000000000000     
   5.4642282283453844E-002   8.2590201975136751E-002   0.0000000000000000     
   5.6673418568930704E-002   8.8797711562489362E-002   0.0000000000000000     
   5.8620556020146916E-002   9.5161366048407525E-002   0.0000000000000000     
   6.0483694637102473E-002  0.10168116543289127        0.0000000000000000     
   6.2262834419797367E-002  0.10835710971594052        0.0000000000000000     
   4.9479508908666862E-002   8.1996055685065516E-002   0.0000000000000000     
   5.1337259638166849E-002   8.8222259566041988E-002   0.0000000000000000     
   5.3123462461640826E-002   9.4606348948553395E-002   0.0000000000000000     
   5.4838117379088794E-002  0.10114832383259982        0.0000000000000000     
   5.6481224390510738E-002  0.10784818421818124        0.0000000000000000     
   4.4466629940236202E-002   8.1455460890845169E-002   0.0000000000000000     
   4.6155398553828067E-002   8.7700402775152037E-002   0.0000000000000000     
   4.7780754481005105E-002   9.4103565337630118E-002   0.0000000000000000     
   4.9342697721767297E-002  0.10066494857827937        0.0000000000000000     
   5.0841228276114647E-002  0.10738455249709984        0.0000000000000000     
   3.9603645378161870E-002   8.0968417592475653E-002   0.0000000000000000     
   4.1127835315914379E-002   8.7232141189819548E-002   0.0000000000000000     
   4.2592432078239741E-002   9.3653015215637625E-002   0.0000000000000000     
   4.3997435665137988E-002  0.10023103966992990        0.0000000000000000     
   4.5342846076609093E-002  0.10696621455269636        0.0000000000000000     
   3.4890555222443873E-002   8.0534925789956996E-002   0.0000000000000000     
   3.6254569924425765E-002   8.6817474810044482E-002   0.0000000000000000     
   3.7558495253344759E-002   9.3254698582575943E-002   0.0000000000000000     
   3.8802331209200860E-002   9.9846597107551394E-002   0.0000000000000000     
   3.9986077791994069E-002  0.10659317038497076        0.0000000000000000     
   6.2262834419797367E-002  0.10835710971594052        0.0000000000000000     
   6.3971952231641940E-002  0.11517832466069314        0.0000000000000000     
   6.5625024936046480E-002  0.12213393603028691        0.0000000000000000     
   6.7222052533010987E-002  0.12922394382472180        0.0000000000000000     
   6.8763035022535460E-002  0.13644834804399786        0.0000000000000000     
   5.6481224390510738E-002  0.10784818421818124        0.0000000000000000     
   5.8057275957062060E-002  0.11469304089934501        0.0000000000000000     
   5.9570764539898118E-002  0.12167000467013857        0.0000000000000000     
   6.1021690139018932E-002  0.12877907553056189        0.0000000000000000     
   6.2410052754424482E-002  0.13602025348061497        0.0000000000000000     
   5.0841228276114647E-002  0.10738455249709984        0.0000000000000000     
   5.2277630259597481E-002  0.11424950679570760        0.0000000000000000     
   5.3653187787766121E-002  0.12124694117571880        0.0000000000000000     
   5.4967900860620575E-002  0.12837685563713336        0.0000000000000000     
   5.6221769478160842E-002  0.13563925017995135        0.0000000000000000     
   4.5342846076609093E-002  0.10696621455269636        0.0000000000000000     
   4.6633015139248210E-002  0.11384772234978094        0.0000000000000000     
   4.7872294679650484E-002  0.12086474554702756        0.0000000000000000     
   4.9060684697815930E-002  0.12801728414443625        0.0000000000000000     
   5.0198185193744534E-002  0.13530533814200701        0.0000000000000000     
   3.9986077791994069E-002  0.10659317038497076        0.0000000000000000     
   4.1123430596014227E-002  0.11348768756156501        0.0000000000000000     
   4.2228085215551200E-002  0.12052341778406493        0.0000000000000000     
   4.3300041650604970E-002  0.12770036105247060        0.0000000000000000     
   4.4339299901175556E-002  0.13501851736678197        0.0000000000000000     
   6.8763035022535460E-002  0.13644834804399786        0.0000000000000000     
   7.0229579960397706E-002  0.14379642692736258        0.0000000000000000     
   7.1603294902375506E-002  0.15125745871406351        0.0000000000000000     
   7.2884179848468858E-002  0.15883144340410069        0.0000000000000000     
   7.4072234798677805E-002  0.16651838099747404        0.0000000000000000     
   6.2410052754424482E-002  0.13602025348061497        0.0000000000000000     
   6.3736178927112391E-002  0.14338746474925090        0.0000000000000000     
   6.5000395198080277E-002  0.15087463556542288        0.0000000000000000     
   6.6202701567328118E-002  0.15848176592913082        0.0000000000000000     
   6.7343098034855942E-002  0.16620885584037470        0.0000000000000000     
   5.6221769478160842E-002  0.13563925017995135        0.0000000000000000     
   5.7420350586897831E-002  0.14302808211598747        0.0000000000000000     
   5.8569201133342477E-002  0.15053730875705643        0.0000000000000000     
   5.9668321117494767E-002  0.15816693010315822        0.0000000000000000     
   6.0717710539354722E-002  0.16591694615429281        0.0000000000000000     
   5.0198185193744534E-002  0.13530533814200701        0.0000000000000000     
   5.1282094939754032E-002  0.14271827902757217        0.0000000000000000     
   5.2309712708162107E-002  0.15024547828896412        0.0000000000000000     
   5.3281038498968813E-002  0.15788693592618286        0.0000000000000000     
   5.4196072312174104E-002  0.16564265193922836        0.0000000000000000     
   4.4339299901175556E-002  0.13501851736678197        0.0000000000000000     
   4.5321411985680959E-002  0.14245805548400509        0.0000000000000000     
   4.6221929922539186E-002  0.14999914416114604        0.0000000000000000     
   4.7040853711750236E-002  0.15764178339820481        0.0000000000000000     
   4.7778183353314130E-002  0.16538597319518139        0.0000000000000000     
   0.0000000000000000        0.0000000000000000        0.0000000000000000     
   1.7979762271603424E-003   1.2745935715964729E-003   0.0000000000000000     
   3.6205857559150922E-003   2.9349346516115401E-003   0.0000000000000000     
   5.4678285862642499E-003   4.9810232400452018E-003   0.0000000000000000     
   7.3397047182078134E-003   7.4128593368974569E-003   0.0000000000000000     
   0.0000000000000000        0.0000000000000000        0.0000000000000000     
   1.5342885945001197E-003   1.2155593547029881E-003   0.0000000000000000     
   3.0978040072096235E-003   2.8171089357642031E-003   0.0000000000000000     
   4.6905462381285129E-003   4.8046487431836456E-003   0.0000000000000000     
   6.3125152872567855E-003   7.1781787769613151E-003   0.0000000000000000     
   0.0000000000000000        0.0000000000000000        0.0000000000000000     
   1.2867644552129131E-003   1.1683304958833639E-003   0.0000000000000000     
   2.6032549026480294E-003   2.7214881841796067E-003   0.0000000000000000     
   3.9494713423053494E-003   4.6594730648887280E-003   0.0000000000000000     
   5.3254137741848735E-003   6.9822851380107282E-003   0.0000000000000000     
   0.0000000000000000        0.0000000000000000        0.0000000000000000     
   1.0554038092987221E-003   1.1329069951376001E-003   0.0000000000000000     
   2.1369384422303089E-003   2.6480723968577494E-003   0.0000000000000000     
   3.2446038987947608E-003   4.5454962051604481E-003   0.0000000000000000     
   4.3784001789920783E-003   6.8251784200456965E-003   0.0000000000000000     
   0.0000000000000000        0.0000000000000000        0.0000000000000000     
   8.4020665675754692E-004   1.1092888524656974E-003   0.0000000000000000     
   1.6988546259564625E-003   2.5968615737986330E-003   0.0000000000000000     
   2.5759439075967471E-003   4.4627181639988077E-003   0.0000000000000000     
   3.4714745016783998E-003   6.7068586230662197E-003   0.0000000000000000     
   7.3397047182078134E-003   7.4128593368974569E-003   0.0000000000000000     
   9.2284806465938625E-003   1.0178009186746179E-002   0.0000000000000000     
   1.1126422866270476E-002   1.3224039034169240E-002   0.0000000000000000     
   1.3033531377237648E-002   1.6550948879166638E-002   0.0000000000000000     
   1.4949806179495385E-002   2.0158738721738380E-002   0.0000000000000000     
   6.3125152872567855E-003   7.1781787769613151E-003   0.0000000000000000     
   7.9508855503965178E-003   9.8880974630672133E-003   0.0000000000000000     
   9.5928314233497906E-003   1.2884803227471339E-002   0.0000000000000000     
   1.1238352906116598E-002   1.6168296070173692E-002   0.0000000000000000     
   1.2887449998696940E-002   1.9738575991174276E-002   0.0000000000000000     
   5.3254137741848735E-003   6.9822851380107282E-003   0.0000000000000000     
   6.7164494992374858E-003   9.6437684343837048E-003   0.0000000000000000     
   8.1079458184140710E-003   1.2597766984845757E-002   0.0000000000000000     
   9.4999027317146326E-003   1.5844280789396880E-002   0.0000000000000000     
   1.0892320239139169E-002   1.9383309848037079E-002   0.0000000000000000     
   4.3784001789920783E-003   6.8251784200456965E-003   0.0000000000000000     
   5.5251724931167636E-003   9.4450221006956558E-003   0.0000000000000000     
   6.6717660514633240E-003   1.2362930306292494E-002   0.0000000000000000     
   7.8181808540317577E-003   1.5578903036836208E-002   0.0000000000000000     
   8.9644169008220656E-003   1.9092940292326801E-002   0.0000000000000000     
   3.4714745016783998E-003   6.7068586230662197E-003   0.0000000000000000     
   4.3770545320343550E-003   9.2918584620030678E-003   0.0000000000000000     
   5.2842921224975454E-003   1.2180293191811555E-002   0.0000000000000000     
   6.1931872730679721E-003   1.5372162812491669E-002   0.0000000000000000     
   7.1037399837456331E-003   1.8867467324043423E-002   0.0000000000000000     
   1.4949806179495385E-002   2.0158738721738380E-002   0.0000000000000000     
   1.6850483718926054E-002   2.4018893163399124E-002   0.0000000000000000     
   1.8710800441412039E-002   2.8102896805663545E-002   0.0000000000000000     
   2.0530756346953321E-002   3.2410749648531641E-002   0.0000000000000000     
   2.2310351435549922E-002   3.6942451692003400E-002   0.0000000000000000     
   1.2887449998696940E-002   1.9738575991174276E-002   0.0000000000000000     
   1.4524528348002656E-002   2.3569534086143849E-002   0.0000000000000000     
   1.6133993600945570E-002   2.7635061450753180E-002   0.0000000000000000     
   1.7715845757525689E-002   3.1935158085002260E-002   0.0000000000000000     
   1.9270084817743005E-002   3.6469823988891106E-002   0.0000000000000000     
   1.0892320239139169E-002   1.9383309848037079E-002   0.0000000000000000     
   1.2275755140528736E-002   2.3189969608873141E-002   0.0000000000000000     
   1.3640764235724396E-002   2.7239375520011835E-002   0.0000000000000000     
   1.4987347524726141E-002   3.1531527581453181E-002   0.0000000000000000     
   1.6315505007533985E-002   3.6066425793197160E-002   0.0000000000000000     
   8.9644169008220656E-003   1.9092940292326801E-002   0.0000000000000000     
   1.0104164096504298E-002   2.2880199731586993E-002   0.0000000000000000     
   1.1231112345748506E-002   2.6915839013439517E-002   0.0000000000000000     
   1.2345261648554691E-002   3.1199858137884375E-002   0.0000000000000000     
   1.3446612004922849E-002   3.5732257104921568E-002   0.0000000000000000     
   7.1037399837456331E-003   1.8867467324043423E-002   0.0000000000000000     
   8.0097552159293407E-003   2.2640224454285408E-002   0.0000000000000000     
   8.9050379310179062E-003   2.6664451931036216E-002   0.0000000000000000     
   9.7895881290113243E-003   3.0940149754295859E-002   0.0000000000000000     
   1.0663405809909599E-002   3.5467317924064316E-002   0.0000000000000000     
   2.2310351435549922E-002   3.6942451692003400E-002   0.0000000000000000     
   2.4045878519709227E-002   4.1689837427888912E-002   0.0000000000000000     
   2.5733630411938643E-002   4.6644741347998231E-002   0.0000000000000000     
   2.7373607112238171E-002   5.1807163452331356E-002   0.0000000000000000     
   2.8965808620607811E-002   5.7177103740888302E-002   0.0000000000000000     
   1.9270084817743005E-002   3.6469823988891106E-002   0.0000000000000000     
   2.0788865518833351E-002   4.1225621034295015E-002   0.0000000000000000     
   2.2264342598032536E-002   4.6189111093089319E-002   0.0000000000000000     
   2.3696516055340563E-002   5.1360294165273990E-002   0.0000000000000000     
   2.5085385890757435E-002   5.6739170250849062E-002   0.0000000000000000     
   1.6315505007533985E-002   3.6066425793197160E-002   0.0000000000000000     
   1.7615465396081709E-002   4.0826949540038682E-002   0.0000000000000000     
   1.8877457402303115E-002   4.5795978206772656E-002   0.0000000000000000     
   2.0101481026198201E-002   5.0973511793399068E-002   0.0000000000000000     
   2.1287536267766964E-002   5.6359550299917925E-002   0.0000000000000000     
   1.3446612004922849E-002   3.5732257104921568E-002   0.0000000000000000     
   1.4525678151454306E-002   4.0493822945119905E-002   0.0000000000000000     
   1.5572974824750382E-002   4.5465342689048248E-002   0.0000000000000000     
   1.6588502024811085E-002   5.0646816336706570E-002   0.0000000000000000     
   1.7572259751636406E-002   5.6038243888094898E-002   0.0000000000000000     
   1.0663405809909599E-002   3.5467317924064316E-002   0.0000000000000000     
   1.1519503784951136E-002   4.0226241249538705E-002   0.0000000000000000     
   1.2350894865374339E-002   4.5197204539916110E-002   0.0000000000000000     
   1.3157579051179208E-002   5.0380207795196516E-002   0.0000000000000000     
   1.3939556342365742E-002   5.5775251015379952E-002   0.0000000000000000     
   2.8965808620607811E-002   5.7177103740888302E-002   0.0000000000000000     
   3.0512340717526079E-002   6.2742242154456729E-002   0.0000000000000000     
   3.2015309183471514E-002   6.8490258633824311E-002   0.0000000000000000     
   3.3474714018444110E-002   7.4421153178991062E-002   0.0000000000000000     
   3.4890555222443873E-002   8.0534925789956996E-002   0.0000000000000000     
   2.5085385890757435E-002   5.6739170250849062E-002   0.0000000000000000     
   2.6435883172117428E-002   6.2314419208881561E-002   0.0000000000000000     
   2.7752938967254830E-002   6.8074720898438551E-002   0.0000000000000000     
   2.9036553276169635E-002   7.4020075319520026E-002   0.0000000000000000     
   3.0286726098861849E-002   8.0150482472125972E-002   0.0000000000000000     
   2.1287536267766964E-002   5.6359550299917925E-002   0.0000000000000000     
   2.2441838828410453E-002   6.1942958170260576E-002   0.0000000000000000     
   2.3570604409529690E-002   6.7712599848358354E-002   0.0000000000000000     
   2.4673833011124691E-002   7.3668475334211295E-002   0.0000000000000000     
   2.5751524633195445E-002   7.9810584627819342E-002   0.0000000000000000     
   1.7572259751636406E-002   5.6038243888094898E-002   0.0000000000000000     
   1.8530207686405144E-002   6.1627859038593760E-002   0.0000000000000000     
   1.9468305510296099E-002   6.7403895483583762E-002   0.0000000000000000     
   2.0386553223309269E-002   7.3366353223064867E-002   0.0000000000000000     
   2.1284950825444661E-002   7.9515232257037119E-002   0.0000000000000000     
   1.3939556342365742E-002   5.5775251015379952E-002   0.0000000000000000     
   1.4700989746101503E-002   6.1369121813881121E-002   0.0000000000000000     
   1.5446042269554048E-002   6.7148607804114732E-002   0.0000000000000000     
   1.6174713912723376E-002   7.3113708986080786E-002   0.0000000000000000     
   1.6887004675609493E-002   7.9264425359779303E-002   0.0000000000000000     
   3.4890555222443873E-002   8.0534925789956996E-002   0.0000000000000000     
   3.6254569924425765E-002   8.6817474810044482E-002   0.0000000000000000     
   3.7558495253344759E-002   9.3254698582575943E-002   0.0000000000000000     
   3.8802331209200860E-002   9.9846597107551394E-002   0.0000000000000000     
   3.9986077791994069E-002  0.10659317038497076        0.0000000000000000     
   3.0286726098861849E-002   8.0150482472125972E-002   0.0000000000000000     
   3.1490005745409624E-002   8.6449626082288553E-002   0.0000000000000000     
   3.2632940525891142E-002   9.2901189876039930E-002   0.0000000000000000     
   3.3715530440306382E-002   9.9505173853380063E-002   0.0000000000000000     
   3.4737775488655344E-002  0.10626157801430901        0.0000000000000000     
   2.5751524633195445E-002   7.9810584627819342E-002   0.0000000000000000     
   2.6788546144913373E-002   8.6121817453013422E-002   0.0000000000000000     
   2.7769764415449885E-002   9.2585063533624390E-002   0.0000000000000000     
   2.8695179444804993E-002   9.9200322869652233E-002   0.0000000000000000     
   2.9564791232978685E-002  0.10596759546109695        0.0000000000000000     
   2.1284950825444661E-002   7.9515232257037119E-002   0.0000000000000000     
   2.2150191122936997E-002   8.5834048922219075E-002   0.0000000000000000     
   2.2968966922021015E-002   9.2306319555329322E-002   0.0000000000000000     
   2.3741278222696713E-002   9.8932044156367846E-002   0.0000000000000000     
   2.4467125024964086E-002  0.10571122272533466        0.0000000000000000     
   1.6887004675609493E-002   7.9264425359779303E-002   0.0000000000000000     
   1.7574940679480504E-002   8.5586320489905512E-002   0.0000000000000000     
   1.8230548045604516E-002   9.2064957941154740E-002   0.0000000000000000     
   1.8853826773981529E-002   9.8700337713526931E-002   0.0000000000000000     
   1.9444776864611546E-002  0.10549245980702210        0.0000000000000000     
   3.9986077791994069E-002  0.10659317038497076        0.0000000000000000     
   4.1123430596014227E-002  0.11348768756156501        0.0000000000000000     
   4.2228085215551200E-002  0.12052341778406493        0.0000000000000000     
   4.3300041650604970E-002  0.12770036105247060        0.0000000000000000     
   4.4339299901175556E-002  0.13501851736678197        0.0000000000000000     
   3.4737775488655344E-002  0.10626157801430901        0.0000000000000000     
   3.5722007642494114E-002  0.11316724123473484        0.0000000000000000     
   3.6690558873378749E-002  0.12021900239056577        0.0000000000000000     
   3.7643429181309251E-002  0.12741686148180173        0.0000000000000000     
   3.8580618566285627E-002  0.13476081850844271        0.0000000000000000     
   2.9564791232978685E-002  0.10596759546109695        0.0000000000000000     
   3.0401877291286412E-002  0.11288422217296554        0.0000000000000000     
   3.1229715131043615E-002  0.11994754387026486        0.0000000000000000     
   3.2048304752250296E-002  0.12715756055299496        0.0000000000000000     
   3.2857646154906460E-002  0.13451427222115581        0.0000000000000000     
   2.4467125024964086E-002  0.10571122272533466        0.0000000000000000     
   2.5163039542391120E-002  0.11263863037625706        0.0000000000000000     
   2.5845553988545791E-002  0.11970904222316227        0.0000000000000000     
   2.6514668363428105E-002  0.12692245826605036        0.0000000000000000     
   2.7170382667038057E-002  0.13427887850492123        0.0000000000000000     
   1.9444776864611546E-002  0.10549245980702210        0.0000000000000000     
   2.0005494395808242E-002  0.11243046584460940        0.0000000000000000     
   2.0538075445885286E-002  0.11950349744925799        0.0000000000000000     
   2.1042520014842678E-002  0.12671155462096786        0.0000000000000000     
   2.1518828102680420E-002  0.13405463735973902        0.0000000000000000     
   4.4339299901175556E-002  0.13501851736678197        0.0000000000000000     
   4.5321411985680959E-002  0.14245805548400509        0.0000000000000000     
   4.6221929922539186E-002  0.14999914416114604        0.0000000000000000     
   4.7040853711750236E-002  0.15764178339820481        0.0000000000000000     
   4.7778183353314130E-002  0.16538597319518139        0.0000000000000000     
   3.8580618566285627E-002  0.13476081850844271        0.0000000000000000     
   3.9460128952171367E-002  0.14222420730124241        0.0000000000000000     
   4.0239962262829991E-002  0.14978036169095438        0.0000000000000000     
   4.0920118498261479E-002  0.15742928167757866        0.0000000000000000     
   4.1500597658465851E-002  0.16517096726111524        0.0000000000000000     
   3.2857646154906460E-002  0.13451427222115581        0.0000000000000000     
   3.3620073066718006E-002  0.14199353029524034        0.0000000000000000     
   3.4297919215390819E-002  0.14957118619574147        0.0000000000000000     
   3.4891184600924934E-002  0.15724723992265910        0.0000000000000000     
   3.5399869223320314E-002  0.16502169147599338        0.0000000000000000     
   2.7170382667038057E-002  0.13427887850492123        0.0000000000000000     
   2.7801244329320858E-002  0.14176602446599890        0.0000000000000000     
   2.8395800780221699E-002  0.14937161767550716        0.0000000000000000     
   2.8954052019740596E-002  0.15709565813344611        0.0000000000000000     
   2.9475998047877539E-002  0.16493814583981564        0.0000000000000000     
   2.1518828102680420E-002  0.13405463735973902        0.0000000000000000     
   2.2003642739979928E-002  0.14154168981351808        0.0000000000000000     
   2.2533606957322611E-002  0.14918165613025164        0.0000000000000000     
   2.3108720754708476E-002  0.15697453630993968        0.0000000000000000     
   2.3728984132137518E-002  0.16492033035258219        0.0000000000000000     
   0.0000000000000000        0.0000000000000000        0.0000000000000000     
   8.4020665675754692E-004   1.1092888524656974E-003   0.0000000000000000     
   1.6988546259564625E-003   2.5968615737986330E-003   0.0000000000000000     
   2.5759439075967471E-003   4.4627181639988077E-003   0.0000000000000000     
   3.4714745016783998E-003   6.7068586230662197E-003   0.0000000000000000     
   0.0000000000000000        0.0000000000000000        0.0000000000000000     
   6.3227106251287563E-004   1.0938451321194610E-003   0.0000000000000000     
   1.2745066086053817E-003   2.5618887681595663E-003   0.0000000000000000     
   1.9267066382775183E-003   4.4041309081203177E-003   0.0000000000000000     
   2.5888711515292856E-003   6.6205715520017121E-003   0.0000000000000000     
   0.0000000000000000        0.0000000000000000        0.0000000000000000     
   4.2269509148819636E-004   1.0829448983506978E-003   0.0000000000000000     
   8.4939754495595883E-004   2.5371870330978615E-003   0.0000000000000000     
   1.2801073604032877E-003   4.3627264042414909E-003   0.0000000000000000     
   1.7148245378301825E-003   6.5595630117815861E-003   0.0000000000000000     
   0.0000000000000000        0.0000000000000000        0.0000000000000000     
   2.1147874368350917E-004   1.0765881511594073E-003   0.0000000000000000     
   4.2352743500819389E-004   2.5227563686135170E-003   0.0000000000000000     
   6.3614607397405418E-004   4.3385046523623291E-003   0.0000000000000000     
   8.4933466058109003E-004   6.5238330024058435E-003   0.0000000000000000     
   0.0000000000000000        0.0000000000000000        0.0000000000000000     
  -1.3779809011860112E-006   1.0747748905455901E-003   0.0000000000000000     
  -3.1037212379132653E-006   2.5185967747065338E-003   0.0000000000000000     
  -5.1772210101818706E-006   4.3314656524828313E-003   0.0000000000000000     
  -7.5984802179916374E-006   6.5133815238744824E-003   0.0000000000000000     
   3.4714745016783998E-003   6.7068586230662197E-003   0.0000000000000000     
   4.3770545320343550E-003   9.2918584620030678E-003   0.0000000000000000     
   5.2842921224975454E-003   1.2180293191811555E-002   0.0000000000000000     
   6.1931872730679721E-003   1.5372162812491669E-002   0.0000000000000000     
   7.1037399837456331E-003   1.8867467324043423E-002   0.0000000000000000     
   2.5888711515292856E-003   6.6205715520017121E-003   0.0000000000000000     
   3.2579258884333022E-003   9.1781336867447303E-003   0.0000000000000000     
   3.9307965890621856E-003   1.2043740299290355E-002   0.0000000000000000     
   4.6074832534159374E-003   1.5217391389638582E-002   0.0000000000000000     
   5.2879858814945564E-003   1.8699086957789410E-002   0.0000000000000000     
   1.7148245378301825E-003   6.5595630117815861E-003   0.0000000000000000     
   2.1536168347566489E-003   9.0977039433594326E-003   0.0000000000000000     
   2.5965520087026942E-003   1.1947156286616320E-002   0.0000000000000000     
   3.0436300596683175E-003   1.5107920041552245E-002   0.0000000000000000     
   3.4948509876535183E-003   1.8579995208167208E-002   0.0000000000000000     
   8.4933466058109003E-004   6.5238330024058435E-003   0.0000000000000000     
   1.0641273710043971E-003   9.0505692318471800E-003   0.0000000000000000     
   1.2815583814190709E-003   1.1890541153789453E-002   0.0000000000000000     
   1.5016276918251117E-003   1.5043748768232668E-002   0.0000000000000000     
   1.7243353022225187E-003   1.8510192075176825E-002   0.0000000000000000     
  -7.5984802179916374E-006   6.5133815238744824E-003   0.0000000000000000     
  -1.0542502823454892E-005   9.0367295522079637E-003   0.0000000000000000     
  -1.4184292788684456E-005   1.1873894900809753E-002   0.0000000000000000     
  -1.8523850113679672E-005   1.5024877569679847E-002   0.0000000000000000     
  -2.3561174798440872E-005   1.8489677558818252E-002   0.0000000000000000     
   7.1037399837456331E-003   1.8867467324043423E-002   0.0000000000000000     
   8.0097552159293407E-003   2.2640224454285408E-002   0.0000000000000000     
   8.9050379310179062E-003   2.6664451931036216E-002   0.0000000000000000     
   9.7895881290113243E-003   3.0940149754295859E-002   0.0000000000000000     
   1.0663405809909599E-002   3.5467317924064316E-002   0.0000000000000000     
   5.2879858814945564E-003   1.8699086957789410E-002   0.0000000000000000     
   5.9654217936757565E-003   2.2461402523825152E-002   0.0000000000000000     
   6.6329083103372514E-003   2.6476913607828115E-002   0.0000000000000000     
   7.2904454314790430E-003   3.0745620209798291E-002   0.0000000000000000     
   7.9380331571011278E-003   3.5267522329735693E-002   0.0000000000000000     
   3.4948509876535183E-003   1.8579995208167208E-002   0.0000000000000000     
   3.9440571246154351E-003   2.2335092687062998E-002   0.0000000000000000     
   4.3850908025112089E-003   2.6344923378841378E-002   0.0000000000000000     
   4.8179520213408374E-003   3.0609487283502365E-002   0.0000000000000000     
   5.2426407811043216E-003   3.5128784401045950E-002   0.0000000000000000     
   1.7243353022225187E-003   1.8510192075176825E-002   0.0000000000000000     
   1.9456612087483788E-003   2.2261294943998932E-002   0.0000000000000000     
   2.1615854075397755E-003   2.6268481244076016E-002   0.0000000000000000     
   2.3721078985967105E-003   3.0531750975408067E-002   0.0000000000000000     
   2.5772286819191821E-003   3.5051104137995087E-002   0.0000000000000000     
  -2.3561174798440872E-005   1.8489677558818252E-002   0.0000000000000000     
  -2.9765953925414961E-005   2.2240009294632972E-002   0.0000000000000000     
  -3.7607874577047685E-005   2.6247587203532020E-002   0.0000000000000000     
  -4.7086936753340407E-005   3.0512411285515403E-002   0.0000000000000000     
  -5.8203140454292021E-005   3.5034481540583112E-002   0.0000000000000000     
   1.0663405809909599E-002   3.5467317924064316E-002   0.0000000000000000     
   1.1519503784951136E-002   4.0226241249538705E-002   0.0000000000000000     
   1.2350894865374339E-002   4.5197204539916110E-002   0.0000000000000000     
   1.3157579051179208E-002   5.0380207795196516E-002   0.0000000000000000     
   1.3939556342365742E-002   5.5775251015379952E-002   0.0000000000000000     
   7.9380331571011278E-003   3.5267522329735693E-002   0.0000000000000000     
   8.5716469945052599E-003   4.0022866186558662E-002   0.0000000000000000     
   9.1872624509931888E-003   4.4991897999185522E-002   0.0000000000000000     
   9.7848795265649147E-003   5.0174617767616302E-002   0.0000000000000000     
   1.0364498221220439E-002   5.5571025491850994E-002   0.0000000000000000     
   5.2426407811043216E-003   3.5128784401045950E-002   0.0000000000000000     
   5.6568124780497324E-003   3.9882359489443353E-002   0.0000000000000000     
   6.0581225084251388E-003   4.4849757306665815E-002   0.0000000000000000     
   6.4465708722305417E-003   5.0030977852713321E-002   0.0000000000000000     
   6.8221575694659420E-003   5.5426021127585857E-002   0.0000000000000000     
   2.5772286819191821E-003   3.5051104137995087E-002   0.0000000000000000     
   2.7750002355845537E-003   3.9804721158192814E-002   0.0000000000000000     
   2.9634750376701896E-003   4.4770782462356974E-002   0.0000000000000000     
   3.1426530881760893E-003   4.9949288050487546E-002   0.0000000000000000     
   3.3125343871022515E-003   5.5340237922584565E-002   0.0000000000000000     
  -5.8203140454292021E-005   3.5034481540583112E-002   0.0000000000000000     
  -7.3789732890274179E-005   3.9789951192807017E-002   0.0000000000000000     
  -9.6679961271658261E-005   4.4754973466258986E-002   0.0000000000000000     
  -1.2687382559844454E-004   4.9929548360939012E-002   0.0000000000000000     
  -1.6437132587063231E-004   5.5313675876847095E-002   0.0000000000000000     
   1.3939556342365742E-002   5.5775251015379952E-002   0.0000000000000000     
   1.4700989746101503E-002   6.1369121813881121E-002   0.0000000000000000     
   1.5446042269554048E-002   6.7148607804114732E-002   0.0000000000000000     
   1.6174713912723376E-002   7.3113708986080786E-002   0.0000000000000000     
   1.6887004675609493E-002   7.9264425359779303E-002   0.0000000000000000     
   1.0364498221220439E-002   5.5571025491850994E-002   0.0000000000000000     
   1.0928588445748367E-002   6.1166715174412904E-002   0.0000000000000000     
   1.1479620110937304E-002   6.6947280817825389E-002   0.0000000000000000     
   1.2017593216787251E-002   7.2912722422088405E-002   0.0000000000000000     
   1.2542507763298207E-002   7.9063039987201975E-002   0.0000000000000000     
   6.8221575694659420E-003   5.5426021127585857E-002   0.0000000000000000     
   7.1874072235945602E-003   6.1020607798479377E-002   0.0000000000000000     
   7.5448444580796204E-003   6.6800458532589799E-002   0.0000000000000000     
   7.8944692729211209E-003   7.2765573329917080E-002   0.0000000000000000     
   8.2362816681190616E-003   7.8915952190461283E-002   0.0000000000000000     
   3.3125343871022515E-003   5.5340237922584565E-002   0.0000000000000000     
   3.4774460796400852E-003   6.0930799686080526E-002   0.0000000000000000     
   3.6417153109809981E-003   6.6708140948407935E-002   0.0000000000000000     
   3.8053420811249897E-003   7.2672261709566824E-002   0.0000000000000000     
   3.9683263900720609E-003   7.8823161969557201E-002   0.0000000000000000     
  -1.6437132587063231E-004   5.5313675876847095E-002   0.0000000000000000     
  -2.0129498611505959E-004   6.0897290837216358E-002   0.0000000000000000     
  -2.2976733035856323E-004   6.6670328065279866E-002   0.0000000000000000     
  -2.4978835860114355E-004   7.2632787561037665E-002   0.0000000000000000     
  -2.6135807084279967E-004   7.8784669324489714E-002   0.0000000000000000     
   1.6887004675609493E-002   7.9264425359779303E-002   0.0000000000000000     
   1.7574940679480504E-002   8.5586320489905512E-002   0.0000000000000000     
   1.8230548045604516E-002   9.2064957941154740E-002   0.0000000000000000     
   1.8853826773981529E-002   9.8700337713526931E-002   0.0000000000000000     
   1.9444776864611546E-002  0.10549245980702210        0.0000000000000000     
   1.2542507763298207E-002   7.9063039987201975E-002   0.0000000000000000     
   1.3051767117814693E-002   8.5385920444931651E-002   0.0000000000000000     
   1.3542774647681232E-002   9.1869050727042975E-002   0.0000000000000000     
   1.4015530352897819E-002   9.8512430833535933E-002   0.0000000000000000     
   1.4470034233464456E-002  0.10531606076441054        0.0000000000000000     
   8.2362816681190616E-003   7.8915952190461283E-002   0.0000000000000000     
   8.5696427412103801E-003   8.5240137076156380E-002   0.0000000000000000     
   8.8939135897320078E-003   9.1726669948936426E-002   0.0000000000000000     
   9.2090942136839448E-003   9.8375550808801393E-002   0.0000000000000000     
   9.5151846130661910E-003  0.10518677965575128        0.0000000000000000     
   3.9683263900720609E-003   7.8823161969557201E-002   0.0000000000000000     
   4.1285675496675620E-003   8.5148970383579714E-002   0.0000000000000000     
   4.2839648717568441E-003   9.1637815606835066E-002   0.0000000000000000     
   4.4345183563399082E-003   9.8289697639323270E-002   0.0000000000000000     
   4.5802280034167543E-003  0.10510461648104436        0.0000000000000000     
  -2.6135807084279967E-004   7.8784669324489714E-002   0.0000000000000000     
  -2.7145845681376154E-004   8.5112420367201611E-002   0.0000000000000000     
  -2.8707150624425872E-004   9.1602487700738880E-002   0.0000000000000000     
  -3.0819721913428934E-004   9.8254871325101578E-002   0.0000000000000000     
  -3.3483559548385484E-004  0.10506957124028969        0.0000000000000000     
   1.9444776864611546E-002  0.10549245980702210        0.0000000000000000     
   2.0005494395808242E-002  0.11243046584460940        0.0000000000000000     
   2.0538075445885286E-002  0.11950349744925799        0.0000000000000000     
   2.1042520014842678E-002  0.12671155462096786        0.0000000000000000     
   2.1518828102680420E-002  0.13405463735973902        0.0000000000000000     
   1.4470034233464456E-002  0.10531606076441054        0.0000000000000000     
   1.4893633652362048E-002  0.11226274258486507        0.0000000000000000     
   1.5273675972571501E-002  0.11933527836009782        0.0000000000000000     
   1.5610161194092812E-002  0.12653366809010883        0.0000000000000000     
   1.5903089316925988E-002  0.13385791177489803        0.0000000000000000     
   9.5151846130661910E-003  0.10518677965575128        0.0000000000000000     
   9.7918491128768052E-003  0.11213847460386656        0.0000000000000000     
   1.0018752038113843E-002  0.11920875376722760        0.0000000000000000     
   1.0195893388777308E-002  0.12639761714583445        0.0000000000000000     
   1.0323273164867197E-002  0.13370506473968713        0.0000000000000000     
   4.5802280034167543E-003  0.10510461648104436        0.0000000000000000     
   4.7001407773525107E-003  0.11205766190161381        0.0000000000000000     
   4.7733036425123146E-003  0.11912392367064731        0.0000000000000000     
   4.7997165988961591E-003  0.12630340178814481        0.0000000000000000     
   4.7793796465040511E-003  0.13359609625410632        0.0000000000000000     
  -3.3483559548385484E-004  0.10506957124028969        0.0000000000000000     
  -3.8149135421082806E-004  0.11202030447810692        0.0000000000000000     
  -4.6266921423308480E-004  0.11908078807035699        0.0000000000000000     
  -5.7836917555062657E-004  0.12625102201703989        0.0000000000000000     
  -7.2859123816345055E-004  0.13353100631815565        0.0000000000000000     
   2.1518828102680420E-002  0.13405463735973902        0.0000000000000000     
   2.2003642739979928E-002  0.14154168981351808        0.0000000000000000     
   2.2533606957322611E-002  0.14918165613025164        0.0000000000000000     
   2.3108720754708476E-002  0.15697453630993968        0.0000000000000000     
   2.3728984132137518E-002  0.16492033035258219        0.0000000000000000     
   1.5903089316925988E-002  0.13385791177489803        0.0000000000000000     
   1.6233146457764247E-002  0.14133681598282116        0.0000000000000000     
   1.6681018733300825E-002  0.14899918728223394        0.0000000000000000     
   1.7246706143535722E-002  0.15684502567313635        0.0000000000000000     
   1.7930208688468938E-002  0.16487433115552838        0.0000000000000000     
   1.0323273164867197E-002  0.13370506473968713        0.0000000000000000     
   1.0495633641742852E-002  0.14116769261893145        0.0000000000000000     
   1.0807717094763622E-002  0.14882209685371328        0.0000000000000000     
   1.1259523523929501E-002  0.15666827744403267        0.0000000000000000     
   1.1851052929240494E-002  0.16470623438988957        0.0000000000000000     
   4.7793796465040511E-003  0.13359609625410632        0.0000000000000000     
   4.7911042919157416E-003  0.14103431972184893        0.0000000000000000     
   4.9137020417109947E-003  0.14865038484468970        0.0000000000000000     
   5.1471728958898087E-003  0.15644429162262863        0.0000000000000000     
   5.4915168544521810E-003  0.16441604005566579        0.0000000000000000     
  -7.2859123816345055E-004  0.13353100631815565        0.0000000000000000     
  -8.8044159171708465E-004  0.14093669729157363        0.0000000000000000     
  -1.0010264258570527E-003  0.14848405125516317        0.0000000000000000     
  -1.0903457405833578E-003  0.15617306820892429        0.0000000000000000     
  -1.1483995358959982E-003  0.16400374815285701        0.0000000000000000     
   0.0000000000000000        0.0000000000000000        0.0000000000000000     
  -1.3779809011860112E-006   1.0747748905455901E-003   0.0000000000000000     
  -3.1037212379132653E-006   2.5185967747065338E-003   0.0000000000000000     
  -5.1772210101818706E-006   4.3314656524828313E-003   0.0000000000000000     
  -7.5984802179916374E-006   6.5133815238744824E-003   0.0000000000000000     
   0.0000000000000000        0.0000000000000000        0.0000000000000000     
  -2.1416895935469376E-004   1.0774645989984613E-003   0.0000000000000000     
  -4.2957218673324142E-004   2.5245930582158387E-003   0.0000000000000000     
  -6.4620968213564302E-004   4.3413853776521315E-003   0.0000000000000000     
  -8.6408144556189852E-004   6.5278415573073421E-003   0.0000000000000000     
   0.0000000000000000        0.0000000000000000        0.0000000000000000     
  -4.2518806876581862E-004   1.0846167590072365E-003   0.0000000000000000     
  -8.5495422442866912E-004   2.5406300259803588E-003   0.0000000000000000     
  -1.2892984669885519E-003   4.3680398009193671E-003   0.0000000000000000     
  -1.7282207964454670E-003   6.5668460838242621E-003   0.0000000000000000     
   0.0000000000000000        0.0000000000000000        0.0000000000000000     
  -6.3443530913456054E-004   1.0962313705719156E-003   0.0000000000000000     
  -1.2792498343241969E-003   2.5667076780000945E-003   0.0000000000000000     
  -1.9344435755689088E-003   4.4114289222845354E-003   0.0000000000000000     
  -2.6000165328686963E-003   6.6303951034252396E-003   0.0000000000000000     
   0.0000000000000000        0.0000000000000000        0.0000000000000000     
  -8.4191068046091957E-004   1.1123084336924992E-003   0.0000000000000000     
  -1.7024590164198242E-003   2.6028260142750455E-003   0.0000000000000000     
  -2.5816450078767136E-003   4.4715527417476383E-003   0.0000000000000000     
  -3.4794686548315868E-003   6.7184886161102781E-003   0.0000000000000000     
  -7.5984802179916374E-006   6.5133815238744824E-003   0.0000000000000000     
  -1.0542502823454892E-005   9.0367295522079637E-003   0.0000000000000000     
  -1.4184292788684456E-005   1.1873894900809753E-002   0.0000000000000000     
  -1.8523850113679672E-005   1.5024877569679847E-002   0.0000000000000000     
  -2.3561174798440872E-005   1.8489677558818252E-002   0.0000000000000000     
  -8.6408144556189852E-004   6.5278415573073421E-003   0.0000000000000000     
  -1.0845603946226762E-003   9.0556785517429458E-003   0.0000000000000000     
  -1.3090194469286432E-003   1.1896613315520419E-002   0.0000000000000000     
  -1.5374586024798007E-003   1.5050645848639761E-002   0.0000000000000000     
  -1.7698778612761476E-003   1.8517776151100972E-002   0.0000000000000000     
  -1.7282207964454670E-003   6.5668460838242621E-003   0.0000000000000000     
  -2.1720939122890355E-003   9.1069098777532779E-003   0.0000000000000000     
  -2.6212905140088785E-003   1.1958092185764652E-002   0.0000000000000000     
  -3.0758106016049967E-003   1.5120393007858378E-002   0.0000000000000000     
  -3.5356541750773893E-003   1.8593812344034465E-002   0.0000000000000000     
  -2.6000165328686963E-003   6.6303951034252396E-003   0.0000000000000000     
  -3.2731430558225311E-003   9.1904235302389600E-003   0.0000000000000000     
  -3.9509974940293881E-003   1.2058331511542448E-002   0.0000000000000000     
  -4.6335798474892659E-003   1.5234119047335707E-002   0.0000000000000000     
  -5.3208901162021633E-003   1.8717786137618736E-002   0.0000000000000000     
  -3.4794686548315868E-003   6.7184886161102781E-003   0.0000000000000000     
  -4.3877078252231661E-003   9.3062195091999939E-003   0.0000000000000000     
  -5.2981403869901741E-003   1.2197331292853818E-002   0.0000000000000000     
  -6.2107663401326091E-003   1.5391823967071746E-002   0.0000000000000000     
  -7.1255856846504737E-003   1.8889697531853780E-002   0.0000000000000000     
  -2.3561174798440872E-005   1.8489677558818252E-002   0.0000000000000000     
  -2.9765953925414961E-005   2.2240009294632972E-002   0.0000000000000000     
  -3.7607874577047685E-005   2.6247587203532020E-002   0.0000000000000000     
  -4.7086936753340407E-005   3.0512411285515403E-002   0.0000000000000000     
  -5.8203140454292021E-005   3.5034481540583112E-002   0.0000000000000000     
  -1.7698778612761476E-003   1.8517776151100972E-002   0.0000000000000000     
  -2.0030856062932000E-003   2.2270353202090514E-002   0.0000000000000000     
  -2.2338902205064699E-003   2.6280725980794856E-002   0.0000000000000000     
  -2.4622917039159586E-003   3.0548894487213998E-002   0.0000000000000000     
  -2.6882900565216661E-003   3.5074858721347940E-002   0.0000000000000000     
  -3.5356541750773893E-003   1.8593812344034465E-002   0.0000000000000000     
  -3.9951589912422319E-003   2.2351444129496974E-002   0.0000000000000000     
  -4.4486628069156991E-003   2.6366382299449979E-002   0.0000000000000000     
  -4.8961656220977900E-003   3.0638626853893475E-002   0.0000000000000000     
  -5.3376674367885055E-003   3.5168177792827465E-002   0.0000000000000000     
  -5.3208901162021633E-003   1.8717786137618736E-002   0.0000000000000000     
  -6.0059861087725114E-003   2.2483282076852355E-002   0.0000000000000000     
  -6.6819256338047353E-003   2.6504556159497390E-002   0.0000000000000000     
  -7.3487086912988366E-003   3.0781608385553841E-002   0.0000000000000000     
  -8.0063352812548109E-003   3.5314438755021708E-002   0.0000000000000000     
  -7.1255856846504737E-003   1.8889697531853780E-002   0.0000000000000000     
  -8.0355669588840373E-003   2.2665867044156650E-002   0.0000000000000000     
  -8.9336787011735780E-003   2.6695247560937087E-002   0.0000000000000000     
  -9.8199209115190922E-003   3.0977839082195095E-002   0.0000000000000000     
  -1.0694293589920583E-002   3.5513641607930663E-002   0.0000000000000000     
  -5.8203140454292021E-005   3.5034481540583112E-002   0.0000000000000000     
  -7.3789732890274179E-005   3.9789951192807017E-002   0.0000000000000000     
  -9.6679961271658261E-005   4.4754973466258986E-002   0.0000000000000000     
  -1.2687382559844454E-004   4.9929548360939012E-002   0.0000000000000000     
  -1.6437132587063231E-004   5.5313675876847095E-002   0.0000000000000000     
  -2.6882900565216661E-003   3.5074858721347940E-002   0.0000000000000000     
  -2.9152822447429732E-003   3.9833075094839104E-002   0.0000000000000000     
  -3.1466652349992625E-003   4.4798000019329938E-002   0.0000000000000000     
  -3.3824390272905337E-003   4.9969633494820455E-002   0.0000000000000000     
  -3.6226036216167865E-003   5.5347975521310641E-002   0.0000000000000000     
  -5.3376674367885055E-003   3.5168177792827465E-002   0.0000000000000000     
  -5.7752021173417632E-003   3.9929118365842196E-002   0.0000000000000000     
  -6.2108035301114790E-003   4.4895531822527916E-002   0.0000000000000000     
  -6.6444716750976547E-003   5.0067418162884632E-002   0.0000000000000000     
  -7.0762065523002904E-003   5.5444777386912336E-002   0.0000000000000000     
  -8.0063352812548109E-003   3.5314438755021708E-002   0.0000000000000000     
  -8.6535493506866446E-003   4.0078081005816300E-002   0.0000000000000000     
  -9.2890948466083090E-003   4.5047568875852907E-002   0.0000000000000000     
  -9.9129717690198110E-003   5.0222902365131543E-002   0.0000000000000000     
  -1.0525180117921142E-002   5.5604081473652200E-002   0.0000000000000000     
  -1.0694293589920583E-002   3.5513641607930663E-002   0.0000000000000000     
  -1.1550323944777615E-002   4.0279963014761402E-002   0.0000000000000000     
  -1.2381539184489750E-002   4.5254111179304904E-002   0.0000000000000000     
  -1.3187939309056994E-002   5.0436086101561181E-002   0.0000000000000000     
  -1.3969524318479342E-002   5.5825887781530227E-002   0.0000000000000000     
  -1.6437132587063231E-004   5.5313675876847095E-002   0.0000000000000000     
  -2.0129498611505959E-004   6.0897290837216358E-002   0.0000000000000000     
  -2.2976733035856323E-004   6.6670328065279866E-002   0.0000000000000000     
  -2.4978835860114355E-004   7.2632787561037665E-002   0.0000000000000000     
  -2.6135807084279967E-004   7.8784669324489714E-002   0.0000000000000000     
  -3.6226036216167865E-003   5.5347975521310641E-002   0.0000000000000000     
  -3.8566072100867108E-003   6.0925560762394901E-002   0.0000000000000000     
  -4.0738979848089999E-003   6.6694923881667617E-002   0.0000000000000000     
  -4.2744759457836465E-003   7.2656064879128832E-002   0.0000000000000000     
  -4.4583410930106558E-003   7.8808983754778503E-002   0.0000000000000000     
  -7.0762065523002904E-003   5.5444777386912336E-002   0.0000000000000000     
  -7.4962818286907120E-003   6.1021088972124174E-002   0.0000000000000000     
  -7.8949711712402431E-003   6.6789832396033255E-002   0.0000000000000000     
  -8.2722745799488871E-003   7.2751007658639580E-002   0.0000000000000000     
  -8.6281920548166406E-003   7.8904614759943162E-002   0.0000000000000000     
  -1.0525180117921142E-002   5.5604081473652200E-002   0.0000000000000000     
  -1.1120318841927056E-002   6.1183875466404178E-002   0.0000000000000000     
  -1.1692986889652297E-002   6.6955053608376752E-002   0.0000000000000000     
  -1.2243184261096862E-002   7.2917615899569951E-002   0.0000000000000000     
  -1.2770910956260756E-002   7.9071562339983748E-002   0.0000000000000000     
  -1.3969524318479342E-002   5.5825887781530227E-002   0.0000000000000000     
  -1.4728718249795750E-002   6.1413920245234919E-002   0.0000000000000000     
  -1.5467945140045163E-002   6.7190587518698164E-002   0.0000000000000000     
  -1.6187204989227582E-002   7.3155889601919918E-002   0.0000000000000000     
  -1.6886497797343004E-002   7.9309826494900218E-002   0.0000000000000000     
  -2.6135807084279967E-004   7.8784669324489714E-002   0.0000000000000000     
  -2.7145845681376154E-004   8.5112420367201611E-002   0.0000000000000000     
  -2.8707150624425872E-004   9.1602487700738880E-002   0.0000000000000000     
  -3.0819721913428934E-004   9.8254871325101578E-002   0.0000000000000000     
  -3.3483559548385484E-004  0.10506957124028969        0.0000000000000000     
  -4.4583410930106558E-003   7.8808983754778503E-002   0.0000000000000000     
  -4.6365899892741669E-003   8.5138410501990183E-002   0.0000000000000000     
  -4.8203191973583259E-003   9.1629075114137412E-002   0.0000000000000000     
  -5.0095287172631257E-003   9.8280977591220203E-002   0.0000000000000000     
  -5.2042185489885734E-003  0.10509411793323852        0.0000000000000000     
  -8.6281920548166406E-003   7.8904614759943162E-002   0.0000000000000000     
  -8.9729817587542327E-003   8.5234864262913504E-002   0.0000000000000000     
  -9.3169018546723770E-003   9.1725966730520081E-002   0.0000000000000000     
  -9.6599523425710820E-003   9.8377922162762907E-002   0.0000000000000000     
  -1.0002133222450343E-002  0.10519073055964198        0.0000000000000000     
  -1.2770910956260756E-002   7.9071562339983748E-002   0.0000000000000000     
  -1.3280633765253951E-002   8.5401781649971586E-002   0.0000000000000000     
  -1.3776819478186417E-002   9.1893162549886928E-002   0.0000000000000000     
  -1.4259468095058151E-002   9.8545705039729745E-002   0.0000000000000000     
  -1.4728579615869160E-002  0.10535940911950006        0.0000000000000000     
  -1.6886497797343004E-002   7.9309826494900218E-002   0.0000000000000000     
  -1.7559546008773332E-002   8.5639162663164431E-002   0.0000000000000000     
  -1.8200072067900443E-002   9.2130662572237940E-002   0.0000000000000000     
  -1.8808075974724340E-002   9.8784326222120716E-002   0.0000000000000000     
  -1.9383557729245028E-002  0.10560015361281279        0.0000000000000000     
  -3.3483559548385484E-004  0.10506957124028969        0.0000000000000000     
  -3.8149135421082806E-004  0.11202030447810692        0.0000000000000000     
  -4.6266921423308480E-004  0.11908078807035699        0.0000000000000000     
  -5.7836917555062657E-004  0.12625102201703989        0.0000000000000000     
  -7.2859123816345055E-004  0.13353100631815565        0.0000000000000000     
  -5.2042185489885734E-003  0.10509411793323852        0.0000000000000000     
  -5.4110164802124786E-003  0.11204229554203175        0.0000000000000000     
  -5.6365502986126526E-003  0.11909930981943925        0.0000000000000000     
  -5.8808200041890937E-003  0.12626516076546102        0.0000000000000000     
  -6.1438255969418088E-003  0.13353984838009705        0.0000000000000000     
  -1.0002133222450343E-002  0.10519073055964198        0.0000000000000000     
  -1.0346403799051695E-002  0.11213952830207427        0.0000000000000000     
  -1.0695723377116677E-002  0.11919945177097682        0.0000000000000000     
  -1.1050091956645289E-002  0.12637050096634961        0.0000000000000000     
  -1.1409509537637525E-002  0.13365267588819260        0.0000000000000000     
  -1.4728579615869160E-002  0.10535940911950006        0.0000000000000000     
  -1.5187653310728483E-002  0.11231200275823450        0.0000000000000000     
  -1.5640188449745161E-002  0.11938121392496964        0.0000000000000000     
  -1.6086185032919201E-002  0.12656704261970556        0.0000000000000000     
  -1.6525643060250599E-002  0.13386948884244224        0.0000000000000000     
  -1.9383557729245028E-002  0.10560015361281279        0.0000000000000000     
  -1.9934765015242842E-002  0.11255971891051239        0.0000000000000000     
  -2.0469945516498111E-002  0.11964459628141780        0.0000000000000000     
  -2.0989099233010844E-002  0.12685478572552900        0.0000000000000000     
  -2.1492226164781032E-002  0.13419028724284596        0.0000000000000000     
  -7.2859123816345055E-004  0.13353100631815565        0.0000000000000000     
  -8.8044159171708465E-004  0.14093669729157363        0.0000000000000000     
  -1.0010264258570527E-003  0.14848405125516317        0.0000000000000000     
  -1.0903457405833578E-003  0.15617306820892429        0.0000000000000000     
  -1.1483995358959982E-003  0.16400374815285701        0.0000000000000000     
  -6.1438255969418088E-003  0.13353984838009705        0.0000000000000000     
  -6.4399342265321468E-003  0.14092159576738644        0.0000000000000000     
  -6.7835130426214616E-003  0.14840862603136828        0.0000000000000000     
  -7.1745620452097533E-003  0.15600093917204255        0.0000000000000000     
  -7.6130812342970252E-003  0.16369853518940924        0.0000000000000000     
  -1.1409509537637525E-002  0.13365267588819260        0.0000000000000000     
  -1.1808303829905961E-002  0.14103578558856844        0.0000000000000000     
  -1.2280802543263162E-002  0.14850963911953965        0.0000000000000000     
  -1.2827005677709138E-002  0.15607423648110633        0.0000000000000000     
  -1.3446913233243879E-002  0.16372957767326840        0.0000000000000000     
  -1.6525643060250599E-002  0.13386948884244224        0.0000000000000000     
  -1.6985550401838530E-002  0.14127926675511951        0.0000000000000000     
  -1.7492894927782165E-002  0.14878709051967734        0.0000000000000000     
  -1.8047676638081510E-002  0.15639296013611567        0.0000000000000000     
  -1.8649895532736559E-002  0.16409687560443453        0.0000000000000000     
  -2.1492226164781032E-002  0.13419028724284596        0.0000000000000000     
  -2.1971673942329850E-002  0.14165203926703973        0.0000000000000000     
  -2.2419790196178461E-002  0.14924098023178128        0.0000000000000000     
  -2.2836574926326868E-002  0.15695711013707056        0.0000000000000000     
  -2.3222028132775064E-002  0.16480042898290759        0.0000000000000000     
   0.0000000000000000        0.0000000000000000        0.0000000000000000     
  -8.4191068046091957E-004   1.1123084336924992E-003   0.0000000000000000     
  -1.7024590164198242E-003   2.6028260142750455E-003   0.0000000000000000     
  -2.5816450078767136E-003   4.4715527417476383E-003   0.0000000000000000     
  -3.4794686548315868E-003   6.7184886161102781E-003   0.0000000000000000     
   0.0000000000000000        0.0000000000000000        0.0000000000000000     
  -1.0565766985454110E-003   1.1364192209614198E-003   0.0000000000000000     
  -2.1392745170306922E-003   2.6548841951918767E-003   0.0000000000000000     
  -3.2480934554558428E-003   4.5553949226913703E-003   0.0000000000000000     
  -4.3830335138208632E-003   6.8379514034599019E-003   0.0000000000000000     
   0.0000000000000000        0.0000000000000000        0.0000000000000000     
  -1.2873958791885501E-003   1.1721350049711107E-003   0.0000000000000000     
  -2.6043890824719420E-003   2.7287813811372537E-003   0.0000000000000000     
  -3.9509796098501750E-003   4.6699391284984277E-003   0.0000000000000000     
  -5.3271674613232503E-003   6.9956082470546341E-003   0.0000000000000000     
   0.0000000000000000        0.0000000000000000        0.0000000000000000     
  -1.5343682223903368E-003   1.2194557857215724E-003   0.0000000000000000     
  -3.0978027127435736E-003   2.8245175721111761E-003   0.0000000000000000     
  -4.6903034710597102E-003   4.8151853591688097E-003   0.0000000000000000     
  -6.3118704973387472E-003   7.1914591468944765E-003   0.0000000000000000     
   0.0000000000000000        0.0000000000000000        0.0000000000000000     
  -1.7974937281507708E-003   1.2783815632128046E-003   0.0000000000000000     
  -3.6195154078455874E-003   2.9420927681136442E-003   0.0000000000000000     
  -5.4660650390844483E-003   4.9911336147025181E-003   0.0000000000000000     
  -7.3371426218673541E-003   7.4255041029794274E-003   0.0000000000000000     
  -3.4794686548315868E-003   6.7184886161102781E-003   0.0000000000000000     
  -4.3877078252231661E-003   9.3062195091999939E-003   0.0000000000000000     
  -5.2981403869901741E-003   1.2197331292853818E-002   0.0000000000000000     
  -6.2107663401326091E-003   1.5391823967071746E-002   0.0000000000000000     
  -7.1255856846504737E-003   1.8889697531853780E-002   0.0000000000000000     
  -4.3830335138208632E-003   6.8379514034599019E-003   0.0000000000000000     
  -5.5310111828271941E-003   9.4605916277660154E-003   0.0000000000000000     
  -6.6789429531762786E-003   1.2381353585878253E-002   0.0000000000000000     
  -7.8268288248681123E-003   1.5600237277796620E-002   0.0000000000000000     
  -8.9746687979027021E-003   1.9117242703521109E-002   0.0000000000000000     
  -5.3271674613232503E-003   6.9956082470546341E-003   0.0000000000000000     
  -6.7182760909708702E-003   9.6598336990666497E-003   0.0000000000000000     
  -8.1096289528727432E-003   1.2616660446795255E-002   0.0000000000000000     
  -9.5012260470288615E-003   1.5866088490240453E-002   0.0000000000000000     
  -1.0893067373439230E-002   1.9408117829402240E-002   0.0000000000000000     
  -6.3118704973387472E-003   7.1914591468944765E-003   0.0000000000000000     
  -7.9495025496541943E-003   9.9039457231019055E-003   0.0000000000000000     
  -9.5901983860795618E-003   1.2903251875604827E-002   0.0000000000000000     
  -1.1233958006614853E-002   1.6189377604403251E-002   0.0000000000000000     
  -1.2880781411260065E-002   1.9762322909497160E-002   0.0000000000000000     
  -7.3371426218673541E-003   7.4255041029794274E-003   0.0000000000000000     
  -9.2246905588771657E-003   1.0192927699871778E-002   0.0000000000000000     
  -1.1120651252796744E-002   1.3241127872306968E-002   0.0000000000000000     
  -1.3025024703626091E-002   1.6570104620285006E-002   0.0000000000000000     
  -1.4937810911365201E-002   2.0179857943805883E-002   0.0000000000000000     
  -7.1255856846504737E-003   1.8889697531853780E-002   0.0000000000000000     
  -8.0355669588840373E-003   2.2665867044156650E-002   0.0000000000000000     
  -8.9336787011735780E-003   2.6695247560937087E-002   0.0000000000000000     
  -9.8199209115190922E-003   3.0977839082195095E-002   0.0000000000000000     
  -1.0694293589920583E-002   3.5513641607930663E-002   0.0000000000000000     
  -8.9746687979027021E-003   1.9117242703521109E-002   0.0000000000000000     
  -1.0114688442118030E-002   2.2907793598819188E-002   0.0000000000000000     
  -1.1239113327352087E-002   2.6947313699458308E-002   0.0000000000000000     
  -1.2347943453604878E-002   3.1235803005438476E-002   0.0000000000000000     
  -1.3441178820876400E-002   3.5773261516759691E-002   0.0000000000000000     
  -1.0893067373439230E-002   1.9408117829402240E-002   0.0000000000000000     
  -1.2274137459015701E-002   2.3217656308249290E-002   0.0000000000000000     
  -1.3633420830670130E-002   2.7269611770750293E-002   0.0000000000000000     
  -1.4970917488402508E-002   3.1563984216905247E-002   0.0000000000000000     
  -1.6286627432212843E-002   3.6100773646714143E-002   0.0000000000000000     
  -1.2880781411260065E-002   1.9762322909497160E-002   0.0000000000000000     
  -1.4513914009577057E-002   2.3595455172446961E-002   0.0000000000000000     
  -1.6116601211127700E-002   2.7662141774813041E-002   0.0000000000000000     
  -1.7688843015911979E-002   3.1962382716595406E-002   0.0000000000000000     
  -1.9230639423929909E-002   3.6496177997794046E-002   0.0000000000000000     
  -1.4937810911365201E-002   2.0179857943805883E-002   0.0000000000000000     
  -1.6834018093802101E-002   2.4041190191412206E-002   0.0000000000000000     
  -1.8688654468724798E-002   2.8124903711646557E-002   0.0000000000000000     
  -2.0501720036133302E-002   3.2430998504508951E-002   0.0000000000000000     
  -2.2273214796027608E-002   3.6959474569999373E-002   0.0000000000000000     
  -1.0694293589920583E-002   3.5513641607930663E-002   0.0000000000000000     
  -1.1550323944777615E-002   4.0279963014761402E-002   0.0000000000000000     
  -1.2381539184489750E-002   4.5254111179304904E-002   0.0000000000000000     
  -1.3187939309056994E-002   5.0436086101561181E-002   0.0000000000000000     
  -1.3969524318479342E-002   5.5825887781530227E-002   0.0000000000000000     
  -1.3441178820876400E-002   3.5773261516759691E-002   0.0000000000000000     
  -1.4507655193425093E-002   4.0540294967258264E-002   0.0000000000000000     
  -1.5536208335509396E-002   4.5517509090770521E-002   0.0000000000000000     
  -1.6526838247129312E-002   5.0704903887296454E-002   0.0000000000000000     
  -1.7479544928284838E-002   5.6102479356836071E-002   0.0000000000000000     
  -1.6286627432212843E-002   3.6100773646714143E-002   0.0000000000000000     
  -1.7567672390439503E-002   4.0864607437887633E-002   0.0000000000000000     
  -1.8801174091420837E-002   4.5840112968136337E-002   0.0000000000000000     
  -1.9987132535156861E-002   5.1027290237460256E-002   0.0000000000000000     
  -2.1125547721647566E-002   5.6426139245859395E-002   0.0000000000000000     
  -1.9230639423929909E-002   3.6496177997794046E-002   0.0000000000000000     
  -2.0730375535820831E-002   4.1252900426649523E-002   0.0000000000000000     
  -2.2176436452224068E-002   4.6221922811402361E-002   0.0000000000000000     
  -2.3568822173139638E-002   5.1403245152052600E-002   0.0000000000000000     
  -2.4907532698567533E-002   5.6796867448600200E-002   0.0000000000000000     
  -2.2273214796027608E-002   3.6959474569999373E-002   0.0000000000000000     
  -2.3995764629569087E-002   4.1705173933543907E-002   0.0000000000000000     
  -2.5661995417919095E-002   4.6662938620568598E-002   0.0000000000000000     
  -2.7271907161077649E-002   5.1832768631073459E-002   0.0000000000000000     
  -2.8825499859044736E-002   5.7214663965058490E-002   0.0000000000000000     
  -1.3969524318479342E-002   5.5825887781530227E-002   0.0000000000000000     
  -1.4728718249795750E-002   6.1413920245234919E-002   0.0000000000000000     
  -1.5467945140045163E-002   6.7190587518698164E-002   0.0000000000000000     
  -1.6187204989227582E-002   7.3155889601919918E-002   0.0000000000000000     
  -1.6886497797343004E-002   7.9309826494900218E-002   0.0000000000000000     
  -1.7479544928284838E-002   5.6102479356836071E-002   0.0000000000000000     
  -1.8404369651676990E-002   6.1697796288576724E-002   0.0000000000000000     
  -1.9311353690006802E-002   6.7478415471705799E-002   0.0000000000000000     
  -2.0200497043274271E-002   7.3444336906223276E-002   0.0000000000000000     
  -2.1071799711479391E-002   7.9595560592129175E-002   0.0000000000000000     
  -2.1125547721647566E-002   5.6426139245859395E-002   0.0000000000000000     
  -2.2230162646950997E-002   6.2022076576389938E-002   0.0000000000000000     
  -2.3314720307125204E-002   6.7800518812108079E-002   0.0000000000000000     
  -2.4379220702170173E-002   7.3761465953013861E-002   0.0000000000000000     
  -2.5423663832085924E-002   7.9904917999107233E-002   0.0000000000000000     
  -2.4907532698567533E-002   5.6796867448600200E-002   0.0000000000000000     
  -2.6206097235617766E-002   6.2386761108674547E-002   0.0000000000000000     
  -2.7478044991400354E-002   6.8156897539905018E-002   0.0000000000000000     
  -2.8723375965915298E-002   7.4107276742291617E-002   0.0000000000000000     
  -2.9942090159162594E-002   8.0237898715834338E-002   0.0000000000000000     
  -2.8825499859044736E-002   5.7214663965058490E-002   0.0000000000000000     
  -3.0332173417677296E-002   6.2791849885430573E-002   0.0000000000000000     
  -3.1801327742832258E-002   6.8547551655096600E-002   0.0000000000000000     
  -3.3232962834509626E-002   7.4481769274056586E-002   0.0000000000000000     
  -3.4627078692709409E-002   8.0594502742310531E-002   0.0000000000000000     
  -1.6886497797343004E-002   7.9309826494900218E-002   0.0000000000000000     
  -1.7559546008773332E-002   8.5639162663164431E-002   0.0000000000000000     
  -1.8200072067900443E-002   9.2130662572237940E-002   0.0000000000000000     
  -1.8808075974724340E-002   9.8784326222120716E-002   0.0000000000000000     
  -1.9383557729245028E-002  0.10560015361281279        0.0000000000000000     
  -2.1071799711479391E-002   7.9595560592129175E-002   0.0000000000000000     
  -2.1908631369140313E-002   8.5921007113681877E-002   0.0000000000000000     
  -2.2694361690775194E-002   9.2409597055139722E-002   0.0000000000000000     
  -2.3428990676384015E-002   9.9061330416502738E-002   0.0000000000000000     
  -2.4112518325966802E-002  0.10587620719777095        0.0000000000000000     
  -2.5423663832085924E-002   7.9904917999107233E-002   0.0000000000000000     
  -2.6426802726182853E-002   8.6221314812713737E-002   0.0000000000000000     
  -2.7367390413771401E-002   9.2701096256158910E-002   0.0000000000000000     
  -2.8245426894851555E-002   9.9344262329442809E-002   0.0000000000000000     
  -2.9060912169423320E-002  0.10615081303256538        0.0000000000000000     
  -2.9942090159162594E-002   8.0237898715834338E-002   0.0000000000000000     
  -3.1114060079900949E-002   8.6540085760260010E-002   0.0000000000000000     
  -3.2219158236889062E-002   9.3005160175295545E-002   0.0000000000000000     
  -3.3257384630126945E-002   9.9633121960940874E-002   0.0000000000000000     
  -3.4228739259614602E-002  0.10642397111719605        0.0000000000000000     
  -3.4627078692709409E-002   8.0594502742310531E-002   0.0000000000000000     
  -3.5970403430294597E-002   8.6877319956320753E-002   0.0000000000000000     
  -3.7249665160128197E-002   9.3321788812549544E-002   0.0000000000000000     
  -3.8464863882210203E-002   9.9927909310996946E-002   0.0000000000000000     
  -3.9615999596540635E-002  0.10669568145166297        0.0000000000000000     
  -1.9383557729245028E-002  0.10560015361281279        0.0000000000000000     
  -1.9934765015242842E-002  0.11255971891051239        0.0000000000000000     
  -2.0469945516498111E-002  0.11964459628141780        0.0000000000000000     
  -2.0989099233010844E-002  0.12685478572552900        0.0000000000000000     
  -2.1492226164781032E-002  0.13419028724284596        0.0000000000000000     
  -2.4112518325966802E-002  0.10587620719777095        0.0000000000000000     
  -2.4757885277354629E-002  0.11283984715944863        0.0000000000000000     
  -2.5378032168378604E-002  0.11993787006204007        0.0000000000000000     
  -2.5972958999038731E-002  0.12717027590554525        0.0000000000000000     
  -2.6542665769334998E-002  0.13453706468996426        0.0000000000000000     
  -2.9060912169423320E-002  0.10615081303256538        0.0000000000000000     
  -2.9827160461823710E-002  0.11310955790558380        0.0000000000000000     
  -3.0557485996389730E-002  0.12020930648855534        0.0000000000000000     
  -3.1251888773121385E-002  0.12745005878147989        0.0000000000000000     
  -3.1910368792018667E-002  0.13483181478435755        0.0000000000000000     
  -3.4228739259614602E-002  0.10642397111719605        0.0000000000000000     
  -3.5142590568650094E-002  0.11336885114891795        0.0000000000000000     
  -3.6008307000531488E-002  0.12045890556096357        0.0000000000000000     
  -3.6825888555258812E-002  0.12769413435333285        0.0000000000000000     
  -3.7595335232832046E-002  0.13507453752602580        0.0000000000000000     
  -3.9615999596540635E-002  0.10669568145166297        0.0000000000000000     
  -4.0704175597833757E-002  0.11361772688945110        0.0000000000000000     
  -4.1730495180803885E-002  0.12068666727926482        0.0000000000000000     
  -4.2694958345450999E-002  0.12790250262110414        0.0000000000000000     
  -4.3597565091775113E-002  0.13526523291496906        0.0000000000000000     
  -2.1492226164781032E-002  0.13419028724284596        0.0000000000000000     
  -2.1971673942329850E-002  0.14165203926703973        0.0000000000000000     
  -2.2419790196178461E-002  0.14924098023178128        0.0000000000000000     
  -2.2836574926326868E-002  0.15695711013707056        0.0000000000000000     
  -2.3222028132775064E-002  0.16480042898290759        0.0000000000000000     
  -2.6542665769334998E-002  0.13453706468996426        0.0000000000000000     
  -2.7046149245041205E-002  0.14204781304633562        0.0000000000000000     
  -2.7442406191931119E-002  0.14971209760569806        0.0000000000000000     
  -2.7731436610004753E-002  0.15752991836805150        0.0000000000000000     
  -2.7913240499262103E-002  0.16550127533339598        0.0000000000000000     
  -3.1910368792018667E-002  0.13483181478435755        0.0000000000000000     
  -3.2488451103633846E-002  0.14236029801501382        0.0000000000000000     
  -3.2941660758519196E-002  0.15004123199127431        0.0000000000000000     
  -3.3269997756674705E-002  0.15787461671313902        0.0000000000000000     
  -3.3473462098100377E-002  0.16586045218060799        0.0000000000000000     
  -3.7595335232832046E-002  0.13507453752602580        0.0000000000000000     
  -3.8298579518107799E-002  0.14258949417307423        0.0000000000000000     
  -3.8917553895942689E-002  0.15022838338851008        0.0000000000000000     
  -3.9452258366336715E-002  0.15799120517233320        0.0000000000000000     
  -3.9902692929289892E-002  0.16587795952454368        0.0000000000000000     
  -4.3597565091775113E-002  0.13526523291496906        0.0000000000000000     
  -4.4476534488463039E-002  0.14273540152051700        0.0000000000000000     
  -4.5370085604201603E-002  0.15027355179740529        0.0000000000000000     
  -4.6278218438990798E-002  0.15787968374563394        0.0000000000000000     
  -4.7200932992830638E-002  0.16555379736520298        0.0000000000000000     
   0.0000000000000000        0.0000000000000000        0.0000000000000000     
  -1.7974937281507708E-003   1.2783815632128046E-003   0.0000000000000000     
  -3.6195154078455874E-003   2.9420927681136442E-003   0.0000000000000000     
  -5.4660650390844483E-003   4.9911336147025181E-003   0.0000000000000000     
  -7.3371426218673541E-003   7.4255041029794274E-003   0.0000000000000000     
   0.0000000000000000        0.0000000000000000        0.0000000000000000     
  -2.0685145741777423E-003   1.3561059421840801E-003   0.0000000000000000     
  -4.1621494219308908E-003   3.0961657581500841E-003   0.0000000000000000     
  -6.2809045432594456E-003   5.2201794478980122E-003   0.0000000000000000     
  -8.4247799381634066E-003   7.7281470114278633E-003   0.0000000000000000     
   0.0000000000000000        0.0000000000000000        0.0000000000000000     
  -2.3391729381791399E-003   1.4598225273746719E-003   0.0000000000000000     
  -4.7183270091523937E-003   3.3013953312259212E-003   0.0000000000000000     
  -7.1374622129197597E-003   5.5247184115537491E-003   0.0000000000000000     
  -9.5965785494812397E-003   8.1297917683581539E-003   0.0000000000000000     
   0.0000000000000000        0.0000000000000000        0.0000000000000000     
  -2.6094688201549641E-003   1.5895313187845796E-003   0.0000000000000000     
  -5.2880481695100935E-003   3.5577814873411565E-003   0.0000000000000000     
  -8.0357380480653908E-003   5.9047505056697295E-003   0.0000000000000000     
  -1.0852538455820853E-002   8.6304383737703019E-003   0.0000000000000000     
   0.0000000000000000        0.0000000000000000        0.0000000000000000     
  -2.8794022201052150E-003   1.7452323164138038E-003   0.0000000000000000     
  -5.8713129030039937E-003   3.8653242264957894E-003   0.0000000000000000     
  -8.9757320486963370E-003   6.3602757302459560E-003   0.0000000000000000     
  -1.2192659657182244E-002   9.2300868276643053E-003   0.0000000000000000     
  -7.3371426218673541E-003   7.4255041029794274E-003   0.0000000000000000     
  -9.2246905588771657E-003   1.0192927699871778E-002   0.0000000000000000     
  -1.1120651252796744E-002   1.3241127872306968E-002   0.0000000000000000     
  -1.3025024703626091E-002   1.6570104620285006E-002   0.0000000000000000     
  -1.4937810911365201E-002   2.0179857943805883E-002   0.0000000000000000     
  -8.4247799381634066E-003   7.7281470114278633E-003   0.0000000000000000     
  -1.0585033787251303E-002   1.0562729383243531E-002   0.0000000000000000     
  -1.2752924271131661E-002   1.3666587497848904E-002   0.0000000000000000     
  -1.4928451389804484E-002   1.7039721355243984E-002   0.0000000000000000     
  -1.7111615143269771E-002   2.0682130955428771E-002   0.0000000000000000     
  -9.5965785494812397E-003   8.1297917683581539E-003   0.0000000000000000     
  -1.2071725903388118E-002   1.1049300527084428E-002   0.0000000000000000     
  -1.4538954159191687E-002   1.4215929813177855E-002   0.0000000000000000     
  -1.6998263316891943E-002   1.7629679626638438E-002   0.0000000000000000     
  -1.9449653376488886E-002   2.1290549967466182E-002   0.0000000000000000     
  -1.0852538455820853E-002   8.6304383737703019E-003   0.0000000000000000     
  -1.3684766907287616E-002   1.1652641131394468E-002   0.0000000000000000     
  -1.6478740916976823E-002   1.4889154818293827E-002   0.0000000000000000     
  -1.9234460484888468E-002   1.8339979434468377E-002   0.0000000000000000     
  -2.1951925611022563E-002   2.2005114979918129E-002   0.0000000000000000     
  -1.2192659657182244E-002   9.2300868276643053E-003   0.0000000000000000     
  -1.5424156798949793E-002   1.2372751196173653E-002   0.0000000000000000     
  -1.8572284544487068E-002   1.5686262513196818E-002   0.0000000000000000     
  -2.1637042893794069E-002   1.9170620778733802E-002   0.0000000000000000     
  -2.4618431846870792E-002   2.2825825992784599E-002   0.0000000000000000     
  -1.4937810911365201E-002   2.0179857943805883E-002   0.0000000000000000     
  -1.6834018093802101E-002   2.4041190191412206E-002   0.0000000000000000     
  -1.8688654468724798E-002   2.8124903711646557E-002   0.0000000000000000     
  -2.0501720036133302E-002   3.2430998504508951E-002   0.0000000000000000     
  -2.2273214796027608E-002   3.6959474569999373E-002   0.0000000000000000     
  -1.7111615143269771E-002   2.0682130955428771E-002   0.0000000000000000     
  -1.9272211194568754E-002   2.4565538001612056E-002   0.0000000000000000     
  -2.1380035206742688E-002   2.8661664197002650E-002   0.0000000000000000     
  -2.3435087179791553E-002   3.2970509541600537E-002   0.0000000000000000     
  -2.5437367113715373E-002   3.7492074035405734E-002   0.0000000000000000     
  -1.9449653376488886E-002   2.1290549967466182E-002   0.0000000000000000     
  -2.1866254794754965E-002   2.5179175239513581E-002   0.0000000000000000     
  -2.4221198028462610E-002   2.9276189846633133E-002   0.0000000000000000     
  -2.6514483077611836E-002   3.3581593788824839E-002   0.0000000000000000     
  -2.8746109942202624E-002   3.8095387066088705E-002   0.0000000000000000     
  -2.1951925611022563E-002   2.2005114979918129E-002   0.0000000000000000     
  -2.4616148894360722E-002   2.5882101905116771E-002   0.0000000000000000     
  -2.7212142933884582E-002   2.9968480660538005E-002   0.0000000000000000     
  -2.9739907729594131E-002   3.4264251246181841E-002   0.0000000000000000     
  -3.2199443281489382E-002   3.8769413662048287E-002   0.0000000000000000     
  -2.4618431846870792E-002   2.2825825992784599E-002   0.0000000000000000     
  -2.7521893493386032E-002   2.6674317998421619E-002   0.0000000000000000     
  -3.0352869923008591E-002   3.0738536638717274E-002   0.0000000000000000     
  -3.3111361135738468E-002   3.5018481913671559E-002   0.0000000000000000     
  -3.5797367131575650E-002   3.9514153823284479E-002   0.0000000000000000     
  -2.2273214796027608E-002   3.6959474569999373E-002   0.0000000000000000     
  -2.3995764629569087E-002   4.1705173933543907E-002   0.0000000000000000     
  -2.5661995417919095E-002   4.6662938620568598E-002   0.0000000000000000     
  -2.7271907161077649E-002   5.1832768631073459E-002   0.0000000000000000     
  -2.8825499859044736E-002   5.7214663965058490E-002   0.0000000000000000     
  -2.5437367113715373E-002   3.7492074035405734E-002   0.0000000000000000     
  -2.7384083954127062E-002   4.2225393755133123E-002   0.0000000000000000     
  -2.9272446646639576E-002   4.7169504777497574E-002   0.0000000000000000     
  -3.1102455191252917E-002   5.2324407102499110E-002   0.0000000000000000     
  -3.2874109587967076E-002   5.7690100730137729E-002   0.0000000000000000     
  -2.8746109942202624E-002   3.8095387066088705E-002   0.0000000000000000     
  -3.0915577791937550E-002   4.2817525687979453E-002   0.0000000000000000     
  -3.3022385796519164E-002   4.7747965664051817E-002   0.0000000000000000     
  -3.5066533955947471E-002   5.2886706994305803E-002   0.0000000000000000     
  -3.7048022270222462E-002   5.8233749678741398E-002   0.0000000000000000     
  -3.2199443281489382E-002   3.8769413662048287E-002   0.0000000000000000     
  -3.4590246143000561E-002   4.3481569732082913E-002   0.0000000000000000     
  -3.6911812867557854E-002   4.8398321280231332E-002   0.0000000000000000     
  -3.9164143455161324E-002   5.3519668306493531E-002   0.0000000000000000     
  -4.1347237905810894E-002   5.8845610810869510E-002   0.0000000000000000     
  -3.5797367131575650E-002   3.9514153823284479E-002   0.0000000000000000     
  -3.8408089007316078E-002   4.4217525887443508E-002   0.0000000000000000     
  -4.0940727859755673E-002   4.9120571626036114E-002   0.0000000000000000     
  -4.3395283688894441E-002   5.4223291039062295E-002   0.0000000000000000     
  -4.5771756494732384E-002   5.9525684126522052E-002   0.0000000000000000     
  -2.8825499859044736E-002   5.7214663965058490E-002   0.0000000000000000     
  -3.0332173417677296E-002   6.2791849885430573E-002   0.0000000000000000     
  -3.1801327742832258E-002   6.8547551655096600E-002   0.0000000000000000     
  -3.3232962834509626E-002   7.4481769274056586E-002   0.0000000000000000     
  -3.4627078692709409E-002   8.0594502742310531E-002   0.0000000000000000     
  -3.2874109587967076E-002   5.7690100730137729E-002   0.0000000000000000     
  -3.4592037797994468E-002   6.3249977330376114E-002   0.0000000000000000     
  -3.6260867782547508E-002   6.8987428573176995E-002   0.0000000000000000     
  -3.7880599541626182E-002   7.4902454458540338E-002   0.0000000000000000     
  -3.9451233075230491E-002   8.0995054986466170E-002   0.0000000000000000     
  -3.7048022270222462E-002   5.8233749678741398E-002   0.0000000000000000     
  -3.8969336981434191E-002   6.3773777867229348E-002   0.0000000000000000     
  -4.0832964331672682E-002   6.9491475709640371E-002   0.0000000000000000     
  -4.2638904320937934E-002   7.5386843205974496E-002   0.0000000000000000     
  -4.4387156949229956E-002   8.1459880356231654E-002   0.0000000000000000     
  -4.1347237905810894E-002   5.8845610810869510E-002   0.0000000000000000     
  -4.3464070967996454E-002   6.4363251495990259E-002   0.0000000000000000     
  -4.5517617390207779E-002   7.0059693064486755E-002   0.0000000000000000     
  -4.7507877172444909E-002   7.5934935516358978E-002   0.0000000000000000     
  -4.9434850314707811E-002   8.1988978851606970E-002   0.0000000000000000     
  -4.5771756494732384E-002   5.9525684126522052E-002   0.0000000000000000     
  -4.8076239757681258E-002   6.5018398216658849E-002   0.0000000000000000     
  -5.0314826958152814E-002   7.0692080637716120E-002   0.0000000000000000     
  -5.2487518096147080E-002   7.6546731389693881E-002   0.0000000000000000     
  -5.4594313171664043E-002   8.2582350472592131E-002   0.0000000000000000     
  -3.4627078692709409E-002   8.0594502742310531E-002   0.0000000000000000     
  -3.5970403430294597E-002   8.6877319956320753E-002   0.0000000000000000     
  -3.7249665160128197E-002   9.3321788812549544E-002   0.0000000000000000     
  -3.8464863882210203E-002   9.9927909310996946E-002   0.0000000000000000     
  -3.9615999596540635E-002  0.10669568145166297        0.0000000000000000     
  -3.9451233075230491E-002   8.0995054986466170E-002   0.0000000000000000     
  -4.0967161019594946E-002   8.7256388509596591E-002   0.0000000000000000     
  -4.2422776010954066E-002   9.3677613380573677E-002   0.0000000000000000     
  -4.3818078049307839E-002  0.10025872959939747        0.0000000000000000     
  -4.5153067134656263E-002  0.10699973716606795        0.0000000000000000     
  -4.4387156949229956E-002   8.1459880356231654E-002   0.0000000000000000     
  -4.6075661090033158E-002   8.7700662528788248E-002   0.0000000000000000     
  -4.7702355616831948E-002   9.4099265092020642E-002   0.0000000000000000     
  -4.9267240529626340E-002  0.10065568804592881        0.0000000000000000     
  -5.0770315828416346E-002  0.10736993139051279        0.0000000000000000     
  -4.9434850314707811E-002   8.1988978851606970E-002   0.0000000000000000     
  -5.1295903641609228E-002   8.8210142013895779E-002   0.0000000000000000     
  -5.3088403977761871E-002   9.4586743946890442E-002   0.0000000000000000     
  -5.4812351323165739E-002  0.10111878465059100        0.0000000000000000     
  -5.6467745677820862E-002  0.10780626412499743        0.0000000000000000     
  -5.4594313171664043E-002   8.2582350472592131E-002   0.0000000000000000     
  -5.6627888674323126E-002   8.8784826964919100E-002   0.0000000000000000     
  -5.8580921093743785E-002   9.5140049945183047E-002   0.0000000000000000     
  -6.0453410429926017E-002  0.10164801941338400        0.0000000000000000     
  -6.2245356682869825E-002  0.10830873536952193        0.0000000000000000     
  -3.9615999596540635E-002  0.10669568145166297        0.0000000000000000     
  -4.0704175597833757E-002  0.11361772688945110        0.0000000000000000     
  -4.1730495180803885E-002  0.12068666727926482        0.0000000000000000     
  -4.2694958345450999E-002  0.12790250262110414        0.0000000000000000     
  -4.3597565091775113E-002  0.13526523291496906        0.0000000000000000     
  -4.5153067134656263E-002  0.10699973716606795        0.0000000000000000     
  -4.6421420192405707E-002  0.11389439791259832        0.0000000000000000     
  -4.7616814147962552E-002  0.12093647367100183        0.0000000000000000     
  -4.8739249001326763E-002  0.12812596444127847        0.0000000000000000     
  -4.9788724752498369E-002  0.13546287022342818        0.0000000000000000     
  -5.0770315828416346E-002  0.10736993139051279        0.0000000000000000     
  -5.2203828995396925E-002  0.11423707700377486        0.0000000000000000     
  -5.3560027512763120E-002  0.12125220676371742        0.0000000000000000     
  -5.4838911380514915E-002  0.12841532067034050        0.0000000000000000     
  -5.6040480598652298E-002  0.13572641872364405        0.0000000000000000     
  -5.6467745677820862E-002  0.10780626412499743        0.0000000000000000     
  -5.8051402006807411E-002  0.11464576416298065        0.0000000000000000     
  -5.9560135275205602E-002  0.12163386655741162        0.0000000000000000     
  -6.0993945483015420E-002  0.12877057130829028        0.0000000000000000     
  -6.2352832630236894E-002  0.13605587841561664        0.0000000000000000     
  -6.2245356682869825E-002  0.10830873536952193        0.0000000000000000     
  -6.3964139226637157E-002  0.11512045939021576        0.0000000000000000     
  -6.5617137435289991E-002  0.12208145305208436        0.0000000000000000     
  -6.7204351308828333E-002  0.12919171635512777        0.0000000000000000     
  -6.8725780847252158E-002  0.13645124929934596        0.0000000000000000     
  -4.3597565091775113E-002  0.13526523291496906        0.0000000000000000     
  -4.4476534488463039E-002  0.14273540152051700        0.0000000000000000     
  -4.5370085604201603E-002  0.15027355179740529        0.0000000000000000     
  -4.6278218438990798E-002  0.15787968374563394        0.0000000000000000     
  -4.7200932992830638E-002  0.16555379736520298        0.0000000000000000     
  -4.9788724752498369E-002  0.13546287022342818        0.0000000000000000     
  -5.0857154344522551E-002  0.14287999805511170        0.0000000000000000     
  -5.2036450720444480E-002  0.15031015497398970        0.0000000000000000     
  -5.3326613880264176E-002  0.15775334098006208        0.0000000000000000     
  -5.4727643823981639E-002  0.16520955607332893        0.0000000000000000     
  -5.6040480598652298E-002  0.13572641872364405        0.0000000000000000     
  -5.7275277416109292E-002  0.14310526177462815        0.0000000000000000     
  -5.8653844081819888E-002  0.15047161067429299        0.0000000000000000     
  -6.0176180595784078E-002  0.15782546542263842        0.0000000000000000     
  -6.1842286958001889E-002  0.16516682601966454        0.0000000000000000     
  -6.2352832630236894E-002  0.13605587841561664        0.0000000000000000     
  -6.3730903703223263E-002  0.14341119267906638        0.0000000000000000     
  -6.5222265688327799E-002  0.15075791889831514        0.0000000000000000     
  -6.6826918585550524E-002  0.15809605707336297        0.0000000000000000     
  -6.8544862394891409E-002  0.16542560720420985        0.0000000000000000     
  -6.8725780847252158E-002  0.13645124929934596        0.0000000000000000     
  -7.0224033205864470E-002  0.14379779076842633        0.0000000000000000     
  -7.1741715539968262E-002  0.15116907964605625        0.0000000000000000     
  -7.3278827849563494E-002  0.15856511593223574        0.0000000000000000     
  -7.4835370134650178E-002  0.16598589962696475        0.0000000000000000     
   0.0000000000000000        0.0000000000000000        0.0000000000000000     
  -2.8794022201052150E-003   1.7452323164138038E-003   0.0000000000000000     
  -5.8713129030039937E-003   3.8653242264957894E-003   0.0000000000000000     
  -8.9757320486963370E-003   6.3602757302459560E-003   0.0000000000000000     
  -1.2192659657182244E-002   9.2300868276643053E-003   0.0000000000000000     
   0.0000000000000000        0.0000000000000000        0.0000000000000000     
  -3.2827181464273715E-003   1.9995943529817067E-003   0.0000000000000000     
  -6.6759538035271676E-003   4.3313357515855824E-003   0.0000000000000000     
  -1.0179706971299392E-002   6.9952241958116277E-003   0.0000000000000000     
  -1.3793977649744044E-002   9.9912596856598420E-003   0.0000000000000000     
   0.0000000000000000        0.0000000000000000        0.0000000000000000     
  -3.9531616075189112E-003   2.4252862612076501E-003   0.0000000000000000     
  -7.9098034649726940E-003   5.0631282655062984E-003   0.0000000000000000     
  -1.1869925572361351E-002   7.9135260128959453E-003   0.0000000000000000     
  -1.5833527929684878E-002   1.0976479503376591E-002   0.0000000000000000     
   0.0000000000000000        0.0000000000000000        0.0000000000000000     
  -4.8907326033798357E-003   3.0223080410916353E-003   0.0000000000000000     
  -9.5728618873405745E-003   6.0607017682579381E-003   0.0000000000000000     
  -1.4046387851882209E-002   9.1151811814989079E-003   0.0000000000000000     
  -1.8311310497004747E-002   1.2185746280814546E-002   0.0000000000000000     
   0.0000000000000000        0.0000000000000000        0.0000000000000000     
  -6.0954311340101460E-003   3.7906596926336614E-003   0.0000000000000000     
  -1.1665129070630803E-002   7.3240562598405005E-003   0.0000000000000000     
  -1.6709093809861974E-002   1.0600189701620518E-002   0.0000000000000000     
  -2.1227325351703651E-002   1.3619060017973715E-002   0.0000000000000000     
  -1.2192659657182244E-002   9.2300868276643053E-003   0.0000000000000000     
  -1.5424156798949793E-002   1.2372751196173653E-002   0.0000000000000000     
  -1.8572284544487068E-002   1.5686262513196818E-002   0.0000000000000000     
  -2.1637042893794069E-002   1.9170620778733802E-002   0.0000000000000000     
  -2.4618431846870792E-002   2.2825825992784599E-002   0.0000000000000000     
  -1.3793977649744044E-002   9.9912596856598420E-003   0.0000000000000000     
  -1.7401604906205966E-002   1.3221559150639604E-002   0.0000000000000000     
  -2.0885427808030013E-002   1.6588239520260294E-002   0.0000000000000000     
  -2.4245446355216183E-002   2.0091300794521910E-002   0.0000000000000000     
  -2.7481660547764467E-002   2.3730742973424451E-002   0.0000000000000000     
  -1.5833527929684878E-002   1.0976479503376591E-002   0.0000000000000000     
  -1.9728820556887450E-002   1.4210993424009943E-002   0.0000000000000000     
  -2.3484013473913247E-002   1.7576072461857724E-002   0.0000000000000000     
  -2.7099106680762260E-002   2.1071716616919919E-002   0.0000000000000000     
  -3.0574100177434498E-002   2.4697925889196538E-002   0.0000000000000000     
  -1.8311310497004747E-002   1.2185746280814546E-002   0.0000000000000000     
  -2.2405803750994244E-002   1.5341054016284668E-002   0.0000000000000000     
  -2.6368041542136764E-002   1.8649761337989099E-002   0.0000000000000000     
  -3.0198023870432307E-002   2.2111868245927827E-002   0.0000000000000000     
  -3.3895750735880886E-002   2.5727374740100856E-002   0.0000000000000000     
  -2.1227325351703651E-002   1.3619060017973715E-002   0.0000000000000000     
  -2.5432554488526351E-002   1.6611740927463783E-002   0.0000000000000000     
  -2.9537512012700575E-002   1.9809306148654424E-002   0.0000000000000000     
  -3.3542197924226323E-002   2.3211755681545633E-002   0.0000000000000000     
  -3.7446612223103595E-002   2.6819089526137416E-002   0.0000000000000000     
  -2.4618431846870792E-002   2.2825825992784599E-002   0.0000000000000000     
  -2.7521893493386032E-002   2.6674317998421619E-002   0.0000000000000000     
  -3.0352869923008591E-002   3.0738536638717274E-002   0.0000000000000000     
  -3.3111361135738468E-002   3.5018481913671559E-002   0.0000000000000000     
  -3.5797367131575650E-002   3.9514153823284479E-002   0.0000000000000000     
  -2.7481660547764467E-002   2.3730742973424451E-002   0.0000000000000000     
  -3.0618008251085155E-002   2.7548926656608849E-002   0.0000000000000000     
  -3.3678427330588519E-002   3.1588212443716034E-002   0.0000000000000000     
  -3.6662917786274549E-002   3.5848600334745996E-002   0.0000000000000000     
  -3.9571479618143258E-002   4.0330090329698746E-002   0.0000000000000000     
  -3.0574100177434498E-002   2.4697925889196538E-002   0.0000000000000000     
  -3.3939012826712356E-002   2.8499031016859164E-002   0.0000000000000000     
  -3.7223863491378240E-002   3.2519362738079371E-002   0.0000000000000000     
  -4.0428652171432135E-002   3.6758921052857170E-002   0.0000000000000000     
  -4.3553378866874048E-002   4.1217705961192549E-002   0.0000000000000000     
  -3.3895750735880886E-002   2.5727374740100856E-002   0.0000000000000000     
  -3.7484907220267628E-002   2.9524631079172560E-002   0.0000000000000000     
  -4.0989178405377739E-002   3.3531987521807305E-002   0.0000000000000000     
  -4.4408564291211219E-002   3.7749444068005074E-002   0.0000000000000000     
  -4.7743064877768054E-002   4.2177000717765881E-002   0.0000000000000000     
  -3.7446612223103595E-002   2.6819089526137416E-002   0.0000000000000000     
  -4.1255691431750972E-002   3.0625726843549049E-002   0.0000000000000000     
  -4.4974372072587046E-002   3.4626086794899813E-002   0.0000000000000000     
  -4.8602654145611796E-002   3.8820169380189708E-002   0.0000000000000000     
  -5.2140537650825235E-002   4.3207974599418733E-002   0.0000000000000000     
  -3.5797367131575650E-002   3.9514153823284479E-002   0.0000000000000000     
  -3.8408089007316078E-002   4.4217525887443508E-002   0.0000000000000000     
  -4.0940727859755673E-002   4.9120571626036114E-002   0.0000000000000000     
  -4.3395283688894441E-002   5.4223291039062295E-002   0.0000000000000000     
  -4.5771756494732384E-002   5.9525684126522052E-002   0.0000000000000000     
  -3.9571479618143258E-002   4.0330090329698746E-002   0.0000000000000000     
  -4.2398654949834483E-002   4.5020127182651859E-002   0.0000000000000000     
  -4.5138985904988091E-002   4.9906155647682901E-002   0.0000000000000000     
  -4.7792472483604090E-002   5.4988175724791880E-002   0.0000000000000000     
  -5.0359114685682466E-002   6.0266187413978788E-002   0.0000000000000000     
  -4.3553378866874048E-002   4.1217705961192549E-002   0.0000000000000000     
  -4.6591492535506165E-002   4.5884106646298620E-002   0.0000000000000000     
  -4.9536442135130657E-002   5.0746512291388449E-002   0.0000000000000000     
  -5.2388227665747494E-002   5.5804922896462057E-002   0.0000000000000000     
  -5.5146849127356706E-002   6.1059338461519438E-002   0.0000000000000000     
  -4.7743064877768054E-002   4.2177000717765881E-002   0.0000000000000000     
  -5.0986601764331126E-002   4.6809464278383763E-002   0.0000000000000000     
  -5.4133096550183321E-002   5.1641641557152736E-002   0.0000000000000000     
  -5.7182549235324669E-002   5.6673532554072828E-002   0.0000000000000000     
  -6.0134959819755113E-002   6.1905137269144019E-002   0.0000000000000000     
  -5.2140537650825235E-002   4.3207974599418733E-002   0.0000000000000000     
  -5.5583982636309356E-002   4.7796200078907301E-002   0.0000000000000000     
  -5.8928949150146126E-002   5.2591543444975776E-002   0.0000000000000000     
  -6.2175437192335571E-002   5.7594004697624199E-002   0.0000000000000000     
  -6.5323446762877671E-002   6.2803583836852528E-002   0.0000000000000000     
  -4.5771756494732384E-002   5.9525684126522052E-002   0.0000000000000000     
  -4.8076239757681258E-002   6.5018398216658849E-002   0.0000000000000000     
  -5.0314826958152814E-002   7.0692080637716120E-002   0.0000000000000000     
  -5.2487518096147080E-002   7.6546731389693881E-002   0.0000000000000000     
  -5.4594313171664043E-002   8.2582350472592131E-002   0.0000000000000000     
  -5.0359114685682466E-002   6.0266187413978788E-002   0.0000000000000000     
  -5.2848353239077731E-002   6.5733523075209771E-002   0.0000000000000000     
  -5.5269628871644390E-002   7.1383515068451003E-002   0.0000000000000000     
  -5.7622941583382457E-002   7.7216163393702450E-002   0.0000000000000000     
  -5.9908291374291933E-002   8.3231468050964139E-002   0.0000000000000000     
  -5.5146849127356706E-002   6.1059338461519438E-002   0.0000000000000000     
  -5.7822921300774995E-002   6.6502931117617681E-002   0.0000000000000000     
  -6.0427058966819103E-002   7.2128872995813845E-002   0.0000000000000000     
  -6.2959262125489010E-002   7.7937164096107986E-002   0.0000000000000000     
  -6.5419530776784751E-002   8.3927804418500021E-002   0.0000000000000000     
  -6.0134959819755113E-002   6.1905137269144019E-002   0.0000000000000000     
  -6.2999943942773085E-002   6.7326622343882564E-002   0.0000000000000000     
  -6.5787117243676974E-002   7.2928154419804700E-002   0.0000000000000000     
  -6.8496479722466766E-002   7.8709733496910447E-002   0.0000000000000000     
  -7.1128031379142462E-002   8.4671359575199778E-002   0.0000000000000000     
  -6.5323446762877671E-002   6.2803583836852528E-002   0.0000000000000000     
  -6.8379421165071966E-002   6.8204596754004448E-002   0.0000000000000000     
  -7.1349803702217968E-002   7.3781359340423569E-002   0.0000000000000000     
  -7.4234594374315691E-002   7.9533871596109904E-002   0.0000000000000000     
  -7.7033793181365134E-002   8.5462133521063438E-002   0.0000000000000000     
  -5.4594313171664043E-002   8.2582350472592131E-002   0.0000000000000000     
  -5.6627888674323126E-002   8.8784826964919100E-002   0.0000000000000000     
  -5.8580921093743785E-002   9.5140049945183047E-002   0.0000000000000000     
  -6.0453410429926017E-002  0.10164801941338400        0.0000000000000000     
  -6.2245356682869825E-002  0.10830873536952193        0.0000000000000000     
  -5.9908291374291933E-002   8.3231468050964139E-002   0.0000000000000000     
  -6.2112913999184810E-002   8.9413573803967014E-002   0.0000000000000000     
  -6.4224045212873115E-002   9.5746625416442105E-002   0.0000000000000000     
  -6.6241685015356863E-002  0.10223062288838937        0.0000000000000000     
  -6.8165833406636026E-002  0.10886556621980882        0.0000000000000000     
  -6.5419530776784751E-002   8.3927804418500021E-002   0.0000000000000000     
  -6.7792277427204173E-002   9.0085238953148336E-002   0.0000000000000000     
  -7.0061914583245247E-002   9.6393912690211192E-002   0.0000000000000000     
  -7.2228442244907945E-002  0.10285382562968866        0.0000000000000000     
  -7.4291860412192295E-002  0.10946497777158067        0.0000000000000000     
  -7.1128031379142462E-002   8.4671359575199778E-002   0.0000000000000000     
  -7.3665978958381229E-002   9.0799822412463010E-002   0.0000000000000000     
  -7.6094529204860151E-002   9.7081911766490350E-002   0.0000000000000000     
  -7.8413682118579298E-002  0.10351762763728184        0.0000000000000000     
  -8.0623437699538600E-002  0.11010697002483745        0.0000000000000000     
  -7.7033793181365134E-002   8.5462133521063438E-002   0.0000000000000000     
  -7.9734018592715949E-002   9.1557324181911037E-002   0.0000000000000000     
  -8.2321889077717869E-002   9.7810622645279524E-002   0.0000000000000000     
  -8.4797404636370866E-002  0.10422202891116891        0.0000000000000000     
  -8.7160565268674939E-002  0.11079154297957919        0.0000000000000000     
  -6.2245356682869825E-002  0.10830873536952193        0.0000000000000000     
  -6.3964139226637157E-002  0.11512045939021576        0.0000000000000000     
  -6.5617137435289991E-002  0.12208145305208436        0.0000000000000000     
  -6.7204351308828333E-002  0.12919171635512777        0.0000000000000000     
  -6.8725780847252158E-002  0.13645124929934596        0.0000000000000000     
  -6.8165833406636026E-002  0.10886556621980882        0.0000000000000000     
  -7.0014978851000387E-002  0.11565055176466600        0.0000000000000000     
  -7.1807609812739703E-002  0.12258467587692642        0.0000000000000000     
  -7.3543726291853975E-002  0.12966793855659009        0.0000000000000000     
  -7.5223328288343216E-002  0.13690033980365701        0.0000000000000000     
  -7.4291860412192295E-002  0.10946497777158067        0.0000000000000000     
  -7.6276859076011325E-002  0.11622543036551729        0.0000000000000000     
  -7.8208128227278170E-002  0.12313324466112847        0.0000000000000000     
  -8.0085667865992777E-002  0.13018842065841429        0.0000000000000000     
  -8.1909477992155200E-002  0.13739095835737475        0.0000000000000000     
  -8.0623437699538600E-002  0.11010697002483745        0.0000000000000000     
  -8.2749779901669970E-002  0.11684509519276959        0.0000000000000000     
  -8.4818692678905350E-002  0.12372715940469056        0.0000000000000000     
  -8.6830176031244724E-002  0.13075316266060044        0.0000000000000000     
  -8.8784229958688093E-002  0.13792310496049920        0.0000000000000000     
  -8.7160565268674939E-002  0.11079154297957919        0.0000000000000000     
  -8.9433741327976324E-002  0.11750954624642293        0.0000000000000000     
  -9.1639303167621283E-002  0.12436642010761269        0.0000000000000000     
  -9.3777250787609803E-002  0.13136216456314850        0.0000000000000000     
  -9.5847584187941898E-002  0.13849677961303031        0.0000000000000000     
  -6.8725780847252158E-002  0.13645124929934596        0.0000000000000000     
  -7.0224033205864470E-002  0.14379779076842633        0.0000000000000000     
  -7.1741715539968262E-002  0.15116907964605625        0.0000000000000000     
  -7.3278827849563494E-002  0.15856511593223574        0.0000000000000000     
  -7.4835370134650178E-002  0.16598589962696475        0.0000000000000000     
  -7.5223328288343216E-002  0.13690033980365701        0.0000000000000000     
  -7.6833614849889473E-002  0.14423926140553436        0.0000000000000000     
  -7.8361785024174860E-002  0.15164208514962943        0.0000000000000000     
  -7.9807838811199350E-002  0.15910881103594210        0.0000000000000000     
  -8.1171776210962943E-002  0.16663943906447248        0.0000000000000000     
  -8.1909477992155200E-002  0.13739095835737475        0.0000000000000000     
  -8.3638597561154868E-002  0.14470980995321689        0.0000000000000000     
  -8.5232065528381334E-002  0.15211392764114784        0.0000000000000000     
  -8.6689881893834503E-002  0.15960331142116754        0.0000000000000000     
  -8.8012046657514442E-002  0.16717796129327611        0.0000000000000000     
  -8.8784229958688093E-002  0.13792310496049920        0.0000000000000000     
  -9.0638981339660654E-002  0.14520943641147382        0.0000000000000000     
  -9.2352557052587603E-002  0.15258460712061148        0.0000000000000000     
  -9.3924957097468925E-002  0.16004861708791207        0.0000000000000000     
  -9.5356181474304663E-002  0.16760146631337569        0.0000000000000000     
  -9.5847584187941898E-002  0.13849677961303031        0.0000000000000000     
  -9.7834766185406777E-002  0.14573814078030525        0.0000000000000000     
  -9.9723259596793692E-002  0.15305412358802037        0.0000000000000000     
 -0.10151306442210263       0.16044472803617568        0.0000000000000000     
 -0.10320418066133361       0.16790995412477119        0.0000000000000000     
 </DataArray>
 <DataArray  type="Float64" Name="stress" NumberOfComponents="3" format="ascii">
   13417899669.844238        4025369900.9532714        2893531121.1960793     
   11768544247.211384        1889961589.4995954        1715476510.7418725     
   10316643040.794378        412733998.76541948        810378298.24639964     
   9062196050.5932236       -406312871.24925709        178236483.70966113     
   8005203276.6079197       -567179020.54443359       -180948932.86834571     
   10542155809.091608        3162646742.7274828        2224816849.8923416     
   9670300758.3482132        1589491636.6687965        1445914782.2018991     
   8947220459.7054138        512252370.94543934        862382785.99192345     
   8372914913.1632166       -69071054.442585945        474220861.26241440     
   7947384118.7216139       -154478639.49528456        281429008.01337332     
   8340637113.5341272        2502191134.0602379        1711038584.1282003     
   8024607216.1708546        1424786667.8437417        1274496351.0670617     
   7808672606.7929316        681033161.57840514        955737863.00812399     
   7692833285.4003572        270930615.26422834        754763119.95138681     
   7677089251.9931259        194479028.90121031        671572121.89685047     
   6813343583.1717930        2044003074.9515378        1352196323.9036551     
   6831463620.6793146        1395846683.0244315        1201221217.3373609     
   6900999482.0569324        919076370.66431475        1090443529.2950015     
   7021951167.3046474        613692137.87118769        1019863259.7765762     
   7194318676.4224586        479693984.64505029        989480408.78208518     
   5960275218.0046072        1788082565.4013822        1148290069.2187057     
   6090869971.8735876        1502671682.2108657        1226089381.0127969     
   6224201085.4974146        1226381998.2031689        1266499784.8525558     
   6360268558.8760872        959213513.37829185        1269521280.7379827     
   6499072392.0096064        701166227.73623395        1235153868.6690774     
   8005203276.6079197       -567179020.54443359       -180948932.86834571     
   7923964582.9653473       -199088864.29882383       -78552150.056942940     
   7801027770.7583284        30007563.398633957       -8905934.2084273603     
   7636392839.9868670        120110262.54794216        27989714.677201264     
   7430059790.6509581        71219233.149094105        32134796.599945098     
   7947384118.7216139       -154478639.49528456        281429008.01337332     
   7745368963.7819319        17112042.813422680        280376437.59782434     
   7519816579.0564833        110245292.50290918        264515496.36359158     
   7270726964.5452662        124921109.57317352        233846184.31067285     
   6998100120.2482824        61139494.024209976        188368501.43907645     
   7677089251.9931259        194479028.90121031        671572121.89685047     
   7405561053.3112011        184949262.53947783        588257901.82947206     
   7128656513.6221848        157498359.48745060        508077507.08761615     
   6846375632.9260845        112126319.74512935        431030937.67128062     
   6558718411.2228928        48833143.312512875        357118193.58046412     
   7194318676.4224586        479693984.64505029        989480408.78208518     
   6904540851.5531549        304422794.87933636        845092242.63800478     
   6627547574.4554424        171766764.35225725        721780097.96364880     
   6363338845.1293211        81725893.063813210        619543974.75901651     
   6111914663.5747890        34300181.014002800        538383873.02410865     
   6499072392.0096064        701166227.73623395        1235153868.6690774     
   6242308358.5077934        375532639.83300114        1050879460.0234188     
   6016489761.5562515        153050507.09733057        905623268.99168909     
   5821616601.1549778        33719829.529222965        799385295.57388556     
   5657688877.3039722        17540607.128676414        732165539.77001190     
   7430059790.6509581        71219233.149094105        32134796.599945098     
   7228196802.5830688       -20516123.122548580        14593764.653987808     
   7038898738.4071817       -70368399.754184723        1640362.2178181075     
   6862165598.1232977       -78337596.745815277       -6725410.7085755356     
   6697997381.7314148       -44423714.097436428       -10503554.125183513     
   6998100120.2482824        61139494.024209976        188368501.43907645     
   6816769651.4219704        1263983.7571573257        179890853.83417994     
   6643493242.6939716       -31764659.515510082        175267550.13503897     
   6478270894.0642958       -37946435.793780088        174498590.34165388     
   6321102605.5329361       -17281345.077659845        177583974.45402470     
   6558718411.2228928        48833143.312512875        357118193.58046412     
   6395825359.9123678        20188948.532311440        352441255.89065915     
   6236475504.9064789        3355408.1008839607        350885376.50258601     
   6080668846.2052212       -1667477.9817647934        352450555.41624540     
   5928405383.8085985        5120290.2843644619        357136792.63163704     
   6111914663.5747890        34300181.014002800        538383873.02410865     
   5965363928.0542688        36258771.202914715        532244970.82343167     
   5817845525.0446968        34991803.094987869        528493841.32046092     
   5669359454.5460768        30499276.690225124        527130484.51519823     
   5519905716.5584021        22781191.988629818        528154900.40764034     
   5657688877.3039722        17540607.128676414        732165539.77001190     
   5525385355.8476715        49473451.768969059        719301998.63249695     
   5387603303.1086330        63144525.466809034        708092944.58866405     
   5244342719.0868597        58553828.222195864        698538377.63851404     
   5095603603.7823534        35701360.035136223        690638297.78204262     
   6697997381.7314148       -44423714.097436428       -10503554.125183513     
   6521516185.5452929       -3828470.9980750084       -3394154.7372582029     
   6339310892.5370045        17686449.360707521        4390805.1434541009     
   6151381502.7065525        20121046.978951693        12851325.516955961     
   5957728016.0539255        3475321.8566188812        21987406.383246094     
   6321102605.5329361       -17281345.077659845        177583974.45402470     
   6142779852.1957197        3937175.5946881771        174630941.12495711     
   5960952337.2643509        13473157.619840145        174057316.20849645     
   5775620060.7388258        11326600.997809887        175863099.70463842     
   5586783022.6191397       -2502494.2714109421        180048291.61338446     
   5928405383.8085985        5120290.2843644619        357136792.63163704     
   5753109210.2340584        8422529.6038291454        346710551.01825148     
   5576527610.2933731        7440014.3694758415        340367565.73728806     
   5398660583.9865475        2172744.5813159943        338107836.78875315     
   5219508131.3135748       -7379279.7606666088        339931364.17263997     
   5519905716.5584021        22781191.988629818        528154900.40764034     
   5352504259.6603050        9627591.0293405056        512844674.94262075     
   5186036711.6240740       -412980.39038658142        503321553.72984332     
   5020503072.4497128       -7340522.2705538273        499585536.76930636     
   4855903342.1372185       -11155034.611162186        501636624.06101310     
   5095603603.7823534        35701360.035136223        690638297.78204262     
   4940965000.4744625        7552359.8712263107        673033312.89806628     
   4789479641.2564535       -10085826.659745455        662919280.18615615     
   4641147526.1283207       -17213199.557790995        660296199.64630413     
   4495968655.0900698       -13829758.822898626        665164071.27850997     
   5957728016.0539255        3475321.8566188812        21987406.383246094     
   5790150804.8249159       -8889561.7777373791        12525486.742392100     
   5625962278.6780052       -9958828.4717576504        8984394.3402925991     
   5465162437.6131802        267521.77450752258        11364129.176956557     
   5307751281.6304655        21789488.961132526        19664691.252376284     
   5586783022.6191397       -2502494.2714109421        180048291.61338446     
   5435175226.5740681       -7192930.9499669075        174447014.27044851     
   5285733655.3989382       -4662618.0620615482        173438048.99429613     
   5138458309.0937424        5088444.3923084736        177021395.78491932     
   4993349187.6584911        22060256.413146734        185197054.64232802     
   5219508131.3135748       -7379279.7606666088        339931364.17263997     
   5080073992.8182087       -5533996.7737085819        336764525.54678130     
   4941583618.9806299       -542831.59413099289        336861483.81572324     
   4804037009.8008347        7594215.7780580521        340222238.97946006     
   4667434165.2788229        18877145.342865705        346846791.03800219     
   4855903342.1372185       -11155034.611162186        501636624.06101310     
   4724847103.5573339       -3912759.2489504814        499478020.57138187     
   4593512169.4230795        2400530.9320271015        499254698.80457193     
   4461898539.7344513        7784835.9317638874        500966658.76057643     
   4330006214.4914541        12240155.750264406        504613900.43940407     
   4495968655.0900698       -13829758.822898626        665164071.27850997     
   4369494558.7914410       -2329218.3757016659        662587499.34425473     
   4241519306.7262869        4167469.5164122581        660617693.96084356     
   4112042898.8946056        5660304.8534362316        659254655.12826931     
   3981065335.2963972        2149287.6353671551        658498382.84653699     
   5307751281.6304655        21789488.961132526        19664691.252376284     
   5087868998.6829329        25032104.524296761        19953499.592074879     
   4864902637.1144066        17994458.017498970        20911458.096770726     
   4638852196.9248962        676549.44074845314        22538566.766459342     
   4409717678.1143942       -26921621.205976963        24834825.601143934     
   4993349187.6584911        22060256.413146734        185197054.64232802     
   4776243507.0031548        17796798.161982536        179798403.88815436     
   4557211402.0233831        7111925.4960443974        177598621.76629356     
   4336252872.7191639       -9994361.5847122669        178597708.27673277     
   4113367919.0905242       -33522063.080213070        182795663.41948485     
   4667434165.2788229        18877145.342865705        346846791.03800219     
   4460332853.9651365        9275943.3921883106        337111277.86927480     
   4252462772.6235681       -2887825.3180885315        333104351.80016911     
   4043823921.2541294       -17614160.787937641        334826012.83068275     
   3834416299.8568010       -34903063.017415524        342276260.96081203     
   4330006214.4914541        12240155.750264406        504613900.43940407     
   4140137039.5688820       -530459.78507924080        491892121.53543663     
   3950656748.9149890       -12004794.424820185        487428648.19839972     
   3761565342.5297704       -22182848.168987036        491223480.42829919     
   3572862820.4132228       -31064621.017575979        503276618.22512406     
   3981065335.2963972        2149287.6353671551        658498382.84653699     
   3815656063.8143983       -11622411.369802713        644140934.88664365     
   3651793330.8976297       -20238981.824202299        640571510.96099579     
   3489477136.5460973       -23700423.727822781        647790111.06958771     
   3328707480.7597928       -22006737.080682039        665796735.21241629     
   4409717678.1143942       -26921621.205976963        24834825.601143934     
   4287074497.3491778       -21849131.028181314        10375276.329198059     
   4167992269.5418477       -4906797.6574325562        6954354.6359048719     
   4052470994.6923780        23905378.906182528        14572060.521279102     
   3940510672.8007822        64587398.662721157        33228393.985309865     
   4113367919.0905242       -33522063.080213070        182795663.41948485     
   4016087262.6687593       -19108554.671738148        175364782.35222068     
   3920904406.8847775        2297622.5293776989        174249288.22494906     
   3827819351.7385855        30696468.523113489        179449181.03766552     
   3736832097.2301922        66087983.309511185        190964460.79036942     
   3834416299.8568010       -34903063.017415524        342276260.96081203     
   3749003194.5251265       -15197028.354279518        340167037.05813944     
   3664224737.5111670        6624500.7012333870        339649959.45678580     
   3580080928.8149085        30561524.149085999        340725028.15675098     
   3496571768.4363632        56614041.989322662        343392243.15803480     
   3572862820.4132228       -31064621.017575979        503276618.22512406     
   3485822292.9183002       -10114552.075768948        504782040.44694680     
   3397953261.4210014        8073836.8581154346        503156368.33141387     
   3309255725.9213314        23500545.784092069        498399601.87853545     
   3219729686.4192877        36165574.702163577        490511741.08829349     
   3328707480.7597928       -22006737.080682039        665796735.21241629     
   3226544557.8482714       -3861125.8362274170        669209792.51864100     
   3122089978.6142912        6645631.0000380278        664768514.84883881     
   3015343743.0578542        9513533.4281103611        652472902.20300925     
   2906305851.1789732        4742581.4480261803        632322954.58115745     
   3940510672.8007822        64587398.662721157        33228393.985309865     
   3659569083.8244882        49795238.841588974        39564470.886280872     
   3371915025.7679291        12628182.086232185        35045728.219166376     
   3077548498.6311092       -46913771.603328228        19672165.983975347     
   2776469502.4140277       -128830622.22708106       -6556215.8192883786     
   3736832097.2301922        66087983.309511185        190964460.79036942     
   3436482961.0570636        36687337.330617666        183670651.31547409     
   3132728158.5763516       -4065529.6735191345        175673968.06289577     
   2825567689.7880597       -56170617.702961922        166974411.03259927     
   2515001554.6921740       -119627926.75767088        157571980.22461337     
   3496571768.4363632        56614041.989322662        343392243.15803480     
   3205820644.4674783        21306577.673037767        326326483.87541056     
   2914970656.9636860       -14330431.759618521        318709796.60546935     
   2624021805.9249926       -50296986.308607697        320542181.34819293     
   2332974091.3513846       -86593085.973968267        331823638.10361046     
   3219729686.4192877        36165574.702163577        490511741.08829349     
   2967582134.0557299        3652959.8687958717        467531968.56606525     
   2718642520.9299421       -18166524.172003984        464153213.84688914     
   2472910847.0419192       -29292877.420252085        480375476.93075925     
   2230387112.3916640       -29726099.875931501        516198757.81768680     
   2906305851.1789732        4742581.4480261803        632322954.58115745     
   2721767429.8218074       -16273516.082121849        607287105.38743889     
   2543743750.4751019       -15573806.910739899        612004219.78715277     
   2372234813.1388345        6841708.9621030092        646474297.78029323     
   2207240617.8130102        50973031.536425233        710697339.36686480     
   5960275218.0046072        1788082565.4013822        1148290069.2187057     
   6090869971.8735876        1502671682.2108657        1226089381.0127969     
   6224201085.4974146        1226381998.2031689        1266499784.8525558     
   6360268558.8760872        959213513.37829185        1269521280.7379827     
   6499072392.0096064        701166227.73623395        1235153868.6690774     
   5436262772.4395561        1630878831.7318668        1031618780.9894274     
   5491612784.2108545        1372872143.2032492        1111945681.5967274     
   5549164698.2367773        1122205128.8567126        1165456874.3920119     
   5608918514.5173244        878877788.69225705        1192152359.3752809     
   5670874233.0524931        642890122.70988059        1192032136.5465333     
   4896137000.8836308        1468841100.2650890        934481420.13189507     
   4906451413.8210068        1247301349.3774981        1016712375.8021462     
   4918433271.5127859        1031319747.6712496        1082700823.8026974     
   4932082573.9589682        820896295.14634299        1132446764.1335497     
   4947399321.1595526        616030991.80277884        1165950196.7947021     
   4339897903.3368273        1301969371.0010483        856877986.64610851     
   4335385860.7040443        1125959300.7336130        940389463.62905145     
   4332006805.3254414        953725854.64678085        1018231633.0846114     
   4329760737.2010193        785269032.74055207        1090404495.0127881     
   4328647656.3307772        620588835.01492679        1156908049.4135821     
   3767545479.7991495        1130263643.9397449        798808480.53206813     
   3778416124.8599663        1008845997.2715929        882976945.07744455     
   3789885299.6747422        889423449.78330529        972049302.23775434     
   3801953004.2434778        771996001.47488284        1066025552.0129975     
   3814619238.5661731        656563652.34632540        1164905694.4031744     
   6499072392.0096064        701166227.73623395        1235153868.6690774     
   6242308358.5077934        375532639.83300114        1050879460.0234188     
   6016489761.5562515        153050507.09733057        905623268.99168909     
   5821616601.1549778        33719829.529222965        799385295.57388556     
   5657688877.3039722        17540607.128676414        732165539.77001190     
   5670874233.0524931        642890122.70988059        1192032136.5465333     
   5521066624.4451628        383352612.37923098        1071046922.0538589     
   5395416995.2059364        204341699.94227171        978064721.96472061     
   5293925345.3348198        105857385.39900517        913085536.27912009     
   5216591674.8318081        87899668.749428749        876109364.99705446     
   4947399321.1595526        616030991.80277884        1165950196.7947021     
   4873076128.2741537        413147956.29294825        1100335476.4091554     
   4816123457.5747013        268166661.40293813        1051708567.2167546     
   4776541309.0611954        181087107.13274789        1020069469.2174999     
   4754329682.7336340        151909293.48237801        1005418182.4113919     
   4328647656.3307772        620588835.01492679        1156908049.4135821     
   4298336869.9947701        464918671.57415247        1138745123.0893087     
   4278609148.6625443        344525391.47932732        1126554804.7477908     
   4269464492.3341036        259408994.73045039        1120337094.3890276     
   4270902901.0094476        209569481.32752371        1120091992.0130208     
   3814619238.5661731        656563652.34632540        1164905694.4031744     
   3796848849.6070070        538664758.22284317        1186275862.0943189     
   3782874068.4694653        433417890.17143977        1202603434.5578279     
   3772694895.1535473        340823048.19211364        1213888411.7937026     
   3766311329.6592512        260880232.28486586        1220130793.8019416     
   5657688877.3039722        17540607.128676414        732165539.77001190     
   5525385355.8476715        49473451.768969059        719301998.63249695     
   5387603303.1086330        63144525.466809034        708092944.58866405     
   5244342719.0868597        58553828.222195864        698538377.63851404     
   5095603603.7823534        35701360.035136223        690638297.78204262     
   5216591674.8318081        87899668.749428749        876109364.99705446     
   5081345229.5500917        85853891.547202110        852486632.23823857     
   4943887467.6789236        76437059.046803474        832786845.25292671     
   4804218389.2183027        59649171.248226881        817010004.04111505     
   4662337994.1682291        35490228.151483774        805156108.60281098     
   4754329682.7336340        151909293.48237801        1005418182.4113919     
   4622621624.1402769        117829287.59176564        974848008.50677073     
   4491969463.6507549        87268942.047258854        950469239.05547476     
   4362373201.2650623        60228256.848858118        932281874.05750310     
   4233832836.9832020        36707231.996561766        920285913.51285839     
   4270902901.0094476        209569481.32752371        1120091992.0130208     
   4149214539.6182308        145399639.90265918        1086386127.4380927     
   4031849291.0241284        95640174.468178749        1061140125.9963106     
   3918807155.2271423        60291085.024081707        1044353987.6876752     
   3810088132.2272692        39352371.570366621        1036027712.5121880     
   3766311329.6592512        260880232.28486586        1220130793.8019416     
   3661123975.9839482        168564948.47988117        1187100989.0322020     
   3563526949.7990456        101550756.30955958        1164799506.0754328     
   3473520251.1045389        59837655.773899317        1153226344.9316311     
   3391103879.9004326        43425646.872902036        1152381505.6007981     
   5095603603.7823534        35701360.035136223        690638297.78204262     
   4940965000.4744625        7552359.8712263107        673033312.89806628     
   4789479641.2564535       -10085826.659745455        662919280.18615615     
   4641147526.1283207       -17213199.557790995        660296199.64630413     
   4495968655.0900698       -13829758.822898626        665164071.27850997     
   4662337994.1682291        35490228.151483774        805156108.60281098     
   4527611236.4075193        13675870.952837467        791859482.87101293     
   4395226670.8700809       -331178.83490848541        784926868.54992640     
   4265184297.5559087       -6530921.2117586136        784358265.63954914     
   4137484116.4650068       -4923356.1777141094        790153674.13988173     
   4233832836.9832020        36707231.996561766        920285913.51285839     
   4115798094.0229535        20261568.539158344        910351419.75552905     
   3999294491.4193654        8919706.2706210613        905653996.64755666     
   3884322029.1724348        2681645.1909434795        906193644.18894255     
   3770880707.2821655        1547385.3001320362        911970362.37968850     
   3810088132.2272692        39352371.570366621        1036027712.5121880     
   3705525573.3207674        27309452.630194664        1028509123.5516118     
   3601683102.9043131        17666828.656852961        1025100664.4790413     
   3498560720.9779053        10424499.650331259        1025802335.2944810     
   3396158427.5415487        5582465.6106452942        1030614135.9979254     
   3391103879.9004326        43425646.872902036        1152381505.6007981     
   3296793674.3009558        34819523.225943565        1146332594.2592649     
   3202392505.3249192        25910188.323778749        1143266872.0443847     
   3107900372.9723215        16697642.166410804        1143184338.9561632     
   3013317277.2431593        7181884.7538321018        1146084994.9945991     
   4495968655.0900698       -13829758.822898626        665164071.27850997     
   4369494558.7914410       -2329218.3757016659        662587499.34425473     
   4241519306.7262869        4167469.5164122581        660617693.96084356     
   4112042898.8946056        5660304.8534362316        659254655.12826931     
   3981065335.2963972        2149287.6353671551        658498382.84653699     
   4137484116.4650068       -4923356.1777141094        790153674.13988173     
   4013168320.6357145        185435.13578128815        784410522.54645061     
   3888149394.5837946        2950459.0405223370        781195854.56329036     
   3762427338.3092456        3371715.5364942551        780509670.19040382     
   3636002151.8120675        1449204.6237046719        782351969.42778921     
   3770880707.2821655        1547385.3001320362        911970362.37968850     
   3654213832.0920205        1911613.5308797359        903991660.92829037     
   3537641852.2231426        2592159.4991862774        900463160.14659584     
   3421164767.6755342        3589023.2050538063        901384860.03460848     
   3304782578.4491925        4902204.6484801769        906756760.59232974     
   3396158427.5415487        5582465.6106452942        1030614135.9979254     
   3292631093.1603580        2849316.8095848560        1021330914.4897760     
   3189996679.6443329        3092570.8924020529        1018419610.7107637     
   3088255186.9934726        6312227.8591099977        1021880224.6608913     
   2987406615.2077775        12508287.709693193        1031712756.3401549     
   3013317277.2431593        7181884.7538321018        1146084994.9945991     
   2928420103.8407311        2998544.9719014168        1136428283.2309093     
   2845213876.8473620        4451693.2201720476        1135065206.2557902     
   2763698596.2630591        11541329.498656273        1141995764.0692427     
   2683874262.0878148        24267453.807344794        1157219956.6712666     
   3981065335.2963972        2149287.6353671551        658498382.84653699     
   3815656063.8143983       -11622411.369802713        644140934.88664365     
   3651793330.8976297       -20238981.824202299        640571510.96099579     
   3489477136.5460973       -23700423.727822781        647790111.06958771     
   3328707480.7597928       -22006737.080682039        665796735.21241629     
   3636002151.8120675        1449204.6237046719        782351969.42778921     
   3496890637.4745698       -4349244.6014623642        772531660.94224656     
   3358436073.1661167       -7957860.3964896202        770312391.66131055     
   3220638458.8866987       -9376642.7613927126        775694161.58497798     
   3083497794.6363239       -8605591.6961560249        788676970.71325278     
   3304782578.4491925        4902204.6484801769        906756760.59232974     
   3182863150.3143849        4345303.9207762480        900435738.28891420     
   3060711083.6724253        3012941.5025664568        898528770.36046505     
   2938326378.5233159        905117.39385867119        901035856.80699277     
   2815709034.8670506       -1978168.4053634405        907956997.62848544     
   2987406615.2077775        12508287.709693193        1031712756.3401549     
   2873573602.3338385        14461234.196906924        1027853166.9266393     
   2758618362.4165573        12673423.872976065        1025220647.0584639     
   2642540895.4559331        7144856.7379007339        1023815196.7356194     
   2525341201.4519672       -2124467.2083181143        1023636815.9581085     
   2683874262.0878148        24267453.807344794        1157219956.6712666     
   2569021993.5329318        25998546.226925015        1154783946.8554323     
   2452157909.3985109        21023586.714721441        1150388021.7552991     
   2333282009.6845579        9342575.2707436085        1144032181.3708611     
   2212394294.3910723       -9044488.1050125360        1135716425.7021251     
   3328707480.7597928       -22006737.080682039        665796735.21241629     
   3226544557.8482714       -3861125.8362274170        669209792.51864100     
   3122089978.6142912        6645631.0000380278        664768514.84883881     
   3015343743.0578542        9513533.4281103611        652472902.20300925     
   2906305851.1789732        4742581.4480261803        632322954.58115745     
   3083497794.6363239       -8605591.6961560249        788676970.71325278     
   2965339558.5670891       -2063282.8159866333        785537900.27552259     
   2846574831.3878856        2457389.0309658051        780626762.93040538     
   2727203613.0987163        4956423.8447005749        773943558.67790627     
   2607225903.6995869        5433821.6252200603        765488287.51802826     
   2815709034.8670506       -1978168.4053634405        907956997.62848544     
   2698933394.4076509       -1825789.2592118979        900231825.52803111     
   2583236428.0507793        1922170.2286928892        896816854.58884394     
   2468618135.7964358        9265710.0583512783        897712084.81091559     
   2355078517.6446090        20204830.229753375        902917516.19424641     
   2525341201.4519672       -2124467.2083181143        1023636815.9581085     
   2427326065.3699641       -3148645.1659102440        1013291568.2761731     
   2332074768.6029763        5039974.5932110548        1013338789.8241503     
   2239587311.1510029        22441392.069051385        1023778480.6020267     
   2149863693.0140467        49055607.261609554        1044610640.6098166     
   2212394294.3910723       -9044488.1050125360        1135716425.7021251     
   2150517571.4540153       -6031850.5360956192        1124717128.5199518     
   2093089853.0444655        11810802.124508619        1130192568.6363251     
   2040111139.1624229        44483469.876802683        1152142746.0512528     
   1991581429.8078842        91986152.720775723        1190567660.7647336     
   2906305851.1789732        4742581.4480261803        632322954.58115745     
   2721767429.8218074       -16273516.082121849        607287105.38743889     
   2543743750.4751019       -15573806.910739899        612004219.78715277     
   2372234813.1388345        6841708.9621030092        646474297.78029323     
   2207240617.8130102        50973031.536425233        710697339.36686480     
   2607225903.6995869        5433821.6252200603        765488287.51802826     
   2489500483.7731037        9239126.2118071318        755133308.79066157     
   2374130271.4165382        20895122.698128819        760691967.08190846     
   2261115266.6298985        40401811.084192157        782164262.39177632     
   2150455469.4131660        67759191.369967937        819550194.72026098     
   2355078517.6446090        20204830.229753375        902917516.19424641     
   2264625166.0779028        36969257.011768460        902390617.75261974     
   2172367487.6406002        47719260.891789317        903938029.75479579     
   2078305482.3326833        52454841.869792581        907559752.20077300     
   1982439150.1541767        51175999.945787311        913255785.09055579     
   2149863693.0140467        49055607.261609554        1044610640.6098166     
   2047141476.7362175        66916876.317787170        1049059032.2733145     
   1938455399.1472657        64898607.670228720        1041742407.8058039     
   1823805460.2471893        43000801.318911791        1022660767.2072856     
   1703191660.0359781        1223457.2638370991        991814110.47774625     
   1991581429.8078842        91986152.720775723        1190567660.7647336     
   1837049415.7480447        99081984.129862785        1195138552.3527451     
   1672394005.9365561        72433163.033461571        1174105101.2349386     
   1497615200.3734150        12039689.431549907        1127467307.4113064     
   1312712999.0586240       -82098436.675866485        1055225170.8818469     
   3767545479.7991495        1130263643.9397449        798808480.53206813     
   3778416124.8599663        1008845997.2715929        882976945.07744455     
   3789885299.6747422        889423449.78330529        972049302.23775434     
   3801953004.2434778        771996001.47488284        1066025552.0129975     
   3814619238.5661731        656563652.34632540        1164905694.4031744     
   3206347643.9112320        961904293.17336953        755124362.97147644     
   3234382506.7207289        868302199.33163393        851408183.56311631     
   3262126104.6844621        773729222.67068219        949572382.23271191     
   3289578437.8024292        678185363.19051409        1049616958.9802626     
   3316739506.0746312        581670620.89112902        1151541913.8057687     
   2683572309.3137121        805071692.79411364        720677095.14603651     
   2720132776.9090953        736693567.88995624        828038178.08426154     
   2755512185.0589895        664378578.16750145        934256124.56346405     
   2789710533.7633944        588126723.62674928        1039330934.5836443     
   2822727823.0223098        507938004.26769882        1143262608.1448014     
   2199219476.0065894        659765842.80197680        695466677.05574799     
   2235666935.4250646        614020102.94655943        812866928.64087987     
   2270043540.7983265        561371516.27376366        926100529.23001170     
   2302349292.1263747        501820082.78358871        1035167478.8231422     
   2332584189.4092083        435365802.47603476        1140067777.4202726     
   1753289143.9898639        525986743.19695914        679493108.70061147     
   1780984982.2686372        500281804.50144362        805894435.23297155     
   1805720171.9024723        464708036.98946798        925105596.23235333     
   1827494712.8913696        419265440.66103303        1037126591.6987566     
   1846308605.2353292        363954015.51613718        1141957421.6321814     
   3814619238.5661731        656563652.34632540        1164905694.4031744     
   3796848849.6070070        538664758.22284317        1186275862.0943189     
   3782874068.4694653        433417890.17143977        1202603434.5578279     
   3772694895.1535473        340823048.19211364        1213888411.7937026     
   3766311329.6592512        260880232.28486586        1220130793.8019416     
   3316739506.0746312        581670620.89112902        1151541913.8057687     
   3291474894.4713082        474571346.07341635        1179542142.7028837     
   3269892649.7649579        379746627.57894254        1204327960.3384898     
   3251992771.9555779        297196465.40770519        1225899366.7125869     
   3237775261.0431695        226920859.55970657        1244256361.8251736     
   2822727823.0223098        507938004.26769882        1143262608.1448014     
   2795192371.5351901        413205363.58386374        1177760783.8357935     
   2771226046.0203900        330369809.47442698        1210872732.2314014     
   2750828846.4779086        259431341.93938732        1242598453.3316267     
   2734000772.9077473        200389960.97874534        1272937947.1364682     
   2332584189.4092083        435365802.47603476        1140067777.4202726     
   2308001280.7986522        354566810.75418538        1180931785.4930472     
   2286874257.2357621        285287435.85789293        1222237750.2365634     
   2269203118.7205396        227527677.78715903        1263985671.6508224     
   2254987865.2529850        181287536.54198301        1306175549.7358246     
   1846308605.2353292        363954015.51613718        1141957421.6321814     
   1829901622.2616942        298655687.58438027        1189055147.6746442     
   1816837283.4110751        244499506.72934282        1238423014.3539748     
   1807115588.6834707        201485472.95102084        1290061021.6701741     
   1800736538.0788815        169613586.24941629        1343969169.6232419     
   3766311329.6592512        260880232.28486586        1220130793.8019416     
   3661123975.9839482        168564948.47988117        1187100989.0322020     
   3563526949.7990456        101550756.30955958        1164799506.0754328     
   3473520251.1045389        59837655.773899317        1153226344.9316311     
   3391103879.9004326        43425646.872902036        1152381505.6007981     
   3237775261.0431695        226920859.55970657        1244256361.8251736     
   3162584477.4232984        153008730.88204706        1226494848.4362774     
   3093374266.8949695        99031845.842856526        1216832415.9399786     
   3030144629.4581809        64990204.442137480        1215269064.3362749     
   2972895565.1129322        50883806.679884791        1221804793.6251693     
   2734000772.9077473        200389960.97874534        1272937947.1364682     
   2681294442.4279585        142627352.35380375        1268566678.3297474     
   2632958930.6408529        99434139.371140599        1269665249.4952521     
   2588994237.5464330        70810322.030756116        1276233660.6329792     
   2549400363.1446934        56755900.332647800        1288271911.7429309     
   2254987865.2529850        181287536.54198301        1306175549.7358246     
   2217253870.9979291        137420812.89515424        1313316478.7126124     
   2182280941.0366993        102757636.89441288        1323298006.7412524     
   2150069075.3692961        77298008.539757848        1336120133.8217447     
   2120618273.9957187        61041927.831189156        1351782859.9540875     
   1800736538.0788815        169613586.24941629        1343969169.6232419     
   1770462763.1332095        137389112.50609779        1360744249.5848718     
   1741340298.0825057        109002338.41267294        1377730687.6779809     
   1713369142.9267704        84453263.969144106        1394928483.9025700     
   1686549297.6660037        63741889.175509155        1412337638.2586379     
   3391103879.9004326        43425646.872902036        1152381505.6007981     
   3296793674.3009558        34819523.225943565        1146332594.2592649     
   3202392505.3249192        25910188.323778749        1143266872.0443847     
   3107900372.9723215        16697642.166410804        1143184338.9561632     
   3013317277.2431593        7181884.7538321018        1146084994.9945991     
   2972895565.1129322        50883806.679884791        1221804793.6251693     
   2885687645.4693179        37333921.304572463        1214353469.7491772     
   2798792011.3999519        24824987.843426228        1210523121.7268126     
   2712208662.9048362        13357006.296443343        1210313749.5580726     
   2625937599.9839706        2929976.6636292934        1213725353.2429588     
   2549400363.1446934        56755900.332647800        1288271911.7429309     
   2471116977.2482810        38808927.566384912        1279888632.4417636     
   2393549125.8769283        23247069.883658171        1275764115.7211926     
   2316696809.0306358        10070327.284467340        1275898361.5812144     
   2240560026.7094064       -721300.23118269444        1280291370.0218329     
   2120618273.9957187        61041927.831189156        1351782859.9540875     
   2053081669.6378467        39244542.011376500        1342938082.3370245     
   1986663848.7558470        21176434.444471359        1338989854.0275266     
   1921364811.3497210        6837605.1304790974        1339938175.0255942     
   1857184557.4194660       -3771945.9306108952        1345783045.3312232     
   1686549297.6660037        63741889.175509155        1412337638.2586379     
   1631581722.6380141        38640764.639548957        1403501819.4349604     
   1578136180.0367093        18613081.525868595        1400200336.6458149     
   1526212669.8620875        3658839.8344683051        1402433189.8912034     
   1475811192.1141517       -6221960.4346479177        1410200379.1711261     
   3013317277.2431593        7181884.7538321018        1146084994.9945991     
   2928420103.8407311        2998544.9719014168        1136428283.2309093     
   2845213876.8473620        4451693.2201720476        1135065206.2557902     
   2763698596.2630591        11541329.498656273        1141995764.0692427     
   2683874262.0878148        24267453.807344794        1157219956.6712666     
   2625937599.9839706        2929976.6636292934        1213725353.2429588     
   2561161720.8670406        1035891.4318063259        1205556464.6672702     
   2497447878.7647519        2681929.5821071863        1204043570.4726033     
   2434796073.6770973        7868091.1145294905        1209186670.6589551     
   2373206305.6040802        16594376.029079676        1220985765.2263258     
   2240560026.7094064       -721300.23118269444        1280291370.0218329     
   2191226469.2849774       -1729822.6907947063        1272876577.0073168     
   2142326039.4807563       -1294586.4163796902        1270480137.9662681     
   2093858737.2967527        584408.59208953381        1273102052.8986900     
   2045824562.7329559        3907162.3345892429        1280742321.8045776     
   1857184557.4194660       -3771945.9306108952        1345783045.3312232     
   1818614349.0945313       -5298597.3959187269        1338388620.2510495     
   1779848358.9953825       -7477854.7752699852        1334374908.7367916     
   1740886587.1220217       -10309718.068665504        1333741910.7884531     
   1701729033.4744432       -13794187.276115298        1336489626.4060307     
   1475811192.1141517       -6221960.4346479177        1410200379.1711261     
   1443325360.2957096       -9670432.6835454106        1402092594.3984632     
   1410014837.3086245       -15867875.494587362        1395727882.7841680     
   1375879623.1529052       -24814288.867742419        1391106244.3282397     
   1340919717.8285453       -36509672.803032041        1388227679.0306752     
   2683874262.0878148        24267453.807344794        1157219956.6712666     
   2569021993.5329318        25998546.226925015        1154783946.8554323     
   2452157909.3985109        21023586.714721441        1150388021.7552991     
   2333282009.6845579        9342575.2707436085        1144032181.3708611     
   2212394294.3910723       -9044488.1050125360        1135716425.7021251     
   2373206305.6040802        16594376.029079676        1220985765.2263258     
   2254963221.0144691        8657903.5545077324        1212806261.3175013     
   2135877816.4866226       -2086302.0475182533        1206209329.1803007     
   2015950092.0205338       -15638240.777015448        1201194968.8147218     
   1895180047.6162012       -31997912.633991599        1197763180.2207749     
   2045824562.7329559        3907162.3345892429        1280742321.8045776     
   1934312053.6969836       -10660457.557612538        1268183735.3842716     
   1823126720.3640656       -24137491.772964597        1260750207.7915154     
   1712268562.7342005       -36523940.311477065        1258441739.0263097     
   1601737580.8073843       -47819803.173152685        1261258329.0886555     
   1701729033.4744432       -13794187.276115298        1336489626.4060307     
   1607068491.5804701       -31956537.109438181        1320916369.0557499     
   1513904621.0308392       -45129982.461617112        1314010657.5889463     
   1422237421.8255575       -53314523.332629800        1315772492.0056195     
   1332066893.9646206       -56510159.722495258        1326201872.3057663     
   1340919717.8285453       -36509672.803032041        1388227679.0306752     
   1273232534.6649246       -55230335.100986600        1371004162.3319347     
   1208211518.4869475       -65063774.113461614        1365990678.5725908     
   1145856669.2946095       -66009989.840473056        1373187227.7526519     
   1086167987.0879095       -58068982.282025456        1392593809.8721168     
   2212394294.3910723       -9044488.1050125360        1135716425.7021251     
   2150517571.4540153       -6031850.5360956192        1124717128.5199518     
   2093089853.0444655        11810802.124508619        1130192568.6363251     
   2040111139.1624229        44483469.876802683        1152142746.0512528     
   1991581429.8078842        91986152.720775723        1190567660.7647336     
   1895180047.6162012       -31997912.633991599        1197763180.2207749     
   1869092326.8327682       -18599075.005661964        1194783164.8722210     
   1844739549.5473723        582907.61612653732        1200461598.4834239     
   1822121715.7600176        25548035.231386662        1214798481.0543840     
   1801238825.4707022        56296307.840109527        1237793812.5851021     
   1601737580.8073843       -47819803.173152685        1261258329.0886555     
   1589106609.7810149       -30734441.204389155        1263131191.0393486     
   1575496521.2232180       -16912804.340378165        1265846213.6110063     
   1560907315.1339974       -6354892.5811173320        1269403396.8036230     
   1545338991.5133502        939294.07339084148        1273802740.6172013     
   1332066893.9646206       -56510159.722495258        1326201872.3057663     
   1310560420.2987590       -42437949.132267594        1329761207.0213339     
   1285360768.0720077       -40676333.744997501        1326346414.0190628     
   1256467937.2843666       -51225313.560697794        1315957493.2989650     
   1223881927.9358296       -74084888.579377770        1298594444.8610287     
   1086167987.0879095       -58068982.282025456        1392593809.8721168     
   1033453758.3860004       -53709598.789290130        1394673212.8181751     
   974332290.09373641       -70707680.597741008        1381962199.7076070     
   908803582.21111798       -109063227.70737165        1354460770.5404131     
   836867634.73813939       -168776240.11819714        1312168925.3165882     
   1991581429.8078842        91986152.720775723        1190567660.7647336     
   1837049415.7480447        99081984.129862785        1195138552.3527451     
   1672394005.9365561        72433163.033461571        1174105101.2349386     
   1497615200.3734150        12039689.431549907        1127467307.4113064     
   1312712999.0586240       -82098436.675866485        1055225170.8818469     
   1801238825.4707022        56296307.840109527        1237793812.5851021     
   1603501861.8882852        35106377.352326632        1225183112.6949098     
   1404767110.1208580        10590486.247837603        1211469662.4693823     
   1205034570.1684177       -17251365.473354220        1196653461.9085135     
   1004304242.0309709       -48419177.811243773        1180734511.0122952     
   1545338991.5133502        939294.07339084148        1273802740.6172013     
   1374401628.0383062       -27535033.422280490        1254656991.4098859     
   1211592083.9448922       -28916629.645856321        1258910084.2377148     
   1056910359.2331069       -3205494.5973407626        1286562019.1006813     
   910356453.90294683        49598371.723267555        1337612795.9987924     
   1223881927.9358296       -74084888.579377770        1298594444.8610287     
   1149748714.1981106       -88842248.193953395        1283560188.4976716     
   1092868927.4086599       -46088184.647635341        1316426366.5399327     
   1053242567.5674753        54177302.059574068        1397192978.9878221     
   1030869634.6745600        211954211.92767012        1525860025.8413320     
   836867634.73813939       -168776240.11819714        1312168925.3165882     
   929543120.36769724       -148815266.96268505        1311892703.9582622     
   1048597640.5121596       -40924178.757491469        1384018509.3760431     
   1194031195.1715269        154897024.49739119        1528546341.5699272     
   1365843784.3458002        438648342.80196083        1745476200.5399184     
   1753289143.9898639        525986743.19695914        679493108.70061147     
   1780984982.2686372        500281804.50144362        805894435.23297155     
   1805720171.9024723        464708036.98946798        925105596.23235333     
   1827494712.8913696        419265440.66103303        1037126591.6987566     
   1846308605.2353292        363954015.51613718        1141957421.6321814     
   1323510478.8882151        397053143.66646457        669596957.65597939     
   1336197017.0066447        375568909.15159392        791770044.14407969     
   1346672401.1123459        346714161.26096326        908613672.00013006     
   1354936631.2053196        310488899.99457276        1020127841.2241304     
   1360989707.2855651        266893125.35242194        1126312551.8160803     
   887612646.32632244        266283793.89789674        662618791.49720490     
   890606189.71563196        250615155.19303814        781438048.34529042     
   892138073.72442353        230074318.55311957        896788553.46225441     
   892208298.35269690        204661283.97814080        1008670306.8480963     
   890816863.60045218        174376051.46810183        1117083308.5028167     
   445595646.30418581        133678693.89125574        658558610.22428763     
   444212500.39559901        125420542.62577634        774898447.83660352     
   442117189.73870426        114788508.86593688        889630240.61872590     
   439309714.33350134        101782592.61173695        1002753988.5706550     
   435790074.17999047        86402793.863177121        1114269691.6923897     
  -2540521.1781951082       -762156.35345853248        657416413.83722830     
  -2984050.9534542263       -14928.550191638642        772151242.61801922     
  -3390250.8448114181        856732.19941522600        887138733.46954513     
  -3759120.8522668057        1852825.8953615048        1002378886.3918059     
  -4090660.9758201144        2973352.5376476962        1117871701.3848011     
   1846308605.2353292        363954015.51613718        1141957421.6321814     
   1829901622.2616942        298655687.58438027        1189055147.6746442     
   1816837283.4110751        244499506.72934282        1238423014.3539748     
   1807115588.6834707        201485472.95102084        1290061021.6701741     
   1800736538.0788815        169613586.24941629        1343969169.6232419     
   1360989707.2855651        266893125.35242194        1126312551.8160803     
   1354210899.6288106        219874931.99075463        1181439156.9271147     
   1349924880.9748387        181166035.30502889        1237483417.5134764     
   1348131651.3236492        150766435.29524648        1294445333.5751641     
   1348831210.6752434        128676131.96140796        1352324905.1121778     
   890816863.60045218        174376051.46810183        1117083308.5028167     
   889801987.94188619        144478719.68091580        1179247295.0421524     
   890430046.16587019        120057834.16889673        1240976451.8952723     
   892701038.27240479        101113394.93204632        1302270779.0621777     
   896614964.26148951        87645401.970362723        1363130276.5428660     
   435790074.17999047        86402793.863177121        1114269691.6923897     
   436674887.20092106        72467050.654864863        1182479562.0197563     
   438352778.98416919        61174903.320944399        1248902117.4993644     
   440823749.52973562        52526351.861418024        1313537358.1312151     
   444087798.83761978        46521396.276284292        1376385283.9153075     
  -4090660.9758201144        2973352.5376476962        1117871701.3848011     
  -5170402.5940842442        3839924.9126025047        1191135957.8599255     
  -6306920.5702639204        4517242.7611723766        1261260414.3257504     
  -7500214.9043573514        5005306.0833628653        1328245070.7822757     
  -8750285.5963660367        5304114.8791693542        1392089927.2295001     
   1800736538.0788815        169613586.24941629        1343969169.6232419     
   1770462763.1332095        137389112.50609779        1360744249.5848718     
   1741340298.0825057        109002338.41267294        1377730687.6779809     
   1713369142.9267704        84453263.969144106        1394928483.9025700     
   1686549297.6660037        63741889.175509155        1412337638.2586379     
   1348831210.6752434        128676131.96140796        1352324905.1121778     
   1322250090.9109154        103748530.73975801        1370632083.2214637     
   1296701614.5703740        82263074.264066756        1389884513.5260723     
   1272185781.6536212        64219762.534333527        1410082196.0260041     
   1248702592.1606557        49618595.550561428        1431225130.7212586     
   896614964.26148951        87645401.970362723        1363130276.5428660     
   875823339.86091471        70643725.325104833        1382831108.5834303     
   855945692.41294706        56688638.521870255        1404211086.8831611     
   836982021.91758561        45780141.560657650        1427270211.4420581     
   818932328.37483227        37918234.441470504        1452008482.2601216     
   444087798.83761978        46521396.276284292        1376385283.9153075     
   431182509.98320848        38074696.262140229        1397341325.6707716     
   419072531.61022294        32279031.186082587        1420710407.7492468     
   407757863.71866441        29134401.048114508        1446492530.1507325     
   397238506.30853313        28640805.848237097        1474687692.8752251     
  -8750285.5963660367        5304114.8791693542        1392089927.2295001     
  -11672398.722202949        6041443.5508657396        1414162734.4834888     
  -13917867.837794617        9034252.2567131240        1439382476.1243305     
  -15486692.943141816        14282540.996708456        1467749152.1520250     
  -16378874.038242254        21786309.770860028        1499262762.5665734     
   1686549297.6660037        63741889.175509155        1412337638.2586379     
   1631581722.6380141        38640764.639548957        1403501819.4349604     
   1578136180.0367093        18613081.525868595        1400200336.6458149     
   1526212669.8620875        3658839.8344683051        1402433189.8912034     
   1475811192.1141517       -6221960.4346479177        1410200379.1711261     
   1248702592.1606557        49618595.550561428        1431225130.7212586     
   1209035357.3944166        32584117.526792943        1425852687.7101877     
   1169932338.0232801        17430357.486702323        1424853867.3631198     
   1131393534.0472488        4157315.4302943349        1428228669.6800466     
   1093418945.4663203       -7235008.6424364448        1435977094.6609762     
   818932328.37483227        37918234.441470504        1452008482.2601216     
   791249109.95452905        27955505.755148828        1448981961.8581502     
   763172289.89774942        16680771.613906950        1449168350.7496445     
   734701868.20449412        4094032.0177453756        1452567648.9346037     
   705837844.87476158       -9804713.0333415270        1459179856.4130249     
   397238506.30853313        28640805.848237097        1474687692.8752251     
   378222980.31835389        24754929.324620649        1472889641.8788447     
   357856035.66011828        16364323.907482445        1473143786.8053930     
   336137672.33382481        3468989.5968187898        1475450127.6548710     
   313067890.33947641       -13931073.607362792        1479808664.4272795     
  -16378874.038242254        21786309.770860028        1499262762.5665734     
  -30043031.514110807        22982388.235203132        1497575727.7722702     
  -46016424.689616747        16481014.367421951        1496780175.5303614     
  -64299053.564758554        2282188.1675217859        1496876105.8408496     
  -84890918.139538288       -19614090.364506274        1497863518.7037320     
   1475811192.1141517       -6221960.4346479177        1410200379.1711261     
   1443325360.2957096       -9670432.6835454106        1402092594.3984632     
   1410014837.3086245       -15867875.494587362        1395727882.7841680     
   1375879623.1529052       -24814288.867742419        1391106244.3282397     
   1340919717.8285453       -36509672.803032041        1388227679.0306752     
   1093418945.4663203       -7235008.6424364448        1435977094.6609762     
   1066093382.0796568       -14745440.161778390        1426217650.5110564     
   1038656692.3056521       -22626292.972255945        1419621945.6742396     
   1011108876.1443079       -30877567.073866069        1416189980.1505277     
   983449933.59562457       -39499262.466608346        1415921753.9399199     
   705837844.87476158       -9804713.0333415270        1459179856.4130249     
   687731596.07626963       -20159389.976205081        1448601245.1306973     
   670227785.67173588       -28505938.939207613        1442607039.3162115     
   653326413.66115880       -34844359.922355175        1441197238.9695640     
   637027480.04454124       -39174652.925636768        1444371844.0907595     
   313067890.33947641       -13931073.607362792        1479808664.4272795     
   308240002.28554630       -25912282.126835063        1469243378.2573898     
   304728117.40687358       -33506813.395449832        1464683163.7100782     
   302532235.70345682       -36714667.413210243        1466128020.7853460     
   301652357.17529887       -35535844.180109620        1473577949.4831905     
  -84890918.139538288       -19614090.364506274        1497863518.7037320     
  -72381399.292513311       -32004116.613665961        1488144049.8911302     
  -57842312.488929443       -37628916.340962991        1485850318.8558440     
  -41273657.728797026       -36488489.546431392        1490982325.5978730     
  -22675435.012104932       -28582836.230034195        1503540070.1172178     
   1340919717.8285453       -36509672.803032041        1388227679.0306752     
   1273232534.6649246       -55230335.100986600        1371004162.3319347     
   1208211518.4869475       -65063774.113461614        1365990678.5725908     
   1145856669.2946095       -66009989.840473056        1373187227.7526519     
   1086167987.0879095       -58068982.282025456        1392593809.8721168     
   983449933.59562457       -39499262.466608346        1415921753.9399199     
   945665259.17357206       -48636499.447101891        1403340111.3492444     
   909654685.62739182       -51860066.841357291        1399338805.9317305     
   875418212.95708168       -49169964.649377823        1403917837.6873746     
   842955841.16263735       -40566192.871180713        1417077206.6161778     
   637027480.04454124       -39174652.925636768        1444371844.0907595     
   618774755.03193665       -41839632.388300270        1435391331.8134201     
   601404064.78542936       -41564495.963972092        1431361460.9429972     
   584915409.30501986       -38349243.652652949        1432282231.4794903     
   569308788.59070826       -32193875.454338014        1438153643.4228973     
   301652357.17529887       -35535844.180109620        1473577949.4831905     
   292561022.24001622       -34839733.924586654        1467157823.7244556     
   283459655.96106076       -34177061.481306866        1462058643.6063902     
   274348258.33843166       -33547826.850272506        1458280409.1289983     
   265226829.37212628       -32952030.031492025        1455823120.2922835     
  -22675435.012104932       -28582836.230034195        1503540070.1172178     
  -32975939.202187590       -27636804.055958085        1498639587.0823483     
  -44178540.845717140       -29697763.393370256        1491430353.9219115     
  -56283239.942689933       -34765714.242260233        1481912370.6359038     
  -69290036.493107975       -42840656.602635086        1470085637.2243242     
   1086167987.0879095       -58068982.282025456        1392593809.8721168     
   1033453758.3860004       -53709598.789290130        1394673212.8181751     
   974332290.09373641       -70707680.597741008        1381962199.7076070     
   908803582.21111798       -109063227.70737165        1354460770.5404131     
   836867634.73813939       -168776240.11819714        1312168925.3165882     
   842955841.16263735       -40566192.871180713        1417077206.6161778     
   755387463.96573699       -53695351.923419327        1405134392.4021597     
   662615669.93053138       -84169233.770009756        1385206928.2974641     
   564640459.05701745       -131987838.41096222        1357294814.3020906     
   461461831.34519470       -197151165.84627709        1321398050.4160330     
   569308788.59070826       -32193875.454338014        1438153643.4228973     
   466331309.08724022       -56978063.195020169        1413593071.9261973     
   359354235.49751264       -95094231.223232985        1387853616.7047620     
   248377567.82152784       -146542379.53896952        1360935277.7585955     
   133401306.05928339       -211322508.14224032        1332838055.0876985     
   265226829.37212628       -32952030.031492025        1455823120.2922835     
   166285293.75050989       -63557732.604095206        1420049251.3902824     
   64547986.794683993       -103482672.95739403        1389902264.9295027     
  -39985091.495350577       -152726851.09139010        1365382160.9099345     
  -147313941.11959788       -211290267.00609457        1346488939.3315821     
  -69290036.493107975       -42840656.602635086        1470085637.2243242     
  -144750582.04445037       -73434360.150629252        1424502930.7944212     
  -221803076.17795593       -109334558.97249931        1391352872.9716814     
  -300447518.89362246       -150541253.06824058        1370635463.7561047     
  -380683910.19144988       -197054442.43785000        1362350703.1476893     
   836867634.73813939       -168776240.11819714        1312168925.3165882     
   929543120.36769724       -148815266.96268505        1311892703.9582622     
   1048597640.5121596       -40924178.757491469        1384018509.3760431     
   1194031195.1715269        154897024.49739119        1528546341.5699272     
   1365843784.3458002        438648342.80196083        1745476200.5399184     
   461461831.34519470       -197151165.84627709        1321398050.4160330     
   702308843.60318315       -148344653.72221386        1341513751.0518804     
   955455194.17316389       -58540347.224844515        1396548859.4792063     
   1220900883.0551329        72261753.645817995        1486503375.6980205     
   1498645910.2490931        244061648.88978845        1611377299.7083156     
   133401306.05928339       -211322508.14224032        1332838055.0876985     
   415326647.84677696       -165798416.17930698        1356919365.4809837     
   695471631.74334621       -126208850.51945740        1378437464.6811283     
   973836257.74899495       -92553811.162673414        1397392352.6881306     
   1250420525.8637204       -64833298.108970225        1413784029.5019956     
  -147313941.11959788       -211290267.00609457        1346488939.3315821     
   68596533.098475575       -201176554.33397037        1358109547.2455771     
   268646953.22271061       -243929688.64130574        1329684324.9818048     
   452837319.25310934       -339549669.92809820        1261213272.5402677     
   621167631.18967342       -488036498.19433463        1152696389.9209652     
  -380683910.19144988       -197054442.43785000        1362350703.1476893     
  -337881500.64172053       -254479068.18620545        1345084296.3456581     
  -325018841.38874513       -411702861.59040761        1250289440.3812318     
  -342095932.43251479       -668725822.65042818        1077966135.2544239     
  -389112773.77304280       -1025547951.3663063        828114380.96522033     
  -2540521.1781951082       -762156.35345853248        657416413.83722830     
  -2984050.9534542263       -14928.550191638642        772151242.61801922     
  -3390250.8448114181        856732.19941522600        887138733.46954513     
  -3759120.8522668057        1852825.8953615048        1002378886.3918059     
  -4090660.9758201144        2973352.5376476962        1117871701.3848011     
  -450570884.23968381       -135171265.27190515        659174893.94880235     
  -450060264.99665672       -125569885.77581656        775673712.12967598     
  -448806063.18994468       -113489897.73411146        890610563.24784541     
  -446808278.81954789       -98931301.146790057        1003985447.3033106     
  -444066911.88546598       -81894096.013852209        1115798364.2960718     
  -892270470.99914384       -267681141.29974315        663816742.17178583     
  -895990357.40479934       -250781006.51092348        782903511.21248937     
  -898260408.56698740       -229048087.57721078        898613684.05704927     
  -899080624.48570716       -202482384.49860489        1010947260.7054660     
  -898451005.16095865       -171083897.27510551        1119904241.1577394     
  -1327639281.4565752       -398291784.43697256        671341958.50617921     
  -1340774328.1778829       -375648290.75551271        793840639.86645901     
  -1351753286.9759390       -345817837.32988286        911148095.89715648     
  -1360576157.8507442       -308800424.16008300        1023264326.5982713     
  -1367242940.8022988       -264596051.24611342        1130189331.9698038     
  -1756677315.6119783       -527003194.68359351        681750542.95198190     
  -1784412177.3159063       -500171738.50958389        808485098.09158528     
  -1809284698.4167998       -463799146.99212766        928213798.76816678     
  -1831294878.9146595       -417885420.13122475        1040936644.9817266     
  -1850442718.8094857       -362430557.92687505        1146653636.7322652     
  -4090660.9758201144        2973352.5376476962        1117871701.3848011     
  -5170402.5940842442        3839924.9126025047        1191135957.8599255     
  -6306920.5702639204        4517242.7611723766        1261260414.3257504     
  -7500214.9043573514        5005306.0833628653        1328245070.7822757     
  -8750285.5963660367        5304114.8791693542        1392089927.2295001     
  -444066911.88546598       -81894096.013852209        1115798364.2960718     
  -447174228.08244479       -66779155.901232347        1184204436.4606135     
  -451135671.95146054       -54511308.028735965        1250902551.0190599     
  -455951243.49251348       -45090552.396363527        1315892707.9714103     
  -461620942.70560348       -38516889.004113778        1379174907.3176651     
  -898451005.16095865       -171083897.27510551        1119904241.1577394     
  -899494917.64178312       -140493295.93635970        1182521885.8118892     
  -902190309.10876644       -115407624.55147871        1244863415.2631471     
  -906537179.56190896       -95826883.120460868        1306928829.5115137     
  -912535529.00121129       -81751071.643308431        1368718128.5569894     
  -1367242940.8022988       -264596051.24611342        1130189331.9698038     
  -1362132471.2720985       -217302495.19278079        1186088305.9137518     
  -1359470832.0421805       -178171706.80705294        1243143007.0580127     
  -1359258023.1125438       -147203686.08893132        1301353435.4025865     
  -1361494044.4831886       -124398433.03841448        1360719590.9474733     
  -1850442718.8094857       -362430557.92687505        1146653636.7322652     
  -1835086888.9733922       -297206753.67049456        1194903696.7662024     
  -1822977240.7517035       -242803554.79546094        1245741326.4036565     
  -1814113774.1444178       -199220961.30177170        1299166525.6446280     
  -1808496489.1515367       -166458973.18943065        1355179294.4891162     
  -8750285.5963660367        5304114.8791693542        1392089927.2295001     
  -11672398.722202949        6041443.5508657396        1414162734.4834888     
  -13917867.837794617        9034252.2567131240        1439382476.1243305     
  -15486692.943141816        14282540.996708456        1467749152.1520250     
  -16378874.038242254        21786309.770860028        1499262762.5665734     
  -461620942.70560348       -38516889.004113778        1379174907.3176651     
  -454240255.40689570       -29294635.152623445        1402174815.6469181     
  -446840512.19063324       -20008861.575949028        1427994961.0282447     
  -439421713.05681598       -10659568.274093211        1456635343.4616468     
  -431983858.00544441       -1246755.2470552921        1488095962.9471226     
  -912535529.00121129       -81751071.643308431        1368718128.5569894     
  -895785462.23446953       -64323918.898974448        1391877951.8533673     
  -879673927.64286411       -49025206.738427162        1417531314.8670399     
  -864200925.22639513       -35854935.161667198        1445678217.5980086     
  -849366454.98506165       -24813104.168694675        1476318660.0462735     
  -1361494044.4831886       -124398433.03841448        1360719590.9474733     
  -1336308019.2049253       -99046407.688191175        1383272143.1028366     
  -1312418114.1944880       -78014783.230724037        1407991537.6407168     
  -1289824329.4518771       -61303559.666011631        1434877774.5611136     
  -1268526664.9770951       -48912736.994059980        1463930853.8640268     
  -1808496489.1515367       -166458973.18943065        1355179294.4891162     
  -1775807926.3182619       -133462101.52027178        1376357389.3953259     
  -1745073071.8455043       -106977591.05283833        1399375629.3492737     
  -1716291925.7332637       -87005441.787127495        1424234014.3509581     
  -1689464487.9815426       -73545653.723147869        1450932544.4003811     
  -16378874.038242254        21786309.770860028        1499262762.5665734     
  -30043031.514110807        22982388.235203132        1497575727.7722702     
  -46016424.689616747        16481014.367421951        1496780175.5303614     
  -64299053.564758554        2282188.1675217859        1496876105.8408496     
  -84890918.139538288       -19614090.364506274        1497863518.7037320     
  -431983858.00544441       -1246755.2470552921        1488095962.9471226     
  -439516511.54325479        1745532.6507941484        1484946060.3805013     
  -448340334.76945746        433921.58733531833        1485206706.8830266     
  -458455327.68404967       -5181588.4374207556        1488877902.4547007     
  -469861490.28703272       -15100997.423481226        1495959647.0955226     
  -849366454.98506165       -24813104.168694675        1476318660.0462735     
  -843570271.67980647       -17865406.965838403        1472893633.3871210     
  -838047192.05169761       -11828055.353469580        1475398222.3138676     
  -832797216.10073245       -6701049.3315800130        1483832426.8265154     
  -827820343.82691252       -2484388.9001743197        1498196246.9250641     
  -1268526664.9770951       -48912736.994059980        1463930853.8640268     
  -1242204311.9237661       -35850430.614695191        1461418446.7921281     
  -1215136996.5363355       -20304916.454989552        1467354721.8228819     
  -1187324718.8148062       -2276194.5149543881        1481739678.9562917     
  -1158767478.7591755        18235735.205417216        1504573318.1923516     
  -1689464487.9815426       -73545653.723147869        1450932544.4003811     
  -1635418632.2751331       -52209538.295772076        1450520500.5955248     
  -1579609748.2233763       -24996661.717239141        1461076205.4100747     
  -1522037835.8262734        8092976.0124492049        1482599658.8440311     
  -1462702895.0838227        47059374.893295169        1515090860.8973927     
  -84890918.139538288       -19614090.364506274        1497863518.7037320     
  -72381399.292513311       -32004116.613665961        1488144049.8911302     
  -57842312.488929443       -37628916.340962991        1485850318.8558440     
  -41273657.728797026       -36488489.546431392        1490982325.5978730     
  -22675435.012104932       -28582836.230034195        1503540070.1172178     
  -469861490.28703272       -15100997.423481226        1495959647.0955226     
  -436910687.70447487       -12226996.799841300        1496108868.1038742     
  -403007405.50778466       -6178064.1290932298        1501033948.0069835     
  -368151643.69696403        3045800.5887569934        1510734886.8048482     
  -332343402.27201116        15444597.353712797        1525211684.4974704     
  -827820343.82691252       -2484388.9001743197        1498196246.9250641     
  -781999340.03041804        13382313.839787990        1506957554.6882086     
  -736302944.96221495        28833654.152110845        1517844842.4635508     
  -690731158.62230468        43869632.036793351        1530858110.2510922     
  -645283981.01068568        58490247.493835986        1545997358.0508270     
  -1158767478.7591755        18235735.205417216        1504573318.1923516     
  -1107647356.2703424        44823815.305220068        1520690109.6441300     
  -1057728930.8522235        67406238.502639711        1536283002.2255464     
  -1009012202.5048209        85983004.797673643        1551351995.9366014     
  -961497171.22813249        100554114.19032574        1565897090.7772944     
  -1462702895.0838227        47059374.893295169        1515090860.8973927     
  -1413854736.4242444        82097507.596467137        1537306532.9716425     
  -1367285363.1778100        109539688.92249388        1556348427.2929697     
  -1322994775.3445086        129385918.87140965        1572216543.8613789     
  -1280982972.9243507        141636197.44318074        1584910882.6768670     
  -22675435.012104932       -28582836.230034195        1503540070.1172178     
  -32975939.202187590       -27636804.055958085        1498639587.0823483     
  -44178540.845717140       -29697763.393370256        1491430353.9219115     
  -56283239.942689933       -34765714.242260233        1481912370.6359038     
  -69290036.493107975       -42840656.602635086        1470085637.2243242     
  -332343402.27201116        15444597.353712797        1525211684.4974704     
  -343115536.49311483        14611478.935492396        1520702051.9698882     
  -354350789.33232647        12234631.790247589        1518548950.4499309     
  -366049160.78964877        8314055.9179657549        1518752379.9375930     
  -378210650.86507565        2849751.3186693043        1521312340.4328797     
  -645283981.01068568        58490247.493835986        1545997358.0508270     
  -643198370.59654772        59876790.883194506        1542390718.0050950     
  -641136899.96518183        61182868.329981178        1545805890.1001754     
  -639099569.11658537        62408479.834201634        1556242874.3360727     
  -637086378.05075920        63553625.395855635        1573701670.7127802     
  -961497171.22813249        100554114.19032574        1565897090.7772944     
  -933224441.51248980        108159131.78714049        1563705585.1879687     
  -904536872.74427998        117146946.22584391        1573201172.8726509     
  -875434464.92350066        127517557.50644565        1594383853.8313401     
  -845917218.05015838        139270965.62892723        1627253628.0640345     
  -1280982972.9243507        141636197.44318074        1584910882.6768670     
  -1213193749.2409370        159458501.64733493        1584646653.5185087     
  -1144550707.6696193        180126865.47784007        1600734798.7673521     
  -1075053848.2103975        203641288.93468672        1633175318.4233928     
  -1004703170.8632703        230001772.01788843        1681968212.4866359     
  -69290036.493107975       -42840656.602635086        1470085637.2243242     
  -144750582.04445037       -73434360.150629252        1424502930.7944212     
  -221803076.17795593       -109334558.97249931        1391352872.9716814     
  -300447518.89362246       -150541253.06824058        1370635463.7561047     
  -380683910.19144988       -197054442.43785000        1362350703.1476893     
  -378210650.86507565        2849751.3186693043        1521312340.4328797     
  -418353866.30386186       -11051288.882491767        1491795486.0405672     
  -458061799.16378284       -23501387.154099599        1473161006.9707122     
  -497334449.44483334       -34500543.496140733        1465408903.2233160     
  -536171817.14701807       -44048757.908627227        1468539174.7983770     
  -637086378.05075920        63553625.395855635        1573701670.7127802     
  -646341615.61900461        65016442.868923038        1562615771.3792613     
  -653134339.44735241        74687639.474984407        1560861974.0834961     
  -657464549.53580785        92567215.214020133        1568440278.8254774     
  -659332245.88436460        118655170.08605042        1585350685.6052158     
  -845917218.05015838        139270965.62892723        1627253628.0640345     
  -828713829.98987532        154768835.10362780        1636963786.8105059     
  -807020697.02867007        185232520.91473877        1654455774.3100250     
  -780837819.16654062        230662023.06226182        1679729590.5625885     
  -750165196.40348899        291057341.54619384        1712785235.5681992     
  -1004703170.8632703        230001772.01788843        1681968212.4866359     
  -965470509.41647911        258205887.82160419        1714839532.3342981     
  -919720871.90773046        308133257.16517442        1753942407.6503024     
  -867454258.33703685        379783880.04856473        1799276838.4346466     
  -808670668.70438457        473157756.47181588        1850842824.6873362     
  -380683910.19144988       -197054442.43785000        1362350703.1476893     
  -337881500.64172053       -254479068.18620545        1345084296.3456581     
  -325018841.38874513       -411702861.59040761        1250289440.3812318     
  -342095932.43251479       -668725822.65042818        1077966135.2544239     
  -389112773.77304280       -1025547951.3663063        828114380.96522033     
  -536171817.14701807       -44048757.908627227        1468539174.7983770     
  -643475294.85489988       -97917823.341442734        1455107229.4457872     
  -766893847.24183023       -205503804.37108850        1402917152.2153776     
  -906427474.30781484       -366806700.99757892        1311968943.1071455     
  -1062076176.0528514       -581826513.22091341        1182262602.1210954     
  -659332245.88436460        118655170.08605042        1585350685.6052158     
  -805969275.75109279        101573365.49840748        1591881989.9227190     
  -954896704.67916691        76856897.372942150        1598425479.6469717     
  -1106114532.6685982        44505765.709617138        1604981154.7779696     
  -1259622759.7193797        4519970.5084635019        1611549015.3157079     
  -750165196.40348899        291057341.54619384        1712785235.5681992     
  -825363443.33029354        343994498.33336633        1755408577.7764459     
  -889027413.70074868        435379243.64170253        1836814422.6760085     
  -941157107.51486325        565211577.47117615        1957002770.2668836     
  -981752524.77262390        733491499.82182574        2115973620.5490754     
  -808670668.70438457        473157756.47181588        1850842824.6873362     
  -701657797.59250641        629345575.16341817        1945686993.0069752     
  -569285974.30657446        870063234.43520045        2118083981.3024943     
  -411555198.84661114        1195310734.2870862        2368033789.5738993     
  -228465471.21258783        1605088074.7191720        2695536417.8211803     
  -1756677315.6119783       -527003194.68359351        681750542.95198190     
  -1784412177.3159063       -500171738.50958389        808485098.09158528     
  -1809284698.4167998       -463799146.99212766        928213798.76816678     
  -1831294878.9146595       -417885420.13122475        1040936644.9817266     
  -1850442718.8094857       -362430557.92687505        1146653636.7322652     
  -2201704380.2911143       -660511314.08733439        698138838.88755786     
  -2237882949.2540927       -613931376.34876049        815778091.00218320     
  -2272066968.1073608       -560702938.24448860        929370696.25027680     
  -2304256436.8509202       -500825999.77451777        1038916654.6318384     
  -2334451355.4847693       -434300560.93884993        1144415966.1468687     
  -2685040282.3197455       -805512084.69592369        723603189.69127011     
  -2721207679.6946597       -736647201.73865116        831134716.53870571     
  -2756248317.4531889       -664026453.39342928        937578804.11609912     
  -2790162195.5953336       -587649839.66025758        1042935452.4234508     
  -2822949314.1210923       -507517360.53913593        1147204661.4607606     
  -3206685021.6978712       -962005506.50936139        758143595.36311901     
  -3234386368.6376076       -868319214.67925632        854554974.70115268     
  -3261828746.4542837       -773769692.43895006        952838122.36563420     
  -3289012155.1478992       -678356939.78844273        1052993038.3565637     
  -3315936594.7184544       -582080956.72773421        1155019722.6739416     
  -3766638598.4254913       -1129991579.5276473        801760055.90310431     
  -3777419016.0829368       -1008947415.1705756        886038865.48952413     
  -3788808255.1106453       -889932655.38105094        975148650.99888170     
  -3800806315.5086188       -772947300.15907371        1069089412.4311771     
  -3813413197.2768564       -657991349.50464416        1167861149.7864106     
  -1850442718.8094857       -362430557.92687505        1146653636.7322652     
  -1835086888.9733922       -297206753.67049456        1194903696.7662024     
  -1822977240.7517035       -242803554.79546094        1245741326.4036565     
  -1814113774.1444178       -199220961.30177170        1299166525.6446280     
  -1808496489.1515367       -166458973.18943065        1355179294.4891162     
  -2334451355.4847693       -434300560.93884993        1144415966.1468687     
  -2310145247.3621988       -353573951.93667006        1186277138.4630086     
  -2289250703.3232384       -284219223.21319044        1228858000.3008139     
  -2271767723.3678865       -226236374.76840669        1272158551.6602855     
  -2257696307.4961457       -179625406.60232449        1316178792.5414221     
  -2822949314.1210923       -507517360.53913593        1147204661.4607606     
  -2795029727.9459062       -412888986.86131662        1182483999.8450303     
  -2770687088.3235350       -330183768.35954833        1216615147.6691141     
  -2749921395.2539792       -259401705.03382945        1249598104.9330120     
  -2732732648.7372379       -200542796.88416135        1281432871.6367245     
  -3315936594.7184544       -582080956.72773421        1155019722.6739416     
  -3289740330.7245135       -475151858.44443333        1183524280.9122677     
  -3267286395.7525926       -380697190.23453426        1209012768.5085559     
  -3248574789.8026934       -298716952.09803832        1231485185.4628079     
  -3233605512.8748136       -229211144.03494561        1250941531.7750227     
  -3813413197.2768564       -657991349.50464416        1167861149.7864106     
  -3794277055.6980205       -540362566.68601918        1189397981.6647196     
  -3779048625.6104116       -435759488.83814991        1206050862.8191404     
  -3767727907.0140290       -344182115.96103334        1217819793.2496729     
  -3760314899.9088726       -265630448.05467129        1224704772.9563169     
  -1808496489.1515367       -166458973.18943065        1355179294.4891162     
  -1775807926.3182619       -133462101.52027178        1376357389.3953259     
  -1745073071.8455043       -106977591.05283833        1399375629.3492737     
  -1716291925.7332637       -87005441.787127495        1424234014.3509581     
  -1689464487.9815426       -73545653.723147869        1450932544.4003811     
  -2257696307.4961457       -179625406.60232449        1316178792.5414221     
  -2214232351.8821225       -134552012.03569818        1326092490.7589660     
  -2174184525.9353538       -100865716.35992575        1339667917.7068570     
  -2137552829.6558402       -78566519.575001121        1356905073.3850935     
  -2104337263.0435801       -67654421.680924416        1377803957.7936766     
  -2732732648.7372379       -200542796.88416135        1281432871.6367245     
  -2673288775.5350137       -141831521.97783828        1278376014.9744096     
  -2618723453.3067813       -99382083.651489019        1280802470.7250500     
  -2569036682.0525398       -73194481.905110002        1288712238.8886461     
  -2524228461.7722898       -63268716.738704205        1302105319.4651957     
  -3233605512.8748136       -229211144.03494561        1250941531.7750227     
  -3152977197.2769346       -155300631.34668612        1233207962.0416565     
  -3078689853.9597840       -102526692.92752218        1222779288.4038544     
  -3010743482.9233632       -70889328.777455926        1219655510.8616152     
  -2949138084.1676683       -60388538.896483064        1223836629.4149396     
  -3760314899.9088726       -265630448.05467129        1224704772.9563169     
  -3653297617.1078858       -174959340.14224160        1190588331.9607062     
  -3554083727.8943653       -110299544.18803275        1165598370.7432683     
  -3462673232.2683086       -71651060.192038894        1149734889.3040009     
  -3379066130.2297182       -59013888.154264212        1142997887.6429069     
  -1689464487.9815426       -73545653.723147869        1450932544.4003811     
  -1635418632.2751331       -52209538.295772076        1450520500.5955248     
  -1579609748.2233763       -24996661.717239141        1461076205.4100747     
  -1522037835.8262734        8092976.0124492049        1482599658.8440311     
  -1462702895.0838227        47059374.893295169        1515090860.8973927     
  -2104337263.0435801       -67654421.680924416        1377803957.7936766     
  -2025110703.5025501       -46274564.849580288        1376085832.0057650     
  -1944667270.7391181       -20838463.943564415        1382759635.6087780     
  -1863006964.7532847        8653881.0371241570        1397825368.6027155     
  -1780129785.5450478        42202470.092490673        1421283030.9875782     
  -2524228461.7722898       -63268716.738704205        1302105319.4651957     
  -2427180681.9065847       -44052963.556373000        1298443930.7174587     
  -2329462183.9414229       -22601483.375853300        1300598652.1321661     
  -2231072967.8768048        1085723.8028507233        1308569483.7093158     
  -2132013033.7127302        27008657.979746461        1322356425.4489107     
  -2949138084.1676683       -60388538.896483064        1223836629.4149396     
  -2841628567.4872351       -45544734.416150808        1217594796.7306085     
  -2733994487.8302932       -30285720.014116883        1214593254.9802389     
  -2626235845.1968369       -14611495.690377712        1214832004.1638329     
  -2518352639.5868707        1477938.5550661087        1218311044.2813890     
  -3379066130.2297182       -59013888.154264212        1142997887.6429069     
  -3268454360.2445049       -50749877.428912282        1133538430.0452118     
  -3158264182.4057245       -43891173.858344674        1124743444.1529987     
  -3048495596.7133818       -38437777.442561746        1116612929.9662650     
  -2939148603.1674690       -34389688.181551576        1109146887.4850123     
  -1462702895.0838227        47059374.893295169        1515090860.8973927     
  -1413854736.4242444        82097507.596467137        1537306532.9716425     
  -1367285363.1778100        109539688.92249388        1556348427.2929697     
  -1322994775.3445086        129385918.87140965        1572216543.8613789     
  -1280982972.9243507        141636197.44318074        1584910882.6768670     
  -1780129785.5450478        42202470.092490673        1421283030.9875782     
  -1739986140.5279593        61834235.750438452        1430581557.3099627     
  -1701782509.2651889        74999288.893993855        1439913397.1322503     
  -1665518891.7567346        81697629.523159504        1449278550.4544423     
  -1631195288.0025957        81929257.637939334        1458677017.2765355     
  -2132013033.7127302        27008657.979746461        1322356425.4489107     
  -2091410784.4729221        33982991.952034354        1319133039.6213899     
  -2052409777.3286071        35619852.272675157        1319150058.5465958     
  -2015010012.2797866        31919238.941668153        1322407482.2245269     
  -1979211489.3264611        22881151.959008574        1328905310.6551862     
  -2518352639.5868707        1477938.5550661087        1218311044.2813890     
  -2468128668.2591319       -1456223.7987389565        1202960979.9059207     
  -2419167167.3680663       -8598620.9414542913        1194058411.5360045     
  -2371468136.9136705       -19949252.873074532        1191603339.1716371     
  -2325031576.8959527       -35508119.593613625        1195595762.8128178     
  -2939148603.1674690       -34389688.181551576        1109146887.4850123     
  -2870139791.8865919       -44483411.501894116        1082065378.1635590     
  -2802054679.3835616       -57656130.748390198        1064638456.1004761     
  -2734893265.6583834       -73907845.921068788        1056866121.2957687     
  -2668655550.7110591       -93238557.019913316        1058748373.7494330     
  -1280982972.9243507        141636197.44318074        1584910882.6768670     
  -1213193749.2409370        159458501.64733493        1584646653.5185087     
  -1144550707.6696193        180126865.47784007        1600734798.7673521     
  -1075053848.2103975        203641288.93468672        1633175318.4233928     
  -1004703170.8632703        230001772.01788843        1681968212.4866359     
  -1631195288.0025957        81929257.637939334        1458677017.2765355     
  -1527472176.9821639        100624410.47267866        1457272521.4526825     
  -1423362674.7084761        120607534.15159971        1466955676.4122803     
  -1318866781.1815193        141878628.67475170        1487726482.1553288     
  -1213984496.4013059        164437694.04209018        1519584938.6818242     
  -1979211489.3264611        22881151.959008574        1328905310.6551862     
  -1854596558.4654398        37936533.175394416        1325815217.0920877     
  -1730062662.9858015        52721796.453835964        1328548050.6886878     
  -1605609802.8875487        67236941.794331253        1337103811.4449906     
  -1481237978.1706748        81481969.196888506        1351482499.3609912     
  -2325031576.8959527       -35508119.593613625        1195595762.8128178     
  -2194566893.6907673       -28605130.244501948        1190274740.4367211     
  -2064650672.5016062       -23530347.615475059        1185511921.5965738     
  -1935282913.3284779       -20283771.706552505        1181307306.2923794     
  -1806463616.1713748       -18865402.517712355        1177660894.5241337     
  -2668655550.7110591       -93238557.019913316        1058748373.7494330     
  -2547383182.6581364       -99000579.787004232        1050651091.4865859     
  -2427126703.2558899       -108148898.05634320        1037847289.1359398     
  -2307886112.5043101       -120683511.82790816        1020336966.6974957     
  -2189661410.4034033       -136604421.10171175        998120124.17125213     
  -1004703170.8632703        230001772.01788843        1681968212.4866359     
  -965470509.41647911        258205887.82160419        1714839532.3342981     
  -919720871.90773046        308133257.16517442        1753942407.6503024     
  -867454258.33703685        379783880.04856473        1799276838.4346466     
  -808670668.70438457        473157756.47181588        1850842824.6873362     
  -1213984496.4013059        164437694.04209018        1519584938.6818242     
  -1161032591.3568861        179535657.86149555        1539421815.7618105     
  -1103114541.9353034        211187436.27144414        1566604898.2910905     
  -1040230348.1365668        259393029.27190381        1601134186.2696586     
  -972380009.96066785        324152436.86290455        1643009679.6975145     
  -1481237978.1706748        81481969.196888506        1351482499.3609912     
  -1411382115.2973404        84429195.301373422        1356475630.0410440     
  -1338110939.7316434        98760797.047076702        1369929616.1513336     
  -1261424451.4735782        124476774.43400168        1391844457.6918650     
  -1181322650.5231490        161577127.46214211        1422220154.6626358     
  -1806463616.1713748       -18865402.517712355        1177660894.5241337     
  -1716519081.2378461       -27113499.858764648        1166000975.1719909     
  -1624710065.2967443       -29146660.507912159        1163916561.2310402     
  -1531036568.3480675       -24964884.465145409        1171407652.7012749     
  -1435498590.3918219       -14568171.730471969        1188474249.5827014     
  -2189661410.4034033       -136604421.10171175        998120124.17125213     
  -2076443489.1783953       -155092427.61891568        967997851.15465784     
  -1962911918.6306114       -172534936.39353842        948565733.53020322     
  -1849066698.7600427       -188931947.42553675        939823771.29788733     
  -1734907829.5666981       -204283460.71496052        941771964.45770669     
  -808670668.70438457        473157756.47181588        1850842824.6873362     
  -701657797.59250641        629345575.16341817        1945686993.0069752     
  -569285974.30657446        870063234.43520045        2118083981.3024943     
  -411555198.84661114        1195310734.2870862        2368033789.5738993     
  -228465471.21258783        1605088074.7191720        2695536417.8211803     
  -972380009.96066785        324152436.86290455        1643009679.6975145     
  -725024490.41289663        462421050.93125790        1719971355.4817717     
  -469674025.96813869        627339481.32289815        1831471295.7692780     
  -206328616.62639421        818907728.03783417        1977509500.5600326     
   65011737.612342119        1037125791.0760646        2158085969.8540306     
  -1181322650.5231490        161577127.46214211        1422220154.6626358     
  -916523212.46129584        245056917.93069983        1461041329.4216056     
  -661092836.77951741        297306500.46568120        1491386213.2111940     
  -415031523.47781330        318325875.06708461        1513254806.0313857     
  -178339272.55617332        308115041.73492384        1526647107.8822072     
  -1435498590.3918219       -14568171.730471969        1188474249.5827014     
  -1276153963.7377059       -22746823.838267326        1168896914.8264871     
  -1143542406.7407148       -120035708.13649300        1097828733.6282523     
  -1037663919.4008600       -306434824.62515318        975269705.98799336     
  -958518501.71813130       -581944173.30425310        801219831.90571880     
  -1734907829.5666981       -204283460.71496052        941771964.45770669     
  -1803916744.2421205       -340990174.37562913        843538111.69640088     
  -1917022735.8517342       -624687144.48360705        650798857.02044332     
  -2074225804.3955369       -1055374371.0388751        363554200.42982817     
  -2275525949.8735323       -1633051854.0414562       -18195858.075434975     
  -3766638598.4254913       -1129991579.5276473        801760055.90310431     
  -3777419016.0829368       -1008947415.1705756        886038865.48952413     
  -3788808255.1106453       -889932655.38105094        975148650.99888170     
  -3800806315.5086188       -772947300.15907371        1069089412.4311771     
  -3813413197.2768564       -657991349.50464416        1167861149.7864106     
  -4337837933.8339300       -1301351380.1501789        859664496.21645653     
  -4333415876.2363043       -1125841437.2754991        943195033.15263319     
  -4330126628.7275810       -954107528.03048849        1021019780.0887847     
  -4327970191.3077583       -786149652.41514647        1093138737.0249109     
  -4326946563.9768362       -621967810.42947400        1159551903.9610121     
  -4893219949.2545052       -1467965984.7763517        937068841.20840585     
  -4903700461.8959932       -1247021777.0323186        1019239785.3225963     
  -4915837773.3450184       -1031600231.9800756        1085168173.5137992     
  -4929631883.6015797       -821701349.61962378        1134854005.7820144     
  -4945082792.6656780       -617325129.95096207        1168297282.1272404     
  -5432784644.6872225       -1629835393.4061668        1033973090.8789521     
  -5488272773.0619993       -1372488434.4410331        1114173121.9994147     
  -5545941688.9629536       -1122410767.2298129        1167593831.2739263     
  -5605791392.3900776       -879602391.77250397        1194235218.7024863     
  -5667821883.3433762       -644063308.06910777        1194097284.2850962     
  -5956532020.1320782       -1786959606.0396235        1150377245.2280955     
  -6087132809.7343273       -1502241409.5016446        1227995043.1830871     
  -6220438375.5813866       -1226539133.7796993        1268296753.3691649     
  -6356448717.6732569       -959852778.87378848        1271282375.7863283     
  -6495163836.0099354       -702182344.78391075        1236951910.4345777     
  -3813413197.2768564       -657991349.50464416        1167861149.7864106     
  -3794277055.6980205       -540362566.68601918        1189397981.6647196     
  -3779048625.6104116       -435759488.83814991        1206050862.8191404     
  -3767727907.0140290       -344182115.96103334        1217819793.2496729     
  -3760314899.9088726       -265630448.05467129        1224704772.9563169     
  -4326946563.9768362       -621967810.42947400        1159551903.9610121     
  -4294926577.3761320       -466360059.08869600        1141441898.5514169     
  -4273558175.2530093       -346257589.33985233        1129362116.5312655     
  -4262841357.6074638       -261660401.18294001        1123312557.9005587     
  -4262776124.4395018       -212568494.61796379        1123293222.6592960     
  -4945082792.6656780       -617325129.95096207        1168297282.1272404     
  -4868995606.4335833       -414383403.70517445        1102672587.6123273     
  -4810303877.6654224       -269426535.67249918        1053992290.6001916     
  -4769007606.3611946       -182454525.85293651        1022256391.0908327     
  -4745106792.5208988       -153467374.24648762        1007464889.0842509     
  -5667821883.3433762       -644063308.06910777        1194097284.2850962     
  -5516484142.8703690       -384432600.53545332        1073090048.8474524     
  -5389285732.8476486       -205266327.83608866        979941385.02591848     
  -5286226653.2752151       -106564489.97102165        914651292.82049537     
  -5207306904.1530724       -88327086.940245867        877219772.23118067     
  -6495163836.0099354       -702182344.78391075        1236951910.4345777     
  -6237392186.6864920       -376507649.57953238        1052694282.2567911     
  -6010503740.7996902       -153776965.83062625        907209399.80844748     
  -5814498498.3495302       -33990293.537191391        800497263.08954513     
  -5649376459.3360119       -17147632.699229956        732557872.10008740     
  -3760314899.9088726       -265630448.05467129        1224704772.9563169     
  -3653297617.1078858       -174959340.14224160        1190588331.9607062     
  -3554083727.8943653       -110299544.18803275        1165598370.7432683     
  -3462673232.2683086       -71651060.192038894        1149734889.3040009     
  -3379066130.2297182       -59013888.154264212        1142997887.6429069     
  -4262776124.4395018       -212568494.61796379        1123293222.6592960     
  -4142795128.6602235       -150372892.42074633        1088232568.8446825     
  -4027242350.4810500       -102938015.55720568        1060588792.7079391     
  -3916117789.9019756       -70263864.027339935        1040361894.2490647     
  -3809421446.9230080       -52350437.831150293        1027551873.4680611     
  -4745106792.5208988       -153467374.24648762        1007464889.0842509     
  -4617046661.1927681       -121212650.99331021        975397727.76922441     
  -4490039571.4773741       -92468066.449268818        949037842.03176558     
  -4364085523.3747244       -67233620.614364624        928385231.87187278     
  -4239184516.8848109       -45509313.488592386        913439897.28954840     
  -5207306904.1530724       -88327086.940245867        877219772.23118067     
  -5076052214.7055187       -87478615.859935522        852083808.73433018     
  -4942475390.8833427       -78889696.864225149        830945518.71474481     
  -4806576432.6865454       -62560329.953108072        813804902.17242420     
  -4668355340.1151304       -38490515.126591682        800661959.10736704     
  -5649376459.3360119       -17147632.699229956        732557872.10008740     
  -5519811789.1984749       -49170787.020626545        718290811.74000180     
  -5384549808.6989536       -62202906.802075386        706311822.75687897     
  -5243590517.8374491       -56243992.043583155        696620905.15071821     
  -5096933916.6139593       -31294042.745138168        689218058.92151928     
  -3379066130.2297182       -59013888.154264212        1142997887.6429069     
  -3268454360.2445049       -50749877.428912282        1133538430.0452118     
  -3158264182.4057245       -43891173.858344674        1124743444.1529987     
  -3048495596.7133818       -38437777.442561746        1116612929.9662650     
  -2939148603.1674690       -34389688.181551576        1109146887.4850123     
  -3809421446.9230080       -52350437.831150293        1027551873.4680611     
  -3693757193.7690187       -40269473.872582674        1018197260.2055528     
  -3579284174.8545661       -32159290.712481499        1011183865.3904969     
  -3466002390.1796551       -28019888.350849628        1006511689.0228921     
  -3353911839.7442861       -27851266.787684679        1004180731.1027367     
  -4239184516.8848109       -45509313.488592386        913439897.28954840     
  -4113677075.5849848       -28174184.803685904        903292212.58693612     
  -3990130510.6178060       -17375310.560935974        897162493.07374585     
  -3868544821.9832716       -13112690.760338545        895050738.74997830     
  -3748920009.6813869       -15386325.401901484        896956949.61563051     
  -4668355340.1151304       -38490515.126591682        800661959.10736704     
  -4528214005.6924086       -14464010.222228765        788823287.18936169     
  -4390803189.6954393        460766.59629178047        782679327.20274699     
  -4256122892.1242237        6283815.3289694786        782230079.14752543     
  -4124173112.9787636        3005135.9757966995        787475543.02369559     
  -5096933916.6139593       -31294042.745138168        689218058.92151928     
  -4937367984.0912886        861049.87179422379        674790484.01283014     
  -4781302212.0874739        21348940.759196043        667734367.77749956     
  -4628736600.6025171        30169629.917076826        668049710.21553600     
  -4479671149.6364222        27323117.345415354        675736511.32693088     
  -2939148603.1674690       -34389688.181551576        1109146887.4850123     
  -2870139791.8865919       -44483411.501894116        1082065378.1635590     
  -2802054679.3835616       -57656130.748390198        1064638456.1004761     
  -2734893265.6583834       -73907845.921068788        1056866121.2957687     
  -2668655550.7110591       -93238557.019913316        1058748373.7494330     
  -3353911839.7442861       -27851266.787684679        1004180731.1027367     
  -3262079789.0540218       -35973074.189374447        982214503.11964440     
  -3170515545.2503610       -44987571.213083982        967694968.36571085     
  -3079219108.3333116       -54894757.858819485        960622126.84093809     
  -2988190478.3028650       -65694634.126574874        960995978.54532504     
  -3748920009.6813869       -15386325.401901484        896956949.61563051     
  -3640572988.2366290       -23428697.481415510        880871210.17735338     
  -3531837881.7872343       -30177452.878800154        870024269.93901944     
  -3422714690.3332033       -35632591.594062805        864416128.90063643     
  -3313203413.8745294       -39794113.627192497        864046787.06219637     
  -4124173112.9787636        3005135.9757966995        787475543.02369559     
  -4005619389.4344110       -6850281.3780052662        778035499.33668363     
  -3886021688.9941716       -13225775.745530605        771626360.82040286     
  -3765380011.6580563       -16121347.126789331        768248127.47485733     
  -3643694357.4260550       -15536995.521774054        767900799.30004418     
  -4479671149.6364222        27323117.345415354        675736511.32693088     
  -4357218992.6473646        13762174.120855331        673707370.59763622     
  -4233066966.8711843        5867460.1867096424        672501241.00985956     
  -4107215072.3078732        3638975.5429906845        672118122.56360638     
  -3979663308.9574385        7076720.1896967888        672558015.25887024     
  -2668655550.7110591       -93238557.019913316        1058748373.7494330     
  -2547383182.6581364       -99000579.787004232        1050651091.4865859     
  -2427126703.2558899       -108148898.05634320        1037847289.1359398     
  -2307886112.5043101       -120683511.82790816        1020336966.6974957     
  -2189661410.4034033       -136604421.10171175        998120124.17125213     
  -2988190478.3028650       -65694634.126574874        960995978.54532504     
  -2874240172.9933887       -71863182.329197645        951618732.69007432     
  -2761502395.6447158       -82073490.401156425        941409464.52817202     
  -2649977146.2568512       -96325558.342470169        930368174.05961525     
  -2539664424.8297873       -114619386.15313327        918494861.28440881     
  -3313203413.8745294       -39794113.627192497        864046787.06219637     
  -3195505177.6480823       -43048189.167211533        853160165.08605385     
  -3079216108.6925707       -50999488.943691373        845316018.58440387     
  -2964336207.0079942       -63648012.956619382        840514347.55724978     
  -2850865472.5943565       -80993761.206008434        838755152.00458789     
  -3643694357.4260550       -15536995.521774054        767900799.30004418     
  -3511178196.6222129       -12555600.301064014        755275388.67451894     
  -3380267842.3994408       -14926893.683923006        749566951.30463660     
  -3250963294.7577415       -22650875.670351505        750775487.19039226     
  -3123264553.6971040       -35727546.260329723        758900996.33179379     
  -3979663308.9574385        7076720.1896967888        672558015.25887024     
  -3821259229.9157834        19614584.269258022        657964403.45547843     
  -3664657596.7653351        26144295.378132820        654162262.68887198     
  -3509858409.5060863        26665853.516341209        661151592.95905340     
  -3356861668.1380386        21179258.683876038        678932394.26602161     
  -2189661410.4034033       -136604421.10171175        998120124.17125213     
  -2076443489.1783953       -155092427.61891568        967997851.15465784     
  -1962911918.6306114       -172534936.39353842        948565733.53020322     
  -1849066698.7600427       -188931947.42553675        939823771.29788733     
  -1734907829.5666981       -204283460.71496052        941771964.45770669     
  -2539664424.8297873       -114619386.15313327        918494861.28440881     
  -2403103626.2074580       -126354978.11142612        899846070.41380155     
  -2266198115.4306107       -136941529.55466306        886904934.17386532     
  -2128947892.4992552       -146379040.48287189        879671452.56459546     
  -1991352957.4133866       -154667510.89603806        878145625.58599782     
  -2850865472.5943565       -80993761.206008434        838755152.00458789     
  -2705197513.0360360       -90247653.543768048        831616083.25032449     
  -2559153778.4914794       -98248962.594058394        825202168.36526239     
  -2412734268.9606719       -104997688.35685813        819513407.34939826     
  -2265938984.4436202       -110493830.83217573        814549800.20273328     
  -3123264553.6971040       -35727546.260329723        758900996.33179379     
  -2982725149.6641431       -46770453.915980220        763307889.66422772     
  -2841778907.8132105       -56457235.511709094        763457436.10439277     
  -2700425828.1442962       -64787891.047504783        759349635.65228713     
  -2558665910.6574082       -71762420.523384929        750984488.30790973     
  -3356861668.1380386        21179258.683876038        678932394.26602161     
  -3235686536.0917783        4076620.7719475031        694921489.65550935     
  -3114073503.3958063       -11566348.307615280        701670737.39125717     
  -2992022570.0501304       -25749648.554824471        699180137.47326541     
  -2869533736.0547385       -38473279.969653368        687449689.90153182     
  -1734907829.5666981       -204283460.71496052        941771964.45770669     
  -1803916744.2421205       -340990174.37562913        843538111.69640088     
  -1917022735.8517342       -624687144.48360705        650798857.02044332     
  -2074225804.3955369       -1055374371.0388751        363554200.42982817     
  -2275525949.8735323       -1633051854.0414562       -18195858.075434975     
  -1991352957.4133866       -154667510.89603806        878145625.58599782     
  -2254172720.9277472       -321185972.33158332        756384673.07639384     
  -2542461755.7893538       -572602004.92462027        586923488.24569273     
  -2856220061.9982123       -908915608.67514598        369762071.09390092     
  -3195447639.5543070       -1330126783.5831594        104900421.62101254     
  -2265938984.4436202       -110493830.83217573        814549800.20273328     
  -2588840540.8153172       -266705323.24811065        690994187.79626024     
  -2918583562.9473186       -445721701.53172714        566543512.66225326     
  -3255168050.8396287       -647542965.68303061        441197774.80070770     
  -3598594004.4922342       -872169115.70201480        314956974.21162033     
  -2558665910.6574082       -71762420.523384929        750984488.30790973     
  -2807920203.9048452       -177548227.12522697        647366655.85600376     
  -3045388157.3256516       -244046234.30495596        589658930.27012002     
  -3271069770.9198208       -271256442.06254554        577861311.55025375     
  -3484965044.6873460       -259178850.39801860        611973799.69641507     
  -2869533736.0547385       -38473279.969653368        687449689.90153182     
  -2911411710.1963243       -53714683.962925434        625502077.25561988     
  -2922875538.9243336        32424396.755722761        656269741.06929028     
  -2903925222.2387590        219943962.18630552        779752681.34253764     
  -2854560760.1396079        508844012.32882559        995950898.07537317     
  -5956532020.1320782       -1786959606.0396235        1150377245.2280955     
  -6087132809.7343273       -1502241409.5016446        1227995043.1830871     
  -6220438375.5813866       -1226539133.7796993        1268296753.3691649     
  -6356448717.6732569       -959852778.87378848        1271282375.7863283     
  -6495163836.0099354       -702182344.78391075        1236951910.4345777     
  -6809584649.3351908       -2042875394.8005571        1353984613.0490746     
  -6827538588.2257729       -1395409789.4656394        1202797426.7711577     
  -6896859020.4858398       -919165828.69566274        1091866811.3949120     
  -7017545946.1153879       -614143512.49062705        1021192766.9203368     
  -7189599365.1144161       -480342840.85053134        990775293.34743297     
  -8337065106.0426731       -2501119531.8128018        1712498503.1351273     
  -8020736026.5913477       -1424415667.3918724        1275734329.3121846     
  -7804435157.6341791       -681139171.28479242        956799385.06149781     
  -7688162499.1711626       -271290043.49155998        755693670.38306701     
  -7671918051.2023001       -194868284.01217318        672417185.27689183     
  -10538973390.254528       -3161692017.0763583        2225918915.4862533     
  -9666725124.8310547       -1589259043.2803454        1446805750.8061676     
  -8943166787.0264053       -512459161.54708672        863094474.36892259     
  -8368298376.8405828        68707628.123415947        474785086.17451882     
  -7942119894.2735844        154241325.73116446        281877586.22295469     
  -13415309501.970758       -4024592850.5912271        2894245850.1024537     
  -11765505882.944889       -1889939917.1310568        1716011691.2531068     
  -10313053908.662518       -413125799.48254919        810752079.31718636     
  -9057953579.1236477        405849502.35429668        178467014.29468998     
  -8000204894.3282728        566985988.37948275       -180843503.81437838     
  -6495163836.0099354       -702182344.78391075        1236951910.4345777     
  -6237392186.6864920       -376507649.57953238        1052694282.2567911     
  -6010503740.7996902       -153776965.83062625        907209399.80844748     
  -5814498498.3495302       -33990293.537191391        800497263.08954513     
  -5649376459.3360119       -17147632.699229956        732557872.10008740     
  -7189599365.1144161       -480342840.85053134        990775293.34743297     
  -6899316912.4589891       -305082535.01485825        846393628.30626249     
  -6621782995.4235888       -172317347.91261125        722958540.72226238     
  -6356997614.0082169       -82047279.543791294        620470030.59543371     
  -6104960768.2128716       -34272329.908396721        538928097.92577374     
  -7671918051.2023001       -194868284.01217318        672417185.27689183     
  -7400056704.5642357       -185301940.35001040        589068595.82505274     
  -7122809225.7295837       -157781822.69922256        508840415.55811328     
  -6840175614.6983509       -112307931.05982494        431732644.47607130     
  -6552155871.4705276       -48880265.431807041        357745282.57892746     
  -7942119894.2735844        154241325.73116446        281877586.22295469     
  -7739611563.0022354       -17165865.584983349        280719184.81316364     
  -7513582431.7176809       -110170390.19047165        264855024.31599918     
  -7264032500.4199276       -124772248.08529234        234285104.73145899     
  -6990961769.1089811       -60971439.269456863        189009426.05954745     
  -8000204894.3282728        566985988.37948275       -180843503.81437838     
  -7917981487.7729797        199325689.28021526       -78654604.729407161     
  -7794102613.3878756       -29483050.386341572       -8997633.0040810946     
  -7628568271.1729593       -119440230.62019539        28127411.361600995     
  -7421378461.1282301       -70545851.421338558        32720528.367631454     
  -5649376459.3360119       -17147632.699229956        732557872.10008740     
  -5519811789.1984749       -49170787.020626545        718290811.74000180     
  -5384549808.6989536       -62202906.802075386        706311822.75687897     
  -5243590517.8374491       -56243992.043583155        696620905.15071821     
  -5096933916.6139593       -31294042.745138168        689218058.92151928     
  -6104960768.2128716       -34272329.908396721        538928097.92577374     
  -5959756881.5396404       -36202566.761849880        531821589.03332496     
  -5813445315.5665188       -34440539.282343388        527512655.91415620     
  -5666026070.2935114       -28986247.469871998        526001298.56826329     
  -5517499145.7206106       -19839691.324438334        527287516.99564749     
  -6552155871.4705276       -48880265.431807041        357745282.57892746     
  -6389857041.4149866       -20280866.763330460        352444755.58167255     
  -6231040163.1216516       -3287973.9688749313        350451308.75400913     
  -6075705236.5905209        2098412.9515533447        351764942.09594178     
  -5923852261.8215990       -4121706.0020394325        356385655.60746396     
  -6990961769.1089811       -60971439.269456863        189009426.05954745     
  -6810112268.8245144       -1405687.0250668526        180160311.38504058     
  -6637334351.3643494        31254789.138317585        175127781.27644473     
  -6472628016.7284880        37009989.220689297        173911835.73375624     
  -6315993264.9169245        15859913.222064495        176512474.75697514     
  -7421378461.1282301       -70545851.421338558        32720528.367631454     
  -7220522563.7682247        20422972.452948093        14968256.443429451     
  -7032327880.2946138        69187750.039243698        1542073.4814535037     
  -6856794410.7074003        75748481.337546825       -7558020.5183027927     
  -6693922155.0065880        40105166.347857475       -12332025.555831751     
  -5096933916.6139593       -31294042.745138168        689218058.92151928     
  -4937367984.0912886        861049.87179422379        674790484.01283014     
  -4781302212.0874739        21348940.759196043        667734367.77749956     
  -4628736600.6025171        30169629.917076826        668049710.21553600     
  -4479671149.6364222        27323117.345415354        675736511.32693088     
  -5517499145.7206106       -19839691.324438334        527287516.99564749     
  -5345967886.6162415       -3872837.4839704037        514213583.92395931     
  -5175597715.1619196        8223724.1896662712        506708036.95940065     
  -5006388631.3576450        16449993.696480513        504770876.10196728     
  -4838340635.2034178        20805971.036460161        508402101.35166264     
  -5923852261.8215990       -4121706.0020394325        356385655.60746396     
  -5745507312.0390596       -5888581.7090966702        347394282.71972668     
  -5565984377.0377560       -3728840.0202858448        342168223.37288058     
  -5385283456.8176908        2357519.0644061565        340707477.56692761     
  -5203404551.3788624        12370495.544967175        343012045.30186969     
  -6315993264.9169245        15859913.222064495        176512474.75697514     
  -6135986260.3597412       -5186182.8035793304        174332580.40012607     
  -5952462197.7149811       -14508751.870646000        174114927.01794040     
  -5765421076.9826498       -12107793.979133606        175859514.61041337     
  -5574862898.1627464        2016690.8709454536        179566343.17754951     
  -6693922155.0065880        40105166.347857475       -12332025.555831751     
  -6517404731.5782833       -1765640.7674252987       -4971523.0348372180     
  -6335031177.1936026       -24116011.361442804        2548147.8945870418     
  -6146801491.8525276       -26945945.434161186        10226987.232429978     
  -5952715675.5550785       -10255442.985613108        18064994.978701681     
  -4479671149.6364222        27323117.345415354        675736511.32693088     
  -4357218992.6473646        13762174.120855331        673707370.59763622     
  -4233066966.8711843        5867460.1867096424        672501241.00985956     
  -4107215072.3078732        3638975.5429906845        672118122.56360638     
  -3979663308.9574385        7076720.1896967888        672558015.25887024     
  -4838340635.2034178        20805971.036460161        508402101.35166264     
  -4710492464.8871527        12003845.454322815        506084718.04743230     
  -4582207265.2751637        4658484.1912701130        505996914.39743674     
  -4453485036.3674526       -1230112.7527127266        508138690.40167683     
  -4324325778.1640205       -5661945.3776283264        512510046.06014973     
  -5203404551.3788624        12370495.544967175        343012045.30186969     
  -5066141600.5561972        9532817.7590298653        338933106.68273020     
  -4929704459.9292154        3942439.3208088875        338490316.23054385     
  -4794093129.4979134       -4400639.7696819305        341683673.94530398     
  -4659307609.2623014       -15496419.512459517        348513179.82701337     
  -5574862898.1627464        2016690.8709454536        179566343.17754951     
  -5424166399.6544981        6349091.0349516869        172252536.50352684     
  -5275558550.8333378        3719325.5753266811        169981446.50917870     
  -5129039351.6992655       -5872605.5079264641        172753073.19449323     
  -4984608802.2522755       -22426702.214794159        180567416.55946615     
  -5952715675.5550785       -10255442.985613108        18064994.978701681     
  -5784566862.1820583        2452665.2820985317        6043007.5098299580     
  -5619769537.9875336        3989142.9548187256        470305.23334389966     
  -5458323702.9714985       -5646009.9674227238        1346888.1492326967     
  -5300229357.1339617       -26452793.484654903        8672756.2575025149     
  -3979663308.9574385        7076720.1896967888        672558015.25887024     
  -3821259229.9157834        19614584.269258022        657964403.45547843     
  -3664657596.7653351        26144295.378132820        654162262.68887198     
  -3509858409.5060863        26665853.516341209        661151592.95905340     
  -3356861668.1380386        21179258.683876038        678932394.26602161     
  -4324325778.1640205       -5661945.3776283264        512510046.06014973     
  -4141324211.4592652        5998245.2622749805        498745333.88194412     
  -3958799675.7769909        16068332.493928432        493312835.04771435     
  -3776752171.1171999        24548316.317301273        496212549.55746216     
  -3595181697.4798808        31438196.732421637        507444477.41118544     
  -4659307609.2623014       -15496419.512459517        348513179.82701337     
  -4458735005.4453316       -6821837.4774649143        337123684.62083936     
  -4257314017.7821226        4680690.7116641998        331607145.06583047     
  -4055044646.2726674        19011165.054955006        331963561.16198373     
  -3851926890.9169655        36169585.552394152        338192932.90931278     
  -4984608802.2522755       -22426702.214794159        180567416.55946615     
  -4773491611.8739853       -18845663.949998379        173099455.67216256     
  -4560200622.7807217       -8018629.9686248302        169045192.74321681     
  -4344735834.9724913        10054399.729308605        168404627.77262869     
  -4127097248.4492922        35373425.143794537        171177760.76039749     
  -5300229357.1339617       -26452793.484654903        8672756.2575025149     
  -5085594030.7452278       -30073234.155298471        6672647.0359140383     
  -4867459490.7727947       -22029629.546963215        5626978.0798781216     
  -4645825737.2166719       -2321979.6596567631        5535749.3893877985     
  -4420692770.0768633        29049715.506614447        6398960.9644453917     
  -3356861668.1380386        21179258.683876038        678932394.26602161     
  -3235686536.0917783        4076620.7719475031        694921489.65550935     
  -3114073503.3958063       -11566348.307615280        701670737.39125717     
  -2992022570.0501304       -25749648.554824471        699180137.47326541     
  -2869533736.0547385       -38473279.969653368        687449689.90153182     
  -3595181697.4798808        31438196.732421637        507444477.41118544     
  -3492168910.9589977        13121463.001761675        519282390.55141532     
  -3389759955.8403783       -7208042.0697569847        526669292.28403008     
  -3287954832.1240082       -29550318.482123494        529605182.60903060     
  -3186753539.8098993       -53905366.235347629        528090061.52641886     
  -3851926890.9169655        36169585.552394152        338192932.90931278     
  -3753394060.6468186        20743472.785403252        344664309.73965913     
  -3656506793.8308983       -167851.49568033218        351473511.40851396     
  -3561265090.4691911       -26564387.290797949        358620537.91587627     
  -3467668950.5617146       -58446134.600023270        366105389.26175404     
  -4127097248.4492922        35373425.143794537        171177760.76039749     
  -4019361985.1552405        26942650.122854233        171067247.22023150     
  -3914314017.3673739        9554223.4146280289        176083394.76470488     
  -3811953345.0856934       -16791854.980889797        186226203.39380929     
  -3712279968.3102098       -52095585.063717127        201495673.10755444     
  -4420692770.0768633        29049715.506614447        6398960.9644453917     
  -4290072684.4842591        31718995.014125824       -1508797.0068610008     
  -4163181626.4498072        21958182.661122799        498942.35260220605     
  -4040019595.9735017       -232721.55235981941        12422179.042820120     
  -3920586593.0553598       -34853717.626400709        34260913.063800268     
  -2869533736.0547385       -38473279.969653368        687449689.90153182     
  -2911411710.1963243       -53714683.962925434        625502077.25561988     
  -2922875538.9243336        32424396.755722761        656269741.06929028     
  -2903925222.2387590        219943962.18630552        779752681.34253764     
  -2854560760.1396079        508844012.32882559        995950898.07537317     
  -3186753539.8098993       -53905366.235347629        528090061.52641886     
  -3022260374.9216504       -31139695.077564597        490036058.09797013     
  -2838614044.2539549        55469862.011720061        509242944.73649299     
  -2635814547.8068056        205923305.03251946        585710721.44198143     
  -2413861885.5801926        420220633.98484945        719439388.21444213     
  -3467668950.5617146       -58446134.600023270        366105389.26175404     
  -3198102893.4796786       -28062862.342022777        338807185.47763193     
  -2920644650.2523160        28627697.067076087        333315485.36786085     
  -2635294220.8796120        111625543.62729704        349630288.93244749     
  -2342051605.3615890        220930677.33861613        387751596.17139632     
  -3712279968.3102098       -52095585.063717127        201495673.10755444     
  -3438939265.8704128       -44484185.756295204        171815459.39460057     
  -3168967356.9194078       -48102098.078177452        128487362.96339534     
  -2902364241.4571943       -62949322.029360414        71511383.813935637     
  -2639129919.4837642       -89025857.609833956        887521.94622507913     
  -3920586593.0553598       -34853717.626400709        34260913.063800268     
  -3744769492.0938382       -80403665.320361853       -10939120.151116388     
  -3583582164.2552271       -174719523.42402422       -105241422.47689827     
  -3437024609.5395360       -317801291.93743622       -248645993.91354537     
  -3305096827.9467659       -509648970.86055195       -441152834.46107054     
 </DataArray>
 <DataArray  type="Float64" Name="VM" NumberOfComponents="1" format="ascii">
   12936351571.153883     
   11342710033.035376     
   10213500017.508770     
   9277169775.2194862     
   8309246803.6377439     
   10131520065.527885     
   9324288011.0308456     
   8829667817.1367416     
   8447689464.6531868     
   8040527714.4245672     
   7983750923.1100140     
   7737183434.1091776     
   7672125757.7333107     
   7673191344.0125237     
   7670431275.8776684     
   6492950701.5832787     
   6588657265.8617096     
   6759670919.5257692     
   6963868409.0189457     
   7174571107.8932753     
   5658654078.6606836     
   5891861071.2341042     
   6117475697.4480934     
   6333032764.9259825     
   6538307212.1516142     
   8309246803.6377439     
   8026514531.1261578     
   7786082637.9887991     
   7577206820.8031054     
   7394916865.4376354     
   8040527714.4245672     
   7752053080.4485464     
   7479349996.6437540     
   7220447403.7637043     
   6975366019.5913038     
   7670431275.8776684     
   7385460700.9804783     
   7105928931.2396955     
   6831920353.9766369     
   6563649080.3543711     
   7174571107.8932753     
   6914188360.2575474     
   6661711326.6788025     
   6413284263.1153965     
   6165761036.7360725     
   6538307212.1516142     
   6330583763.6233435     
   6145014826.3205557     
   5967671531.7375269     
   5789534604.8101826     
   7394916865.4376354     
   7238520804.5315599     
   7074345996.1930237     
   6901677675.0299759     
   6720343985.7431622     
   6975366019.5913038     
   6823255524.3055677     
   6666348018.4095840     
   6504353178.7180853     
   6337229848.5938740     
   6563649080.3543711     
   6414866261.7150049     
   6264349423.8397970     
   6112065114.2759161     
   5958045109.0612364     
   6165761036.7360725     
   6018341869.1290102     
   5872213491.9856234     
   5727412601.7936544     
   5583992377.0532064     
   5789534604.8101826     
   5640138044.6624222     
   5494929097.2053499     
   5353816429.2800179     
   5216845260.3295536     
   6720343985.7431622     
   6523433912.5922308     
   6330490766.0588284     
   6141386039.1505327     
   5956112868.8822088     
   6337229848.5938740     
   6148256867.4194384     
   5961854517.7391214     
   5777999716.4649601     
   5596729746.8031673     
   5958045109.0612364     
   5780182126.0069094     
   5603907238.3510733     
   5429250559.6327629     
   5256281555.8507862     
   5583992377.0532064     
   5420967791.8289585     
   5259003369.0499039     
   5098148215.1859941     
   4938522793.3689413     
   5216845260.3295536     
   5072947639.1019602     
   4930102304.7690544     
   4788361814.4280300     
   4647949364.7323790     
   5956112868.8822088     
   5794641311.9070215     
   5630969800.1959896     
   5465064127.8404503     
   5296999656.5759430     
   5596729746.8031673     
   5447161793.4746037     
   5296592267.0670023     
   5145060024.0317659     
   4992670833.1820936     
   5256281555.8507862     
   5116202356.0171003     
   4976179094.8068638     
   4836279549.9929295     
   4696604974.8804903     
   4938522793.3689413     
   4805321792.5530338     
   4673018158.3183126     
   4541670046.8052626     
   4411350048.9116058     
   4647949364.7323790     
   4518819781.1427422     
   4391135867.5680237     
   4264915418.3813910     
   4140191991.8609724     
   5296999656.5759430     
   5075516910.8055134     
   4856065490.7134924     
   4638678228.8438797     
   4423449087.4210787     
   4992670833.1820936     
   4777530671.8712101     
   4564037642.8788509     
   4352265888.7947655     
   4142348453.3615770     
   4696604974.8804903     
   4493797220.3052130     
   4292854978.8349519     
   4093943832.7997055     
   3897339935.7274914     
   4411350048.9116058     
   4227150901.2203336     
   4045740939.0869365     
   3867455191.8435116     
   3692853292.1022425     
   4140191991.8609724     
   3981013191.9121909     
   3826343987.2531099     
   3676766319.3744264     
   3533254541.7998490     
   4423449087.4210787     
   4298078282.4240503     
   4170465228.1817970     
   4040650171.7140465     
   3909040923.2015629     
   4142348453.3615770     
   4037118041.6140170     
   3931358077.3109012     
   3825212249.3015542     
   3718968179.8867803     
   3897339935.7274914     
   3802547889.1633472     
   3707883417.3328848     
   3613416855.0415177     
   3519235558.8455501     
   3692853292.1022425     
   3598712494.5113130     
   3504028542.4545832     
   3408689324.2058644     
   3312601565.5892901     
   3533254541.7998490     
   3430246059.0802512     
   3324529030.7096701     
   3215721456.6792421     
   3103602706.0715375     
   3909040923.2015629     
   3635573183.2241383     
   3366166048.2300739     
   3101458697.6290836     
   2843097513.7245531     
   3718968179.8867803     
   3433058463.9933915     
   3149495590.1733465     
   2868683173.8941374     
   2591311418.8765988     
   3519235558.8455501     
   3244826933.8154702     
   2973845975.1089211     
   2707072677.9527106     
   2445936769.4067016     
   3312601565.5892901     
   3074325134.5512047     
   2843773915.4253283     
   2623140598.7686048     
   2416856324.8400126     
   3103602706.0715375     
   2925571462.2129889     
   2762994404.7455068     
   2620133914.6195693     
   2505448417.7082419     
   5658654078.6606836     
   5891861071.2341042     
   6117475697.4480934     
   6333032764.9259825     
   6538307212.1516142     
   5151654563.6688404     
   5311551211.9393606     
   5468102165.5013399     
   5618409108.7112837     
   5761006430.2252159     
   4643034678.2614450     
   4755030476.0914774     
   4868146683.2189159     
   4979747779.9789820     
   5087909442.9274206     
   4133054991.5277085     
   4223136737.7680259     
   4319110562.4081278     
   4419320576.4371986     
   4522313493.4416609     
   3623238900.5101924     
   3717701377.4422750     
   3823366492.7833056     
   3940173015.0250607     
   4068030390.2253208     
   6538307212.1516142     
   6330583763.6233435     
   6145014826.3205557     
   5967671531.7375269     
   5789534604.8101826     
   5761006430.2252159     
   5652790913.4428968     
   5560539830.1649027     
   5475182722.2617531     
   5391170673.5901680     
   5087909442.9274206     
   5053362763.9841690     
   5029284988.8864384     
   5010468494.6488590     
   4993705784.9909744     
   4522313493.4416609     
   4536925557.8681908     
   4556147680.3066654     
   4577504582.3076105     
   4599271492.6719780     
   4068030390.2253208     
   4108861582.4695220     
   4146949125.5994396     
   4181404187.2190080     
   4211503391.2997489     
   5789534604.8101826     
   5640138044.6624222     
   5494929097.2053499     
   5353816429.2800179     
   5216845260.3295536     
   5391170673.5901680     
   5250846345.5664234     
   5113762947.9337120     
   4979961922.5081758     
   4849537788.9740973     
   4993705784.9909744     
   4867116202.3598518     
   4743792937.1956768     
   4623703897.7956610     
   4506889627.6752615     
   4599271492.6719780     
   4491606895.6213865     
   4388325885.7882824     
   4289107267.7424955     
   4193857942.7386127     
   4211503391.2997489     
   4128284390.5760713     
   4051842999.0845222     
   3981315006.2141151     
   3916396281.6390915     
   5216845260.3295536     
   5072947639.1019602     
   4930102304.7690544     
   4788361814.4280300     
   4647949364.7323790     
   4849537788.9740973     
   4724262464.3783779     
   4600848157.7824230     
   4479436236.2111568     
   4360297908.1355810     
   4506889627.6752615     
   4398071290.8160076     
   4291781791.1719537     
   4188210740.4416614     
   4087637278.8147354     
   4193857942.7386127     
   4099263684.7742910     
   4007654811.6413488     
   3919231600.3059492     
   3834248398.7360516     
   3916396281.6390915     
   3833732306.2752495     
   3754223211.9658275     
   3678048426.7832289     
   3605415890.3854856     
   4647949364.7323790     
   4518819781.1427422     
   4391135867.5680237     
   4264915418.3813910     
   4140191991.8609724     
   4360297908.1355810     
   4236823742.5425911     
   4115463945.1511822     
   3996344710.5565286     
   3879622178.6726141     
   4087637278.8147354     
   3974657181.3675265     
   3865002997.4507494     
   3758934238.1360292     
   3656779275.6130505     
   3834248398.7360516     
   3736495202.1658907     
   3643865886.6235809     
   3556765912.2360349     
   3475727410.9436083     
   3605415890.3854856     
   3527219871.9748073     
   3456546668.3684921     
   3393925360.4926014     
   3340076833.5004673     
   4140191991.8609724     
   3981013191.9121909     
   3826343987.2531099     
   3676766319.3744264     
   3533254541.7998490     
   3879622178.6726141     
   3746183041.5220509     
   3617461222.0101590     
   3493980978.4160552     
   3376477768.4966993     
   3656779275.6130505     
   3542479324.4185243     
   3432317223.9140186     
   3326665002.8827882     
   3225980309.5278263     
   3475727410.9436083     
   3374244412.1258225     
   3275424685.5619683     
   3179431636.0338931     
   3086456656.8540449     
   3340076833.5004673     
   3245664336.0566430     
   3151530588.6460643     
   3057600734.8349886     
   2963837999.8453526     
   3533254541.7998490     
   3430246059.0802512     
   3324529030.7096701     
   3215721456.6792421     
   3103602706.0715375     
   3376477768.4966993     
   3263521206.7951121     
   3150259290.3910232     
   3036628530.5377359     
   2922568424.1475129     
   3225980309.5278263     
   3117759532.6834707     
   3013468123.2452331     
   2913580068.4933233     
   2818687499.6991339     
   3086456656.8540449     
   2996638773.2076397     
   2916746653.2083516     
   2847869838.2221661     
   2791503475.4732199     
   2963837999.8453526     
   2903911098.2394280     
   2861546659.4979234     
   2838235321.2265863     
   2836197136.1078281     
   3103602706.0715375     
   2925571462.2129889     
   2762994404.7455068     
   2620133914.6195693     
   2505448417.7082419     
   2922568424.1475129     
   2808091193.8755012     
   2706155984.9415879     
   2618828784.6998191     
   2549181138.1809659     
   2818687499.6991339     
   2736621793.3834376     
   2658778994.8082137     
   2585359184.7828364     
   2516612613.8517528     
   2791503475.4732199     
   2712904779.1414962     
   2625204723.4431691     
   2527290142.3968077     
   2418649465.0287580     
   2836197136.1078281     
   2736351178.5554624     
   2610858068.2888689     
   2457338602.7274613     
   2275571958.8746867     
   3623238900.5101924     
   3717701377.4422750     
   3823366492.7833056     
   3940173015.0250607     
   4068030390.2253208     
   3135660046.8506103     
   3252913332.7210827     
   3379524295.6582623     
   3515025607.2257452     
   3658961337.9053144     
   2692091955.0534482     
   2827521368.5355859     
   2970193015.3370085     
   3119022437.2217360     
   3273098045.5178890     
   2296063822.4068999     
   2446372993.2628136     
   2601323594.3685689     
   2758982724.4307518     
   2917915112.9733648     
   1952846815.3023944     
   2116504791.5090396     
   2281426596.4440475     
   2444628757.2755356     
   2604140322.4253120     
   4068030390.2253208     
   4108861582.4695220     
   4146949125.5994396     
   4181404187.2190080     
   4211503391.2997489     
   3658961337.9053144     
   3697424004.8240433     
   3734419934.0741348     
   3769056877.0535312     
   3800590040.2512059     
   3273098045.5178890     
   3315148862.1237597     
   3357372024.2630644     
   3398950645.9162602     
   3439209663.0334120     
   2917915112.9733648     
   2969519578.6643081     
   3023303102.7007174     
   3078591310.4139233     
   3134855331.3515038     
   2604140322.4253120     
   2670726693.6751223     
   2741812646.9594336     
   2816900411.1803689     
   2895643426.3894000     
   4211503391.2997489     
   4128284390.5760713     
   4051842999.0845222     
   3981315006.2141151     
   3916396281.6390915     
   3800590040.2512059     
   3748908914.7496386     
   3703305615.7293591     
   3663291850.1462932     
   3628752653.5728512     
   3439209663.0334120     
   3413947974.6381245     
   3393626881.4608355     
   3378001601.1920810     
   3367031851.1507378     
   3134855331.3515038     
   3131262189.3892713     
   3130817153.5475550     
   3133405015.1945148     
   3138989017.9349370     
   2895643426.3894000     
   2909475312.5708790     
   2923826759.9759073     
   2938629439.5232353     
   2953828115.6489887     
   3916396281.6390915     
   3833732306.2752495     
   3754223211.9658275     
   3678048426.7832289     
   3605415890.3854856     
   3628752653.5728512     
   3555955008.4195809     
   3487186790.2571573     
   3422660568.8664942     
   3362625555.6036801     
   3367031851.1507378     
   3305505798.3138356     
   3249107120.0147867     
   3198062774.3425255     
   3152643945.4027267     
   3138989017.9349370     
   3089750848.4369507     
   3046948099.3510160     
   3010789746.2157702     
   2981534826.7176313     
   2953828115.6489887     
   2917183321.7121353     
   2888454469.1575041     
   2867788501.5058875     
   2855387041.1295476     
   3605415890.3854856     
   3527219871.9748073     
   3456546668.3684921     
   3393925360.4926014     
   3340076833.5004673     
   3362625555.6036801     
   3304087849.3960633     
   3252647825.9006548     
   3208665430.2678661     
   3172604668.2656403     
   3152643945.4027267     
   3109004857.8492894     
   3071594912.1721478     
   3040622895.9762888     
   3016342607.0836935     
   2981534826.7176313     
   2948028939.4057355     
   2919399722.2169027     
   2895745655.8184919     
   2877179090.0856719     
   2855387041.1295476     
   2827513063.3613811     
   2802665969.9526525     
   2780886856.7028413     
   2762224366.7926960     
   3340076833.5004673     
   3245664336.0566430     
   3151530588.6460643     
   3057600734.8349886     
   2963837999.8453526     
   3172604668.2656403     
   3078653588.1466446     
   2988520925.6892371     
   2902487433.2790942     
   2820865645.9609237     
   3016342607.0836935     
   2930386899.0397854     
   2852516892.5998368     
   2783300784.2302871     
   2723373368.6885433     
   2877179090.0856719     
   2805264134.2486153     
   2746295401.2019906     
   2700962677.4181252     
   2670075867.7253652     
   2762224366.7926960     
   2708034301.1472597     
   2672154705.7137547     
   2655167094.5184393     
   2657848402.4409285     
   2963837999.8453526     
   2903911098.2394280     
   2861546659.4979234     
   2838235321.2265863     
   2836197136.1078281     
   2820865645.9609237     
   2794840938.8338561     
   2779444761.2810121     
   2775145882.3050036     
   2782557825.5750833     
   2723373368.6885433     
   2713216899.5716372     
   2704851438.6707964     
   2698248761.8574066     
   2693388612.7368302     
   2670075867.7253652     
   2660785916.6659989     
   2642664386.8932920     
   2615517357.3785481     
   2579358311.1271982     
   2657848402.4409285     
   2638514333.8841581     
   2598590835.0952244     
   2537839184.7208257     
   2456712863.9439783     
   2836197136.1078281     
   2736351178.5554624     
   2610858068.2888689     
   2457338602.7274613     
   2275571958.8746867     
   2782557825.5750833     
   2649410975.3414545     
   2522217646.1531153     
   2401901942.2912688     
   2289541650.5272698     
   2693388612.7368302     
   2578773876.5282822     
   2501677539.0740347     
   2467019089.9288821     
   2480661333.1726913     
   2579358311.1271982     
   2524785453.0594010     
   2538856060.0684180     
   2628999411.7663989     
   2806040998.6334591     
   2456712863.9439783     
   2487511608.8194842     
   2625007904.8006883     
   2876475874.9087715     
   3255591804.7726941     
   1952846815.3023944     
   2116504791.5090396     
   2281426596.4440475     
   2444628757.2755356     
   2604140322.4253120     
   1651940509.6463647     
   1818059357.1447904     
   1985840700.6425037     
   2152567370.5457821     
   2316468437.1437182     
   1392694293.2213080     
   1569944012.6723795     
   1748220696.6346486     
   1925504805.6661088     
   2100535626.6798961     
   1207458967.6282086     
   1399551534.7989931     
   1591295049.1175439     
   1781904970.6326191     
   1970917499.3050652     
   1138680869.4290128     
   1337408495.8101072     
   1536574283.7864239     
   1736178223.7437694     
   1936220328.2634380     
   2604140322.4253120     
   2670726693.6751223     
   2741812646.9594336     
   2816900411.1803689     
   2895643426.3894000     
   2316468437.1437182     
   2402471760.8114238     
   2490914170.3077102     
   2581414850.1891470     
   2673703189.5724068     
   2100535626.6798961     
   2203619017.6142726     
   2306608790.0453410     
   2409274284.0378017     
   2511451449.6904631     
   1970917499.3050652     
   2087837549.5127392     
   2201896645.1783867     
   2313022028.8686509     
   2421162526.1953430     
   1936220328.2634380     
   2063122861.6746738     
   2184587414.3315997     
   2300613777.0943050     
   2411201818.6236925     
   2895643426.3894000     
   2909475312.5708790     
   2923826759.9759073     
   2938629439.5232353     
   2953828115.6489887     
   2673703189.5724068     
   2694034981.0294023     
   2716039121.9969335     
   2739685524.0689220     
   2764955230.0596199     
   2511451449.6904631     
   2539065036.5275645     
   2569583733.5496502     
   2603001794.1478686     
   2639322144.1513333     
   2421162526.1953430     
   2455328743.2830181     
   2493670117.5874348     
   2536189548.7053690     
   2582896217.4799447     
   2411201818.6236925     
   2449451363.2394390     
   2493164013.8605680     
   2542346895.8604894     
   2597011020.3247013     
   2953828115.6489887     
   2917183321.7121353     
   2888454469.1575041     
   2867788501.5058875     
   2855387041.1295476     
   2764955230.0596199     
   2742735957.2362328     
   2727504130.8945165     
   2719352211.6575460     
   2718385344.3446760     
   2639322144.1513333     
   2627428985.2686129     
   2621115528.9271202     
   2620430122.6065187     
   2625422117.1569328     
   2582896217.4799447     
   2577307555.8966594     
   2575447633.1475925     
   2577342380.8552723     
   2583034649.5043440     
   2597011020.3247013     
   2594286109.0796261     
   2593106286.6983180     
   2593491960.2580576     
   2595517575.4316254     
   2855387041.1295476     
   2827513063.3613811     
   2802665969.9526525     
   2780886856.7028413     
   2762224366.7926960     
   2718385344.3446760     
   2693470419.9934630     
   2673724000.3677320     
   2659191107.3378291     
   2649921272.5127149     
   2625422117.1569328     
   2604339090.9927044     
   2590843213.1699939     
   2584949267.9258957     
   2586682057.4251108     
   2583034649.5043440     
   2565092368.8895836     
   2557358541.6237288     
   2559799838.0448599     
   2572405942.2224565     
   2595517575.4316254     
   2578306608.4892364     
   2574070440.9657264     
   2582753142.8688335     
   2604338928.2078495     
   2762224366.7926960     
   2708034301.1472597     
   2672154705.7137547     
   2655167094.5184393     
   2657848402.4409285     
   2649921272.5127149     
   2617390407.2007208     
   2598419355.6420360     
   2593217094.7522874     
   2602064392.7316809     
   2586682057.4251108     
   2567404698.7026081     
   2556325176.6759410     
   2553492693.5306520     
   2558971454.4890885     
   2572405942.2224565     
   2560205996.8122191     
   2550304236.4021559     
   2542703574.2208400     
   2537406893.3620596     
   2604338928.2078495     
   2595900940.2990432     
   2583527665.5316930     
   2567218836.3440928     
   2546983184.6079626     
   2657848402.4409285     
   2638514333.8841581     
   2598590835.0952244     
   2537839184.7208257     
   2456712863.9439783     
   2602064392.7316809     
   2556807030.1423035     
   2501661556.2027688     
   2436701243.4758735     
   2362429208.4539061     
   2558971454.4890885     
   2498403122.6590905     
   2439418758.2997828     
   2382435395.9245453     
   2328092707.0805459     
   2537406893.3620596     
   2468173156.3344493     
   2411853980.3598542     
   2368886412.9511876     
   2339725702.6099625     
   2546983184.6079626     
   2470494175.1408281     
   2417537664.7023950     
   2388226613.6250420     
   2382589673.4847817     
   2456712863.9439783     
   2487511608.8194842     
   2625007904.8006883     
   2876475874.9087715     
   3255591804.7726941     
   2362429208.4539061     
   2453243779.7914472     
   2612144794.9699073     
   2834902669.6400552     
   3119191252.0481315     
   2328092707.0805459     
   2406768857.3856049     
   2507519426.0124936     
   2627769336.1526566     
   2764991786.7842908     
   2339725702.6099625     
   2364817568.3324041     
   2345503156.7741485     
   2290435140.9361796     
   2216598345.9200578     
   2382589673.4847817     
   2349615932.0210700     
   2197952765.7834935     
   1954862766.3575623     
   1691574363.4720302     
   1138680869.4290128     
   1337408495.8101072     
   1536574283.7864239     
   1736178223.7437694     
   1936220328.2634380     
   1209923873.0596333     
   1402432581.3891530     
   1594657772.4188387     
   1785828113.5574033     
   1975488186.7964344     
   1396751162.6492910     
   1574740040.0515277     
   1753884152.0513444     
   1932185340.0849376     
   2108395109.3656945     
   1656675787.3734066     
   1823643807.6801803     
   1992470598.3103578     
   2160460213.6796632     
   2325850602.3761277     
   1957606806.6602838     
   2121963832.6606100     
   2287841479.9883027     
   2452273440.0215926     
   2613289280.9289927     
   1936220328.2634380     
   2063122861.6746738     
   2184587414.3315997     
   2300613777.0943050     
   2411201818.6236925     
   1975488186.7964344     
   2093223057.9732487     
   2208206162.9457469     
   2320363432.2234712     
   2429643496.0287628     
   2108395109.3656945     
   2213036488.3302946     
   2317800983.9433284     
   2422459641.2182841     
   2526850117.8972902     
   2325850602.3761277     
   2413927684.7487311     
   2504775532.8117433     
   2598023440.7618823     
   2693408007.1807795     
   2613289280.9289927     
   2682137218.9302578     
   2755936971.1740680     
   2834217576.5161843     
   2916652264.6801615     
   2411201818.6236925     
   2449451363.2394390     
   2493164013.8605680     
   2542346895.8604894     
   2597011020.3247013     
   2429643496.0287628     
   2468231801.0329728     
   2511699594.7142205     
   2560054802.9319644     
   2613304768.8038368     
   2526850117.8972902     
   2561429567.2604523     
   2600247791.9597030     
   2643312216.5020585     
   2690634498.5281653     
   2693408007.1807795     
   2720937020.5598474     
   2751992025.4944425     
   2786567205.0612459     
   2824674473.1294899     
   2916652264.6801615     
   2935537745.6274571     
   2957160288.8042088     
   2981480968.7312112     
   3008498328.7883253     
   2597011020.3247013     
   2594286109.0796261     
   2593106286.6983180     
   2593491960.2580576     
   2595517575.4316254     
   2613304768.8038368     
   2609432775.1340065     
   2611268020.5466914     
   2618798357.0273886     
   2632031208.0669179     
   2690634498.5281653     
   2684232891.4677091     
   2687554701.5165172     
   2700609469.1170321     
   2723419183.5024986     
   2824674473.1294899     
   2811948590.6247125     
   2812772047.9546995     
   2827313214.9689703     
   2855771033.9284396     
   3008498328.7883253     
   2983951181.7243276     
   2976665559.5320477     
   2987187260.7615614     
   3016131492.2054725     
   2595517575.4316254     
   2578306608.4892364     
   2574070440.9657264     
   2582753142.8688335     
   2604338928.2078495     
   2632031208.0669179     
   2626922834.5267258     
   2630450925.4086204     
   2642655089.2575631     
   2663575722.6396327     
   2723419183.5024986     
   2726706847.0259333     
   2734184084.5520296     
   2745890722.7048383     
   2761861480.6420727     
   2855771033.9284396     
   2866362860.7523508     
   2876652222.5525355     
   2886578536.7552323     
   2896095912.2971106     
   3016131492.2054725     
   3035083737.7869143     
   3049246054.7768507     
   3058402747.9446435     
   3062391102.5055952     
   2604338928.2078495     
   2595900940.2990432     
   2583527665.5316930     
   2567218836.3440928     
   2546983184.6079626     
   2663575722.6396327     
   2657171312.6424189     
   2654811154.1662073     
   2656488441.4449186     
   2662198891.0056095     
   2761861480.6420727     
   2755487145.5555663     
   2760900942.0859880     
   2778111581.9809837     
   2807136995.3436222     
   2896095912.2971106     
   2884279541.3804674     
   2891843682.5904617     
   2918982547.8489146     
   2965914219.8660436     
   3062391102.5055952     
   3037109677.6259155     
   3039023203.1692581     
   3068863106.1936889     
   3127373337.1267152     
   2546983184.6079626     
   2470494175.1408281     
   2417537664.7023950     
   2388226613.6250420     
   2382589673.4847817     
   2662198891.0056095     
   2616654363.0213675     
   2590408828.1091008     
   2583339562.3183970     
   2595308215.1755280     
   2807136995.3436222     
   2790933822.4937592     
   2791023840.3404107     
   2807437035.8759065     
   2840253796.5253177     
   2965914219.8660436     
   2979585608.1718135     
   3007781856.7544775     
   3050819036.2607703     
   3109132206.1452994     
   3127373337.1267152     
   3173344863.0865288     
   3233136415.6806126     
   3307317531.4489875     
   3396662008.1118994     
   2382589673.4847817     
   2349615932.0210700     
   2197952765.7834935     
   1954862766.3575623     
   1691574363.4720302     
   2595308215.1755280     
   2590878577.3413863     
   2525329283.7433505     
   2405714399.8333206     
   2245399384.9781938     
   2840253796.5253177     
   2888604064.8349009     
   2942111000.5008597     
   3000431988.6273537     
   3063271791.8848252     
   3109132206.1452994     
   3213698078.0549593     
   3389491197.9692512     
   3636863105.7845240     
   3956512102.9305997     
   3396662008.1118994     
   3561892526.7845278     
   3877531509.1089172     
   4348888808.1697130     
   4979253070.6795006     
   1957606806.6602838     
   2121963832.6606100     
   2287841479.9883027     
   2452273440.0215926     
   2613289280.9289927     
   2300373933.9208169     
   2451042013.4224935     
   2606513215.1517487     
   2764857378.0415053     
   2924635068.8420248     
   2695600743.6861086     
   2831149071.3788638     
   2974016840.0906992     
   3123114169.9719386     
   3277522924.7617402     
   3138117255.2968311     
   3255387261.5995679     
   3382017673.5936694     
   3517531505.2546172     
   3661464443.9313130     
   3624449608.3312788     
   3718984642.4562173     
   3824657972.7529488     
   3941396923.9535847     
   4069100506.1112132     
   2613289280.9289927     
   2682137218.9302578     
   2755936971.1740680     
   2834217576.5161843     
   2916652264.6801615     
   2924635068.8420248     
   2977706964.5048442     
   3033327586.5921597     
   3090844081.1275191     
   3149745724.3669066     
   3277522924.7617402     
   3320156130.7598758     
   3363234991.9589133     
   3405951981.1014194     
   3447640629.1659164     
   3661464443.9313130     
   3699624801.3497229     
   3736492956.6664615     
   3771171291.3341751     
   3802910476.2325621     
   4069100506.1112132     
   4108801220.1494265     
   4145843050.6436567     
   4179318783.4060030     
   4208488908.4357705     
   2916652264.6801615     
   2935537745.6274571     
   2957160288.8042088     
   2981480968.7312112     
   3008498328.7883253     
   3149745724.3669066     
   3146198279.8523631     
   3146757371.4929919     
   3151339214.6623445     
   3159980372.5956354     
   3447640629.1659164     
   3419088789.3257756     
   3395393944.3309717     
   3376330152.8373942     
   3361913495.4882607     
   3802910476.2325621     
   3746749227.8260345     
   3695776320.9926362     
   3649500065.4609952     
   3607810466.4331384     
   4208488908.4357705     
   4121955535.6698933     
   4040732854.9134293     
   3963938259.7048769     
   3891206912.2900586     
   3008498328.7883253     
   2983951181.7243276     
   2976665559.5320477     
   2987187260.7615614     
   3016131492.2054725     
   3159980372.5956354     
   3112931131.8043642     
   3078589577.4309850     
   3057570827.3641858     
   3050558201.1201644     
   3361913495.4882607     
   3293036918.6732273     
   3232479876.8782649     
   3180750285.2156920     
   3138418614.8665376     
   3607810466.4331384     
   3520670005.4184847     
   3437812155.6994805     
   3359524575.2473950     
   3286132920.9165988     
   3891206912.2900586     
   3791335373.4619746     
   3692300448.7967200     
   3594175674.1620245     
   3497044639.7244358     
   3016131492.2054725     
   3035083737.7869143     
   3049246054.7768507     
   3058402747.9446435     
   3062391102.5055952     
   3050558201.1201644     
   3046088759.6231203     
   3041278161.2252216     
   3036103024.8120432     
   3030572390.1698575     
   3138418614.8665376     
   3109109557.0389762     
   3083379936.3542423     
   3061353690.8669095     
   3043198363.4830322     
   3286132920.9165988     
   3229460086.9950256     
   3179460439.9122782     
   3136352281.4438825     
   3100455264.1502337     
   3497044639.7244358     
   3409487356.9643784     
   3330712258.8619885     
   3260961739.9122772     
   3200693462.4977489     
   3062391102.5055952     
   3037109677.6259155     
   3039023203.1692581     
   3068863106.1936889     
   3127373337.1267152     
   3030572390.1698575     
   2977906498.8852539     
   2944155670.6672363     
   2930298346.4514766     
   2937318178.4617105     
   3043198363.4830322     
   2963896507.7592092     
   2895207796.7246666     
   2837956966.9171815     
   2793011687.1984282     
   3100455264.1502337     
   3000737926.8607683     
   2903630430.5876389     
   2809437204.3015180     
   2718500061.4648857     
   3200693462.4977489     
   3091661839.5598674     
   2978511394.3224750     
   2861056027.7963510     
   2739140700.5709562     
   3127373337.1267152     
   3173344863.0865288     
   3233136415.6806126     
   3307317531.4489875     
   3396662008.1118994     
   2937318178.4617105     
   2949260087.0819635     
   2976101221.3871388     
   3018291647.4865537     
   3076400406.0947561     
   2793011687.1984282     
   2763759762.5957794     
   2750012535.3593946     
   2752343936.4082403     
   2771395965.6139507     
   2718500061.4648857     
   2641837784.6808844     
   2580171067.1817851     
   2534376004.9479623     
   2505467814.6853719     
   2739140700.5709562     
   2612410779.8786192     
   2498689951.5615091     
   2399000068.4023910     
   2314741288.5857739     
   3396662008.1118994     
   3561892526.7845278     
   3877531509.1089172     
   4348888808.1697130     
   4979253070.6795006     
   3076400406.0947561     
   3154308912.8815346     
   3312348848.9314780     
   3551587945.9989905     
   3870973552.2972169     
   2771395965.6139507     
   2743828227.9504914     
   2719316201.3115473     
   2697316838.0893445     
   2678365726.2407465     
   2505467814.6853719     
   2387261590.2383170     
   2191007911.8534422     
   1925129956.2527390     
   1620330873.3146567     
   2314741288.5857739     
   2211321250.2150302     
   2034278298.6561904     
   1903590808.6849926     
   2032195389.9487534     
   3624449608.3312788     
   3718984642.4562173     
   3824657972.7529488     
   3941396923.9535847     
   4069100506.1112132     
   4133082519.2500200     
   4223283503.5763893     
   4319300354.9259596     
   4419477558.0869865     
   4522363419.5427284     
   4642169665.3826618     
   4754247520.7247496     
   4867365874.8372030     
   4978901413.6878710     
   5086940719.4368048     
   5150171721.8428011     
   5310029836.5904312     
   5466468379.6887312     
   5616611367.9736376     
   5759009576.9485817     
   5656811791.7634621     
   5889778230.2980909     
   6115093678.5958843     
   6330322213.6830530     
   6535256231.8546982     
   4069100506.1112132     
   4108801220.1494265     
   4145843050.6436567     
   4179318783.4060030     
   4208488908.4357705     
   4522363419.5427284     
   4535369072.1554642     
   4553001011.9204330     
   4572784614.8792486     
   4593003019.8713150     
   5086940719.4368048     
   5050629797.8698988     
   5024767635.4484310     
   5004160326.0992374     
   4985612112.4322691     
   5759009576.9485817     
   5649180129.6156874     
   5555281400.4186153     
   5468270762.8204718     
   5382605707.7460079     
   6535256231.8546982     
   6326364610.4775648     
   6139593816.3950024     
   5961065275.7099371     
   5781764271.9182291     
   4208488908.4357705     
   4121955535.6698933     
   4040732854.9134293     
   3963938259.7048769     
   3891206912.2900586     
   4593003019.8713150     
   4484991613.1811810     
   4380555513.9139128     
   4279347216.5841575     
   4181219440.0666742     
   4985612112.4322691     
   4860696461.9117308     
   4738759214.8277903     
   4619745335.0737753     
   4503659781.3973732     
   5382605707.7460079     
   5244812010.3771095     
   5110360804.6428041     
   4979279571.0792799     
   4851650690.0008888     
   5781764271.9182291     
   5634461068.7518644     
   5491715612.3520603     
   5353440622.4884729     
   5219700719.1807489     
   3891206912.2900586     
   3791335373.4619746     
   3692300448.7967200     
   3594175674.1620245     
   3497044639.7244358     
   4181219440.0666742     
   4075155844.9107795     
   3970476119.1700835     
   3867303714.9022589     
   3765796921.0462699     
   4503659781.3973732     
   4388056954.1305151     
   4273969496.0673790     
   4161541952.8367157     
   4050993851.2932277     
   4851650690.0008888     
   4722939941.4464836     
   4595534439.6574631     
   4469565743.9666214     
   4345291680.6852903     
   5219700719.1807489     
   5074237012.9655027     
   4929603423.8055534     
   4785878314.4275274     
   4643324050.7569180     
   3497044639.7244358     
   3409487356.9643784     
   3330712258.8619885     
   3260961739.9122772     
   3200693462.4977489     
   3765796921.0462699     
   3663242766.2350988     
   3566631403.1260152     
   3476198408.5993118     
   3392319243.7831035     
   4050993851.2932277     
   3936601195.2065187     
   3826099099.7993197     
   3719668139.7691202     
   3617566169.5074768     
   4345291680.6852903     
   4222986113.4203711     
   4103189681.1157899     
   3986007913.6776519     
   3871582727.8196201     
   4643324050.7569180     
   4517428075.5066481     
   4393233602.0840330     
   4270761437.9135232     
   4150052523.5211492     
   3200693462.4977489     
   3091661839.5598674     
   2978511394.3224750     
   2861056027.7963510     
   2739140700.5709562     
   3392319243.7831035     
   3282773748.0115509     
   3172497555.2907958     
   3061560350.3074512     
   2950057058.3696837     
   3617566169.5074768     
   3501312979.0784297     
   3386858700.6014876     
   3274455559.9014039     
   3164430790.8231926     
   3871582727.8196201     
   3741091787.1289754     
   3614073663.2327414     
   3490935367.0800352     
   3372278683.2966905     
   4150052523.5211492     
   3997012723.7670956     
   3848375438.3062634     
   3704696314.0522351     
   3566919153.7795968     
   2739140700.5709562     
   2612410779.8786192     
   2498689951.5615091     
   2399000068.4023910     
   2314741288.5857739     
   2950057058.3696837     
   2813609312.6113873     
   2684002856.0869498     
   2561967641.5011468     
   2448434245.3688021     
   3164430790.8231926     
   3026029812.3687420     
   2889699391.4223609     
   2755682550.8017955     
   2624269464.0758877     
   3372278683.2966905     
   3241488884.4345989     
   3109189214.1669879     
   2975126524.5860209     
   2839055852.4512181     
   3566919153.7795968     
   3454218041.1754799     
   3337453307.1344662     
   3215956649.0166802     
   3089185152.9578843     
   2314741288.5857739     
   2211321250.2150302     
   2034278298.6561904     
   1903590808.6849926     
   2032195389.9487534     
   2448434245.3688021     
   2485316830.5907254     
   2523807377.7627130     
   2607341480.8482738     
   2786177431.8945484     
   2624269464.0758877     
   2741384399.2856054     
   2894621991.3146253     
   3080833683.8658767     
   3296902927.2480779     
   2839055852.4512181     
   2945275666.5009279     
   3103840370.1877823     
   3299689355.3708296     
   3525969597.1139021     
   3089185152.9578843     
   3081651570.1155529     
   3151364014.6479945     
   3308156676.2037148     
   3582697320.0326319     
   5656811791.7634621     
   5889778230.2980909     
   6115093678.5958843     
   6330322213.6830530     
   6535256231.8546982     
   6490953169.0904627     
   6586000487.3842688     
   6756381608.0512905     
   6960017747.4626036     
   7170251232.5382862     
   7981742321.6871433     
   7734261346.6599045     
   7668353629.9860544     
   7668698568.3986950     
   7665358526.5090399     
   10129630474.511297     
   9321380223.1130257     
   8825793733.9725380     
   8443006989.7553711     
   8035199239.8466892     
   12934708928.271355     
   11340061319.592163     
   10209854162.053732     
   9272699404.0640373     
   8304147678.1255150     
   6535256231.8546982     
   6326364610.4775648     
   6139593816.3950024     
   5961065275.7099371     
   5781764271.9182291     
   7170251232.5382862     
   6909264406.5994596     
   6656174755.6279049     
   6407146419.1863337     
   6159043743.0409040     
   7665358526.5090399     
   7380036355.3013496     
   7100155790.7453251     
   6825803159.2508707     
   6557195268.3955336     
   8035199239.8466892     
   7746317477.5821838     
   7473200700.9431353     
   7213879341.0137033     
   6968370588.7407942     
   8304147678.1255150     
   8020659469.7329216     
   7779418599.7677221     
   7569711707.6435814     
   7386575621.8372583     
   5781764271.9182291     
   5634461068.7518644     
   5491715612.3520603     
   5353440622.4884729     
   5219700719.1807489     
   6159043743.0409040     
   6012716260.0771961     
   5867872118.7940569     
   5724551239.7244148     
   5582814821.6812515     
   6557195268.3955336     
   6408880120.6759024     
   6258900317.6895819     
   6107222248.0676079     
   5953877596.7847013     
   6968370588.7407942     
   6816555685.7469978     
   6659928067.0711536     
   6498197523.5594511     
   6331323994.6831484     
   7386575621.8372583     
   7230802159.5953274     
   7067176270.4967337     
   6894993151.3824234     
   6714098550.0486145     
   5219700719.1807489     
   5074237012.9655027     
   4929603423.8055534     
   4785878314.4275274     
   4643324050.7569180     
   5582814821.6812515     
   5417742187.3376989     
   5253541770.1882544     
   5090278352.3094196     
   4928088620.9349270     
   5953877596.7847013     
   5774002461.1893568     
   5595594571.0565338     
   5418692105.3329067     
   5243368424.6825819     
   6331323994.6831484     
   6140823029.7864809     
   5952865019.9288111     
   5767425766.2864456     
   5584538959.5089731     
   6714098550.0486145     
   6516527779.8317022     
   6323009203.9588022     
   6133398491.8987026     
   5947676889.6789026     
   4643324050.7569180     
   4517428075.5066481     
   4393233602.0840330     
   4270761437.9135232     
   4150052523.5211492     
   4928088620.9349270     
   4797269286.0782824     
   4667557165.7625189     
   4539016080.5661764     
   4411727670.5284090     
   5243368424.6825819     
   5104782380.1350136     
   4966403502.3668938     
   4828301401.3384190     
   4690583040.6182957     
   5584538959.5089731     
   5435537947.3750010     
   5285625266.0369129     
   5134830981.3393412     
   4983257298.8926249     
   5947676889.6789026     
   5785803052.1921425     
   5621765229.9767313     
   5455503387.9688597     
   5287073932.3377695     
   4150052523.5211492     
   3997012723.7670956     
   3848375438.3062634     
   3704696314.0522351     
   3566919153.7795968     
   4411727670.5284090     
   4233400950.2884207     
   4057836496.6293092     
   3885338231.3302002     
   3716429135.6848998     
   4690583040.6182957     
   4493429064.4100428     
   4298204464.7765999     
   4105050431.9137068     
   3914217034.1870761     
   4983257298.8926249     
   4773521548.4542961     
   4565594844.9931755     
   4359540644.7717409     
   4155487699.4499860     
   5287073932.3377695     
   5070637470.5271587     
   4856491929.1730003     
   4644675079.3649874     
   4435302826.2789478     
   3566919153.7795968     
   3454218041.1754799     
   3337453307.1344662     
   3215956649.0166802     
   3089185152.9578843     
   3716429135.6848998     
   3612506172.1789885     
   3506883604.0031681     
   3399383037.4503169     
   3289856856.2452044     
   3914217034.1870761     
   3810857666.3182898     
   3706754523.7089577     
   3602018594.7331629     
   3496794463.9692674     
   4155487699.4499860     
   4043770634.8165174     
   3930948972.7184572     
   3817237364.9316764     
   3702991309.0735364     
   4435302826.2789478     
   4306020594.0400820     
   4174204123.6660275     
   4039960534.7049851     
   3903727504.2868333     
   3089185152.9578843     
   3081651570.1155529     
   3151364014.6479945     
   3308156676.2037148     
   3582697320.0326319     
   3289856856.2452044     
   3124311316.5335498     
   2999374811.0995359     
   2926067246.1102023     
   2927532793.2812090     
   3496794463.9692674     
   3237788233.8201799     
   2991303008.1776862     
   2760095298.9764848     
   2550000202.9217606     
   3702991309.0735364     
   3429849174.5674577     
   3153055811.3955231     
   2874077344.1221642     
   2595762680.5810556     
   3903727504.2868333     
   3705270448.7551942     
   3504239367.2463465     
   3317728056.5581083     
   3175344924.3672032     
 </DataArray>
 <DataArray  type="Float64" Name="strain" NumberOfComponents="3" format="ascii">
  0.20350481165930429        0.0000000000000000       0.12538634858516343     
  0.18669259617269177       -2.7343361411063662E-002   7.4337315465481141E-002
  0.16988038068607922       -4.4704315224548236E-002   3.5116392924010649E-002
  0.15306816519946667       -5.2082861440453737E-002   7.7235809607519822E-003
  0.13625594971285415       -4.9479000058780157E-002  -7.8411204242949811E-003
  0.15988936310455606        0.0000000000000000        9.6408730162001466E-002
  0.15322422112245956       -2.1859976513927789E-002   6.2656307228748959E-002
  0.14655907914036304       -3.6198562782769741E-002   3.7369920726316681E-002
  0.13989393715826653       -4.3015758806525847E-002   2.0549570654704623E-002
  0.13322879517617001       -4.2311564585196151E-002   1.2195257013912844E-002
  0.12649966288860093        0.0000000000000000        7.4145005312222012E-002
  0.12661952026362888       -1.6376591616791919E-002   5.5228175212906003E-002
  0.12673937763865684       -2.7692810340991240E-002   4.1415307397018708E-002
  0.12685923501368482       -3.3948656172597985E-002   3.2706401864560093E-002
  0.12697909238871272       -3.5144129111612125E-002   2.9101458615530190E-002
  0.10333571101143886        0.0000000000000000        5.8595174035825051E-002
  0.10687849359619975       -1.0893206719656046E-002   5.2052919417952308E-002
  0.11042127618096063       -1.9187057899212746E-002   4.7252552936116729E-002
  0.11396405876572152       -2.4881553538670109E-002   4.4194074590318301E-002
  0.11750684135048241       -2.7976693638028124E-002   4.2877484380557024E-002
   9.0397507473069877E-002   0.0000000000000000        4.9759236332810583E-002
   9.4001141120172133E-002  -5.4098218225201748E-003   5.3130539843887867E-002
   9.7604774767274402E-002  -1.0681305457434256E-002   5.4881657343610751E-002
  0.10120840841437666       -1.5814450904742237E-002   5.5012588831979251E-002
  0.10481204206147893       -2.0809258164444129E-002   5.3523334308993357E-002
  0.13625594971285415       -4.9479000058780157E-002  -7.8411204242949811E-003
  0.13306152070424990       -4.2937970653140464E-002  -3.4039265024675275E-003
  0.12986709169564564       -3.8505012797147742E-002  -3.8592381569851897E-004
  0.12667266268704142       -3.6180126490801968E-002   1.2128876360120548E-003
  0.12347823367843716       -3.5963311734103220E-002   1.3925078526642876E-003
  0.13322879517617001       -4.2311564585196151E-002   1.2195257013912844E-002
  0.12900392251563175       -3.8441644105352613E-002   1.2149645629239054E-002
  0.12477904985509350       -3.5761661353567259E-002   1.1462338175755635E-002
  0.12055417719455525       -3.4271616329840111E-002   1.0133334653462490E-002
  0.11632930453401699       -3.3971509034171246E-002   8.1626350623599797E-003
  0.12697909238871272       -3.5144129111612125E-002   2.9101458615530190E-002
  0.12250127124248930       -3.3945317557564712E-002   2.5491175745943787E-002
  0.11802345009626583       -3.3018309909986748E-002   2.2016691973796701E-002
  0.11354562895004243       -3.2363106168878268E-002   1.8678007299088827E-002
  0.10906780780381897       -3.1979706334239244E-002   1.5475121721820112E-002
  0.11750684135048241       -2.7976693638028124E-002   4.2877484380557024E-002
  0.11355356688482257       -2.9448991009776836E-002   3.6620663847646874E-002
  0.10960029241916276       -3.0274958466406258E-002   3.1277137578424784E-002
  0.10564701795350295       -3.0454596007916387E-002   2.6846905572890718E-002
  0.10169374348784313       -2.9987903634307228E-002   2.3329967831044709E-002
  0.10481204206147893       -2.0809258164444129E-002   5.3523334308993357E-002
  0.10216080944263155       -2.4952664461988946E-002   4.5538109934348148E-002
   9.9509576823784210E-002  -2.7531607022825748E-002   3.9243674989639862E-002
   9.6858344204936858E-002  -2.8546085846954509E-002   3.4640029474868377E-002
   9.4207111586089493E-002  -2.7996100934375254E-002   3.1727173390033850E-002
  0.12347823367843716       -3.5963311734103220E-002   1.3925078526642876E-003
  0.12057252732533055       -3.6482919398291153E-002   6.3239646833947172E-004
  0.11766682097222396       -3.6367300354605656E-002   7.1082362772117991E-005
  0.11476111461911737       -3.5616454603046743E-002  -2.9143446403827322E-004
  0.11185540826601076       -3.4230382143614346E-002  -4.5515401209128559E-004
  0.11632930453401699       -3.3971509034171246E-002   8.1626350623599797E-003
  0.11360650760491371       -3.4062781861157229E-002   7.7952703328144635E-003
  0.11088371067581042       -3.3746877205395029E-002   7.5949271725183551E-003
  0.10816091374670717       -3.3023795066884479E-002   7.5616055814716684E-003
  0.10543811681760390       -3.1893535445625676E-002   7.6953055596744036E-003
  0.10906780780381897       -3.1979706334239244E-002   1.5475121721820112E-002
  0.10649614458921125       -3.1642644324023320E-002   1.5272454421928563E-002
  0.10392448137460356       -3.1126454056184326E-002   1.5205032981778728E-002
  0.10135281815999585       -3.0431135530722186E-002   1.5272857401370635E-002
   9.8781154945388167E-002  -2.9556688747636922E-002   1.5475927680704271E-002
  0.10169374348784313       -2.9987903634307228E-002   2.3329967831044709E-002
   9.9241438278223237E-002  -2.9222506786889431E-002   2.3063948735682040E-002
   9.6789133068603345E-002  -2.8506030906973689E-002   2.2901399790553306E-002
   9.4336827858983480E-002  -2.7838475994559964E-002   2.2842320995658590E-002
   9.1884522649363559E-002  -2.7219842049648182E-002   2.2886712350997748E-002
   9.4207111586089493E-002  -2.7996100934375254E-002   3.1727173390033850E-002
   9.1842388671949687E-002  -2.6802369249755542E-002   3.1169753274074868E-002
   8.9477665757809841E-002  -2.5885607757763014E-002   3.0684027598842110E-002
   8.7112942843670021E-002  -2.5245816458397703E-002   3.0269996364335607E-002
   8.4748219929530216E-002  -2.4882995351659498E-002   2.9927659570555182E-002
  0.11185540826601076       -3.4230382143614346E-002  -4.5515401209128559E-004
  0.10871107878074526       -3.2671388777694377E-002  -1.4708003861452212E-004
  0.10556674929547988       -3.1401780306673233E-002   1.9026822288301104E-004
  0.10242241981021444       -3.0421556730550234E-002   5.5689077240142493E-004
   9.9278090324948998E-002  -2.9730718049325977E-002   9.5278760994066403E-004
  0.10543811681760390       -3.1893535445625676E-002   7.6953055596744036E-003
  0.10235997832528856       -3.0648279667733799E-002   7.5673407820814748E-003
   9.9281839832973312E-002  -2.9580209059324417E-002   7.5424837023681801E-003
   9.6203701340658046E-002  -2.8689323620397295E-002   7.6207343205343323E-003
   9.3125562848342724E-002  -2.7975623350952550E-002   7.8020926365799936E-003
   9.8781154945388167E-002  -2.9556688747636922E-002   1.5475927680704271E-002
   9.5843040855881828E-002  -2.8625170557773139E-002   1.5024123877457565E-002
   9.2904926766375504E-002  -2.7758637811975601E-002   1.4749261181949150E-002
   8.9966812676869207E-002  -2.6957090510244135E-002   1.4651339594179302E-002
   8.7028698587362910E-002  -2.6220528652578984E-002   1.4730359114147731E-002
   9.1884522649363559E-002  -2.7219842049648182E-002   2.2886712350997748E-002
   8.9160266372525054E-002  -2.6602061447812519E-002   2.2223269247513566E-002
   8.6436010095686508E-002  -2.5937066564626812E-002   2.1810600661626545E-002
   8.3711753818847989E-002  -2.5224857400091127E-002   2.1648706593336609E-002
   8.0987497542009443E-002  -2.4465433954205459E-002   2.1737587042643901E-002
   8.4748219929530216E-002  -2.4882995351659498E-002   2.9927659570555182E-002
   8.2311654875218243E-002  -2.4578952337851873E-002   2.9164776892249542E-002
   7.9875089820906284E-002  -2.4115495317278024E-002   2.8726502141400101E-002
   7.7438524766594297E-002  -2.3492624289938119E-002   2.8612835318006513E-002
   7.5001959712282323E-002  -2.2710339255831991E-002   2.8823776422068764E-002
   9.9278090324948998E-002  -2.9730718049325977E-002   9.5278760994066403E-004
   9.6546961222637284E-002  -2.9098913387086867E-002   5.4277109217032438E-004
   9.3815832120325543E-002  -2.8295791867919320E-002   3.8932375474601266E-004
   9.1084703018013788E-002  -2.7321353491824105E-002   4.9244559766811746E-004
   8.8353573915702088E-002  -2.6175598258800115E-002   8.5213662093630571E-004
   9.3125562848342724E-002  -2.7975623350952550E-002   7.8020926365799936E-003
   9.0622218430984308E-002  -2.7295758315369789E-002   7.5593706183861020E-003
   8.8118874013625947E-002  -2.6506378578029052E-002   7.5156487897528323E-003
   8.5615529596267503E-002  -2.5607484138930239E-002   7.6709271506798377E-003
   8.3112185178909115E-002  -2.4599074998073345E-002   8.0252057011675482E-003
   8.7028698587362910E-002  -2.6220528652578984E-002   1.4730359114147731E-002
   8.4695569864172010E-002  -2.5492603243652850E-002   1.4593129440360522E-002
   8.2362441140981152E-002  -2.4716965288138666E-002   1.4597330965348009E-002
   8.0029312417790280E-002  -2.3893614786036535E-002   1.4742963689109937E-002
   7.7696183694599380E-002  -2.3022551737346353E-002   1.5030027611646762E-002
   8.0987497542009443E-002  -2.4465433954205459E-002   2.1737587042643901E-002
   7.8767015522200320E-002  -2.3689448171935842E-002   2.1644047558093214E-002
   7.6546533502391198E-002  -2.2927551998248284E-002   2.1634370281531451E-002
   7.4326051482582048E-002  -2.2179745433142863E-002   2.1708555212958312E-002
   7.2105569462772912E-002  -2.1446028476619527E-002   2.1866602352374177E-002
   7.5001959712282323E-002  -2.2710339255831991E-002   2.8823776422068764E-002
   7.2836555405069198E-002  -2.1886293100218904E-002   2.8712124971584374E-002
   7.0671151097856058E-002  -2.1138138708357901E-002   2.8626766738303222E-002
   6.8505746790642918E-002  -2.0465876080249093E-002   2.8567701722225003E-002
   6.6340342483429793E-002  -1.9869505215892536E-002   2.8534929923349939E-002
   8.8353573915702088E-002  -2.6175598258800115E-002   8.5213662093630571E-004
   8.4672656122094070E-002  -2.5022143251343054E-002   8.6465164898991143E-004
   8.0991738328485940E-002  -2.4024605551947048E-002   9.0616318419339814E-004
   7.7310820534877867E-002  -2.3182985160612006E-002   9.7667122654657157E-004
   7.3629902741269793E-002  -2.2497282077338254E-002   1.0761757760495705E-003
   8.3112185178909115E-002  -2.4599074998073345E-002   8.0252057011675482E-003
   7.9515074459242663E-002  -2.3584604232316064E-002   7.7912641684866890E-003
   7.5917963739576155E-002  -2.2667524918516174E-002   7.6959402765393869E-003
   7.2320853019909634E-002  -2.1847837056674362E-002   7.7392340253250869E-003
   6.8723742300243140E-002  -2.1125540646789509E-002   7.9211454148443439E-003
   7.7696183694599380E-002  -2.3022551737346353E-002   1.5030027611646762E-002
   7.4292501182458004E-002  -2.2147065213289213E-002   1.4608155374335241E-002
   7.0888818670316572E-002  -2.1310444285085980E-002   1.4434521911340661E-002
   6.7485136158175182E-002  -2.0512688952736276E-002   1.4509127222662919E-002
   6.4081453646033765E-002  -1.9753799216240930E-002   1.4831971308301856E-002
   7.2105569462772912E-002  -2.1446028476619527E-002   2.1866602352374177E-002
   6.9004936291740107E-002  -2.0709526194262404E-002   2.1315325266535588E-002
   6.5904303120707247E-002  -1.9953363651655280E-002   2.1121908088597322E-002
   6.2803669949674443E-002  -1.9177540848798635E-002   2.1286350818559632E-002
   5.9703036778641590E-002  -1.8382057785692379E-002   2.1808653456422043E-002
   6.6340342483429793E-002  -1.9869505215892536E-002   2.8534929923349939E-002
   6.3652379787088986E-002  -1.9271987175235372E-002   2.7912773845087890E-002
   6.0964417090748180E-002  -1.8596283018224857E-002   2.7758098808309817E-002
   5.8276454394407401E-002  -1.7842392744860866E-002   2.8070904813015468E-002
   5.5588491698066622E-002  -1.7010316355143662E-002   2.8851191859204706E-002
   7.3629902741269793E-002  -2.2497282077338254E-002   1.0761757760495705E-003
   7.1560487277627205E-002  -2.1799524670548909E-002   4.4959530759858257E-004
   6.9491071813984617E-002  -2.0921741308666447E-002   3.0135536755587777E-004
   6.7421656350342057E-002  -1.9863931991692181E-002   6.3145595592209447E-004
   6.5352240886699442E-002  -1.8626096719625229E-002   1.4398970726967608E-003
   6.8723742300243140E-002  -2.1125540646789509E-002   7.9211454148443439E-003
   6.7030330484504685E-002  -2.0398912224539434E-002   7.5991405685962299E-003
   6.5336918668766064E-002  -1.9566228325600926E-002   7.5508024897477932E-003
   6.3643506853027526E-002  -1.8627488949974368E-002   7.7761311782988396E-003
   6.1950095037288988E-002  -1.7582694097659113E-002   8.2751266342493413E-003
   6.4081453646033765E-002  -1.9753799216240930E-002   1.4831971308301856E-002
   6.2559371717190171E-002  -1.8998299778530292E-002   1.4740571605852709E-002
   6.1037289788346619E-002  -1.8210715342535280E-002   1.4718164909794051E-002
   5.9515207859503046E-002  -1.7391045908256440E-002   1.4764751220125875E-002
   5.7993125930659445E-002  -1.6539291475693108E-002   1.4880330536848174E-002
   5.9703036778641590E-002  -1.8382057785692379E-002   2.1808653456422043E-002
   5.8147610975683849E-002  -1.7597687332520984E-002   2.1873888419367694E-002
   5.6592185172726114E-002  -1.6855202359469752E-002   2.1803442627694600E-002
   5.5036759369768401E-002  -1.6154602866538456E-002   2.1597316081403202E-002
   5.3481333566810646E-002  -1.5495888853727047E-002   2.1255508780492718E-002
   5.5588491698066622E-002  -1.7010316355143662E-002   2.8851191859204706E-002
   5.3795048259985656E-002  -1.6197074886511814E-002   2.8999091009141109E-002
   5.2001604821904662E-002  -1.5499689376404155E-002   2.8806635643449680E-002
   5.0208161383823682E-002  -1.4918159824820764E-002   2.8273825762130403E-002
   4.8414717945742758E-002  -1.4452486231761097E-002   2.7400661365183487E-002
   6.5352240886699442E-002  -1.8626096719625229E-002   1.4398970726967608E-003
   6.0743841869533521E-002  -1.7467924771762622E-002   1.7144604050721712E-003
   5.6135442852367656E-002  -1.6649105427402444E-002   1.5186482228305431E-003
   5.1527043835201791E-002  -1.6169638686544349E-002   8.5246052597226507E-004
   4.6918644818035871E-002  -1.6029524549188157E-002  -2.8410268550249640E-004
   6.1950095037288988E-002  -1.7582694097659113E-002   8.2751266342493413E-003
   5.7091279330964639E-002  -1.6570959183108358E-002   7.9590615570038770E-003
   5.2232463624640124E-002  -1.5731399620773745E-002   7.6125386160588171E-003
   4.7373647918315803E-002  -1.5064015410656328E-002   7.2355578114126351E-003
   4.2514832211991260E-002  -1.4568806552755387E-002   6.8281191430665800E-003
   5.7993125930659445E-002  -1.6539291475693108E-002   1.4880330536848174E-002
   5.3323811186092779E-002  -1.5673993594453428E-002   1.4140814301267790E-002
   4.8654496441526196E-002  -1.4813693814145407E-002   1.3810757852903671E-002
   4.3985181696959585E-002  -1.3958392134768426E-002   1.3890161191755027E-002
   3.9315866952392919E-002  -1.3108088556323061E-002   1.4379024317823119E-002
   5.3481333566810646E-002  -1.5495888853727047E-002   2.1255508780492718E-002
   4.9441437434918190E-002  -1.4777028005798720E-002   2.0259718637862828E-002
   4.5401541303025719E-002  -1.3895988007516444E-002   2.0113305933365196E-002
   4.1361645171133249E-002  -1.2852768858880464E-002   2.0816270666999568E-002
   3.7321749039240723E-002  -1.1647370559890513E-002   2.2368612838766427E-002
   4.8414717945742758E-002  -1.4452486231761097E-002   2.7400661365183487E-002
   4.5444158077440733E-002  -1.3880062417144401E-002   2.6315774566789019E-002
   4.2473598209138735E-002  -1.2978282200887842E-002   2.6520182857443286E-002
   3.9503038340836724E-002  -1.1747145582992453E-002   2.8013886237146041E-002
   3.6532478472534713E-002  -1.0186652563457965E-002   3.0796884705897476E-002
   9.0397507473069877E-002   0.0000000000000000        4.9759236332810583E-002
   9.4001141120172133E-002  -5.4098218225201748E-003   5.3130539843887867E-002
   9.7604774767274402E-002  -1.0681305457434256E-002   5.4881657343610751E-002
  0.10120840841437666       -1.5814450904742237E-002   5.5012588831979251E-002
  0.10481204206147893       -2.0809258164444129E-002   5.3523334308993357E-002
   8.2449985381999935E-002   0.0000000000000000        4.4703480509541857E-002
   8.4662519020831328E-002  -4.5768615343334523E-003   4.8184312869191524E-002
   8.6875052659662721E-002  -9.0424046769053430E-003   5.0503131223653845E-002
   8.9087586298494129E-002  -1.3396629427715674E-002   5.1659935572928840E-002
   9.1300119937325494E-002  -1.7639535786764457E-002   5.1654725917016447E-002
   7.4258077846735063E-002   0.0000000000000000        4.0494194872382122E-002
   7.5537683483462625E-002  -3.7439012461467293E-003   4.4057536284759669E-002
   7.6817289120190188E-002  -7.4035038963764371E-003   4.6917035698116887E-002
   7.8096894756917751E-002  -1.0978807950689123E-002   4.9072693112453818E-002
   7.9376500393645313E-002  -1.4469813409084781E-002   5.0524508527770427E-002
   6.5821784867275218E-002   0.0000000000000000        3.7131379421331372E-002
   6.6626634508066010E-002  -2.9109409579600063E-003   4.0750210090592230E-002
   6.7431484148856788E-002  -5.7646031158475270E-003   4.4123370766999827E-002
   6.8236333789647566E-002  -8.5609864736625636E-003   4.7250861450554148E-002
   6.9041183430438330E-002  -1.1300091031405111E-002   5.0132682141255228E-002
   5.7141106443620436E-002   0.0000000000000000        3.4615034156389619E-002
   5.7929372094641475E-002  -2.0779806697732838E-003   3.8262334286689265E-002
   5.8717637745662507E-002  -4.1257023353186203E-003   4.2122136430302687E-002
   5.9505903396683553E-002  -6.1431649966360094E-003   4.6194440587229893E-002
   6.0294169047704592E-002  -8.1303686537254408E-003   5.0479246757470890E-002
  0.10481204206147893       -2.0809258164444129E-002   5.3523334308993357E-002
  0.10216080944263155       -2.4952664461988946E-002   4.5538109934348148E-002
   9.9509576823784210E-002  -2.7531607022825748E-002   3.9243674989639862E-002
   9.6858344204936858E-002  -2.8546085846954509E-002   3.4640029474868377E-002
   9.4207111586089493E-002  -2.7996100934375254E-002   3.1727173390033850E-002
   9.1300119937325494E-002  -1.7639535786764457E-002   5.1654725917016447E-002
   9.0101014012189881E-002  -2.1216122915905293E-002   4.6412033289000551E-002
   8.8901908087054241E-002  -2.3571389976991819E-002   4.2382804618471229E-002
   8.7702802161918642E-002  -2.4705336970024014E-002   3.9567039905428536E-002
   8.6503696236783001E-002  -2.4617963895001899E-002   3.7964739149872362E-002
   7.9376500393645313E-002  -1.4469813409084781E-002   5.0524508527770427E-002
   7.9152195689771165E-002  -1.7479581369821633E-002   4.7681203977730062E-002
   7.8927890985897003E-002  -1.9611172931157873E-002   4.5574037912726031E-002
   7.8703586282022855E-002  -2.0864588093093512E-002   4.4203010332758329E-002
   7.8479281578148680E-002  -2.1239826855628537E-002   4.3568121237826982E-002
   6.9041183430438330E-002  -1.1300091031405111E-002   5.0132682141255228E-002
   6.9314354475375400E-002  -1.3743039823737974E-002   4.9345622000536708E-002
   6.9587525520312443E-002  -1.5650955885323937E-002   4.8817374872404271E-002
   6.9860696565249472E-002  -1.7023839216163010E-002   4.8547940756857859E-002
   7.0133867610186515E-002  -1.7861689816255178E-002   4.8537319653897570E-002
   6.0294169047704592E-002  -8.1303686537254408E-003   5.0479246757470890E-002
   6.0587490369002572E-002  -1.0006498277654315E-002   5.1405287357420490E-002
   6.0880811690300560E-002  -1.1690738839489997E-002   5.2112815497505884E-002
   6.1174133011598554E-002  -1.3183090339232508E-002   5.2601831177727112E-002
   6.1467454332896528E-002  -1.4483552776881826E-002   5.2872334398084135E-002
   9.4207111586089493E-002  -2.7996100934375254E-002   3.1727173390033850E-002
   9.1842388671949687E-002  -2.6802369249755542E-002   3.1169753274074868E-002
   8.9477665757809841E-002  -2.5885607757763014E-002   3.0684027598842110E-002
   8.7112942843670021E-002  -2.5245816458397703E-002   3.0269996364335607E-002
   8.4748219929530216E-002  -2.4882995351659498E-002   2.9927659570555182E-002
   8.6503696236783001E-002  -2.4617963895001899E-002   3.7964739149872362E-002
   8.4259817701432191E-002  -2.3975827955297093E-002   3.6941087396990341E-002
   8.2015939166081381E-002  -2.3445486354281231E-002   3.6087429960960156E-002
   7.9772060630730571E-002  -2.3026939091954399E-002   3.5403766841781655E-002
   7.7528182095379747E-002  -2.2720186168316420E-002   3.4890098039455142E-002
   7.8479281578148680E-002  -2.1239826855628537E-002   4.3568121237826982E-002
   7.6454547297712450E-002  -2.1149286660838623E-002   4.2243413701960067E-002
   7.4429813017276289E-002  -2.1005364950799459E-002   4.1187000359070573E-002
   7.2405078736840087E-002  -2.0808061725511012E-002   4.0398881209158466E-002
   7.0380344456403898E-002  -2.0557376984973313E-002   3.9879056252223863E-002
   7.0133867610186515E-002  -1.7861689816255178E-002   4.8537319653897570E-002
   6.8426577460790547E-002  -1.8322745366380164E-002   4.7076732188984019E-002
   6.6719287311394579E-002  -1.8565243547317662E-002   4.5982738793173460E-002
   6.5011997161998625E-002  -1.8589184359067680E-002   4.5255339466465927E-002
   6.3304707012602657E-002  -1.8394567801630235E-002   4.4894534208861477E-002
   6.1467454332896528E-002  -1.4483552776881826E-002   5.2872334398084135E-002
   6.0175908190666400E-002  -1.5496204071921722E-002   5.1441042858062086E-002
   5.8884362048436292E-002  -1.6125122143835900E-002   5.0474645263268753E-002
   5.7592815906206150E-002  -1.6370306992624373E-002   4.9973141613704010E-002
   5.6301269763976036E-002  -1.6231758618287129E-002   4.9936531909367921E-002
   8.4748219929530216E-002  -2.4882995351659498E-002   2.9927659570555182E-002
   8.2311654875218243E-002  -2.4578952337851873E-002   2.9164776892249542E-002
   7.9875089820906284E-002  -2.4115495317278024E-002   2.8726502141400101E-002
   7.7438524766594297E-002  -2.3492624289938119E-002   2.8612835318006513E-002
   7.5001959712282323E-002  -2.2710339255831991E-002   2.8823776422068764E-002
   7.7528182095379747E-002  -2.2720186168316420E-002   3.4890098039455142E-002
   7.5391807918694473E-002  -2.2410124999490307E-002   3.4313910924410558E-002
   7.3255433742009213E-002  -2.1981653001598878E-002   3.4013497637163478E-002
   7.1119059565323939E-002  -2.1434770174642188E-002   3.3988858177713799E-002
   6.8982685388638679E-002  -2.0769476518620267E-002   3.4239992546061540E-002
   7.0380344456403898E-002  -2.0557376984973313E-002   3.9879056252223863E-002
   6.8495327057686767E-002  -2.0241297661128796E-002   3.9448561522739595E-002
   6.6610309658969663E-002  -1.9847810685919814E-002   3.9245006521394121E-002
   6.4725292260252532E-002  -1.9376916059346452E-002   3.9268391248187512E-002
   6.2840274861535428E-002  -1.8828613781408626E-002   3.9518715703119836E-002
   6.3304707012602657E-002  -1.8394567801630235E-002   4.4894534208861477E-002
   6.1622212292195153E-002  -1.8072470322767258E-002   4.4568728687236513E-002
   5.9939717571787621E-002  -1.7713968370240682E-002   4.4421028794091794E-002
   5.8257222851380103E-002  -1.7319061944050675E-002   4.4451434529427514E-002
   5.6574728130972585E-002  -1.6887751044196986E-002   4.4659945893243437E-002
   5.6301269763976036E-002  -1.6231758618287129E-002   4.9936531909367921E-002
   5.4772463622219547E-002  -1.5903642984405719E-002   4.9674412417901478E-002
   5.3243657480463100E-002  -1.5580126054561619E-002   4.9541564455256676E-002
   5.1714851338706638E-002  -1.5261207828754762E-002   4.9537988021433735E-002
   5.0186045196950163E-002  -1.4946888306985262E-002   4.9663683116432628E-002
   7.5001959712282323E-002  -2.2710339255831991E-002   2.8823776422068764E-002
   7.2836555405069198E-002  -2.1886293100218904E-002   2.8712124971584374E-002
   7.0671151097856058E-002  -2.1138138708357901E-002   2.8626766738303222E-002
   6.8505746790642918E-002  -2.0465876080249093E-002   2.8567701722225003E-002
   6.6340342483429793E-002  -1.9869505215892536E-002   2.8534929923349939E-002
   6.8982685388638679E-002  -2.0769476518620267E-002   3.4239992546061540E-002
   6.6885211501582997E-002  -2.0062751017582217E-002   3.3991122643679525E-002
   6.4787737614527302E-002  -1.9391572655576936E-002   3.3851820364409251E-002
   6.2690263727471621E-002  -1.8755941432604655E-002   3.3822085708250835E-002
   6.0592789840415939E-002  -1.8155857348665261E-002   3.3901918675204201E-002
   6.2840274861535428E-002  -1.8828613781408626E-002   3.9518715703119836E-002
   6.0894005800545943E-002  -1.8239208934945440E-002   3.9172971973559248E-002
   5.8947736739556444E-002  -1.7645006602795943E-002   3.9020070273019153E-002
   5.7001467678566967E-002  -1.7046006784960106E-002   3.9060010601499703E-002
   5.5055198617577475E-002  -1.6442209481437958E-002   3.9292792959000955E-002
   5.6574728130972585E-002  -1.6887751044196986E-002   4.4659945893243437E-002
   5.4862938301958042E-002  -1.6415666852308709E-002   4.4257672961223626E-002
   5.3151148472943541E-002  -1.5898440550014964E-002   4.4131516464133096E-002
   5.1439358643928998E-002  -1.5336072137315530E-002   4.4281476401971956E-002
   4.9727568814914497E-002  -1.4728561614210670E-002   4.4707552774740048E-002
   5.0186045196950163E-002  -1.4946888306985262E-002   4.9663683116432628E-002
   4.8792009005819342E-002  -1.4592124769671963E-002   4.9245225606672743E-002
   4.7397972814688508E-002  -1.4151874497233943E-002   4.9186158937750912E-002
   4.6003936623557708E-002  -1.3626137489671026E-002   4.9486483109667190E-002
   4.4609900432426852E-002  -1.3014913746983325E-002   5.0146198122421548E-002
   6.6340342483429793E-002  -1.9869505215892536E-002   2.8534929923349939E-002
   6.3652379787088986E-002  -1.9271987175235372E-002   2.7912773845087890E-002
   6.0964417090748180E-002  -1.8596283018224857E-002   2.7758098808309817E-002
   5.8276454394407401E-002  -1.7842392744860866E-002   2.8070904813015468E-002
   5.5588491698066622E-002  -1.7010316355143662E-002   2.8851191859204706E-002
   6.0592789840415939E-002  -1.8155857348665261E-002   3.3901918675204201E-002
   5.8303256847583473E-002  -1.7556940597397222E-002   3.3476371974164018E-002
   5.6013723854751063E-002  -1.6924811372438744E-002   3.3380203638656791E-002
   5.3724190861918611E-002  -1.6259469673790040E-002   3.3613413668682382E-002
   5.1434657869086187E-002  -1.5560915501450889E-002   3.4176002064240957E-002
   5.5055198617577475E-002  -1.6442209481437958E-002   3.9292792959000955E-002
   5.3025992652302539E-002  -1.5841894019558989E-002   3.9018881992519613E-002
   5.0996786687027590E-002  -1.5253339726652687E-002   3.8936246715620154E-002
   4.8967580721752640E-002  -1.4676546602718936E-002   3.9044887128303021E-002
   4.6938374756477663E-002  -1.4111514647757978E-002   3.9344803230567701E-002
   4.9727568814914497E-002  -1.4728561614210670E-002   4.4707552774740048E-002
   4.7820587201246101E-002  -1.4126847441720741E-002   4.4540303900154371E-002
   4.5913605587577740E-002  -1.3581868080866519E-002   4.4426228039200107E-002
   4.4006623973909378E-002  -1.3093623531647985E-002   4.4365325191876845E-002
   4.2099642360241038E-002  -1.2662113794065136E-002   4.4357595358184704E-002
   4.4609900432426852E-002  -1.3014913746983325E-002   5.0146198122421548E-002
   4.2687040494414241E-002  -1.2411800863882577E-002   5.0040637697068735E-002
   4.0764180556401575E-002  -1.1910396435080531E-002   4.9850147609396295E-002
   3.8841320618388922E-002  -1.1510700460577065E-002   4.9574727859403978E-002
   3.6918460680376269E-002  -1.1212712940372238E-002   4.9214378447092089E-002
   5.5588491698066622E-002  -1.7010316355143662E-002   2.8851191859204706E-002
   5.3795048259985656E-002  -1.6197074886511814E-002   2.8999091009141109E-002
   5.2001604821904662E-002  -1.5499689376404155E-002   2.8806635643449680E-002
   5.0208161383823682E-002  -1.4918159824820764E-002   2.8273825762130403E-002
   4.8414717945742758E-002  -1.4452486231761097E-002   2.7400661365183487E-002
   5.1434657869086187E-002  -1.5560915501450889E-002   3.4176002064240957E-002
   4.9432642390198081E-002  -1.4861085839768556E-002   3.4039975678605977E-002
   4.7430626911309934E-002  -1.4191917673089999E-002   3.3827159726984232E-002
   4.5428611432421766E-002  -1.3553411001415237E-002   3.3537554209375937E-002
   4.3426595953533681E-002  -1.2945565824744265E-002   3.3171159125781224E-002
   4.6938374756477663E-002  -1.4111514647757978E-002   3.9344803230567701E-002
   4.4991352186423569E-002  -1.3525096793025118E-002   3.9010045772881349E-002
   4.3044329616369524E-002  -1.2884145969775683E-002   3.8862063698849904E-002
   4.1097307046315507E-002  -1.2188662178009657E-002   3.8900857008473011E-002
   3.9150284476261385E-002  -1.1438645417727156E-002   3.9126425701750678E-002
   4.2099642360241038E-002  -1.2662113794065136E-002   4.4357595358184704E-002
   4.0471177648662288E-002  -1.2189107746281659E-002   4.3909301291967504E-002
   3.8842712937083551E-002  -1.1576374266461364E-002   4.3911347559046514E-002
   3.7214248225504794E-002  -1.0823913354604160E-002   4.4363734159421159E-002
   3.5585783513926064E-002  -9.9317250107100741E-003   4.5266461093092049E-002
   3.6918460680376269E-002  -1.1212712940372238E-002   4.9214378447092089E-002
   3.5872118776914069E-002  -1.0853118699538339E-002   4.8737742235864578E-002
   3.4825776873451883E-002  -1.0268602563147183E-002   4.8975011307574090E-002
   3.3779434969989704E-002  -9.4591645311987368E-003   4.9926185662220957E-002
   3.2733093066527524E-002  -8.4248046036931590E-003   5.1591265299805122E-002
   4.8414717945742758E-002  -1.4452486231761097E-002   2.7400661365183487E-002
   4.5444158077440733E-002  -1.3880062417144401E-002   2.6315774566789019E-002
   4.2473598209138735E-002  -1.2978282200887842E-002   2.6520182857443286E-002
   3.9503038340836724E-002  -1.1747145582992453E-002   2.8013886237146041E-002
   3.6532478472534713E-002  -1.0186652563457965E-002   3.0796884705897476E-002
   4.3426595953533681E-002  -1.2945565824744265E-002   3.3171159125781224E-002
   4.1445479098492694E-002  -1.2293516982002067E-002   3.2722443380928667E-002
   3.9464362243451664E-002  -1.1522399312113879E-002   3.2963318573549366E-002
   3.7483245388410684E-002  -1.0632212815079624E-002   3.3893784703643640E-002
   3.5502128533369592E-002  -9.6229574908996973E-003   3.5513841771211307E-002
   3.9150284476261385E-002  -1.1438645417727156E-002   3.9126425701750678E-002
   3.7558906482906204E-002  -1.0706971546860039E-002   3.9103593435946854E-002
   3.5967528489551058E-002  -1.0066516423339847E-002   3.9170647956041152E-002
   3.4376150496195759E-002  -9.5172800471668741E-003   3.9327589262033495E-002
   3.2784772502840676E-002  -9.0592624183410964E-003   3.9574417353924085E-002
   3.5585783513926064E-002  -9.9317250107100741E-003   4.5266461093092049E-002
   3.3784440230681355E-002  -9.1204261117179691E-003   4.5459224731843627E-002
   3.1983096947436618E-002  -8.6106335345658494E-003   4.5142171004918172E-002
   3.0181753664191933E-002  -8.4023472792540844E-003   4.4315299912315712E-002
   2.8380410380947116E-002  -8.4955673457826064E-003   4.2978611454035670E-002
   3.2733093066527524E-002  -8.4248046036931590E-003   5.1591265299805122E-002
   3.0122080341818097E-002  -7.5338806765758437E-003   5.1789337268618951E-002
   2.7511067617108628E-002  -7.1547506457917548E-003   5.0877887720180676E-002
   2.4900054892399166E-002  -7.2874145113412427E-003   4.8856916654489949E-002
   2.2289042167689732E-002  -7.9318722732242275E-003   4.5726424071546701E-002
   5.7141106443620436E-002   0.0000000000000000        3.4615034156389619E-002
   5.7929372094641475E-002  -2.0779806697732838E-003   3.8262334286689265E-002
   5.8717637745662507E-002  -4.1257023353186203E-003   4.2122136430302687E-002
   5.9505903396683553E-002  -6.1431649966360094E-003   4.6194440587229893E-002
   6.0294169047704592E-002  -8.1303686537254408E-003   5.0479246757470890E-002
   4.8629605932653683E-002   0.0000000000000000        3.2722055728763980E-002
   4.9564864115353977E-002  -1.7002092114097450E-003   3.6894354621068375E-002
   5.0500122298054284E-002  -3.4151434789109376E-003   4.1148136563417516E-002
   5.1435380480754585E-002  -5.1448028025035779E-003   4.5483401555811383E-002
   5.2370638663454872E-002  -6.8891871821876727E-003   4.9900149598249982E-002
   4.0700846691257966E-002   0.0000000000000000        3.1229340789661580E-002
   4.1652078442368470E-002  -1.3224377530462045E-003   3.5881654383651332E-002
   4.2603310193478988E-002  -2.7045846225032576E-003   4.0484432064416778E-002
   4.3554541944589499E-002  -4.1464406083711533E-003   4.5037673831957920E-002
   4.4505773695700003E-002  -5.6480057106499011E-003   4.9541379686274728E-002
   3.3354828719433273E-002   0.0000000000000000        3.0136889339082415E-002
   3.4191015075684943E-002  -9.4466629468266438E-004   3.5224233574438130E-002
   3.5027201431936626E-002  -1.9940257660955737E-003   4.0131022933300509E-002
   3.5863387788188303E-002  -3.1480784142387287E-003   4.4857257415669496E-002
   3.6699574144439966E-002  -4.4068242391121296E-003   4.9402937021545149E-002
   2.6591552017179602E-002   0.0000000000000000        2.9444701377026497E-002
   2.7181674015303400E-002  -5.6689483631912514E-004   3.4922092193428768E-002
   2.7771796013427198E-002  -1.2834669096878949E-003   4.0087909170068645E-002
   2.8361918011550996E-002  -2.1497162201062972E-003   4.4942152306946120E-002
   2.8952040009674797E-002  -3.1656427675743589E-003   4.9484821604061195E-002
   6.0294169047704592E-002  -8.1303686537254408E-003   5.0479246757470890E-002
   6.0587490369002572E-002  -1.0006498277654315E-002   5.1405287357420490E-002
   6.0880811690300560E-002  -1.1690738839489997E-002   5.2112815497505884E-002
   6.1174133011598554E-002  -1.3183090339232508E-002   5.2601831177727112E-002
   6.1467454332896528E-002  -1.4483552776881826E-002   5.2872334398084135E-002
   5.2370638663454872E-002  -6.8891871821876727E-003   4.9900149598249982E-002
   5.2485058177488060E-002  -8.5478520377996019E-003   5.1113492850458291E-002
   5.2599477691521249E-002  -1.0020352789175745E-002   5.2187544948001229E-002
   5.2713897205554437E-002  -1.1306689436316134E-002   5.3122305890878761E-002
   5.2828316719587626E-002  -1.2406861979220737E-002   5.3917775679090854E-002
   4.4505773695700003E-002  -5.6480057106499011E-003   4.9541379686274728E-002
   4.4520512707667187E-002  -7.0892057979448902E-003   5.1036300632884390E-002
   4.4535251719634364E-002  -8.3499667388615001E-003   5.2471151730027400E-002
   4.4549990731601541E-002  -9.4302885333997551E-003   5.3845932977703820E-002
   4.4564729743568725E-002  -1.0330171181559645E-002   5.5160644375913621E-002
   3.6699574144439966E-002  -4.4068242391121296E-003   4.9402937021545149E-002
   3.6693853959539939E-002  -5.6305595580901707E-003   5.1173710704698713E-002
   3.6688133774639906E-002  -6.6795806885472618E-003   5.2963635843584420E-002
   3.6682413589739865E-002  -7.5538876304833821E-003   5.4772712438202309E-002
   3.6676693404839832E-002  -8.2534803838985402E-003   5.6600940488552402E-002
   2.8952040009674797E-002  -3.1656427675743589E-003   4.9484821604061195E-002
   2.9005081933106334E-002  -4.1719133182354659E-003   5.1525723065901252E-002
   2.9058123856537874E-002  -5.0091946382329966E-003   5.3664997288672245E-002
   2.9111165779969410E-002  -5.6774867275670073E-003   5.5902644272374208E-002
   2.9164207703400946E-002  -6.1767895862374703E-003   5.8238664017007148E-002
   6.1467454332896528E-002  -1.4483552776881826E-002   5.2872334398084135E-002
   6.0175908190666400E-002  -1.5496204071921722E-002   5.1441042858062086E-002
   5.8884362048436292E-002  -1.6125122143835900E-002   5.0474645263268753E-002
   5.7592815906206150E-002  -1.6370306992624373E-002   4.9973141613704010E-002
   5.6301269763976036E-002  -1.6231758618287129E-002   4.9936531909367921E-002
   5.2828316719587626E-002  -1.2406861979220737E-002   5.3917775679090854E-002
   5.1944697635978074E-002  -1.3262776872415710E-002   5.3148110098905355E-002
   5.1061078552368543E-002  -1.3816340570427240E-002   5.2729404690732402E-002
   5.0177459468758998E-002  -1.4067553073255280E-002   5.2661659454571914E-002
   4.9293840385149446E-002  -1.4016414380899914E-002   5.2944874390424002E-002
   4.4564729743568725E-002  -1.0330171181559645E-002   5.5160644375913621E-002
   4.3975103945363629E-002  -1.1029349672909730E-002   5.4971222727622393E-002
   4.3385478147158520E-002  -1.1507558997018590E-002   5.5018827478127592E-002
   4.2795852348953438E-002  -1.1764799153886230E-002   5.5303458627429102E-002
   4.2206226550748321E-002  -1.1801070143512671E-002   5.5825116175527004E-002
   3.6676693404839832E-002  -8.2534803838985402E-003   5.6600940488552402E-002
   3.6267127118823045E-002  -8.7959224734037410E-003   5.6910380744213208E-002
   3.5857560832806258E-002  -9.1987774236099492E-003   5.7342913625454274E-002
   3.5447994546789478E-002  -9.4620452345171822E-003   5.7898539132275599E-002
   3.5038428260772699E-002  -9.5857259061254418E-003   5.8577257264677121E-002
   2.9164207703400946E-002  -6.1767895862374703E-003   5.8238664017007148E-002
   2.8820767156356335E-002  -6.5624952738977498E-003   5.8965584148677780E-002
   2.8477326609311730E-002  -6.8899958502013133E-003   5.9701663132712510E-002
   2.8133886062267119E-002  -7.1592913151481159E-003   6.0446900969111365E-002
   2.7790445515222514E-002  -7.3703816687381990E-003   6.1201297657874312E-002
   5.6301269763976036E-002  -1.6231758618287129E-002   4.9936531909367921E-002
   5.4772463622219547E-002  -1.5903642984405719E-002   4.9674412417901478E-002
   5.3243657480463100E-002  -1.5580126054561619E-002   4.9541564455256676E-002
   5.1714851338706638E-002  -1.5261207828754762E-002   4.9537988021433735E-002
   5.0186045196950163E-002  -1.4946888306985262E-002   4.9663683116432628E-002
   4.9293840385149446E-002  -1.4016414380899914E-002   5.2944874390424002E-002
   4.7908124484632435E-002  -1.3806206205603716E-002   5.2621983689131013E-002
   4.6522408584115410E-002  -1.3580210259609326E-002   5.2456001941495217E-002
   4.5136692683598385E-002  -1.3338426542916792E-002   5.2446929147516475E-002
   4.3750976783081361E-002  -1.3080855055526031E-002   5.2594765307194882E-002
   4.2206226550748321E-002  -1.1801070143512671E-002   5.5825116175527004E-002
   4.0991238316306092E-002  -1.1708769426801657E-002   5.5461840739143092E-002
   3.9776250081863848E-002  -1.1580294464657005E-002   5.5283111681251683E-002
   3.8561261847421591E-002  -1.1415645257078723E-002   5.5288929001852630E-002
   3.7346273612979354E-002  -1.1214821804066744E-002   5.5479292700946092E-002
   3.5038428260772699E-002  -9.5857259061254418E-003   5.8577257264677121E-002
   3.4021805117240567E-002  -9.6113326479996264E-003   5.8193983567937722E-002
   3.3005181973708428E-002  -9.5803786697047123E-003   5.8022893674526149E-002
   3.1988558830176289E-002  -9.4928639712406199E-003   5.8063987584442416E-002
   3.0971935686644157E-002  -9.3487885526075121E-003   5.8317265297686341E-002
   2.7790445515222514E-002  -7.3703816687381990E-003   6.1201297657874312E-002
   2.6999824887435825E-002  -7.5138958691975885E-003   6.0818412175514952E-002
   2.6209204259649142E-002  -7.5804628747524021E-003   6.0675347921318644E-002
   2.5418583631862449E-002  -7.5700826854026319E-003   6.0772104895285478E-002
   2.4627963004075770E-002  -7.4827553011482251E-003   6.1108683097415462E-002
   5.0186045196950163E-002  -1.4946888306985262E-002   4.9663683116432628E-002
   4.8792009005819342E-002  -1.4592124769671963E-002   4.9245225606672743E-002
   4.7397972814688508E-002  -1.4151874497233943E-002   4.9186158937750912E-002
   4.6003936623557708E-002  -1.3626137489671026E-002   4.9486483109667190E-002
   4.4609900432426852E-002  -1.3014913746983325E-002   5.0146198122421548E-002
   4.3750976783081361E-002  -1.3080855055526031E-002   5.2594765307194882E-002
   4.2680849223958317E-002  -1.2788543747138434E-002   5.2240780135581713E-002
   4.1610721664835329E-002  -1.2442540567455307E-002   5.2175221387146149E-002
   4.0540594105712313E-002  -1.2042845516476663E-002   5.2398089061888059E-002
   3.9470466546589270E-002  -1.1589458594202406E-002   5.2909383159807449E-002
   3.7346273612979354E-002  -1.1214821804066744E-002   5.5479292700946092E-002
   3.6529090268203598E-002  -1.0984962724604801E-002   5.5157985003650392E-002
   3.5711906923427836E-002  -1.0733206637676775E-002   5.5054139311871621E-002
   3.4894723578652094E-002  -1.0459553543282272E-002   5.5167755625609896E-002
   3.4077540233876324E-002  -1.0164003441421626E-002   5.5498833944865031E-002
   3.0971935686644157E-002  -9.3487885526075121E-003   5.8317265297686341E-002
   3.0336732138555117E-002  -9.1813817020713027E-003   5.7996840210878808E-002
   2.9701528590466059E-002  -9.0238727078980792E-003   5.7822912711927639E-002
   2.9066325042377019E-002  -8.8762615700878657E-003   5.7795482800832972E-002
   2.8431121494287961E-002  -8.7385482886408045E-003   5.7914550477594667E-002
   2.4627963004075770E-002  -7.4827553011482251E-003   6.1108683097415462E-002
   2.4103774835012887E-002  -7.3778006795376383E-003   6.0757345757266740E-002
   2.3579586665950010E-002  -7.3145387781195781E-003   6.0481541587313947E-002
   2.3055398496887130E-002  -7.2929695968935657E-003   6.0281270587557056E-002
   2.2531210327824250E-002  -7.3130931358599272E-003   6.0156532757995929E-002
   4.4609900432426852E-002  -1.3014913746983325E-002   5.0146198122421548E-002
   4.2687040494414241E-002  -1.2411800863882577E-002   5.0040637697068735E-002
   4.0764180556401575E-002  -1.1910396435080531E-002   4.9850147609396295E-002
   3.8841320618388922E-002  -1.1510700460577065E-002   4.9574727859403978E-002
   3.6918460680376269E-002  -1.1212712940372238E-002   4.9214378447092089E-002
   3.9470466546589270E-002  -1.1589458594202406E-002   5.2909383159807449E-002
   3.7539430832468620E-002  -1.1130517712497220E-002   5.2554937990425057E-002
   3.5608395118347964E-002  -1.0714160783225082E-002   5.2269070931146369E-002
   3.3677359404227308E-002  -1.0340387806386259E-002   5.2051781981971280E-002
   3.1746323690106645E-002  -1.0009198781980866E-002   5.1903071142900242E-002
   3.4077540233876324E-002  -1.0164003441421626E-002   5.5498833944865031E-002
   3.2291836516071121E-002  -9.8492345611117943E-003   5.4954628533318436E-002
   3.0506132798265917E-002  -9.5179251313697380E-003   5.4632509004298994E-002
   2.8720429080460727E-002  -9.1700751521956187E-003   5.4532475357806753E-002
   2.6934725362655502E-002  -8.8056846235894659E-003   5.4654527593841734E-002
   2.8431121494287961E-002  -8.7385482886408045E-003   5.7914550477594667E-002
   2.6944257545221690E-002  -8.5679514097263196E-003   5.7239709325749163E-002
   2.5457393596155405E-002  -8.3216894795144804E-003   5.6940461828854344E-002
   2.3970529647089105E-002  -7.9997624980049503E-003   5.7016807986910181E-002
   2.2483665698022820E-002  -7.6021704651980243E-003   5.7468747799916543E-002
   2.2531210327824250E-002  -7.3130931358599272E-003   6.0156532757995929E-002
   2.1496693919920346E-002  -7.2866682583410669E-003   5.9410180367717169E-002
   2.0462177512016434E-002  -7.1254538276590978E-003   5.9192929404812272E-002
   1.9427661104112526E-002  -6.8294498438142663E-003   5.9504779869281585E-002
   1.8393144696208619E-002  -6.3986563068066382E-003   6.0345731761125065E-002
   3.6918460680376269E-002  -1.1212712940372238E-002   4.9214378447092089E-002
   3.5872118776914069E-002  -1.0853118699538339E-002   4.8737742235864578E-002
   3.4825776873451883E-002  -1.0268602563147183E-002   4.8975011307574090E-002
   3.3779434969989704E-002  -9.4591645311987368E-003   4.9926185662220957E-002
   3.2733093066527524E-002  -8.4248046036931590E-003   5.1591265299805122E-002
   3.1746323690106645E-002  -1.0009198781980866E-002   5.1903071142900242E-002
   3.1244534155574447E-002  -9.6554462175915401E-003   5.1773937144462906E-002
   3.0742744621042241E-002  -9.2139826208014197E-003   5.2020002600948370E-002
   3.0240955086510025E-002  -8.6848079916103105E-003   5.2641267512356642E-002
   2.9739165551977823E-002  -8.0679223300183511E-003   5.3637731878687755E-002
   2.6934725362655502E-002  -8.8056846235894659E-003   5.4654527593841734E-002
   2.6638782369038862E-002  -8.4577737356448940E-003   5.4735684945038443E-002
   2.6342839375422190E-002  -8.1593626784557255E-003   5.4853335923143606E-002
   2.6046896381805545E-002  -7.9104514520219431E-003   5.5007480528156995E-002
   2.5750953388188884E-002  -7.7110400563435710E-003   5.5198118760078727E-002
   2.2483665698022820E-002  -7.6021704651980243E-003   5.7468747799916543E-002
   2.2054863417307322E-002  -7.2601012536982548E-003   5.7622985637591134E-002
   2.1626061136591782E-002  -7.1047427361099966E-003   5.7475011274159382E-002
   2.1197258855876266E-002  -7.1360949124334629E-003   5.7024824709621814E-002
   2.0768456575160715E-002  -7.3541577826687771E-003   5.6272425943977911E-002
   1.8393144696208619E-002  -6.3986563068066382E-003   6.0345731761125065E-002
   1.7492777300379792E-002  -6.0624287717515046E-003   6.0435839222120924E-002
   1.6592409904550978E-002  -6.0501227937643648E-003   5.9885028653996308E-002
   1.5692042508722158E-002  -6.3617383728451181E-003   5.8693300056751233E-002
   1.4791675112893310E-002  -6.9972755089939831E-003   5.6860653430385488E-002
   3.2733093066527524E-002  -8.4248046036931590E-003   5.1591265299805122E-002
   3.0122080341818097E-002  -7.5338806765758437E-003   5.1789337268618951E-002
   2.7511067617108628E-002  -7.1547506457917548E-003   5.0877887720180676E-002
   2.4900054892399166E-002  -7.2874145113412427E-003   4.8856916654489949E-002
   2.2289042167689732E-002  -7.9318722732242275E-003   4.5726424071546701E-002
   2.9739165551977823E-002  -8.0679223300183511E-003   5.3637731878687755E-002
   2.6549499144709790E-002  -7.4324030202359836E-003   5.3091268216779425E-002
   2.3359832737441778E-002  -6.8473274464736639E-003   5.2497018707006571E-002
   2.0170166330173735E-002  -6.3126956087313259E-003   5.1854983349368916E-002
   1.6980499922905734E-002  -5.8285075070089176E-003   5.1165162143866127E-002
   2.5750953388188884E-002  -7.7110400563435710E-003   5.5198118760078727E-002
   2.3044368967749841E-002  -7.3309253638962069E-003   5.4368469627761720E-002
   2.0337784547310816E-002  -6.5399042471553995E-003   5.4552770316967640E-002
   1.7631200126871818E-002  -5.3379767061212131E-003   5.5751020827696188E-002
   1.4924615706432776E-002  -3.7251427407936077E-003   5.7963221159947675E-002
   2.0768456575160715E-002  -7.3541577826687771E-003   5.6272425943977911E-002
   1.9606689810938278E-002  -7.2294477075564439E-003   5.5620941501565768E-002
   1.8444923046715841E-002  -6.2324810478372218E-003   5.7045142550063752E-002
   1.7283156282493387E-002  -4.3632578035111428E-003   6.0545029089472291E-002
   1.6121389518270982E-002  -1.6217779745782979E-003   6.6120601119791053E-002
   1.4791675112893310E-002  -6.9972755089939831E-003   5.6860653430385488E-002
   1.6236461674275046E-002  -7.1279700512165700E-003   5.6848683838191361E-002
   1.7681248235656782E-002  -5.9250578485189886E-003   5.9974135406295204E-002
   1.9126034797038491E-002  -3.3885389009011141E-003   6.6237008134696851E-002
   2.0570821358420199E-002   4.8158679163701201E-004   7.5637302023396469E-002
   2.6591552017179602E-002   0.0000000000000000        2.9444701377026497E-002
   2.7181674015303400E-002  -5.6689483631912514E-004   3.4922092193428768E-002
   2.7771796013427198E-002  -1.2834669096878949E-003   4.0087909170068645E-002
   2.8361918011550996E-002  -2.1497162201062972E-003   4.4942152306946120E-002
   2.8952040009674797E-002  -3.1656427675743589E-003   4.9484821604061195E-002
   2.0073242263137930E-002   0.0000000000000000        2.9015868165092440E-002
   2.0392105737686107E-002  -4.2150326583999167E-004   3.4310035246243452E-002
   2.0710969212234285E-002  -9.5479265121234305E-004   3.9373259120005638E-002
   2.1029832686782463E-002  -1.5998681561170515E-003   4.4205539786378985E-002
   2.1348696161330644E-002  -2.3567297805541267E-003   4.8806877245363478E-002
   1.3462125135949224E-002   0.0000000000000000        2.8713480964878878E-002
   1.3590360719295341E-002  -2.7611169536085733E-004   3.3862315428295917E-002
   1.3718596302641460E-002  -6.2611839273679117E-004   3.8860837316697691E-002
   1.3846831885987577E-002  -1.0500200921278041E-003   4.3709046630084174E-002
   1.3975067469333694E-002  -1.5478167935338975E-003   4.8406943368455385E-002
   6.7582006356134844E-003   0.0000000000000000        2.8537539776385800E-002
   6.7764389601311023E-003  -1.3072012488172299E-004   3.3578932739586155E-002
   6.7946772846487202E-003  -2.9744413426124015E-004   3.8550643760144790E-002
   6.8129156091663381E-003  -5.0017202813855757E-004   4.3452672838061715E-002
   6.8311539336839561E-003  -7.3890380651366679E-004   4.8285019973336889E-002
  -3.8531237869292474E-005   0.0000000000000000        2.8488044599613224E-002
  -4.9659539806612245E-005   1.4671445597410487E-005   3.3459887180114167E-002
  -6.0787841743933100E-005   3.1230124214310859E-005   3.8442678450346955E-002
  -7.1916143681254280E-005   4.9676035850692440E-005   4.3436418410311588E-002
  -8.3044445618573725E-005   7.0009180506562171E-005   4.8441107060008051E-002
   2.8952040009674797E-002  -3.1656427675743589E-003   4.9484821604061195E-002
   2.9005081933106334E-002  -4.1719133182354659E-003   5.1525723065901252E-002
   2.9058123856537874E-002  -5.0091946382329966E-003   5.3664997288672245E-002
   2.9111165779969410E-002  -5.6774867275670073E-003   5.5902644272374208E-002
   2.9164207703400946E-002  -6.1767895862374703E-003   5.8238664017007148E-002
   2.1348696161330644E-002  -2.3567297805541267E-003   4.8806877245363478E-002
   2.1470807000526403E-002  -3.1064722982981426E-003   5.1195696800174974E-002
   2.1592917839722166E-002  -3.7301904831237116E-003   5.3624281425583974E-002
   2.1715028678917923E-002  -4.2278843350308055E-003   5.6092631121590443E-002
   2.1837139518113682E-002  -4.5995538540194170E-003   5.8600745888194375E-002
   1.3975067469333694E-002  -1.5478167935338975E-003   4.8406943368455385E-002
   1.4107639533960190E-002  -2.0410312783608335E-003   5.1100716118493268E-002
   1.4240211598586686E-002  -2.4511863280144053E-003   5.3775646248795127E-002
   1.4372783663213182E-002  -2.7782819424945855E-003   5.6431733759361037E-002
   1.4505355727839678E-002  -3.0223181218014018E-003   5.9068978650190861E-002
   6.8311539336839561E-003  -7.3890380651366679E-004   4.8285019973336889E-002
   6.9155795334076928E-003  -9.7559025842352425E-004   5.1240781020856108E-002
   7.0000051331314313E-003  -1.1721821729051062E-003   5.4119091758305787E-002
   7.0844307328551707E-003  -1.3286795499583780E-003   5.6919952185685983E-002
   7.1688563325789083E-003  -1.4450823895833607E-003   5.9643362302996661E-002
  -8.3044445618573725E-005   7.0009180506562171E-005   4.8441107060008051E-002
  -1.0537300113108326E-004   8.9850761513796291E-005   5.1615891507263444E-002
  -1.2770155664359388E-004   1.0682198220419254E-004   5.4654617954115851E-002
  -1.5003011215610352E-004   1.2092284257783452E-004   5.7557286400565282E-002
  -1.7235866766861403E-004   1.3215334263465273E-004   6.0323896846611672E-002
   2.9164207703400946E-002  -6.1767895862374703E-003   5.8238664017007148E-002
   2.8820767156356335E-002  -6.5624952738977498E-003   5.8965584148677780E-002
   2.8477326609311730E-002  -6.8899958502013133E-003   5.9701663132712510E-002
   2.8133886062267119E-002  -7.1592913151481159E-003   6.0446900969111365E-002
   2.7790445515222514E-002  -7.3703816687381990E-003   6.1201297657874312E-002
   2.1837139518113682E-002  -4.5995538540194170E-003   5.8600745888194375E-002
   2.1518758861483134E-002  -4.8821082755586102E-003   5.9394056939596762E-002
   2.1200378204852568E-002  -5.1124568351174245E-003   6.0228328919463135E-002
   2.0881997548222019E-002  -5.2905995326958813E-003   6.1103561827793515E-002
   2.0563616891591457E-002  -5.4165363682939227E-003   6.2019755664587874E-002
   1.4505355727839678E-002  -3.0223181218014018E-003   5.9068978650190861E-002
   1.4243837037723054E-002  -3.2017212772194933E-003   5.9922681371948644E-002
   1.3982318347606434E-002  -3.3349178200335642E-003   6.0849147098270315E-002
   1.3720799657489806E-002  -3.4219077502436338E-003   6.1848375829155852E-002
   1.3459280967373186E-002  -3.4626910678496534E-003   6.2920367564605270E-002
   7.1688563325789083E-003  -1.4450823895833607E-003   5.9643362302996661E-002
   6.9960016850761069E-003  -1.5213342788803720E-003   6.0551457445733439E-002
   6.8231470375733029E-003  -1.5573788049497383E-003   6.1564117669134027E-002
   6.6502923900705006E-003  -1.5532159677914136E-003   6.2681342973198412E-002
   6.4774377425677000E-003  -1.5088457674053805E-003   6.3903133357926425E-002
  -1.7235866766861403E-004   1.3215334263465273E-004   6.0323896846611672E-002
  -2.2474719645771118E-004   1.5905271945877708E-004   6.1280385160951183E-002
  -2.7713572524680919E-004   2.2016021013419179E-004   6.2373240632054322E-002
  -3.2952425403590590E-004   3.1547581466085002E-004   6.3602463259921083E-002
  -3.8191278282500435E-004   4.4499953303887840E-004   6.4968053044551513E-002
   2.7790445515222514E-002  -7.3703816687381990E-003   6.1201297657874312E-002
   2.6999824887435825E-002  -7.5138958691975885E-003   6.0818412175514952E-002
   2.6209204259649142E-002  -7.5804628747524021E-003   6.0675347921318644E-002
   2.5418583631862449E-002  -7.5700826854026319E-003   6.0772104895285478E-002
   2.4627963004075770E-002  -7.4827553011482251E-003   6.1108683097415462E-002
   2.0563616891591457E-002  -5.4165363682939227E-003   6.2019755664587874E-002
   1.9987668702272979E-002  -5.5021081615255346E-003   6.1786949800774801E-002
   1.9411720512954492E-002  -5.5591557320046961E-003   6.1743667585735199E-002
   1.8835772323636011E-002  -5.5876790797313395E-003   6.1889909019468684E-002
   1.8259824134317523E-002  -5.5876782047055429E-003   6.2225674101975631E-002
   1.3459280967373186E-002  -3.4626910678496534E-003   6.2920367564605270E-002
   1.3047707637133074E-002  -3.4903204538534981E-003   6.2789218347186510E-002
   1.2636134306892954E-002  -3.5378485892569641E-003   6.2797295199151268E-002
   1.2224560976652841E-002  -3.6052754740600475E-003   6.2944598120499490E-002
   1.1812987646412733E-002  -3.6926011082628329E-003   6.3231127111231078E-002
   6.4774377425677000E-003  -1.5088457674053805E-003   6.3903133357926425E-002
   6.1799416920161280E-003  -1.4785327461814251E-003   6.3825217814749938E-002
   5.8824456414645586E-003  -1.5165414465092173E-003   6.3836230761567025E-002
   5.5849495909129866E-003  -1.6228718683888109E-003   6.3936172198377744E-002
   5.2874535403614207E-003  -1.7975240118200952E-003   6.4125042125182108E-002
  -3.8191278282500435E-004   4.4499953303887840E-004   6.4968053044551513E-002
  -6.1562913307786245E-004   5.3325496149060625E-004   6.4894948203465044E-002
  -8.4934548333072228E-004   5.0476569623844961E-004   6.4860474272982332E-002
  -1.0830618335835847E-003   3.5953173728248914E-004   6.4864631253103489E-002
  -1.3167781838364402E-003   9.7553084622586939E-005   6.4907419143828388E-002
   2.4627963004075770E-002  -7.4827553011482251E-003   6.1108683097415462E-002
   2.4103774835012887E-002  -7.3778006795376383E-003   6.0757345757266740E-002
   2.3579586665950010E-002  -7.3145387781195781E-003   6.0481541587313947E-002
   2.3055398496887130E-002  -7.2929695968935657E-003   6.0281270587557056E-002
   2.2531210327824250E-002  -7.3130931358599272E-003   6.0156532757995929E-002
   1.8259824134317523E-002  -5.5876782047055429E-003   6.2225674101975631E-002
   1.7841950235469840E-002  -5.5762242464279244E-003   6.1802764855479114E-002
   1.7424076336622147E-002  -5.5703883443991922E-003   6.1516950979217055E-002
   1.7006202437774461E-002  -5.5701704986193066E-003   6.1368232473189538E-002
   1.6588328538926785E-002  -5.5755707090882622E-003   6.1356609337396534E-002
   1.1812987646412733E-002  -3.6926011082628329E-003   6.3231127111231078E-002
   1.1562990217818852E-002  -3.7746478133180994E-003   6.2772720622330219E-002
   1.1312992789224969E-002  -3.8262379106788064E-003   6.2512971703702500E-002
   1.1062995360631090E-002  -3.8473714003450475E-003   6.2451880355347773E-002
   1.0812997932037206E-002  -3.8380482823166528E-003   6.2589446577266242E-002
   5.2874535403614207E-003  -1.7975240118200952E-003   6.4125042125182108E-002
   5.2668947820599474E-003  -1.9730713802083161E-003   6.3667213057820221E-002
   5.2463360237584751E-003  -2.0820874769585315E-003   6.3469603760770057E-002
   5.2257772654569984E-003  -2.1245723020707884E-003   6.3532214234031659E-002
   5.2052185071555295E-003  -2.1005258555449879E-003   6.3855044477604928E-002
  -1.3167781838364402E-003   9.7553084622586939E-005   6.4907419143828388E-002
  -1.0463360718068922E-003  -1.7149494709853275E-004   6.4486242161948981E-002
  -7.7589395977734239E-004  -3.3793704323806933E-004   6.4386847150419910E-002
  -5.0545184774779348E-004  -4.0177320379653804E-004   6.4609234109241159E-002
  -2.3500973571824457E-004  -3.6300342877337854E-004   6.5153403038412772E-002
   2.2531210327824250E-002  -7.3130931358599272E-003   6.0156532757995929E-002
   2.1496693919920346E-002  -7.2866682583410669E-003   5.9410180367717169E-002
   2.0462177512016434E-002  -7.1254538276590978E-003   5.9192929404812272E-002
   1.9427661104112526E-002  -6.8294498438142663E-003   5.9504779869281585E-002
   1.8393144696208619E-002  -6.3986563068066382E-003   6.0345731761125065E-002
   1.6588328538926785E-002  -5.5755707090882622E-003   6.1356609337396534E-002
   1.6004270150128376E-002  -5.5389346199862244E-003   6.0811404825133919E-002
   1.5420211761329985E-002  -5.4126078754929141E-003   6.0638014923708322E-002
   1.4836153372531585E-002  -5.1965904756083731E-003   6.0836439633119563E-002
   1.4252094983733192E-002  -4.8908824203328649E-003   6.1406678953367710E-002
   1.0812997932037206E-002  -3.8380482823166528E-003   6.2589446577266242E-002
   1.0522110745807112E-002  -3.7912009816313541E-003   6.2200291045248199E-002
   1.0231223559577016E-002  -3.6997619233266818E-003   6.2025663307529878E-002
   9.9403363733469273E-003  -3.5637311074026481E-003   6.2065563364111245E-002
   9.6494491871168264E-003  -3.3831085338591749E-003   6.2319991214992224E-002
   5.2052185071555295E-003  -2.1005258555449879E-003   6.3855044477604928E-002
   5.0502157069565370E-003  -2.0434673432765255E-003   6.3576839028059745E-002
   4.8952129067575470E-003  -1.9869159711604183E-003   6.3355874556276906E-002
   4.7402101065585570E-003  -1.9308717391967002E-003   6.3192151062256591E-002
   4.5852073063595653E-003  -1.8753346473854987E-003   6.3085668545998952E-002
  -2.3500973571824457E-004  -3.6300342877337854E-004   6.5153403038412772E-002
  -4.1141496642333603E-004  -2.9573370492169682E-004   6.4941048773568433E-002
  -5.8782019712843442E-004  -2.7407001899425187E-004   6.4628648669949496E-002
  -7.6422542783353108E-004  -2.9801237099088759E-004   6.4216202727555835E-002
  -9.4063065853862426E-004  -3.6756076091171153E-004   6.3703710946387382E-002
   1.8393144696208619E-002  -6.3986563068066382E-003   6.0345731761125065E-002
   1.7492777300379792E-002  -6.0624287717515046E-003   6.0435839222120924E-002
   1.6592409904550978E-002  -6.0501227937643648E-003   5.9885028653996308E-002
   1.5692042508722158E-002  -6.3617383728451181E-003   5.8693300056751233E-002
   1.4791675112893310E-002  -6.9972755089939831E-003   5.6860653430385488E-002
   1.4252094983733192E-002  -4.8908824203328649E-003   6.1406678953367710E-002
   1.2858267825712713E-002  -4.6718598518856735E-003   6.0889157004093586E-002
   1.1464440667692238E-002  -4.7158989124861522E-003   6.0025633559556785E-002
   1.0070613509671767E-002  -5.0229996021344571E-003   5.8816108619757265E-002
   8.6767863516512972E-003  -5.5931619208305916E-003   5.7260582184694764E-002
   9.6494491871168264E-003  -3.3831085338591749E-003   6.2319991214992224E-002
   8.0570788007624378E-003  -3.2812909320198702E-003   6.1255699783468551E-002
   6.4647084144080422E-003  -3.3816750312081131E-003   6.0140323390539686E-002
   4.8723380280536448E-003  -3.6842608314237978E-003   5.8973862036205804E-002
   3.2799676416992579E-003  -4.1890483326670891E-003   5.7756315720466939E-002
   4.5852073063595653E-003  -1.8753346473854987E-003   6.3085668545998952E-002
   3.0892102255289742E-003  -1.8907220121541363E-003   6.1535467560245569E-002
   1.5932131446983700E-003  -2.0474511499299873E-003   6.0229098146945118E-002
   9.7216063867774146E-005  -2.3455220607130822E-003   5.9166560306097161E-002
  -1.3987810169628252E-003  -2.7849347445035866E-003   5.8347854037701888E-002
  -9.4063065853862426E-004  -3.6756076091171153E-004   6.3703710946387382E-002
  -2.0453378999876932E-003  -5.0015309228823579E-004   6.1728460334424917E-002
  -3.1500451414367692E-003  -7.1322726865187536E-004   6.0291957828772863E-002
  -4.2547523828858382E-003  -1.0067832900025643E-003   5.9394203429431205E-002
  -5.3594596243349141E-003  -1.3808211563402506E-003   5.9035197136399875E-002
   1.4791675112893310E-002  -6.9972755089939831E-003   5.6860653430385488E-002
   1.6236461674275046E-002  -7.1279700512165700E-003   5.6848683838191361E-002
   1.7681248235656782E-002  -5.9250578485189886E-003   5.9974135406295204E-002
   1.9126034797038491E-002  -3.3885389009011141E-003   6.6237008134696851E-002
   2.0570821358420199E-002   4.8158679163701201E-004   7.5637302023396469E-002
   8.6767863516512972E-003  -5.5931619208305916E-003   5.7260582184694764E-002
   1.2446870661997456E-002  -5.9839551133861468E-003   5.8132262545581487E-002
   1.6216954972343621E-002  -5.7529484246132273E-003   6.0517117244098945E-002
   1.9987039282689790E-002  -4.9001418545120308E-003   6.4415146280247554E-002
   2.3757123593035945E-002  -3.4255354030823248E-003   6.9826349654027009E-002
   3.2799676416992579E-003  -4.1890483326670891E-003   5.7756315720466939E-002
   7.7511028783428179E-003  -4.8399401755556681E-003   5.8799839170842624E-002
   1.2222238114986392E-002  -5.5808390007076880E-003   5.9732290136182226E-002
   1.6693373351629948E-002  -6.4117448081228642E-003   6.0553668616485659E-002
   2.1164508588273526E-002  -7.3326575978014397E-003   6.1263974611753147E-002
  -1.3987810169628252E-003  -2.7849347445035866E-003   5.8347854037701888E-002
   2.1491583233111114E-003  -3.6959252377252172E-003   5.8851413713975009E-002
   5.6970976635850393E-003  -5.4087295768019822E-003   5.7619654082544873E-002
   9.2450370038589802E-003  -7.9233477617338503E-003   5.4652575143411597E-002
   1.2792976344132897E-002  -1.1239779792520610E-002   4.9950176896575160E-002
  -5.3594596243349141E-003  -1.3808211563402506E-003   5.9035197136399875E-002
  -4.3589630030976476E-003  -2.5519102998948218E-003   5.8286986174978517E-002
  -3.3584663818603810E-003  -5.2366201528964013E-003   5.4179209083186713E-002
  -2.3579697606231059E-003  -9.4349507153445623E-003   4.6711865861025034E-002
  -1.3574731393858480E-003  -1.5146901987239891E-002   3.5884956508492882E-002
  -3.8531237869292474E-005   0.0000000000000000        2.8488044599613224E-002
  -4.9659539806612245E-005   1.4671445597410487E-005   3.3459887180114167E-002
  -6.0787841743933100E-005   3.1230124214310859E-005   3.8442678450346955E-002
  -7.1916143681254280E-005   4.9676035850692440E-005   4.3436418410311588E-002
  -8.3044445618573725E-005   7.0009180506562171E-005   4.8441107060008051E-002
  -6.8336584109685381E-003   0.0000000000000000        2.8564245404448102E-002
  -6.8731549877318627E-003   1.5746989538634095E-004   3.3612527525619294E-002
  -6.9126515644951881E-003   3.5253202038119935E-004   3.8593124407406636E-002
  -6.9521481412585144E-003   5.8518637498457173E-004   4.3506036049810126E-002
  -6.9916447180218390E-003   8.5543295919645983E-004   4.8351262452829780E-002
  -1.3532768810153681E-002   0.0000000000000000        2.8765392160777389E-002
  -1.3679267590858706E-002   3.0026834517527228E-004   3.3925818819207872E-002
  -1.3825766371563736E-002   6.7383391654809045E-004   3.8939926309138805E-002
  -1.3972265152268763E-002   1.1206967141184545E-003   4.3807714630570198E-002
  -1.4118763932973784E-002   1.6408567378863688E-003   4.8529183783502038E-002
  -2.0135862435424725E-002   0.0000000000000000        2.9091484868601098E-002
  -2.0467997349187150E-002   4.4306679496420231E-004   3.4399761060879892E-002
  -2.0800132262949571E-002   9.9513581271498111E-004   3.9483084155543448E-002
  -2.1132267176711989E-002   1.6562070532523373E-003   4.4341454152591754E-002
  -2.1464402090474413E-002   2.4262805165762703E-003   4.8974871052024832E-002
  -2.6642939286781672E-002   0.0000000000000000        2.9542523527919216E-002
  -2.7239344262717187E-002   5.8586524475313408E-004   3.5034354250635363E-002
  -2.7835749238652695E-002   1.3164377088818718E-003   4.0222597946620559E-002
  -2.8432154214588203E-002   2.1917173923862183E-003   4.5107254615874823E-002
  -2.9028559190523717E-002   3.2117042952661771E-003   4.9688324258398156E-002
  -8.3044445618573725E-005   7.0009180506562171E-005   4.8441107060008051E-002
  -1.0537300113108326E-004   8.9850761513796291E-005   5.1615891507263444E-002
  -1.2770155664359388E-004   1.0682198220419254E-004   5.4654617954115851E-002
  -1.5003011215610352E-004   1.2092284257783452E-004   5.7557286400565282E-002
  -1.7235866766861403E-004   1.3215334263465273E-004   6.0323896846611672E-002
  -6.9916447180218390E-003   8.5543295919645983E-004   4.8351262452829780E-002
  -7.1190080218679185E-003   1.1228852087250183E-003   5.1315525579959921E-002
  -7.2463713257139963E-003   1.3471565592783701E-003   5.4205777210825930E-002
  -7.3737346295600741E-003   1.5282470108565088E-003   5.7022017345427778E-002
  -7.5010979334061562E-003   1.6661565634594547E-003   5.9764245983765493E-002
  -1.4118763932973784E-002   1.6408567378863688E-003   4.8529183783502038E-002
  -1.4289115481014587E-002   2.1559196559362546E-003   5.1242615051848531E-002
  -1.4459467029055382E-002   2.5874911363525203E-003   5.3944081328069708E-002
  -1.4629818577096179E-002   2.9355711791351968E-003   5.6633582612165598E-002
  -1.4800170125136980E-002   3.2001597842842497E-003   5.9311118904136213E-002
  -2.1464402090474413E-002   2.4262805165762703E-003   4.8974871052024832E-002
  -2.1615695378571075E-002   3.1889541031474801E-003   5.1397159922929252E-002
  -2.1766988666667746E-002   3.8278257134266875E-003   5.3869530305847221E-002
  -2.1918281954764408E-002   4.3428953474138636E-003   5.6391982200778748E-002
  -2.2069575242861069E-002   4.7341630051090343E-003   5.8964515607723846E-002
  -2.9028559190523717E-002   3.2117042952661771E-003   4.9688324258398156E-002
  -2.9098747714537399E-002   4.2219885503587181E-003   5.1779160193202105E-002
  -2.9168936238551088E-002   5.0681602905008356E-003   5.3982124144158448E-002
  -2.9239124762564770E-002   5.7502195156925598E-003   5.6297216111267215E-002
  -2.9309313286578459E-002   6.2681662259338397E-003   5.8724436094528369E-002
  -1.7235866766861403E-004   1.3215334263465273E-004   6.0323896846611672E-002
  -2.2474719645771118E-004   1.5905271945877708E-004   6.1280385160951183E-002
  -2.7713572524680919E-004   2.2016021013419179E-004   6.2373240632054322E-002
  -3.2952425403590590E-004   3.1547581466085002E-004   6.3602463259921083E-002
  -3.8191278282500435E-004   4.4499953303887840E-004   6.4968053044551513E-002
  -7.5010979334061562E-003   1.6661565634594547E-003   5.9764245983765493E-002
  -7.4241977476851451E-003   1.7829573578240880E-003   6.0760908678033118E-002
  -7.3472975619641419E-003   1.9007215346873493E-003   6.1879781644557270E-002
  -7.2703973762431335E-003   2.0194490940491929E-003   6.3120864883338026E-002
  -7.1934971905221311E-003   2.1391400359096341E-003   6.4484158394375310E-002
  -1.4800170125136980E-002   3.2001597842842497E-003   5.9311118904136213E-002
  -1.4608138109412954E-002   3.4068619961894406E-003   6.0314711246979257E-002
  -1.4416106093688933E-002   3.5812828592405345E-003   6.1426356977571733E-002
  -1.4224074077964916E-002   3.7234223734375219E-003   6.2646056095913713E-002
  -1.4032042062240888E-002   3.8332805387803967E-003   6.3973808602005189E-002
  -2.2069575242861069E-002   4.7341630051090343E-003   5.8964515607723846E-002
  -2.1776568281641130E-002   5.0307666345547723E-003   5.9941792867789591E-002
  -2.1483561320421181E-002   5.2618441837937058E-003   6.1012966631097731E-002
  -2.1190554359201225E-002   5.4273956528258574E-003   6.2178036897648253E-002
  -2.0897547397981282E-002   5.5274210416511420E-003   6.3437003667441164E-002
  -2.9309313286578459E-002   6.2681662259338397E-003   5.8724436094528369E-002
  -2.8929488264369675E-002   6.6546712729201145E-003   5.9642153540464121E-002
  -2.8549663242160881E-002   6.9424055083468824E-003   6.0639610605135189E-002
  -2.8169838219952094E-002   7.1313689322141955E-003   6.1716807288541516E-002
  -2.7790013197743303E-002   7.2215615445219150E-003   6.2873743590683179E-002
  -3.8191278282500435E-004   4.4499953303887840E-004   6.4968053044551513E-002
  -6.1562913307786245E-004   5.3325496149060625E-004   6.4894948203465044E-002
  -8.4934548333072228E-004   5.0476569623844961E-004   6.4860474272982332E-002
  -1.0830618335835847E-003   3.5953173728248914E-004   6.4864631253103489E-002
  -1.3167781838364402E-003   9.7553084622586939E-005   6.4907419143828388E-002
  -7.1934971905221311E-003   2.1391400359096341E-003   6.4484158394375310E-002
  -7.3340028556415507E-003   2.2266747685628432E-003   6.4347662616488388E-002
  -7.4745085207609686E-003   2.2489337003028763E-003   6.4358957298264491E-002
  -7.6150141858803908E-003   2.2059168311299024E-003   6.4518042439703702E-002
  -7.7555198509998060E-003   2.0976241610438096E-003   6.4824918040805979E-002
  -1.4032042062240888E-002   3.8332805387803967E-003   6.3973808602005189E-002
  -1.3970177493167583E-002   3.9200945756350594E-003   6.3825390780108571E-002
  -1.3908312924094279E-002   3.9931017043673290E-003   6.3933922966934259E-002
  -1.3846448355020973E-002   4.0523019249773286E-003   6.4299405162482337E-002
  -1.3784583785947671E-002   4.0976952374649905E-003   6.4921837366752777E-002
  -2.0897547397981282E-002   5.5274210416511420E-003   6.3437003667441164E-002
  -2.0524153045655961E-002   5.6135143827072444E-003   6.3328132694325551E-002
  -2.0150758693330644E-002   5.7372697084318519E-003   6.3585371278991554E-002
  -1.9777364341005330E-002   5.8986870188247904E-003   6.4208719421439311E-002
  -1.9403969988680013E-002   6.0977663138861646E-003   6.5198177121668574E-002
  -2.7790013197743303E-002   7.2215615445219150E-003   6.2873743590683179E-002
  -2.6995929513106691E-002   7.3069341897794640E-003   6.2855888359139411E-002
  -2.6201845828470075E-002   7.4814377124962292E-003   6.3313302234436569E-002
  -2.5407762143833473E-002   7.7450721126721880E-003   6.4245985216574680E-002
  -2.4613678459196854E-002   8.0978373903073664E-003   6.5653937305553689E-002
  -1.3167781838364402E-003   9.7553084622586939E-005   6.4907419143828388E-002
  -1.0463360718068922E-003  -1.7149494709853275E-004   6.4486242161948981E-002
  -7.7589395977734239E-004  -3.3793704323806933E-004   6.4386847150419910E-002
  -5.0545184774779348E-004  -4.0177320379653804E-004   6.4609234109241159E-002
  -2.3500973571824457E-004  -3.6300342877337854E-004   6.5153403038412772E-002
  -7.7555198509998060E-003   2.0976241610438096E-003   6.4824918040805979E-002
  -7.2207098110753740E-003   1.9807701585250193E-003   6.4831384284501220E-002
  -6.6858997711509447E-003   1.9120692920540361E-003   6.5044804413635957E-002
  -6.1510897312265188E-003   1.8915215616307698E-003   6.5465178428210091E-002
  -5.6162796913020833E-003   1.9191269672552691E-003   6.6092506328223721E-002
  -1.3784583785947671E-002   4.0976952374649905E-003   6.4921837366752777E-002
  -1.3100233903039242E-002   4.1330352641485574E-003   6.5301494036489036E-002
  -1.2415884020130805E-002   4.1620756273462560E-003   6.5773276506753867E-002
  -1.1731534137222378E-002   4.1848163270580786E-003   6.6337184777547326E-002
  -1.1047184254313941E-002   4.2012573632840278E-003   6.6993218848869177E-002
  -1.9403969988680013E-002   6.0977663138861646E-003   6.5198177121668574E-002
  -1.8684908347698474E-002   6.2853003697720469E-003   6.5896571417912303E-002
  -1.7965846706716925E-002   6.4120819626384464E-003   6.6572263429773681E-002
  -1.7246785065735383E-002   6.4781110924853318E-003   6.7225253157252723E-002
  -1.6527723424753837E-002   6.4833877593127587E-003   6.7855540600349429E-002
  -2.4613678459196854E-002   8.0978373903073664E-003   6.5653937305553689E-002
  -2.3974733145053079E-002   8.4375654753956753E-003   6.6616616428771175E-002
  -2.3335787830909303E-002   8.6620882979306160E-003   6.7441765182695360E-002
  -2.2696842516765525E-002   8.7714058579127039E-003   6.8129383567326424E-002
  -2.2057897202621753E-002   8.7655181553414341E-003   6.8679471582664242E-002
  -2.3500973571824457E-004  -3.6300342877337854E-004   6.5153403038412772E-002
  -4.1141496642333603E-004  -2.9573370492169682E-004   6.4941048773568433E-002
  -5.8782019712843442E-004  -2.7407001899425187E-004   6.4628648669949496E-002
  -7.6422542783353108E-004  -2.9801237099088759E-004   6.4216202727555835E-002
  -9.4063065853862426E-004  -3.6756076091171153E-004   6.3703710946387382E-002
  -5.6162796913020833E-003   1.9191269672552691E-003   6.6092506328223721E-002
  -5.7916496695627085E-003   1.9591023313904471E-003   6.5897088918695154E-002
  -5.9670196478233458E-003   1.9756644764990922E-003   6.5803787852830337E-002
  -6.1423896260839753E-003   1.9688134025810065E-003   6.5812603130629033E-002
  -6.3177596043446083E-003   1.9385491096365337E-003   6.5923534752091451E-002
  -1.1047184254313941E-002   4.2012573632840278E-003   6.6993218848869177E-002
  -1.1019356797691768E-002   4.2139383677026465E-003   6.6836931113554113E-002
  -1.0991529341069603E-002   4.2253989719922627E-003   6.6984921904340938E-002
  -1.0963701884447431E-002   4.2356391761529544E-003   6.7437191221229820E-002
  -1.0935874427825265E-002   4.2446589801847234E-003   6.8193739064220479E-002
  -1.6527723424753837E-002   6.4833877593127587E-003   6.7855540600349429E-002
  -1.6094536350810533E-002   6.4687744040147904E-003   6.7760575358145309E-002
  -1.5661349276867218E-002   6.4751334674854645E-003   6.8172050824481537E-002
  -1.5228162202923905E-002   6.5024649497249310E-003   6.9089966999358071E-002
  -1.4794975128980609E-002   6.5507688507329132E-003   7.0514323882774829E-002
  -2.2057897202621753E-002   8.7655181553414341E-003   6.8679471582664242E-002
  -2.1017188328918961E-002   8.7236104403269343E-003   6.8668021652468714E-002
  -1.9976479455216186E-002   8.7248679629787634E-003   6.9365174613251923E-002
  -1.8935770581513391E-002   8.7692907232967653E-003   7.0770930465013690E-002
  -1.7895061707810613E-002   8.8568787212811584E-003   7.2885289207754222E-002
  -9.4063065853862426E-004  -3.6756076091171153E-004   6.3703710946387382E-002
  -2.0453378999876932E-003  -5.0015309228823579E-004   6.1728460334424917E-002
  -3.1500451414367692E-003  -7.1322726865187536E-004   6.0291957828772863E-002
  -4.2547523828858382E-003  -1.0067832900025643E-003   5.9394203429431205E-002
  -5.3594596243349141E-003  -1.3808211563402506E-003   5.9035197136399875E-002
  -6.3177596043446083E-003   1.9385491096365337E-003   6.5923534752091451E-002
  -6.9173079939852389E-003   1.9075811834777801E-003   6.4644471061757913E-002
  -7.5168563836258834E-003   1.8986192099172544E-003   6.3836976968730863E-002
  -8.1164047732665192E-003   1.9116631889551546E-003   6.3501052473010355E-002
  -8.7159531629071654E-003   1.9467131205913035E-003   6.3636697574596335E-002
  -1.0935874427825265E-002   4.2446589801847234E-003   6.8193739064220479E-002
  -1.1097442474661358E-002   4.3153154592437404E-003   6.7713350093101324E-002
  -1.1259010521497463E-002   4.5104656884865021E-003   6.7637352210284829E-002
  -1.1420578568333565E-002   4.8301096679127086E-003   6.7965745415770690E-002
  -1.1582146615169663E-002   5.2742473975226634E-003   6.8698529709559350E-002
  -1.4794975128980609E-002   6.5507688507329132E-003   7.0514323882774829E-002
  -1.4585741342016061E-002   6.7230497350098395E-003   7.0935097428455260E-002
  -1.4376507555051527E-002   7.1223121670556631E-003   7.1693083553434414E-002
  -1.4167273768086986E-002   7.7485561468704006E-003   7.2788282257712167E-002
  -1.3958039981122453E-002   8.6017816744540093E-003   7.4220693541288629E-002
  -1.7895061707810613E-002   8.8568787212811584E-003   7.2885289207754222E-002
  -1.7382204596049340E-002   9.1307840107757998E-003   7.4309713067819583E-002
  -1.6869347484288047E-002   9.7341586456248935E-003   7.6004170998179771E-002
  -1.6356490372526771E-002   1.0667002625827929E-002   7.7968662998834690E-002
  -1.5843633260765488E-002   1.1929315951385522E-002   8.0203189069784575E-002
  -5.3594596243349141E-003  -1.3808211563402506E-003   5.9035197136399875E-002
  -4.3589630030976476E-003  -2.5519102998948218E-003   5.8286986174978517E-002
  -3.3584663818603810E-003  -5.2366201528964013E-003   5.4179209083186713E-002
  -2.3579697606231059E-003  -9.4349507153445623E-003   4.6711865861025034E-002
  -1.3574731393858480E-003  -1.5146901987239891E-002   3.5884956508492882E-002
  -8.7159531629071654E-003   1.9467131205913035E-003   6.3636697574596335E-002
  -1.0234999130874450E-002   1.5854127519171202E-003   6.3054646609317450E-002
  -1.1754045098841728E-002   4.0940583002434250E-004   6.0793076595999695E-002
  -1.3273091066809019E-002  -1.5813076450872411E-003   5.6851987534642975E-002
  -1.4792137034776290E-002  -4.3867276734176341E-003   5.1231379425247470E-002
  -1.1582146615169663E-002   5.2742473975226634E-003   6.8698529709559350E-002
  -1.3940688090010252E-002   5.7227358037289233E-003   6.8981552896651158E-002
  -1.6299229564850828E-002   6.0554318129448712E-003   6.9265104118035437E-002
  -1.8657771039691389E-002   6.2723354251699431E-003   6.9549183373712020E-002
  -2.1016312514531978E-002   6.3734466404046231E-003   6.9833790663680673E-002
  -1.3958039981122453E-002   8.6017816744540093E-003   7.4220693541288629E-002
  -1.5476029880505058E-002   9.8600588555409069E-003   7.6067705036979322E-002
  -1.6994019779887657E-002   1.1701457795865452E-002   7.9595291649293701E-002
  -1.8512009679270268E-002   1.4125978495427252E-002   8.4803453378231627E-002
  -2.0029999578652861E-002   1.7133620954226880E-002   9.1692190223793268E-002
  -1.5843633260765488E-002   1.1929315951385522E-002   8.0203189069784575E-002
  -1.4841024502358864E-002   1.3997381907352835E-002   8.4313103030302261E-002
  -1.3838415743952243E-002   1.7347483778786213E-002   9.1783639189774752E-002
  -1.2835806985545617E-002   2.1979621565684494E-002  0.10261479754820231     
  -1.1833198227138991E-002   2.7893795268049137E-002  0.11680657810558448     
  -2.6642939286781672E-002   0.0000000000000000        2.9542523527919216E-002
  -2.7239344262717187E-002   5.8586524475313408E-004   3.5034354250635363E-002
  -2.7835749238652695E-002   1.3164377088818718E-003   4.0222597946620559E-002
  -2.8432154214588203E-002   2.1917173923862183E-003   4.5107254615874823E-002
  -2.9028559190523717E-002   3.2117042952661771E-003   4.9688324258398156E-002
  -3.3392516434415237E-002   0.0000000000000000        3.0252683018460839E-002
  -3.4228392272491075E-002   9.5722514045778768E-004   3.5350383943427939E-002
  -3.5064268110566905E-002   2.0152858697953290E-003   4.0272730170845331E-002
  -3.5900143948642743E-002   3.1741821880126361E-003   4.5019721700713000E-002
  -3.6736019786718574E-002   4.4339140951096812E-003   4.9591358533030983E-002
  -4.0723110948516140E-002   0.0000000000000000        3.1356138219955039E-002
  -4.1670225319551071E-002   1.3285850361624439E-003   3.6015837716677247E-002
  -4.2617339690586002E-002   2.7141340307087905E-003   4.0628414845030963E-002
  -4.3564454061620940E-002   4.1566469836390426E-003   4.5193869605016201E-002
  -4.4511568432655857E-002   5.6561238949531948E-003   4.9712201996632961E-002
  -4.8634722829084383E-002   0.0000000000000000        3.2852889132401822E-002
  -4.9564843403897177E-002   1.6999449318671001E-003   3.7030715570383281E-002
  -5.0494963978709978E-002   3.4129821916222504E-003   4.1289651969177485E-002
  -5.1425084553522772E-002   5.1391117792654508E-003   4.5629698328784427E-002
  -5.2355205128335573E-002   6.8783336947967032E-003   5.0050854649204134E-002
  -5.7127352076119950E-002   0.0000000000000000        3.4742935755801188E-002
  -5.7912246525529398E-002   2.0713048275717546E-003   3.8395017504546047E-002
  -5.8697140974938833E-002   4.1118303525357093E-003   4.2256441543284874E-002
  -5.9482035424348274E-002   6.1215765748918651E-003   4.6327207872017676E-002
  -6.0266929873757716E-002   8.1005434946402124E-003   5.0607316490744458E-002
  -2.9028559190523717E-002   3.2117042952661771E-003   4.9688324258398156E-002
  -2.9098747714537399E-002   4.2219885503587181E-003   5.1779160193202105E-002
  -2.9168936238551088E-002   5.0681602905008356E-003   5.3982124144158448E-002
  -2.9239124762564770E-002   5.7502195156925598E-003   5.6297216111267215E-002
  -2.9309313286578459E-002   6.2681662259338397E-003   5.8724436094528369E-002
  -3.6736019786718574E-002   4.4339140951096812E-003   4.9591358533030983E-002
  -3.6734551029686625E-002   5.6578270378664919E-003   5.1405342666730379E-002
  -3.6733082272654691E-002   6.7092664630630187E-003   5.3250513346368607E-002
  -3.6731613515622749E-002   7.5882323706993222E-003   5.5126870571945707E-002
  -3.6730144758590808E-002   8.2947247607753211E-003   5.7034414343461626E-002
  -4.4511568432655857E-002   5.6561238949531948E-003   4.9712201996632961E-002
  -4.4519383864791852E-002   7.0936655253742526E-003   5.1240973326617978E-002
  -4.4527199296927840E-002   8.3503726356252018E-003   5.2719989732328276E-002
  -4.4535014729063842E-002   9.4262452257060717E-003   5.4149251213763849E-002
  -4.4542830161199823E-002   1.0321283295616834E-002   5.5528757770924732E-002
  -5.2355205128335573E-002   6.8783336947967032E-003   5.0050854649204134E-002
  -5.2453246219853061E-002   8.5295040128820134E-003   5.1286052172864936E-002
  -5.2551287311370536E-002   9.9914788081873901E-003   5.2390553302037422E-002
  -5.2649328402888031E-002   1.1264258080712828E-002   5.3364358036721675E-002
  -5.2747369494405505E-002   1.2347841830458310E-002   5.4207466376917653E-002
  -6.0266929873757716E-002   8.1005434946402124E-003   5.0607316490744458E-002
  -6.0536138094870247E-002   9.9653425003897837E-003   5.1540579205471185E-002
  -6.0805346315982778E-002   1.1632584980749561E-002   5.2262204055496086E-002
  -6.1074554537095323E-002   1.3102270935719590E-002   5.2772191040819157E-002
  -6.1343762758207854E-002   1.4374400365299841E-002   5.3070540161440402E-002
  -2.9309313286578459E-002   6.2681662259338397E-003   5.8724436094528369E-002
  -2.8929488264369675E-002   6.6546712729201145E-003   5.9642153540464121E-002
  -2.8549663242160881E-002   6.9424055083468824E-003   6.0639610605135189E-002
  -2.8169838219952094E-002   7.1313689322141955E-003   6.1716807288541516E-002
  -2.7790013197743303E-002   7.2215615445219150E-003   6.2873743590683179E-002
  -3.6730144758590808E-002   8.2947247607753211E-003   5.7034414343461626E-002
  -3.6231112471190215E-002   8.8286282254823080E-003   5.7464007932888528E-002
  -3.5732080183789601E-002   9.1898273570113383E-003   5.8052276433963802E-002
  -3.5233047896388994E-002   9.3783221553625160E-003   5.8799219846687380E-002
  -3.4734015608988381E-002   9.3941126205358272E-003   5.9704838171059323E-002
  -4.4542830161199823E-002   1.0321283295616834E-002   5.5528757770924732E-002
  -4.3845655315694364E-002   1.1002585178044427E-002   5.5396293982224412E-002
  -4.3148480470188905E-002   1.1437249205675754E-002   5.5501440398085501E-002
  -4.2451305624683446E-002   1.1625275378510866E-002   5.5844197018507999E-002
  -4.1754130779177973E-002   1.1566663696549712E-002   5.6424563843491808E-002
  -5.2747369494405505E-002   1.2347841830458310E-002   5.4207466376917653E-002
  -5.1773116797882143E-002   1.3176542130606570E-002   5.3439011688471781E-002
  -5.0798864101358789E-002   1.3684671054340217E-002   5.2987102497500355E-002
  -4.9824611404835441E-002   1.3872228601659216E-002   5.2851738804003325E-002
  -4.8850358708312058E-002   1.3739214772563624E-002   5.3032920607980719E-002
  -6.1343762758207854E-002   1.4374400365299841E-002   5.3070540161440402E-002
  -6.0013496917753560E-002   1.5350499083168736E-002   5.1592161051630600E-002
  -5.8683231077299253E-002   1.5932092903004610E-002   5.0509262732208293E-002
  -5.7352965236844945E-002   1.6119181824807562E-002   4.9821845203173371E-002
  -5.6022699396390652E-002   1.5911765848577522E-002   4.9529908464525971E-002
  -2.7790013197743303E-002   7.2215615445219150E-003   6.2873743590683179E-002
  -2.6995929513106691E-002   7.3069341897794640E-003   6.2855888359139411E-002
  -2.6201845828470075E-002   7.4814377124962292E-003   6.3313302234436569E-002
  -2.5407762143833473E-002   7.7450721126721880E-003   6.4245985216574680E-002
  -2.4613678459196854E-002   8.0978373903073664E-003   6.5653937305553689E-002
  -3.4734015608988381E-002   9.3941126205358272E-003   5.9704838171059323E-002
  -3.3520472234127935E-002   9.3543107700197470E-003   5.9630386053583145E-002
  -3.2306928859267482E-002   9.3760286213028510E-003   5.9919584209713717E-002
  -3.1093385484407033E-002   9.4592661743851600E-003   6.0572432639451008E-002
  -2.9879842109546580E-002   9.6040234292667503E-003   6.1588931342795056E-002
  -4.1754130779177973E-002   1.1566663696549712E-002   5.6424563843491808E-002
  -4.0232746547327884E-002   1.1401687350260040E-002   5.6265903664423217E-002
  -3.8711362315477782E-002   1.1270619530109559E-002   5.6359274925727204E-002
  -3.7189978083627673E-002   1.1173460236098203E-002   5.6704677627403687E-002
  -3.5668593851777571E-002   1.1110209468226093E-002   5.7302111769452803E-002
  -4.8850358708312058E-002   1.3739214772563624E-002   5.3032920607980719E-002
  -4.7132752452706497E-002   1.3449063930500329E-002   5.2762441191659702E-002
  -4.5415146197100964E-002   1.3165210438916183E-002   5.2632374382477025E-002
  -4.3697539941495396E-002   1.2887654297811224E-002   5.2642720180432756E-002
  -4.1979933685889842E-002   1.2616395507185456E-002   5.2793478585526861E-002
  -5.6022699396390652E-002   1.5911765848577522E-002   4.9529908464525971E-002
  -5.4220489950263850E-002   1.5496440510740651E-002   4.9119998635292511E-002
  -5.2418280504137021E-002   1.5059801347722879E-002   4.8738882579963276E-002
  -5.0616071058010220E-002   1.4601848359524213E-002   4.8386560298538148E-002
  -4.8813861611883391E-002   1.4122581546144819E-002   4.8063031791017202E-002
  -2.4613678459196854E-002   8.0978373903073664E-003   6.5653937305553689E-002
  -2.3974733145053079E-002   8.4375654753956753E-003   6.6616616428771175E-002
  -2.3335787830909303E-002   8.6620882979306160E-003   6.7441765182695360E-002
  -2.2696842516765525E-002   8.7714058579127039E-003   6.8129383567326424E-002
  -2.2057897202621753E-002   8.7655181553414341E-003   6.8679471582664242E-002
  -2.9879842109546580E-002   9.6040234292667503E-003   6.1588931342795056E-002
  -2.9308940187551515E-002   9.7305012984804373E-003   6.1991867483431717E-002
  -2.8738038265556452E-002   9.7589006945591750E-003   6.2396247209064185E-002
  -2.8167136343561373E-002   9.6892216175029980E-003   6.2802070519692499E-002
  -2.7596234421566293E-002   9.5214640673119688E-003   6.3209337415316535E-002
  -3.5668593851777571E-002   1.1110209468226093E-002   5.7302111769452803E-002
  -3.5026761367642212E-002   1.1023437121565186E-002   5.7162431716926893E-002
  -3.4384928883506825E-002   1.0855713091187619E-002   5.7163169203685818E-002
  -3.3743096399371453E-002   1.0607037377093401E-002   5.7304324229729496E-002
  -3.3101263915236059E-002   1.0277409979282448E-002   5.7585896795058072E-002
  -4.1979933685889842E-002   1.2616395507185456E-002   5.2793478585526861E-002
  -4.1128196685325170E-002   1.2316372944650010E-002   5.2128309129256561E-002
  -4.0276459684760499E-002   1.1952525487816093E-002   5.1742531166560198E-002
  -3.9424722684195806E-002   1.1524853136683779E-002   5.1636144697437603E-002
  -3.8572985683631149E-002   1.1033355891252872E-002   5.1809149721888770E-002
  -4.8813861611883391E-002   1.4122581546144819E-002   4.8063031791017202E-002
  -4.7613246140600397E-002   1.3609308767734724E-002   4.6889499720420891E-002
  -4.6412630669317403E-002   1.3049337884444637E-002   4.6134333097687302E-002
  -4.5212015198034382E-002   1.2442668896274104E-002   4.5797531922816645E-002
  -4.4011399726751416E-002   1.1789301803223406E-002   4.5879096195808766E-002
  -2.2057897202621753E-002   8.7655181553414341E-003   6.8679471582664242E-002
  -2.1017188328918961E-002   8.7236104403269343E-003   6.8668021652468714E-002
  -1.9976479455216186E-002   8.7248679629787634E-003   6.9365174613251923E-002
  -1.8935770581513391E-002   8.7692907232967653E-003   7.0770930465013690E-002
  -1.7895061707810613E-002   8.8568787212811584E-003   7.2885289207754222E-002
  -2.7596234421566293E-002   9.5214640673119688E-003   6.3209337415316535E-002
  -2.5960991668732794E-002   9.3144343927887979E-003   6.3148475929616241E-002
  -2.4325748915899267E-002   9.1269389427357100E-003   6.3568079311198816E-002
  -2.2690506163065748E-002   8.9589777171534581E-003   6.4468147560064248E-002
  -2.1055263410232214E-002   8.8105507160413654E-003   6.5848680676212384E-002
  -3.3101263915236059E-002   1.0277409979282448E-002   5.7585896795058072E-002
  -3.1099625306967638E-002   9.9052583452504395E-003   5.7451992740657140E-002
  -2.9097986698699205E-002   9.5290099224929412E-003   5.7570415529843134E-002
  -2.7096348090430801E-002   9.1486647110099305E-003   5.7941165162616257E-002
  -2.5094709482162358E-002   8.7642227108015169E-003   5.8564241638976292E-002
  -3.8572985683631149E-002   1.1033355891252872E-002   5.1809149721888770E-002
  -3.6433089243623609E-002   1.0496082297712137E-002   5.1578572085591246E-002
  -3.4293192803616063E-002   9.9310809022501133E-003   5.1372183269184864E-002
  -3.2153296363608537E-002   9.3383517048665141E-003   5.1189983272669770E-002
  -3.0013399923601018E-002   8.7178947055616685E-003   5.1031972096045791E-002
  -4.4011399726751416E-002   1.1789301803223406E-002   4.5879096195808766E-002
  -4.1961383478700584E-002   1.1086906250173945E-002   4.5528213964418723E-002
  -3.9911367230649780E-002   1.0333151882007063E-002   4.4973382529224060E-002
  -3.7861350982598962E-002   9.5280386987230820E-003   4.4214601890224817E-002
  -3.5811334734548159E-002   8.6715667003218200E-003   4.3251872047420925E-002
  -1.7895061707810613E-002   8.8568787212811584E-003   7.2885289207754222E-002
  -1.7382204596049340E-002   9.1307840107757998E-003   7.4309713067819583E-002
  -1.6869347484288047E-002   9.7341586456248935E-003   7.6004170998179771E-002
  -1.6356490372526771E-002   1.0667002625827929E-002   7.7968662998834690E-002
  -1.5843633260765488E-002   1.1929315951385522E-002   8.0203189069784575E-002
  -2.1055263410232214E-002   8.8105507160413654E-003   6.5848680676212384E-002
  -2.0248221478588912E-002   8.7974239211426886E-003   6.6708278683011796E-002
  -1.9441179546945613E-002   9.0353633142005868E-003   6.7886212259280584E-002
  -1.8634137615302301E-002   9.5243688952145640E-003   6.9382481405018542E-002
  -1.7827095683658985E-002   1.0264440664185082E-002   7.1197086120225628E-002
  -2.5094709482162358E-002   8.7642227108015169E-003   5.8564241638976292E-002
  -2.3945181231462540E-002   8.4640638315095912E-003   5.8780610635111905E-002
  -2.2795652980762776E-002   8.3365679827761621E-003   5.9363616699891118E-002
  -2.1646124730062978E-002   8.3817351646012523E-003   6.0313259833314148E-002
  -2.0496596479363194E-002   8.5995653769847802E-003   6.1629540035380889E-002
  -3.0013399923601018E-002   8.7178947055616685E-003   5.1031972096045791E-002
  -2.8473083854670279E-002   8.1307037418764869E-003   5.0526708924119604E-002
  -2.6932767785739511E-002   7.6377726513518519E-003   5.0436384320011740E-002
  -2.5392451716808730E-002   7.2391014339879137E-003   5.0760998283721916E-002
  -2.3852135647878005E-002   6.9346900897845759E-003   5.1500550815250401E-002
  -3.5811334734548159E-002   8.6715667003218200E-003   4.3251872047420925E-002
  -3.3831929348212011E-002   7.7973436522433826E-003   4.1946573550035171E-002
  -3.1852523961875830E-002   6.9389773199274168E-003   4.1104515119642138E-002
  -2.9873118575539693E-002   6.0964677033745994E-003   4.0725696756241783E-002
  -2.7893713189203501E-002   5.2698148025841496E-003   4.0810118459833955E-002
  -1.5843633260765488E-002   1.1929315951385522E-002   8.0203189069784575E-002
  -1.4841024502358864E-002   1.3997381907352835E-002   8.4313103030302261E-002
  -1.3838415743952243E-002   1.7347483778786213E-002   9.1783639189774752E-002
  -1.2835806985545617E-002   2.1979621565684494E-002  0.10261479754820231     
  -1.1833198227138991E-002   2.7893795268049137E-002  0.11680657810558448     
  -1.7827095683658985E-002   1.0264440664185082E-002   7.1197086120225628E-002
  -1.4395846761537899E-002   1.1332139967585447E-002   7.4532092070876771E-002
  -1.0964597839416803E-002   1.2804028151888996E-002   7.9363756150002046E-002
  -7.5333489172957416E-003   1.4680105217095875E-002   8.5692078357601412E-002
  -4.1020999951746212E-003   1.6960371163206034E-002   9.3517058693674660E-002
  -2.0496596479363194E-002   8.5995653769847802E-003   6.1629540035380889E-002
  -1.6500671464008430E-002   8.6668980278181429E-003   6.3311790941602913E-002
  -1.2504746448653695E-002   8.2605725249922726E-003   6.4626735905818411E-002
  -8.5088214332989780E-003   7.3805888685071434E-003   6.5574374928026716E-002
  -4.5128964179441747E-003   6.0269470583629303E-003   6.6154708008228980E-002
  -2.3852135647878005E-002   6.9346900897845759E-003   5.1500550815250401E-002
  -2.1155498609770430E-002   6.0016560880507414E-003   5.0652199642481112E-002
  -1.8458861571662783E-002   3.7171168980953580E-003   4.7572578457224263E-002
  -1.5762224533555233E-002   8.1072519918412751E-005   4.2261687259479715E-002
  -1.3065587495447589E-002  -4.9064770464802288E-003   3.4719526049247815E-002
  -2.7893713189203501E-002   5.2698148025841496E-003   4.0810118459833955E-002
  -2.8360328198823864E-002   3.3364141482834508E-003   3.6553318173510707E-002
  -2.8826943208444200E-002  -8.2633872880144565E-004   2.8201283804219213E-002
  -2.9293558218064571E-002  -7.2184438286702346E-003   1.5754015351959222E-002
  -2.9760173227684927E-002  -1.5839901151323277E-002  -7.8848718326884892E-004
  -5.7127352076119950E-002   0.0000000000000000        3.4742935755801188E-002
  -5.7912246525529398E-002   2.0713048275717546E-003   3.8395017504546047E-002
  -5.8697140974938833E-002   4.1118303525357093E-003   4.2256441543284874E-002
  -5.9482035424348274E-002   6.1215765748918651E-003   4.6327207872017676E-002
  -6.0266929873757716E-002   8.1005434946402124E-003   5.0607316490744458E-002
  -6.5790541996481267E-002   0.0000000000000000        3.7252128169379783E-002
  -6.6594390750894253E-002   2.9030554265898735E-003   4.0871784769947440E-002
  -6.7398239505307253E-002   5.7488410097964338E-003   4.4244190470514005E-002
  -6.8202088259720239E-002   8.5373567496196852E-003   4.7369345271079472E-002
  -6.9005937014133240E-002   1.1268602646059618E-002   5.0247249171643860E-002
  -7.4213835897026667E-002   0.0000000000000000        4.0606316452364254E-002
  -7.5493232146438299E-002   3.7348060256079921E-003   4.4167057363979176E-002
  -7.6772628395849918E-002   7.3858516670571601E-003   4.7023954185597967E-002
  -7.8052024645261536E-002   1.0953136924347500E-002   4.9177006917220621E-002
  -7.9331420894673155E-002   1.4436661797479020E-002   5.0626215558847089E-002
  -8.2397233777756207E-002   0.0000000000000000        4.4805500604754592E-002
  -8.4608770712161496E-002   4.5665566246261115E-003   4.8280835286641302E-002
  -8.6820307646566827E-002   9.0228623243178846E-003   5.0595732688536801E-002
  -8.9031844580972103E-002   1.3368917099075320E-002   5.1750192810441076E-002
  -9.1243381515377392E-002   1.7604720948898419E-002   5.1744215652354167E-002
  -9.0340735638669858E-002   0.0000000000000000        4.9849680626550812E-002
  -9.3941006448063899E-002   5.3983072236442279E-003   5.3213118537933778E-002
  -9.7541277257457953E-002   1.0659872981578609E-002   5.4959525979330480E-002
 -0.10114154806685199        1.5784697273803140E-002   5.5088902950740891E-002
 -0.10474181887624603        2.0772780100317828E-002   5.3601249452165031E-002
  -6.0266929873757716E-002   8.1005434946402124E-003   5.0607316490744458E-002
  -6.0536138094870247E-002   9.9653425003897837E-003   5.1540579205471185E-002
  -6.0805346315982778E-002   1.1632584980749561E-002   5.2262204055496086E-002
  -6.1074554537095323E-002   1.3102270935719590E-002   5.2772191040819157E-002
  -6.1343762758207854E-002   1.4374400365299841E-002   5.3070540161440402E-002
  -6.9005937014133240E-002   1.1268602646059618E-002   5.0247249171643860E-002
  -6.9250309327492057E-002   1.3701965235402392E-002   4.9462482270561395E-002
  -6.9494681640850903E-002   1.5596831053934179E-002   4.8939025049688174E-002
  -6.9739053954209707E-002   1.6953200101654988E-002   4.8676877509024212E-002
  -6.9983426267568538E-002   1.7771072378564776E-002   4.8676039648569494E-002
  -7.9331420894673155E-002   1.4436661797479020E-002   5.0626215558847089E-002
  -7.9078009755367190E-002   1.7438587970415014E-002   4.7782478796534182E-002
  -7.8824598616061198E-002   1.9561077127118787E-002   4.5672999259341637E-002
  -7.8571187476755219E-002   2.0804129267590361E-002   4.4297776947269420E-002
  -7.8317776337449213E-002   2.1167744391829703E-002   4.3656811860317543E-002
  -9.1243381515377392E-002   1.7604720948898419E-002   5.1744215652354167E-002
  -9.0019239378495555E-002   2.1175210705427626E-002   4.6500568783389602E-002
  -8.8795097241613691E-002   2.3525323200303427E-002   4.2464126684456469E-002
  -8.7570955104731812E-002   2.4655058433525716E-002   3.9634889355554800E-002
  -8.6346812967849990E-002   2.4564416405094602E-002   3.8012856796684494E-002
 -0.10474181887624603        2.0772780100317828E-002   5.3601249452165031E-002
 -0.10207399819687721        2.4911833440440255E-002   4.5616752231127614E-002
  -9.9406177517508368E-002   2.7489569273488012E-002   3.9312407325032724E-002
  -9.6738356838139555E-002   2.8505987599461130E-002   3.4688214733880292E-002
  -9.4070536158770729E-002   2.7961088418359564E-002   3.1744174457670457E-002
  -6.1343762758207854E-002   1.4374400365299841E-002   5.3070540161440402E-002
  -6.0013496917753560E-002   1.5350499083168736E-002   5.1592161051630600E-002
  -5.8683231077299253E-002   1.5932092903004610E-002   5.0509262732208293E-002
  -5.7352965236844945E-002   1.6119181824807562E-002   4.9821845203173371E-002
  -5.6022699396390652E-002   1.5911765848577522E-002   4.9529908464525971E-002
  -6.9983426267568538E-002   1.7771072378564776E-002   4.8676039648569494E-002
  -6.8294721015566662E-002   1.8207760769622012E-002   4.7156744649936244E-002
  -6.6606015763564799E-002   1.8420578159785154E-002   4.5958847684010699E-002
  -6.4917310511562895E-002   1.8409524549054212E-002   4.5082348750792804E-002
  -6.3228605259561046E-002   1.8174599937429203E-002   4.4527247850282649E-002
  -7.8317776337449213E-002   2.1167744391829703E-002   4.3656811860317543E-002
  -7.6344714431579572E-002   2.1065022456075333E-002   4.2267234869999726E-002
  -7.4371652525709889E-002   2.0909063416565725E-002   4.1124973154709844E-002
  -7.2398590619840247E-002   2.0699867273300879E-002   4.0230026714447822E-002
  -7.0425528713970564E-002   2.0437434026280850E-002   3.9582395549213764E-002
  -8.6346812967849990E-002   2.4564416405094602E-002   3.8012856796684494E-002
  -8.4163477165792297E-002   2.3922284142528664E-002   3.6923631711820976E-002
  -8.1980141363734590E-002   2.3397548673346296E-002   3.6007639144305610E-002
  -7.9796805561676884E-002   2.2990209997547591E-002   3.5264879094138384E-002
  -7.7613469759619219E-002   2.2700268115132458E-002   3.4695351561319240E-002
  -9.4070536158770729E-002   2.7961088418359564E-002   3.1744174457670457E-002
  -9.1751009218204782E-002   2.6779545828981934E-002   3.1125935175400077E-002
  -8.9431482277638849E-002   2.5886033930126843E-002   3.0606845652798087E-002
  -8.7111955337072902E-002   2.5280552721794192E-002   3.0186905889864456E-002
  -8.4792428396506969E-002   2.4963102203984164E-002   2.9866115886599168E-002
  -5.6022699396390652E-002   1.5911765848577522E-002   4.9529908464525971E-002
  -5.4220489950263850E-002   1.5496440510740651E-002   4.9119998635292511E-002
  -5.2418280504137021E-002   1.5059801347722879E-002   4.8738882579963276E-002
  -5.0616071058010220E-002   1.4601848359524213E-002   4.8386560298538148E-002
  -4.8813861611883391E-002   1.4122581546144819E-002   4.8063031791017202E-002
  -6.3228605259561046E-002   1.8174599937429203E-002   4.4527247850282649E-002
  -6.1361272526787393E-002   1.7797628070968713E-002   4.4121881275573954E-002
  -5.9493939794013698E-002   1.7360432695731474E-002   4.3817967500254865E-002
  -5.7626607061240002E-002   1.6863013811717446E-002   4.3615506524325325E-002
  -5.5759274328466349E-002   1.6305371418926684E-002   4.3514498347785258E-002
  -7.0425528713970564E-002   2.0437434026280850E-002   3.9582395549213764E-002
  -6.8420413669064650E-002   2.0098815631196826E-002   3.9142662545433901E-002
  -6.6415298624158750E-002   1.9661064043740094E-002   3.8877041366528989E-002
  -6.4410183579252836E-002   1.9124179263910718E-002   3.8785532012499062E-002
  -6.2405068534346943E-002   1.8488161291708577E-002   3.8868134483343988E-002
  -7.7613469759619219E-002   2.2700268115132458E-002   3.4695351561319240E-002
  -7.5397913377095671E-002   2.2400003191424898E-002   3.4182342444872338E-002
  -7.3182356994572123E-002   2.1961695391748731E-002   3.3916104178785704E-002
  -7.0966800612048575E-002   2.1385344716103941E-002   3.3896636763059436E-002
  -6.8751244229525041E-002   2.0670951164490428E-002   3.4123940197693478E-002
  -8.4792428396506969E-002   2.4963102203984164E-002   2.9866115886599168E-002
  -8.2293771650880448E-002   2.4701190751653015E-002   2.9240920973889306E-002
  -7.9795114905253872E-002   2.4262326739757301E-002   2.8935155937024983E-002
  -7.7296458159627338E-002   2.3646510168297202E-002   2.8948820776006561E-002
  -7.4797801414000775E-002   2.2853741037272363E-002   2.9281915490833671E-002
  -4.8813861611883391E-002   1.4122581546144819E-002   4.8063031791017202E-002
  -4.7613246140600397E-002   1.3609308767734724E-002   4.6889499720420891E-002
  -4.6412630669317403E-002   1.3049337884444637E-002   4.6134333097687302E-002
  -4.5212015198034382E-002   1.2442668896274104E-002   4.5797531922816645E-002
  -4.4011399726751416E-002   1.1789301803223406E-002   4.5879096195808766E-002
  -5.5759274328466349E-002   1.6305371418926684E-002   4.3514498347785258E-002
  -5.4188131113286825E-002   1.5710847708780534E-002   4.2562628468517924E-002
  -5.2616987898107266E-002   1.5102784872700406E-002   4.1933448629180803E-002
  -5.1045844682927763E-002   1.4481182910686233E-002   4.1626958829773984E-002
  -4.9474701467748204E-002   1.3846041822738075E-002   4.1643159070297420E-002
  -6.2405068534346943E-002   1.8488161291708577E-002   3.8868134483343988E-002
  -6.0559072983203406E-002   1.7812386649826220E-002   3.8171085774351979E-002
  -5.8713077432059904E-002   1.7156231860956168E-002   3.7701051697357511E-002
  -5.6867081880916409E-002   1.6519696925098304E-002   3.7458032252360912E-002
  -5.5021086329772866E-002   1.5902781842252772E-002   3.7442027439361841E-002
  -6.8751244229525041E-002   2.0670951164490428E-002   3.4123940197693478E-002
  -6.6726071750350155E-002   1.9913925590871968E-002   3.3714871637922958E-002
  -6.4700899271175213E-002   1.9209678849212018E-002   3.3437142302217455E-002
  -6.2675726792000327E-002   1.8558210939510461E-002   3.3290752190577151E-002
  -6.0650554312825379E-002   1.7959521861767372E-002   3.3275701303001913E-002
  -7.4797801414000775E-002   2.2853741037272363E-002   2.9281915490833671E-002
  -7.2689127414727023E-002   2.2015464531917744E-002   2.9193986059230903E-002
  -7.0580453415453284E-002   2.1263125837467749E-002   2.9141720443760580E-002
  -6.8471779416179518E-002   2.0596724953922549E-002   2.9125118644422944E-002
  -6.6363105416905793E-002   2.0016261881282138E-002   2.9144180661217711E-002
  -4.4011399726751416E-002   1.1789301803223406E-002   4.5879096195808766E-002
  -4.1961383478700584E-002   1.1086906250173945E-002   4.5528213964418723E-002
  -3.9911367230649780E-002   1.0333151882007063E-002   4.4973382529224060E-002
  -3.7861350982598962E-002   9.5280386987230820E-003   4.4214601890224817E-002
  -3.5811334734548159E-002   8.6715667003218200E-003   4.3251872047420925E-002
  -4.9474701467748204E-002   1.3846041822738075E-002   4.1643159070297420E-002
  -4.7544686971577162E-002   1.3173481159480319E-002   4.1236811749903221E-002
  -4.5614672475406154E-002   1.2439620471537641E-002   4.0794410129554121E-002
  -4.3684657979235174E-002   1.1644459758909754E-002   4.0315954209249993E-002
  -4.1754643483064124E-002   1.0787999021596717E-002   3.9801443988991048E-002
  -5.5021086329772866E-002   1.5902781842252772E-002   3.7442027439361841E-002
  -5.3043178681631983E-002   1.5260056068786887E-002   3.6970273820395666E-002
  -5.1065271033491053E-002   1.4546089061067996E-002   3.6630360805324169E-002
  -4.9087363385350143E-002   1.3760880819096315E-002   3.6422288394147490E-002
  -4.7109455737209233E-002   1.2904431342871642E-002   3.6346056586865474E-002
  -6.0650554312825379E-002   1.7959521861767372E-002   3.3275701303001913E-002
  -5.8456858608864889E-002   1.7346630978093330E-002   3.2728600175895822E-002
  -5.6263162904904400E-002   1.6652557650598490E-002   3.2481234556534254E-002
  -5.4069467200943931E-002   1.5877301879282848E-002   3.2533604444917000E-002
  -5.1875771496983421E-002   1.5020863664146691E-002   3.2885709841044400E-002
  -6.6363105416905793E-002   2.0016261881282138E-002   2.9144180661217711E-002
  -6.3785726753276012E-002   1.9433205887399885E-002   2.8511790816404065E-002
  -6.1208348089646245E-002   1.8759026240128887E-002   2.8347031383184451E-002
  -5.8630969426016484E-002   1.7993722939469454E-002   2.8649902361558982E-002
  -5.6053590762386696E-002   1.7137295985421463E-002   2.9420403751527602E-002
  -3.5811334734548159E-002   8.6715667003218200E-003   4.3251872047420925E-002
  -3.3831929348212011E-002   7.7973436522433826E-003   4.1946573550035171E-002
  -3.1852523961875830E-002   6.9389773199274168E-003   4.1104515119642138E-002
  -2.9873118575539693E-002   6.0964677033745994E-003   4.0725696756241783E-002
  -2.7893713189203501E-002   5.2698148025841496E-003   4.0810118459833955E-002
  -4.1754643483064124E-002   1.0787999021596717E-002   3.9801443988991048E-002
  -3.9419952212900504E-002   9.9096018291801868E-003   3.8993329717931402E-002
  -3.7085260942736863E-002   9.0486317512420006E-003   3.8432547147534163E-002
  -3.4750569672573228E-002   8.2050887877817454E-003   3.8119096277799136E-002
  -3.2415878402409587E-002   7.3789729387996328E-003   3.8052977108726571E-002
  -4.7109455737209233E-002   1.2904431342871642E-002   3.6346056586865474E-002
  -4.4635386949548425E-002   1.2021860006117380E-002   3.6036696940847393E-002
  -4.2161318161887701E-002   1.1158286182556425E-002   3.5758760629161369E-002
  -3.9687249374226914E-002   1.0313709872189060E-002   3.5512247651807258E-002
  -3.7213180586566121E-002   9.4881310750151715E-003   3.5297158008785107E-002
  -5.1875771496983421E-002   1.5020863664146691E-002   3.2885709841044400E-002
  -4.9478233558155817E-002   1.4134118183054378E-002   3.3076675218783200E-002
  -4.7080695619328296E-002   1.3267940613870901E-002   3.3083155564523688E-002
  -4.4683157680500747E-002   1.2422330956596402E-002   3.2905150878265774E-002
  -4.2285619741673212E-002   1.1597289211230627E-002   3.2542661160009423E-002
  -5.6053590762386696E-002   1.7137295985421463E-002   2.9420403751527602E-002
  -5.3948492038722706E-002   1.6246376359991349E-002   3.0113264551738739E-002
  -5.1843393315058703E-002   1.5377595045185447E-002   3.0405731953621146E-002
  -4.9738294591394720E-002   1.4530952041003579E-002   3.0297805957174836E-002
  -4.7633195867730710E-002   1.3706447347446138E-002   2.9789486562399714E-002
  -2.7893713189203501E-002   5.2698148025841496E-003   4.0810118459833955E-002
  -2.8360328198823864E-002   3.3364141482834508E-003   3.6553318173510707E-002
  -2.8826943208444200E-002  -8.2633872880144565E-004   2.8201283804219213E-002
  -2.9293558218064571E-002  -7.2184438286702346E-003   1.5754015351959222E-002
  -2.9760173227684927E-002  -1.5839901151323277E-002  -7.8848718326884892E-004
  -3.2415878402409587E-002   7.3789729387996328E-003   3.8052977108726571E-002
  -3.5963615487137869E-002   5.9177640657790131E-003   3.2776669166643735E-002
  -3.9511352571866130E-002   3.1689420302030979E-003   2.5433351157313350E-002
  -4.3059089656594482E-002  -8.6749316792803649E-004   1.6023023080735707E-002
  -4.6606826741322660E-002  -6.1915415286144526E-003   4.5456849369105434E-003
  -3.7213180586566121E-002   9.4881310750151715E-003   3.5297158008785107E-002
  -4.1813815730681402E-002   8.4991139832747420E-003   2.9943081471171279E-002
  -4.6414450874796676E-002   7.1642227892078081E-003   2.4550218882030975E-002
  -5.1015086018911998E-002   5.4834574928143004E-003   1.9118570241364000E-002
  -5.5615721163027168E-002   3.4568180940942606E-003   1.3648135549170215E-002
  -4.2285619741673212E-002   1.1597289211230627E-002   3.2542661160009423E-002
  -4.5910928929454621E-002   1.1080463900770443E-002   2.8052555087093499E-002
  -4.9536238117236078E-002   1.1159503548212324E-002   2.5551886978371866E-002
  -5.3161547305017619E-002   1.1834408153556679E-002   2.5040656833844328E-002
  -5.6786856492799007E-002   1.3105177716803085E-002   2.6518864653511318E-002
  -4.7633195867730710E-002   1.3706447347446138E-002   2.9789486562399714E-002
  -4.8254955083457451E-002   1.3661813818266200E-002   2.7105090014410194E-002
  -4.8876714299184179E-002   1.5154784307217048E-002   2.8438355446335911E-002
  -4.9498473514910844E-002   1.8185358814298887E-002   3.3789282858176631E-002
  -5.0120232730637593E-002   2.2753537339511798E-002   4.3157872249932838E-002
  -9.0340735638669858E-002   0.0000000000000000        4.9849680626550812E-002
  -9.3941006448063899E-002   5.3983072236442279E-003   5.3213118537933778E-002
  -9.7541277257457953E-002   1.0659872981578609E-002   5.4959525979330480E-002
 -0.10114154806685199        1.5784697273803140E-002   5.5088902950740891E-002
 -0.10474181887624603        2.0772780100317828E-002   5.3601249452165031E-002
 -0.10327870051491705        0.0000000000000000        5.8672666565459899E-002
 -0.10681526085643468        1.0880863116701542E-002   5.2121221826750171E-002
 -0.11035182119795235        1.9164864624168155E-002   4.7314228493779517E-002
 -0.11388838153946999        2.4852004522399822E-002   4.4251686566547932E-002
 -0.11742494188098762        2.7942282811396560E-002   4.2933596045055429E-002
 -0.12644548744164721        0.0000000000000000        7.4208268469188848E-002
 -0.12655685543956310        1.6363419009758861E-002   5.5281820936861334E-002
 -0.12666822343747902        2.7669856266757688E-002   4.1461306685998241E-002
 -0.12677959143539491        3.3919311770996483E-002   3.2746725716599569E-002
 -0.12689095943331080        3.5111785522475278E-002   2.9138078028665314E-002
 -0.15984109641886035        0.0000000000000000        9.6456486337737651E-002
 -0.15316579019744919        2.1845974902816184E-002   6.2694915868267267E-002
 -0.14649048397603798        3.6174847909347239E-002   3.7400760555986644E-002
 -0.13981517775462679        4.2986619019593178E-002   2.0574020400895815E-002
 -0.13313987153321558        4.2281288233554003E-002   1.2214695402994703E-002
 -0.20346552744655649        0.0000000000000000       0.12541732017110632     
 -0.18664206513009285        2.7328530795873492E-002   7.4360506620967964E-002
 -0.16981860281362920        4.4679839551936766E-002   3.5132590103744740E-002
 -0.15299514049716559        5.2053926268189846E-002   7.7335706194365667E-003
 -0.13617167818070194        4.9450790944632741E-002  -7.8365518319563968E-003
 -0.10474181887624603        2.0772780100317828E-002   5.3601249452165031E-002
 -0.10207399819687721        2.4911833440440255E-002   4.5616752231127614E-002
  -9.9406177517508368E-002   2.7489569273488012E-002   3.9312407325032724E-002
  -9.6738356838139555E-002   2.8505987599461130E-002   3.4688214733880292E-002
  -9.4070536158770729E-002   2.7961088418359564E-002   3.1744174457670457E-002
 -0.11742494188098762        2.7942282811396560E-002   4.2933596045055429E-002
 -0.11346320253257552        2.9411875645380642E-002   3.6677057226604706E-002
 -0.10950146318416343        3.0236959178574423E-002   3.1328203431298038E-002
 -0.10553972383575132        3.0417533410977894E-002   2.6887034659135459E-002
 -0.10157798448733921        2.9953598342591078E-002   2.3353550910116865E-002
 -0.12689095943331080        3.5111785522475278E-002   2.9138078028665314E-002
 -0.12240776870765388        3.3911917850321008E-002   2.5526305819085621E-002
 -0.11792457798199696        3.2984349083660880E-002   2.2049751340851576E-002
 -0.11344138725634005        3.2329079222494665E-002   1.8708414593963090E-002
 -0.10895819653068310        3.1946108266822523E-002   1.5502295578420189E-002
 -0.13313987153321558        4.2281288233554003E-002   1.2214695402994703E-002
 -0.12890769672211233        3.8411960055261450E-002   1.2164498008570425E-002
 -0.12467552191100899        3.5731738988747215E-002   1.1477051053693298E-002
 -0.12044334709990567        3.4240625034011436E-002   1.0152354538363223E-002
 -0.11621117228880240        3.3938618191053954E-002   8.1904084625803904E-003
 -0.13617167818070194        4.9450790944632741E-002  -7.8365518319563968E-003
 -0.13296298657595074        4.2912002260201823E-002  -3.4083662049409769E-003
 -0.12975429497119956        3.8479128893833682E-002  -3.8989743017684743E-004
 -0.12654560336644835        3.6152170845528207E-002   1.2188544923360431E-003
 -0.12333691176169714        3.5931128115285510E-002   1.4178895625973631E-003
  -9.4070536158770729E-002   2.7961088418359564E-002   3.1744174457670457E-002
  -9.1751009218204782E-002   2.6779545828981934E-002   3.1125935175400077E-002
  -8.9431482277638849E-002   2.5886033930126843E-002   3.0606845652798087E-002
  -8.7111955337072902E-002   2.5280552721794192E-002   3.0186905889864456E-002
  -8.4792428396506969E-002   2.4963102203984164E-002   2.9866115886599168E-002
 -0.10157798448733921        2.9953598342591078E-002   2.3353550910116865E-002
  -9.9148268525184755E-002   2.9195408295000704E-002   2.3045602191444081E-002
  -9.6718552563030261E-002   2.8493217589793538E-002   2.2858881756280102E-002
  -9.4288836600875822E-002   2.7847026226969690E-002   2.2793389604624743E-002
  -9.1859120638721314E-002   2.7256834206529079E-002   2.2849125736478057E-002
 -0.10895819653068310        3.1946108266822523E-002   1.5502295578420189E-002
 -0.10639621302309979        3.1611270761019425E-002   1.5272606075205811E-002
 -0.10383422951551648        3.1100401249460341E-002   1.5186223379340396E-002
 -0.10127224600793312        3.0413499732145161E-002   1.5243147490824144E-002
  -9.8710262500349782E-002   2.9550566209074002E-002   1.5443378409656771E-002
 -0.11621117228880240        3.3938618191053954E-002   8.1904084625803904E-003
 -0.11349484271194990        3.4027133227038119E-002   7.8069468266850914E-003
 -0.11077851313509740        3.3707584909127036E-002   7.5888705219792716E-003
 -0.10806218355824491        3.2979973237320596E-002   7.5361795484627705E-003
 -0.10534585398139240        3.1844298211619035E-002   7.6488739061355898E-003
 -0.12333691176169714        3.5931128115285510E-002   1.4178895625973631E-003
 -0.12044415759173516        3.6442995693056923E-002   6.4862444588194290E-004
 -0.11755140342177312        3.6314768568793794E-002   6.6823184196318497E-005
 -0.11465864925181107        3.5546446742496116E-002  -3.2751422245978767E-004
 -0.11176589508184909        3.4138030214163895E-002  -5.3438777408604254E-004
  -8.4792428396506969E-002   2.4963102203984164E-002   2.9866115886599168E-002
  -8.2293771650880448E-002   2.4701190751653015E-002   2.9240920973889306E-002
  -7.9795114905253872E-002   2.4262326739757301E-002   2.8935155937024983E-002
  -7.7296458159627338E-002   2.3646510168297202E-002   2.8948820776006561E-002
  -7.4797801414000775E-002   2.2853741037272363E-002   2.9281915490833671E-002
  -9.1859120638721314E-002   2.7256834206529079E-002   2.2849125736478057E-002
  -8.9080100589517514E-002   2.6665292141681701E-002   2.2282588636704903E-002
  -8.6301080540313657E-002   2.6015050645637368E-002   2.1957348268240695E-002
  -8.3522060491109829E-002   2.5306109718396239E-002   2.1873404631085249E-002
  -8.0743040441905944E-002   2.4538469359958098E-002   2.2030757725238714E-002
  -9.8710262500349782E-002   2.9550566209074002E-002   1.5443378409656771E-002
  -9.5729012292105509E-002   2.8629393531710352E-002   1.5053752251188157E-002
  -9.2747762083861165E-002   2.7767774551517348E-002   1.4827289679491493E-002
  -8.9766511875616878E-002   2.6965709268495223E-002   1.4763990694566863E-002
  -8.6785261667372549E-002   2.6223197682643765E-002   1.4863855296414354E-002
 -0.10534585398139240        3.1844298211619035E-002   7.6488739061355898E-003
 -0.10224050675864445        3.0593494921739049E-002   7.5544118173387961E-003
  -9.9135159535896453E-002   2.9520498457397470E-002   7.5449801707774180E-003
  -9.6029812313148499E-002   2.8625308818594358E-002   7.6205789664512457E-003
  -9.2924465090400504E-002   2.7907926005329493E-002   7.7812082043604795E-003
 -0.11176589508184909        3.4138030214163895E-002  -5.3438777408604254E-004
 -0.10861458398913426        3.2557596311767661E-002  -2.1543266484294610E-004
 -0.10546327289641949        3.1273222363277300E-002   1.1041974209877181E-004
 -0.10231196180370467        3.0284908368693287E-002   4.4316944673863240E-004
  -9.9160650710989895E-002   2.9592654328015167E-002   7.8281644907707282E-004
  -7.4797801414000775E-002   2.2853741037272363E-002   2.9281915490833671E-002
  -7.2689127414727023E-002   2.2015464531917744E-002   2.9193986059230903E-002
  -7.0580453415453284E-002   2.1263125837467749E-002   2.9141720443760580E-002
  -6.8471779416179518E-002   2.0596724953922549E-002   2.9125118644422944E-002
  -6.6363105416905793E-002   2.0016261881282138E-002   2.9144180661217711E-002
  -8.0743040441905944E-002   2.4538469359958098E-002   2.2030757725238714E-002
  -7.8568226975390829E-002   2.3752526415341146E-002   2.1930337782055401E-002
  -7.6393413508875740E-002   2.2988677729563652E-002   2.1926532957222258E-002
  -7.4218600042360652E-002   2.2246923302625385E-002   2.2019343250739329E-002
  -7.2043786575845536E-002   2.1527263134526298E-002   2.2208768662606487E-002
  -8.6785261667372549E-002   2.6223197682643765E-002   1.4863855296414354E-002
  -8.4483357431398426E-002   2.5489588298764812E-002   1.4687101289584975E-002
  -8.2181453195424303E-002   2.4714229621659558E-002   1.4667913703323567E-002
  -7.9879548959450139E-002   2.3897121651328200E-002   1.4806292537629840E-002
  -7.7577644723476058E-002   2.3038264387770513E-002   1.5102237792503914E-002
  -9.2924465090400504E-002   2.7907926005329493E-002   7.7812082043604795E-003
  -9.0434518782749718E-002   2.7226650182188346E-002   7.4642765818194960E-003
  -8.7944572475098931E-002   2.6439781513755464E-002   7.3658626820644101E-003
  -8.5454626167448131E-002   2.5547320000030887E-002   7.4859665050947075E-003
  -8.2964679859797288E-002   2.4549265641014811E-002   7.8245880509102000E-003
  -9.9160650710989895E-002   2.9592654328015167E-002   7.8281644907707282E-004
  -9.6421711029444801E-002   2.8963712065611935E-002   2.6186365875929818E-004
  -9.3682771347899652E-002   2.8165333405851312E-002   2.0379893444902319E-005
  -9.0943831666354530E-002   2.7197518348733782E-002   5.8365153133416864E-005
  -8.8204891984809408E-002   2.6060266894258888E-002   3.7581943782510896E-004
  -6.6363105416905793E-002   2.0016261881282138E-002   2.9144180661217711E-002
  -6.3785726753276012E-002   1.9433205887399885E-002   2.8511790816404065E-002
  -6.1208348089646245E-002   1.8759026240128887E-002   2.8347031383184451E-002
  -5.8630969426016484E-002   1.7993722939469454E-002   2.8649902361558982E-002
  -5.6053590762386696E-002   1.7137295985421463E-002   2.9420403751527602E-002
  -7.2043786575845536E-002   2.1527263134526298E-002   2.2208768662606487E-002
  -6.9052061417299138E-002   2.0806591811667580E-002   2.1612297801550912E-002
  -6.6060336258752822E-002   2.0061803920450427E-002   2.1376889518734288E-002
  -6.3068611100206506E-002   1.9292899460874355E-002   2.1502543814156692E-002
  -6.0076885941660121E-002   1.8499878432939765E-002   2.1989260687818035E-002
  -7.7577644723476058E-002   2.3038264387770513E-002   1.5102237792503914E-002
  -7.4278140903368206E-002   2.2179977735935580E-002   1.4608693000236372E-002
  -7.0978637083260368E-002   2.1364581600771683E-002   1.4369642952852653E-002
  -6.7679133263152558E-002   2.0592075982279252E-002   1.4385087650352627E-002
  -6.4379629443044734E-002   1.9862460880458066E-002   1.4655027092736889E-002
  -8.2964679859797288E-002   2.4549265641014811E-002   7.8245880509102000E-003
  -7.9463965211483106E-002   2.3553363660203289E-002   7.5009764124603778E-003
  -7.5963250563168896E-002   2.2667359281093192E-002   7.3252916855393955E-003
  -7.2462535914854728E-002   2.1891252503684264E-002   7.2975338701472435E-003
  -6.8961821266540504E-002   2.1225043327976367E-002   7.4177029662838914E-003
  -8.8204891984809408E-002   2.6060266894258888E-002   3.7581943782510896E-004
  -8.4609534341643977E-002   2.4926749584471164E-002   2.8914803822294166E-004
  -8.1014176698478435E-002   2.3970136961414590E-002   2.4383571679471860E-004
  -7.7418819055312921E-002   2.3190429025089082E-002   2.3988247354013795E-004
  -7.3823461412147462E-002   2.2587625775494558E-002   2.7728830845930030E-004
  -5.6053590762386696E-002   1.7137295985421463E-002   2.9420403751527602E-002
  -5.3948492038722706E-002   1.6246376359991349E-002   3.0113264551738739E-002
  -5.1843393315058703E-002   1.5377595045185447E-002   3.0405731953621146E-002
  -4.9738294591394720E-002   1.4530952041003579E-002   3.0297805957174836E-002
  -4.7633195867730710E-002   1.3706447347446138E-002   2.9789486562399714E-002
  -6.0076885941660121E-002   1.8499878432939765E-002   2.1989260687818035E-002
  -5.8268422497658776E-002   1.7679535604824353E-002   2.2502236923894664E-002
  -5.6459959053657520E-002   1.6828665744705942E-002   2.2822335998974638E-002
  -5.4651495609656181E-002   1.5947268852584646E-002   2.2949557913057993E-002
  -5.2843032165654918E-002   1.5035344928460370E-002   2.2883902666144817E-002
  -6.4379629443044734E-002   1.9862460880458066E-002   1.4655027092736889E-002
  -6.2660285041373998E-002   1.9112694849657483E-002   1.4935453422051895E-002
  -6.0940940639703234E-002   1.8279736444226487E-002   1.5230518827702273E-002
  -5.9221596238032526E-002   1.7363585664165987E-002   1.5540223309687972E-002
  -5.7502251836361797E-002   1.6364242509474852E-002   1.5864566868009342E-002
  -6.8961821266540504E-002   2.1225043327976367E-002   7.4177029662838914E-003
  -6.7124079669868275E-002   2.0545854094490439E-002   7.4129140462100319E-003
  -6.5286338073196046E-002   1.9730807143747340E-002   7.6302804398038788E-003
  -6.3448596476523775E-002   1.8779902475746971E-002   8.0698021470650694E-003
  -6.1610854879851580E-002   1.7693140090489098E-002   8.7314791679940253E-003
  -7.3823461412147462E-002   2.2587625775494558E-002   2.7728830845930030E-004
  -7.1659806383141622E-002   2.1979013339323394E-002  -6.5381203630643370E-005
  -6.9496151354135727E-002   2.1181877843267749E-002   2.1620835279428929E-005
  -6.7332496325129887E-002   2.0196219287328177E-002   5.3829442518887188E-004
  -6.5168841296123992E-002   1.9022037671503456E-002   1.4846395660980116E-003
  -4.7633195867730710E-002   1.3706447347446138E-002   2.9789486562399714E-002
  -4.8254955083457451E-002   1.3661813818266200E-002   2.7105090014410194E-002
  -4.8876714299184179E-002   1.5154784307217048E-002   2.8438355446335911E-002
  -4.9498473514910844E-002   1.8185358814298887E-002   3.3789282858176631E-002
  -5.0120232730637593E-002   2.2753537339511798E-002   4.3157872249932838E-002
  -5.2843032165654918E-002   1.5035344928460370E-002   2.2883902666144817E-002
  -5.0215307773306350E-002   1.4592306956648843E-002   2.1234895850912039E-002
  -4.7587583380957851E-002   1.5117567921465111E-002   2.2067194271914697E-002
  -4.4959858988609352E-002   1.6611127822909352E-002   2.5380797929152529E-002
  -4.2332134596260784E-002   1.9072986660981783E-002   3.1175706822625826E-002
  -5.7502251836361797E-002   1.6364242509474852E-002   1.5864566868009342E-002
  -5.3161400579617865E-002   1.5522800095031347E-002   1.4681644704030716E-002
  -4.8820549322873982E-002   1.5080351535712848E-002   1.4443671032607304E-002
  -4.4479698066130023E-002   1.5036896831519679E-002   1.5150645853739392E-002
  -4.0138846809386231E-002   1.5392435982451547E-002   1.6802569167427173E-002
  -6.1610854879851580E-002   1.7693140090489098E-002   8.7314791679940253E-003
  -5.7093233502392066E-002   1.6453293233413810E-002   7.4453365737660246E-003
  -5.2575612124932572E-002   1.5043135149960748E-002   5.5677857284137985E-003
  -4.8057990747473099E-002   1.3462665840129964E-002   3.0988266319372107E-003
  -4.3540369370013564E-002   1.1711885303921588E-002   3.8459284336420096E-005
  -6.5168841296123992E-002   1.9022037671503456E-002   1.4846395660980116E-003
  -6.2010806541628827E-002   1.7383786371796495E-002  -4.7402853988171012E-004
  -5.8852771787133662E-002   1.5005918764209064E-002  -4.5604616406655918E-003
  -5.5694737032638414E-002   1.1888434848740408E-002  -1.0774659736253633E-002
  -5.2536702278143332E-002   8.0313346253912954E-003  -1.9116622826646390E-002
 </DataArray>
 </PointData>
 </Piece>
 <Piece  NumberOfPoints="          1600 "  NumberOfCells="         1024 ">
 <Points>
 <DataArray  type="Float64" NumberOfComponents="3"  format="ascii" >
  0.50000000000000000        0.0000000000000000        0.0000000000000000     
  0.53125000000000000        0.0000000000000000        0.0000000000000000     
  0.56250000000000000        0.0000000000000000        0.0000000000000000     
  0.59375000000000000        0.0000000000000000        0.0000000000000000     
  0.62500000000000000        0.0000000000000000        0.0000000000000000     
  0.50000000000000000        3.1250000000000000E-002   0.0000000000000000     
  0.53125000000000000        3.1250000000000000E-002   0.0000000000000000     
  0.56250000000000000        3.1250000000000000E-002   0.0000000000000000     
  0.59375000000000000        3.1250000000000000E-002   0.0000000000000000     
  0.62500000000000000        3.1250000000000000E-002   0.0000000000000000     
  0.50000000000000000        6.2500000000000000E-002   0.0000000000000000     
  0.53125000000000000        6.2500000000000000E-002   0.0000000000000000     
  0.56250000000000000        6.2500000000000000E-002   0.0000000000000000     
  0.59375000000000000        6.2500000000000000E-002   0.0000000000000000     
  0.62500000000000000        6.2500000000000000E-002   0.0000000000000000     
  0.50000000000000000        9.3750000000000000E-002   0.0000000000000000     
  0.53125000000000000        9.3750000000000000E-002   0.0000000000000000     
  0.56250000000000000        9.3750000000000000E-002   0.0000000000000000     
  0.59375000000000000        9.3750000000000000E-002   0.0000000000000000     
  0.62500000000000000        9.3750000000000000E-002   0.0000000000000000     
  0.50000000000000000       0.12500000000000000        0.0000000000000000     
  0.53125000000000000       0.12500000000000000        0.0000000000000000     
  0.56250000000000000       0.12500000000000000        0.0000000000000000     
  0.59375000000000000       0.12500000000000000        0.0000000000000000     
  0.62500000000000000       0.12500000000000000        0.0000000000000000     
  0.62500000000000000        0.0000000000000000        0.0000000000000000     
  0.65625000000000000        0.0000000000000000        0.0000000000000000     
  0.68750000000000000        0.0000000000000000        0.0000000000000000     
  0.71875000000000000        0.0000000000000000        0.0000000000000000     
  0.75000000000000000        0.0000000000000000        0.0000000000000000     
  0.62500000000000000        3.1250000000000000E-002   0.0000000000000000     
  0.65625000000000000        3.1250000000000000E-002   0.0000000000000000     
  0.68750000000000000        3.1250000000000000E-002   0.0000000000000000     
  0.71875000000000000        3.1250000000000000E-002   0.0000000000000000     
  0.75000000000000000        3.1250000000000000E-002   0.0000000000000000     
  0.62500000000000000        6.2500000000000000E-002   0.0000000000000000     
  0.65625000000000000        6.2500000000000000E-002   0.0000000000000000     
  0.68750000000000000        6.2500000000000000E-002   0.0000000000000000     
  0.71875000000000000        6.2500000000000000E-002   0.0000000000000000     
  0.75000000000000000        6.2500000000000000E-002   0.0000000000000000     
  0.62500000000000000        9.3750000000000000E-002   0.0000000000000000     
  0.65625000000000000        9.3750000000000000E-002   0.0000000000000000     
  0.68750000000000000        9.3750000000000000E-002   0.0000000000000000     
  0.71875000000000000        9.3750000000000000E-002   0.0000000000000000     
  0.75000000000000000        9.3750000000000000E-002   0.0000000000000000     
  0.62500000000000000       0.12500000000000000        0.0000000000000000     
  0.65625000000000000       0.12500000000000000        0.0000000000000000     
  0.68750000000000000       0.12500000000000000        0.0000000000000000     
  0.71875000000000000       0.12500000000000000        0.0000000000000000     
  0.75000000000000000       0.12500000000000000        0.0000000000000000     
  0.75000000000000000        0.0000000000000000        0.0000000000000000     
  0.78125000000000000        0.0000000000000000        0.0000000000000000     
  0.81250000000000000        0.0000000000000000        0.0000000000000000     
  0.84375000000000000        0.0000000000000000        0.0000000000000000     
  0.87500000000000000        0.0000000000000000        0.0000000000000000     
  0.75000000000000000        3.1250000000000000E-002   0.0000000000000000     
  0.78125000000000000        3.1250000000000000E-002   0.0000000000000000     
  0.81250000000000000        3.1250000000000000E-002   0.0000000000000000     
  0.84375000000000000        3.1250000000000000E-002   0.0000000000000000     
  0.87500000000000000        3.1250000000000000E-002   0.0000000000000000     
  0.75000000000000000        6.2500000000000000E-002   0.0000000000000000     
  0.78125000000000000        6.2500000000000000E-002   0.0000000000000000     
  0.81250000000000000        6.2500000000000000E-002   0.0000000000000000     
  0.84375000000000000        6.2500000000000000E-002   0.0000000000000000     
  0.87500000000000000        6.2500000000000000E-002   0.0000000000000000     
  0.75000000000000000        9.3750000000000000E-002   0.0000000000000000     
  0.78125000000000000        9.3750000000000000E-002   0.0000000000000000     
  0.81250000000000000        9.3750000000000000E-002   0.0000000000000000     
  0.84375000000000000        9.3750000000000000E-002   0.0000000000000000     
  0.87500000000000000        9.3750000000000000E-002   0.0000000000000000     
  0.75000000000000000       0.12500000000000000        0.0000000000000000     
  0.78125000000000000       0.12500000000000000        0.0000000000000000     
  0.81250000000000000       0.12500000000000000        0.0000000000000000     
  0.84375000000000000       0.12500000000000000        0.0000000000000000     
  0.87500000000000000       0.12500000000000000        0.0000000000000000     
  0.87500000000000000        0.0000000000000000        0.0000000000000000     
  0.90625000000000000        0.0000000000000000        0.0000000000000000     
  0.93750000000000000        0.0000000000000000        0.0000000000000000     
  0.96875000000000000        0.0000000000000000        0.0000000000000000     
   1.0000000000000000        0.0000000000000000        0.0000000000000000     
  0.87500000000000000        3.1250000000000000E-002   0.0000000000000000     
  0.90625000000000000        3.1250000000000000E-002   0.0000000000000000     
  0.93750000000000000        3.1250000000000000E-002   0.0000000000000000     
  0.96875000000000000        3.1250000000000000E-002   0.0000000000000000     
   1.0000000000000000        3.1250000000000000E-002   0.0000000000000000     
  0.87500000000000000        6.2500000000000000E-002   0.0000000000000000     
  0.90625000000000000        6.2500000000000000E-002   0.0000000000000000     
  0.93750000000000000        6.2500000000000000E-002   0.0000000000000000     
  0.96875000000000000        6.2500000000000000E-002   0.0000000000000000     
   1.0000000000000000        6.2500000000000000E-002   0.0000000000000000     
  0.87500000000000000        9.3750000000000000E-002   0.0000000000000000     
  0.90625000000000000        9.3750000000000000E-002   0.0000000000000000     
  0.93750000000000000        9.3750000000000000E-002   0.0000000000000000     
  0.96875000000000000        9.3750000000000000E-002   0.0000000000000000     
   1.0000000000000000        9.3750000000000000E-002   0.0000000000000000     
  0.87500000000000000       0.12500000000000000        0.0000000000000000     
  0.90625000000000000       0.12500000000000000        0.0000000000000000     
  0.93750000000000000       0.12500000000000000        0.0000000000000000     
  0.96875000000000000       0.12500000000000000        0.0000000000000000     
   1.0000000000000000       0.12500000000000000        0.0000000000000000     
   1.0000000000000000        0.0000000000000000        0.0000000000000000     
   1.0312500000000000        0.0000000000000000        0.0000000000000000     
   1.0625000000000000        0.0000000000000000        0.0000000000000000     
   1.0937500000000000        0.0000000000000000        0.0000000000000000     
   1.1250000000000000        0.0000000000000000        0.0000000000000000     
   1.0000000000000000        3.1250000000000000E-002   0.0000000000000000     
   1.0312500000000000        3.1250000000000000E-002   0.0000000000000000     
   1.0625000000000000        3.1250000000000000E-002   0.0000000000000000     
   1.0937500000000000        3.1250000000000000E-002   0.0000000000000000     
   1.1250000000000000        3.1250000000000000E-002   0.0000000000000000     
   1.0000000000000000        6.2500000000000000E-002   0.0000000000000000     
   1.0312500000000000        6.2500000000000000E-002   0.0000000000000000     
   1.0625000000000000        6.2500000000000000E-002   0.0000000000000000     
   1.0937500000000000        6.2500000000000000E-002   0.0000000000000000     
   1.1250000000000000        6.2500000000000000E-002   0.0000000000000000     
   1.0000000000000000        9.3750000000000000E-002   0.0000000000000000     
   1.0312500000000000        9.3750000000000000E-002   0.0000000000000000     
   1.0625000000000000        9.3750000000000000E-002   0.0000000000000000     
   1.0937500000000000        9.3750000000000000E-002   0.0000000000000000     
   1.1250000000000000        9.3750000000000000E-002   0.0000000000000000     
   1.0000000000000000       0.12500000000000000        0.0000000000000000     
   1.0312500000000000       0.12500000000000000        0.0000000000000000     
   1.0625000000000000       0.12500000000000000        0.0000000000000000     
   1.0937500000000000       0.12500000000000000        0.0000000000000000     
   1.1250000000000000       0.12500000000000000        0.0000000000000000     
   1.1250000000000000        0.0000000000000000        0.0000000000000000     
   1.1562500000000000        0.0000000000000000        0.0000000000000000     
   1.1875000000000000        0.0000000000000000        0.0000000000000000     
   1.2187500000000000        0.0000000000000000        0.0000000000000000     
   1.2500000000000000        0.0000000000000000        0.0000000000000000     
   1.1250000000000000        3.1250000000000000E-002   0.0000000000000000     
   1.1562500000000000        3.1250000000000000E-002   0.0000000000000000     
   1.1875000000000000        3.1250000000000000E-002   0.0000000000000000     
   1.2187500000000000        3.1250000000000000E-002   0.0000000000000000     
   1.2500000000000000        3.1250000000000000E-002   0.0000000000000000     
   1.1250000000000000        6.2500000000000000E-002   0.0000000000000000     
   1.1562500000000000        6.2500000000000000E-002   0.0000000000000000     
   1.1875000000000000        6.2500000000000000E-002   0.0000000000000000     
   1.2187500000000000        6.2500000000000000E-002   0.0000000000000000     
   1.2500000000000000        6.2500000000000000E-002   0.0000000000000000     
   1.1250000000000000        9.3750000000000000E-002   0.0000000000000000     
   1.1562500000000000        9.3750000000000000E-002   0.0000000000000000     
   1.1875000000000000        9.3750000000000000E-002   0.0000000000000000     
   1.2187500000000000        9.3750000000000000E-002   0.0000000000000000     
   1.2500000000000000        9.3750000000000000E-002   0.0000000000000000     
   1.1250000000000000       0.12500000000000000        0.0000000000000000     
   1.1562500000000000       0.12500000000000000        0.0000000000000000     
   1.1875000000000000       0.12500000000000000        0.0000000000000000     
   1.2187500000000000       0.12500000000000000        0.0000000000000000     
   1.2500000000000000       0.12500000000000000        0.0000000000000000     
   1.2500000000000000        0.0000000000000000        0.0000000000000000     
   1.2812500000000000        0.0000000000000000        0.0000000000000000     
   1.3125000000000000        0.0000000000000000        0.0000000000000000     
   1.3437500000000000        0.0000000000000000        0.0000000000000000     
   1.3750000000000000        0.0000000000000000        0.0000000000000000     
   1.2500000000000000        3.1250000000000000E-002   0.0000000000000000     
   1.2812500000000000        3.1250000000000000E-002   0.0000000000000000     
   1.3125000000000000        3.1250000000000000E-002   0.0000000000000000     
   1.3437500000000000        3.1250000000000000E-002   0.0000000000000000     
   1.3750000000000000        3.1250000000000000E-002   0.0000000000000000     
   1.2500000000000000        6.2500000000000000E-002   0.0000000000000000     
   1.2812500000000000        6.2500000000000000E-002   0.0000000000000000     
   1.3125000000000000        6.2500000000000000E-002   0.0000000000000000     
   1.3437500000000000        6.2500000000000000E-002   0.0000000000000000     
   1.3750000000000000        6.2500000000000000E-002   0.0000000000000000     
   1.2500000000000000        9.3750000000000000E-002   0.0000000000000000     
   1.2812500000000000        9.3750000000000000E-002   0.0000000000000000     
   1.3125000000000000        9.3750000000000000E-002   0.0000000000000000     
   1.3437500000000000        9.3750000000000000E-002   0.0000000000000000     
   1.3750000000000000        9.3750000000000000E-002   0.0000000000000000     
   1.2500000000000000       0.12500000000000000        0.0000000000000000     
   1.2812500000000000       0.12500000000000000        0.0000000000000000     
   1.3125000000000000       0.12500000000000000        0.0000000000000000     
   1.3437500000000000       0.12500000000000000        0.0000000000000000     
   1.3750000000000000       0.12500000000000000        0.0000000000000000     
   1.3750000000000000        0.0000000000000000        0.0000000000000000     
   1.4062500000000000        0.0000000000000000        0.0000000000000000     
   1.4375000000000000        0.0000000000000000        0.0000000000000000     
   1.4687500000000000        0.0000000000000000        0.0000000000000000     
   1.5000000000000000        0.0000000000000000        0.0000000000000000     
   1.3750000000000000        3.1250000000000000E-002   0.0000000000000000     
   1.4062500000000000        3.1250000000000000E-002   0.0000000000000000     
   1.4375000000000000        3.1250000000000000E-002   0.0000000000000000     
   1.4687500000000000        3.1250000000000000E-002   0.0000000000000000     
   1.5000000000000000        3.1250000000000000E-002   0.0000000000000000     
   1.3750000000000000        6.2500000000000000E-002   0.0000000000000000     
   1.4062500000000000        6.2500000000000000E-002   0.0000000000000000     
   1.4375000000000000        6.2500000000000000E-002   0.0000000000000000     
   1.4687500000000000        6.2500000000000000E-002   0.0000000000000000     
   1.5000000000000000        6.2500000000000000E-002   0.0000000000000000     
   1.3750000000000000        9.3750000000000000E-002   0.0000000000000000     
   1.4062500000000000        9.3750000000000000E-002   0.0000000000000000     
   1.4375000000000000        9.3750000000000000E-002   0.0000000000000000     
   1.4687500000000000        9.3750000000000000E-002   0.0000000000000000     
   1.5000000000000000        9.3750000000000000E-002   0.0000000000000000     
   1.3750000000000000       0.12500000000000000        0.0000000000000000     
   1.4062500000000000       0.12500000000000000        0.0000000000000000     
   1.4375000000000000       0.12500000000000000        0.0000000000000000     
   1.4687500000000000       0.12500000000000000        0.0000000000000000     
   1.5000000000000000       0.12500000000000000        0.0000000000000000     
  0.50000000000000000       0.12500000000000000        0.0000000000000000     
  0.53125000000000000       0.12500000000000000        0.0000000000000000     
  0.56250000000000000       0.12500000000000000        0.0000000000000000     
  0.59375000000000000       0.12500000000000000        0.0000000000000000     
  0.62500000000000000       0.12500000000000000        0.0000000000000000     
  0.50000000000000000       0.15625000000000000        0.0000000000000000     
  0.53125000000000000       0.15625000000000000        0.0000000000000000     
  0.56250000000000000       0.15625000000000000        0.0000000000000000     
  0.59375000000000000       0.15625000000000000        0.0000000000000000     
  0.62500000000000000       0.15625000000000000        0.0000000000000000     
  0.50000000000000000       0.18750000000000000        0.0000000000000000     
  0.53125000000000000       0.18750000000000000        0.0000000000000000     
  0.56250000000000000       0.18750000000000000        0.0000000000000000     
  0.59375000000000000       0.18750000000000000        0.0000000000000000     
  0.62500000000000000       0.18750000000000000        0.0000000000000000     
  0.50000000000000000       0.21875000000000000        0.0000000000000000     
  0.53125000000000000       0.21875000000000000        0.0000000000000000     
  0.56250000000000000       0.21875000000000000        0.0000000000000000     
  0.59375000000000000       0.21875000000000000        0.0000000000000000     
  0.62500000000000000       0.21875000000000000        0.0000000000000000     
  0.50000000000000000       0.25000000000000000        0.0000000000000000     
  0.53125000000000000       0.25000000000000000        0.0000000000000000     
  0.56250000000000000       0.25000000000000000        0.0000000000000000     
  0.59375000000000000       0.25000000000000000        0.0000000000000000     
  0.62500000000000000       0.25000000000000000        0.0000000000000000     
  0.62500000000000000       0.12500000000000000        0.0000000000000000     
  0.65625000000000000       0.12500000000000000        0.0000000000000000     
  0.68750000000000000       0.12500000000000000        0.0000000000000000     
  0.71875000000000000       0.12500000000000000        0.0000000000000000     
  0.75000000000000000       0.12500000000000000        0.0000000000000000     
  0.62500000000000000       0.15625000000000000        0.0000000000000000     
  0.65625000000000000       0.15625000000000000        0.0000000000000000     
  0.68750000000000000       0.15625000000000000        0.0000000000000000     
  0.71875000000000000       0.15625000000000000        0.0000000000000000     
  0.75000000000000000       0.15625000000000000        0.0000000000000000     
  0.62500000000000000       0.18750000000000000        0.0000000000000000     
  0.65625000000000000       0.18750000000000000        0.0000000000000000     
  0.68750000000000000       0.18750000000000000        0.0000000000000000     
  0.71875000000000000       0.18750000000000000        0.0000000000000000     
  0.75000000000000000       0.18750000000000000        0.0000000000000000     
  0.62500000000000000       0.21875000000000000        0.0000000000000000     
  0.65625000000000000       0.21875000000000000        0.0000000000000000     
  0.68750000000000000       0.21875000000000000        0.0000000000000000     
  0.71875000000000000       0.21875000000000000        0.0000000000000000     
  0.75000000000000000       0.21875000000000000        0.0000000000000000     
  0.62500000000000000       0.25000000000000000        0.0000000000000000     
  0.65625000000000000       0.25000000000000000        0.0000000000000000     
  0.68750000000000000       0.25000000000000000        0.0000000000000000     
  0.71875000000000000       0.25000000000000000        0.0000000000000000     
  0.75000000000000000       0.25000000000000000        0.0000000000000000     
  0.75000000000000000       0.12500000000000000        0.0000000000000000     
  0.78125000000000000       0.12500000000000000        0.0000000000000000     
  0.81250000000000000       0.12500000000000000        0.0000000000000000     
  0.84375000000000000       0.12500000000000000        0.0000000000000000     
  0.87500000000000000       0.12500000000000000        0.0000000000000000     
  0.75000000000000000       0.15625000000000000        0.0000000000000000     
  0.78125000000000000       0.15625000000000000        0.0000000000000000     
  0.81250000000000000       0.15625000000000000        0.0000000000000000     
  0.84375000000000000       0.15625000000000000        0.0000000000000000     
  0.87500000000000000       0.15625000000000000        0.0000000000000000     
  0.75000000000000000       0.18750000000000000        0.0000000000000000     
  0.78125000000000000       0.18750000000000000        0.0000000000000000     
  0.81250000000000000       0.18750000000000000        0.0000000000000000     
  0.84375000000000000       0.18750000000000000        0.0000000000000000     
  0.87500000000000000       0.18750000000000000        0.0000000000000000     
  0.75000000000000000       0.21875000000000000        0.0000000000000000     
  0.78125000000000000       0.21875000000000000        0.0000000000000000     
  0.81250000000000000       0.21875000000000000        0.0000000000000000     
  0.84375000000000000       0.21875000000000000        0.0000000000000000     
  0.87500000000000000       0.21875000000000000        0.0000000000000000     
  0.75000000000000000       0.25000000000000000        0.0000000000000000     
  0.78125000000000000       0.25000000000000000        0.0000000000000000     
  0.81250000000000000       0.25000000000000000        0.0000000000000000     
  0.84375000000000000       0.25000000000000000        0.0000000000000000     
  0.87500000000000000       0.25000000000000000        0.0000000000000000     
  0.87500000000000000       0.12500000000000000        0.0000000000000000     
  0.90625000000000000       0.12500000000000000        0.0000000000000000     
  0.93750000000000000       0.12500000000000000        0.0000000000000000     
  0.96875000000000000       0.12500000000000000        0.0000000000000000     
   1.0000000000000000       0.12500000000000000        0.0000000000000000     
  0.87500000000000000       0.15625000000000000        0.0000000000000000     
  0.90625000000000000       0.15625000000000000        0.0000000000000000     
  0.93750000000000000       0.15625000000000000        0.0000000000000000     
  0.96875000000000000       0.15625000000000000        0.0000000000000000     
   1.0000000000000000       0.15625000000000000        0.0000000000000000     
  0.87500000000000000       0.18750000000000000        0.0000000000000000     
  0.90625000000000000       0.18750000000000000        0.0000000000000000     
  0.93750000000000000       0.18750000000000000        0.0000000000000000     
  0.96875000000000000       0.18750000000000000        0.0000000000000000     
   1.0000000000000000       0.18750000000000000        0.0000000000000000     
  0.87500000000000000       0.21875000000000000        0.0000000000000000     
  0.90625000000000000       0.21875000000000000        0.0000000000000000     
  0.93750000000000000       0.21875000000000000        0.0000000000000000     
  0.96875000000000000       0.21875000000000000        0.0000000000000000     
   1.0000000000000000       0.21875000000000000        0.0000000000000000     
  0.87500000000000000       0.25000000000000000        0.0000000000000000     
  0.90625000000000000       0.25000000000000000        0.0000000000000000     
  0.93750000000000000       0.25000000000000000        0.0000000000000000     
  0.96875000000000000       0.25000000000000000        0.0000000000000000     
   1.0000000000000000       0.25000000000000000        0.0000000000000000     
   1.0000000000000000       0.12500000000000000        0.0000000000000000     
   1.0312500000000000       0.12500000000000000        0.0000000000000000     
   1.0625000000000000       0.12500000000000000        0.0000000000000000     
   1.0937500000000000       0.12500000000000000        0.0000000000000000     
   1.1250000000000000       0.12500000000000000        0.0000000000000000     
   1.0000000000000000       0.15625000000000000        0.0000000000000000     
   1.0312500000000000       0.15625000000000000        0.0000000000000000     
   1.0625000000000000       0.15625000000000000        0.0000000000000000     
   1.0937500000000000       0.15625000000000000        0.0000000000000000     
   1.1250000000000000       0.15625000000000000        0.0000000000000000     
   1.0000000000000000       0.18750000000000000        0.0000000000000000     
   1.0312500000000000       0.18750000000000000        0.0000000000000000     
   1.0625000000000000       0.18750000000000000        0.0000000000000000     
   1.0937500000000000       0.18750000000000000        0.0000000000000000     
   1.1250000000000000       0.18750000000000000        0.0000000000000000     
   1.0000000000000000       0.21875000000000000        0.0000000000000000     
   1.0312500000000000       0.21875000000000000        0.0000000000000000     
   1.0625000000000000       0.21875000000000000        0.0000000000000000     
   1.0937500000000000       0.21875000000000000        0.0000000000000000     
   1.1250000000000000       0.21875000000000000        0.0000000000000000     
   1.0000000000000000       0.25000000000000000        0.0000000000000000     
   1.0312500000000000       0.25000000000000000        0.0000000000000000     
   1.0625000000000000       0.25000000000000000        0.0000000000000000     
   1.0937500000000000       0.25000000000000000        0.0000000000000000     
   1.1250000000000000       0.25000000000000000        0.0000000000000000     
   1.1250000000000000       0.12500000000000000        0.0000000000000000     
   1.1562500000000000       0.12500000000000000        0.0000000000000000     
   1.1875000000000000       0.12500000000000000        0.0000000000000000     
   1.2187500000000000       0.12500000000000000        0.0000000000000000     
   1.2500000000000000       0.12500000000000000        0.0000000000000000     
   1.1250000000000000       0.15625000000000000        0.0000000000000000     
   1.1562500000000000       0.15625000000000000        0.0000000000000000     
   1.1875000000000000       0.15625000000000000        0.0000000000000000     
   1.2187500000000000       0.15625000000000000        0.0000000000000000     
   1.2500000000000000       0.15625000000000000        0.0000000000000000     
   1.1250000000000000       0.18750000000000000        0.0000000000000000     
   1.1562500000000000       0.18750000000000000        0.0000000000000000     
   1.1875000000000000       0.18750000000000000        0.0000000000000000     
   1.2187500000000000       0.18750000000000000        0.0000000000000000     
   1.2500000000000000       0.18750000000000000        0.0000000000000000     
   1.1250000000000000       0.21875000000000000        0.0000000000000000     
   1.1562500000000000       0.21875000000000000        0.0000000000000000     
   1.1875000000000000       0.21875000000000000        0.0000000000000000     
   1.2187500000000000       0.21875000000000000        0.0000000000000000     
   1.2500000000000000       0.21875000000000000        0.0000000000000000     
   1.1250000000000000       0.25000000000000000        0.0000000000000000     
   1.1562500000000000       0.25000000000000000        0.0000000000000000     
   1.1875000000000000       0.25000000000000000        0.0000000000000000     
   1.2187500000000000       0.25000000000000000        0.0000000000000000     
   1.2500000000000000       0.25000000000000000        0.0000000000000000     
   1.2500000000000000       0.12500000000000000        0.0000000000000000     
   1.2812500000000000       0.12500000000000000        0.0000000000000000     
   1.3125000000000000       0.12500000000000000        0.0000000000000000     
   1.3437500000000000       0.12500000000000000        0.0000000000000000     
   1.3750000000000000       0.12500000000000000        0.0000000000000000     
   1.2500000000000000       0.15625000000000000        0.0000000000000000     
   1.2812500000000000       0.15625000000000000        0.0000000000000000     
   1.3125000000000000       0.15625000000000000        0.0000000000000000     
   1.3437500000000000       0.15625000000000000        0.0000000000000000     
   1.3750000000000000       0.15625000000000000        0.0000000000000000     
   1.2500000000000000       0.18750000000000000        0.0000000000000000     
   1.2812500000000000       0.18750000000000000        0.0000000000000000     
   1.3125000000000000       0.18750000000000000        0.0000000000000000     
   1.3437500000000000       0.18750000000000000        0.0000000000000000     
   1.3750000000000000       0.18750000000000000        0.0000000000000000     
   1.2500000000000000       0.21875000000000000        0.0000000000000000     
   1.2812500000000000       0.21875000000000000        0.0000000000000000     
   1.3125000000000000       0.21875000000000000        0.0000000000000000     
   1.3437500000000000       0.21875000000000000        0.0000000000000000     
   1.3750000000000000       0.21875000000000000        0.0000000000000000     
   1.2500000000000000       0.25000000000000000        0.0000000000000000     
   1.2812500000000000       0.25000000000000000        0.0000000000000000     
   1.3125000000000000       0.25000000000000000        0.0000000000000000     
   1.3437500000000000       0.25000000000000000        0.0000000000000000     
   1.3750000000000000       0.25000000000000000        0.0000000000000000     
   1.3750000000000000       0.12500000000000000        0.0000000000000000     
   1.4062500000000000       0.12500000000000000        0.0000000000000000     
   1.4375000000000000       0.12500000000000000        0.0000000000000000     
   1.4687500000000000       0.12500000000000000        0.0000000000000000     
   1.5000000000000000       0.12500000000000000        0.0000000000000000     
   1.3750000000000000       0.15625000000000000        0.0000000000000000     
   1.4062500000000000       0.15625000000000000        0.0000000000000000     
   1.4375000000000000       0.15625000000000000        0.0000000000000000     
   1.4687500000000000       0.15625000000000000        0.0000000000000000     
   1.5000000000000000       0.15625000000000000        0.0000000000000000     
   1.3750000000000000       0.18750000000000000        0.0000000000000000     
   1.4062500000000000       0.18750000000000000        0.0000000000000000     
   1.4375000000000000       0.18750000000000000        0.0000000000000000     
   1.4687500000000000       0.18750000000000000        0.0000000000000000     
   1.5000000000000000       0.18750000000000000        0.0000000000000000     
   1.3750000000000000       0.21875000000000000        0.0000000000000000     
   1.4062500000000000       0.21875000000000000        0.0000000000000000     
   1.4375000000000000       0.21875000000000000        0.0000000000000000     
   1.4687500000000000       0.21875000000000000        0.0000000000000000     
   1.5000000000000000       0.21875000000000000        0.0000000000000000     
   1.3750000000000000       0.25000000000000000        0.0000000000000000     
   1.4062500000000000       0.25000000000000000        0.0000000000000000     
   1.4375000000000000       0.25000000000000000        0.0000000000000000     
   1.4687500000000000       0.25000000000000000        0.0000000000000000     
   1.5000000000000000       0.25000000000000000        0.0000000000000000     
  0.50000000000000000       0.25000000000000000        0.0000000000000000     
  0.53125000000000000       0.25000000000000000        0.0000000000000000     
  0.56250000000000000       0.25000000000000000        0.0000000000000000     
  0.59375000000000000       0.25000000000000000        0.0000000000000000     
  0.62500000000000000       0.25000000000000000        0.0000000000000000     
  0.50000000000000000       0.28125000000000000        0.0000000000000000     
  0.53125000000000000       0.28125000000000000        0.0000000000000000     
  0.56250000000000000       0.28125000000000000        0.0000000000000000     
  0.59375000000000000       0.28125000000000000        0.0000000000000000     
  0.62500000000000000       0.28125000000000000        0.0000000000000000     
  0.50000000000000000       0.31250000000000000        0.0000000000000000     
  0.53125000000000000       0.31250000000000000        0.0000000000000000     
  0.56250000000000000       0.31250000000000000        0.0000000000000000     
  0.59375000000000000       0.31250000000000000        0.0000000000000000     
  0.62500000000000000       0.31250000000000000        0.0000000000000000     
  0.50000000000000000       0.34375000000000000        0.0000000000000000     
  0.53125000000000000       0.34375000000000000        0.0000000000000000     
  0.56250000000000000       0.34375000000000000        0.0000000000000000     
  0.59375000000000000       0.34375000000000000        0.0000000000000000     
  0.62500000000000000       0.34375000000000000        0.0000000000000000     
  0.50000000000000000       0.37500000000000000        0.0000000000000000     
  0.53125000000000000       0.37500000000000000        0.0000000000000000     
  0.56250000000000000       0.37500000000000000        0.0000000000000000     
  0.59375000000000000       0.37500000000000000        0.0000000000000000     
  0.62500000000000000       0.37500000000000000        0.0000000000000000     
  0.62500000000000000       0.25000000000000000        0.0000000000000000     
  0.65625000000000000       0.25000000000000000        0.0000000000000000     
  0.68750000000000000       0.25000000000000000        0.0000000000000000     
  0.71875000000000000       0.25000000000000000        0.0000000000000000     
  0.75000000000000000       0.25000000000000000        0.0000000000000000     
  0.62500000000000000       0.28125000000000000        0.0000000000000000     
  0.65625000000000000       0.28125000000000000        0.0000000000000000     
  0.68750000000000000       0.28125000000000000        0.0000000000000000     
  0.71875000000000000       0.28125000000000000        0.0000000000000000     
  0.75000000000000000       0.28125000000000000        0.0000000000000000     
  0.62500000000000000       0.31250000000000000        0.0000000000000000     
  0.65625000000000000       0.31250000000000000        0.0000000000000000     
  0.68750000000000000       0.31250000000000000        0.0000000000000000     
  0.71875000000000000       0.31250000000000000        0.0000000000000000     
  0.75000000000000000       0.31250000000000000        0.0000000000000000     
  0.62500000000000000       0.34375000000000000        0.0000000000000000     
  0.65625000000000000       0.34375000000000000        0.0000000000000000     
  0.68750000000000000       0.34375000000000000        0.0000000000000000     
  0.71875000000000000       0.34375000000000000        0.0000000000000000     
  0.75000000000000000       0.34375000000000000        0.0000000000000000     
  0.62500000000000000       0.37500000000000000        0.0000000000000000     
  0.65625000000000000       0.37500000000000000        0.0000000000000000     
  0.68750000000000000       0.37500000000000000        0.0000000000000000     
  0.71875000000000000       0.37500000000000000        0.0000000000000000     
  0.75000000000000000       0.37500000000000000        0.0000000000000000     
  0.75000000000000000       0.25000000000000000        0.0000000000000000     
  0.78125000000000000       0.25000000000000000        0.0000000000000000     
  0.81250000000000000       0.25000000000000000        0.0000000000000000     
  0.84375000000000000       0.25000000000000000        0.0000000000000000     
  0.87500000000000000       0.25000000000000000        0.0000000000000000     
  0.75000000000000000       0.28125000000000000        0.0000000000000000     
  0.78125000000000000       0.28125000000000000        0.0000000000000000     
  0.81250000000000000       0.28125000000000000        0.0000000000000000     
  0.84375000000000000       0.28125000000000000        0.0000000000000000     
  0.87500000000000000       0.28125000000000000        0.0000000000000000     
  0.75000000000000000       0.31250000000000000        0.0000000000000000     
  0.78125000000000000       0.31250000000000000        0.0000000000000000     
  0.81250000000000000       0.31250000000000000        0.0000000000000000     
  0.84375000000000000       0.31250000000000000        0.0000000000000000     
  0.87500000000000000       0.31250000000000000        0.0000000000000000     
  0.75000000000000000       0.34375000000000000        0.0000000000000000     
  0.78125000000000000       0.34375000000000000        0.0000000000000000     
  0.81250000000000000       0.34375000000000000        0.0000000000000000     
  0.84375000000000000       0.34375000000000000        0.0000000000000000     
  0.87500000000000000       0.34375000000000000        0.0000000000000000     
  0.75000000000000000       0.37500000000000000        0.0000000000000000     
  0.78125000000000000       0.37500000000000000        0.0000000000000000     
  0.81250000000000000       0.37500000000000000        0.0000000000000000     
  0.84375000000000000       0.37500000000000000        0.0000000000000000     
  0.87500000000000000       0.37500000000000000        0.0000000000000000     
  0.87500000000000000       0.25000000000000000        0.0000000000000000     
  0.90625000000000000       0.25000000000000000        0.0000000000000000     
  0.93750000000000000       0.25000000000000000        0.0000000000000000     
  0.96875000000000000       0.25000000000000000        0.0000000000000000     
   1.0000000000000000       0.25000000000000000        0.0000000000000000     
  0.87500000000000000       0.28125000000000000        0.0000000000000000     
  0.90625000000000000       0.28125000000000000        0.0000000000000000     
  0.93750000000000000       0.28125000000000000        0.0000000000000000     
  0.96875000000000000       0.28125000000000000        0.0000000000000000     
   1.0000000000000000       0.28125000000000000        0.0000000000000000     
  0.87500000000000000       0.31250000000000000        0.0000000000000000     
  0.90625000000000000       0.31250000000000000        0.0000000000000000     
  0.93750000000000000       0.31250000000000000        0.0000000000000000     
  0.96875000000000000       0.31250000000000000        0.0000000000000000     
   1.0000000000000000       0.31250000000000000        0.0000000000000000     
  0.87500000000000000       0.34375000000000000        0.0000000000000000     
  0.90625000000000000       0.34375000000000000        0.0000000000000000     
  0.93750000000000000       0.34375000000000000        0.0000000000000000     
  0.96875000000000000       0.34375000000000000        0.0000000000000000     
   1.0000000000000000       0.34375000000000000        0.0000000000000000     
  0.87500000000000000       0.37500000000000000        0.0000000000000000     
  0.90625000000000000       0.37500000000000000        0.0000000000000000     
  0.93750000000000000       0.37500000000000000        0.0000000000000000     
  0.96875000000000000       0.37500000000000000        0.0000000000000000     
   1.0000000000000000       0.37500000000000000        0.0000000000000000     
   1.0000000000000000       0.25000000000000000        0.0000000000000000     
   1.0312500000000000       0.25000000000000000        0.0000000000000000     
   1.0625000000000000       0.25000000000000000        0.0000000000000000     
   1.0937500000000000       0.25000000000000000        0.0000000000000000     
   1.1250000000000000       0.25000000000000000        0.0000000000000000     
   1.0000000000000000       0.28125000000000000        0.0000000000000000     
   1.0312500000000000       0.28125000000000000        0.0000000000000000     
   1.0625000000000000       0.28125000000000000        0.0000000000000000     
   1.0937500000000000       0.28125000000000000        0.0000000000000000     
   1.1250000000000000       0.28125000000000000        0.0000000000000000     
   1.0000000000000000       0.31250000000000000        0.0000000000000000     
   1.0312500000000000       0.31250000000000000        0.0000000000000000     
   1.0625000000000000       0.31250000000000000        0.0000000000000000     
   1.0937500000000000       0.31250000000000000        0.0000000000000000     
   1.1250000000000000       0.31250000000000000        0.0000000000000000     
   1.0000000000000000       0.34375000000000000        0.0000000000000000     
   1.0312500000000000       0.34375000000000000        0.0000000000000000     
   1.0625000000000000       0.34375000000000000        0.0000000000000000     
   1.0937500000000000       0.34375000000000000        0.0000000000000000     
   1.1250000000000000       0.34375000000000000        0.0000000000000000     
   1.0000000000000000       0.37500000000000000        0.0000000000000000     
   1.0312500000000000       0.37500000000000000        0.0000000000000000     
   1.0625000000000000       0.37500000000000000        0.0000000000000000     
   1.0937500000000000       0.37500000000000000        0.0000000000000000     
   1.1250000000000000       0.37500000000000000        0.0000000000000000     
   1.1250000000000000       0.25000000000000000        0.0000000000000000     
   1.1562500000000000       0.25000000000000000        0.0000000000000000     
   1.1875000000000000       0.25000000000000000        0.0000000000000000     
   1.2187500000000000       0.25000000000000000        0.0000000000000000     
   1.2500000000000000       0.25000000000000000        0.0000000000000000     
   1.1250000000000000       0.28125000000000000        0.0000000000000000     
   1.1562500000000000       0.28125000000000000        0.0000000000000000     
   1.1875000000000000       0.28125000000000000        0.0000000000000000     
   1.2187500000000000       0.28125000000000000        0.0000000000000000     
   1.2500000000000000       0.28125000000000000        0.0000000000000000     
   1.1250000000000000       0.31250000000000000        0.0000000000000000     
   1.1562500000000000       0.31250000000000000        0.0000000000000000     
   1.1875000000000000       0.31250000000000000        0.0000000000000000     
   1.2187500000000000       0.31250000000000000        0.0000000000000000     
   1.2500000000000000       0.31250000000000000        0.0000000000000000     
   1.1250000000000000       0.34375000000000000        0.0000000000000000     
   1.1562500000000000       0.34375000000000000        0.0000000000000000     
   1.1875000000000000       0.34375000000000000        0.0000000000000000     
   1.2187500000000000       0.34375000000000000        0.0000000000000000     
   1.2500000000000000       0.34375000000000000        0.0000000000000000     
   1.1250000000000000       0.37500000000000000        0.0000000000000000     
   1.1562500000000000       0.37500000000000000        0.0000000000000000     
   1.1875000000000000       0.37500000000000000        0.0000000000000000     
   1.2187500000000000       0.37500000000000000        0.0000000000000000     
   1.2500000000000000       0.37500000000000000        0.0000000000000000     
   1.2500000000000000       0.25000000000000000        0.0000000000000000     
   1.2812500000000000       0.25000000000000000        0.0000000000000000     
   1.3125000000000000       0.25000000000000000        0.0000000000000000     
   1.3437500000000000       0.25000000000000000        0.0000000000000000     
   1.3750000000000000       0.25000000000000000        0.0000000000000000     
   1.2500000000000000       0.28125000000000000        0.0000000000000000     
   1.2812500000000000       0.28125000000000000        0.0000000000000000     
   1.3125000000000000       0.28125000000000000        0.0000000000000000     
   1.3437500000000000       0.28125000000000000        0.0000000000000000     
   1.3750000000000000       0.28125000000000000        0.0000000000000000     
   1.2500000000000000       0.31250000000000000        0.0000000000000000     
   1.2812500000000000       0.31250000000000000        0.0000000000000000     
   1.3125000000000000       0.31250000000000000        0.0000000000000000     
   1.3437500000000000       0.31250000000000000        0.0000000000000000     
   1.3750000000000000       0.31250000000000000        0.0000000000000000     
   1.2500000000000000       0.34375000000000000        0.0000000000000000     
   1.2812500000000000       0.34375000000000000        0.0000000000000000     
   1.3125000000000000       0.34375000000000000        0.0000000000000000     
   1.3437500000000000       0.34375000000000000        0.0000000000000000     
   1.3750000000000000       0.34375000000000000        0.0000000000000000     
   1.2500000000000000       0.37500000000000000        0.0000000000000000     
   1.2812500000000000       0.37500000000000000        0.0000000000000000     
   1.3125000000000000       0.37500000000000000        0.0000000000000000     
   1.3437500000000000       0.37500000000000000        0.0000000000000000     
   1.3750000000000000       0.37500000000000000        0.0000000000000000     
   1.3750000000000000       0.25000000000000000        0.0000000000000000     
   1.4062500000000000       0.25000000000000000        0.0000000000000000     
   1.4375000000000000       0.25000000000000000        0.0000000000000000     
   1.4687500000000000       0.25000000000000000        0.0000000000000000     
   1.5000000000000000       0.25000000000000000        0.0000000000000000     
   1.3750000000000000       0.28125000000000000        0.0000000000000000     
   1.4062500000000000       0.28125000000000000        0.0000000000000000     
   1.4375000000000000       0.28125000000000000        0.0000000000000000     
   1.4687500000000000       0.28125000000000000        0.0000000000000000     
   1.5000000000000000       0.28125000000000000        0.0000000000000000     
   1.3750000000000000       0.31250000000000000        0.0000000000000000     
   1.4062500000000000       0.31250000000000000        0.0000000000000000     
   1.4375000000000000       0.31250000000000000        0.0000000000000000     
   1.4687500000000000       0.31250000000000000        0.0000000000000000     
   1.5000000000000000       0.31250000000000000        0.0000000000000000     
   1.3750000000000000       0.34375000000000000        0.0000000000000000     
   1.4062500000000000       0.34375000000000000        0.0000000000000000     
   1.4375000000000000       0.34375000000000000        0.0000000000000000     
   1.4687500000000000       0.34375000000000000        0.0000000000000000     
   1.5000000000000000       0.34375000000000000        0.0000000000000000     
   1.3750000000000000       0.37500000000000000        0.0000000000000000     
   1.4062500000000000       0.37500000000000000        0.0000000000000000     
   1.4375000000000000       0.37500000000000000        0.0000000000000000     
   1.4687500000000000       0.37500000000000000        0.0000000000000000     
   1.5000000000000000       0.37500000000000000        0.0000000000000000     
  0.50000000000000000       0.37500000000000000        0.0000000000000000     
  0.53125000000000000       0.37500000000000000        0.0000000000000000     
  0.56250000000000000       0.37500000000000000        0.0000000000000000     
  0.59375000000000000       0.37500000000000000        0.0000000000000000     
  0.62500000000000000       0.37500000000000000        0.0000000000000000     
  0.50000000000000000       0.40625000000000000        0.0000000000000000     
  0.53125000000000000       0.40625000000000000        0.0000000000000000     
  0.56250000000000000       0.40625000000000000        0.0000000000000000     
  0.59375000000000000       0.40625000000000000        0.0000000000000000     
  0.62500000000000000       0.40625000000000000        0.0000000000000000     
  0.50000000000000000       0.43750000000000000        0.0000000000000000     
  0.53125000000000000       0.43750000000000000        0.0000000000000000     
  0.56250000000000000       0.43750000000000000        0.0000000000000000     
  0.59375000000000000       0.43750000000000000        0.0000000000000000     
  0.62500000000000000       0.43750000000000000        0.0000000000000000     
  0.50000000000000000       0.46875000000000000        0.0000000000000000     
  0.53125000000000000       0.46875000000000000        0.0000000000000000     
  0.56250000000000000       0.46875000000000000        0.0000000000000000     
  0.59375000000000000       0.46875000000000000        0.0000000000000000     
  0.62500000000000000       0.46875000000000000        0.0000000000000000     
  0.50000000000000000       0.50000000000000000        0.0000000000000000     
  0.53125000000000000       0.50000000000000000        0.0000000000000000     
  0.56250000000000000       0.50000000000000000        0.0000000000000000     
  0.59375000000000000       0.50000000000000000        0.0000000000000000     
  0.62500000000000000       0.50000000000000000        0.0000000000000000     
  0.62500000000000000       0.37500000000000000        0.0000000000000000     
  0.65625000000000000       0.37500000000000000        0.0000000000000000     
  0.68750000000000000       0.37500000000000000        0.0000000000000000     
  0.71875000000000000       0.37500000000000000        0.0000000000000000     
  0.75000000000000000       0.37500000000000000        0.0000000000000000     
  0.62500000000000000       0.40625000000000000        0.0000000000000000     
  0.65625000000000000       0.40625000000000000        0.0000000000000000     
  0.68750000000000000       0.40625000000000000        0.0000000000000000     
  0.71875000000000000       0.40625000000000000        0.0000000000000000     
  0.75000000000000000       0.40625000000000000        0.0000000000000000     
  0.62500000000000000       0.43750000000000000        0.0000000000000000     
  0.65625000000000000       0.43750000000000000        0.0000000000000000     
  0.68750000000000000       0.43750000000000000        0.0000000000000000     
  0.71875000000000000       0.43750000000000000        0.0000000000000000     
  0.75000000000000000       0.43750000000000000        0.0000000000000000     
  0.62500000000000000       0.46875000000000000        0.0000000000000000     
  0.65625000000000000       0.46875000000000000        0.0000000000000000     
  0.68750000000000000       0.46875000000000000        0.0000000000000000     
  0.71875000000000000       0.46875000000000000        0.0000000000000000     
  0.75000000000000000       0.46875000000000000        0.0000000000000000     
  0.62500000000000000       0.50000000000000000        0.0000000000000000     
  0.65625000000000000       0.50000000000000000        0.0000000000000000     
  0.68750000000000000       0.50000000000000000        0.0000000000000000     
  0.71875000000000000       0.50000000000000000        0.0000000000000000     
  0.75000000000000000       0.50000000000000000        0.0000000000000000     
  0.75000000000000000       0.37500000000000000        0.0000000000000000     
  0.78125000000000000       0.37500000000000000        0.0000000000000000     
  0.81250000000000000       0.37500000000000000        0.0000000000000000     
  0.84375000000000000       0.37500000000000000        0.0000000000000000     
  0.87500000000000000       0.37500000000000000        0.0000000000000000     
  0.75000000000000000       0.40625000000000000        0.0000000000000000     
  0.78125000000000000       0.40625000000000000        0.0000000000000000     
  0.81250000000000000       0.40625000000000000        0.0000000000000000     
  0.84375000000000000       0.40625000000000000        0.0000000000000000     
  0.87500000000000000       0.40625000000000000        0.0000000000000000     
  0.75000000000000000       0.43750000000000000        0.0000000000000000     
  0.78125000000000000       0.43750000000000000        0.0000000000000000     
  0.81250000000000000       0.43750000000000000        0.0000000000000000     
  0.84375000000000000       0.43750000000000000        0.0000000000000000     
  0.87500000000000000       0.43750000000000000        0.0000000000000000     
  0.75000000000000000       0.46875000000000000        0.0000000000000000     
  0.78125000000000000       0.46875000000000000        0.0000000000000000     
  0.81250000000000000       0.46875000000000000        0.0000000000000000     
  0.84375000000000000       0.46875000000000000        0.0000000000000000     
  0.87500000000000000       0.46875000000000000        0.0000000000000000     
  0.75000000000000000       0.50000000000000000        0.0000000000000000     
  0.78125000000000000       0.50000000000000000        0.0000000000000000     
  0.81250000000000000       0.50000000000000000        0.0000000000000000     
  0.84375000000000000       0.50000000000000000        0.0000000000000000     
  0.87500000000000000       0.50000000000000000        0.0000000000000000     
  0.87500000000000000       0.37500000000000000        0.0000000000000000     
  0.90625000000000000       0.37500000000000000        0.0000000000000000     
  0.93750000000000000       0.37500000000000000        0.0000000000000000     
  0.96875000000000000       0.37500000000000000        0.0000000000000000     
   1.0000000000000000       0.37500000000000000        0.0000000000000000     
  0.87500000000000000       0.40625000000000000        0.0000000000000000     
  0.90625000000000000       0.40625000000000000        0.0000000000000000     
  0.93750000000000000       0.40625000000000000        0.0000000000000000     
  0.96875000000000000       0.40625000000000000        0.0000000000000000     
   1.0000000000000000       0.40625000000000000        0.0000000000000000     
  0.87500000000000000       0.43750000000000000        0.0000000000000000     
  0.90625000000000000       0.43750000000000000        0.0000000000000000     
  0.93750000000000000       0.43750000000000000        0.0000000000000000     
  0.96875000000000000       0.43750000000000000        0.0000000000000000     
   1.0000000000000000       0.43750000000000000        0.0000000000000000     
  0.87500000000000000       0.46875000000000000        0.0000000000000000     
  0.90625000000000000       0.46875000000000000        0.0000000000000000     
  0.93750000000000000       0.46875000000000000        0.0000000000000000     
  0.96875000000000000       0.46875000000000000        0.0000000000000000     
   1.0000000000000000       0.46875000000000000        0.0000000000000000     
  0.87500000000000000       0.50000000000000000        0.0000000000000000     
  0.90625000000000000       0.50000000000000000        0.0000000000000000     
  0.93750000000000000       0.50000000000000000        0.0000000000000000     
  0.96875000000000000       0.50000000000000000        0.0000000000000000     
   1.0000000000000000       0.50000000000000000        0.0000000000000000     
   1.0000000000000000       0.37500000000000000        0.0000000000000000     
   1.0312500000000000       0.37500000000000000        0.0000000000000000     
   1.0625000000000000       0.37500000000000000        0.0000000000000000     
   1.0937500000000000       0.37500000000000000        0.0000000000000000     
   1.1250000000000000       0.37500000000000000        0.0000000000000000     
   1.0000000000000000       0.40625000000000000        0.0000000000000000     
   1.0312500000000000       0.40625000000000000        0.0000000000000000     
   1.0625000000000000       0.40625000000000000        0.0000000000000000     
   1.0937500000000000       0.40625000000000000        0.0000000000000000     
   1.1250000000000000       0.40625000000000000        0.0000000000000000     
   1.0000000000000000       0.43750000000000000        0.0000000000000000     
   1.0312500000000000       0.43750000000000000        0.0000000000000000     
   1.0625000000000000       0.43750000000000000        0.0000000000000000     
   1.0937500000000000       0.43750000000000000        0.0000000000000000     
   1.1250000000000000       0.43750000000000000        0.0000000000000000     
   1.0000000000000000       0.46875000000000000        0.0000000000000000     
   1.0312500000000000       0.46875000000000000        0.0000000000000000     
   1.0625000000000000       0.46875000000000000        0.0000000000000000     
   1.0937500000000000       0.46875000000000000        0.0000000000000000     
   1.1250000000000000       0.46875000000000000        0.0000000000000000     
   1.0000000000000000       0.50000000000000000        0.0000000000000000     
   1.0312500000000000       0.50000000000000000        0.0000000000000000     
   1.0625000000000000       0.50000000000000000        0.0000000000000000     
   1.0937500000000000       0.50000000000000000        0.0000000000000000     
   1.1250000000000000       0.50000000000000000        0.0000000000000000     
   1.1250000000000000       0.37500000000000000        0.0000000000000000     
   1.1562500000000000       0.37500000000000000        0.0000000000000000     
   1.1875000000000000       0.37500000000000000        0.0000000000000000     
   1.2187500000000000       0.37500000000000000        0.0000000000000000     
   1.2500000000000000       0.37500000000000000        0.0000000000000000     
   1.1250000000000000       0.40625000000000000        0.0000000000000000     
   1.1562500000000000       0.40625000000000000        0.0000000000000000     
   1.1875000000000000       0.40625000000000000        0.0000000000000000     
   1.2187500000000000       0.40625000000000000        0.0000000000000000     
   1.2500000000000000       0.40625000000000000        0.0000000000000000     
   1.1250000000000000       0.43750000000000000        0.0000000000000000     
   1.1562500000000000       0.43750000000000000        0.0000000000000000     
   1.1875000000000000       0.43750000000000000        0.0000000000000000     
   1.2187500000000000       0.43750000000000000        0.0000000000000000     
   1.2500000000000000       0.43750000000000000        0.0000000000000000     
   1.1250000000000000       0.46875000000000000        0.0000000000000000     
   1.1562500000000000       0.46875000000000000        0.0000000000000000     
   1.1875000000000000       0.46875000000000000        0.0000000000000000     
   1.2187500000000000       0.46875000000000000        0.0000000000000000     
   1.2500000000000000       0.46875000000000000        0.0000000000000000     
   1.1250000000000000       0.50000000000000000        0.0000000000000000     
   1.1562500000000000       0.50000000000000000        0.0000000000000000     
   1.1875000000000000       0.50000000000000000        0.0000000000000000     
   1.2187500000000000       0.50000000000000000        0.0000000000000000     
   1.2500000000000000       0.50000000000000000        0.0000000000000000     
   1.2500000000000000       0.37500000000000000        0.0000000000000000     
   1.2812500000000000       0.37500000000000000        0.0000000000000000     
   1.3125000000000000       0.37500000000000000        0.0000000000000000     
   1.3437500000000000       0.37500000000000000        0.0000000000000000     
   1.3750000000000000       0.37500000000000000        0.0000000000000000     
   1.2500000000000000       0.40625000000000000        0.0000000000000000     
   1.2812500000000000       0.40625000000000000        0.0000000000000000     
   1.3125000000000000       0.40625000000000000        0.0000000000000000     
   1.3437500000000000       0.40625000000000000        0.0000000000000000     
   1.3750000000000000       0.40625000000000000        0.0000000000000000     
   1.2500000000000000       0.43750000000000000        0.0000000000000000     
   1.2812500000000000       0.43750000000000000        0.0000000000000000     
   1.3125000000000000       0.43750000000000000        0.0000000000000000     
   1.3437500000000000       0.43750000000000000        0.0000000000000000     
   1.3750000000000000       0.43750000000000000        0.0000000000000000     
   1.2500000000000000       0.46875000000000000        0.0000000000000000     
   1.2812500000000000       0.46875000000000000        0.0000000000000000     
   1.3125000000000000       0.46875000000000000        0.0000000000000000     
   1.3437500000000000       0.46875000000000000        0.0000000000000000     
   1.3750000000000000       0.46875000000000000        0.0000000000000000     
   1.2500000000000000       0.50000000000000000        0.0000000000000000     
   1.2812500000000000       0.50000000000000000        0.0000000000000000     
   1.3125000000000000       0.50000000000000000        0.0000000000000000     
   1.3437500000000000       0.50000000000000000        0.0000000000000000     
   1.3750000000000000       0.50000000000000000        0.0000000000000000     
   1.3750000000000000       0.37500000000000000        0.0000000000000000     
   1.4062500000000000       0.37500000000000000        0.0000000000000000     
   1.4375000000000000       0.37500000000000000        0.0000000000000000     
   1.4687500000000000       0.37500000000000000        0.0000000000000000     
   1.5000000000000000       0.37500000000000000        0.0000000000000000     
   1.3750000000000000       0.40625000000000000        0.0000000000000000     
   1.4062500000000000       0.40625000000000000        0.0000000000000000     
   1.4375000000000000       0.40625000000000000        0.0000000000000000     
   1.4687500000000000       0.40625000000000000        0.0000000000000000     
   1.5000000000000000       0.40625000000000000        0.0000000000000000     
   1.3750000000000000       0.43750000000000000        0.0000000000000000     
   1.4062500000000000       0.43750000000000000        0.0000000000000000     
   1.4375000000000000       0.43750000000000000        0.0000000000000000     
   1.4687500000000000       0.43750000000000000        0.0000000000000000     
   1.5000000000000000       0.43750000000000000        0.0000000000000000     
   1.3750000000000000       0.46875000000000000        0.0000000000000000     
   1.4062500000000000       0.46875000000000000        0.0000000000000000     
   1.4375000000000000       0.46875000000000000        0.0000000000000000     
   1.4687500000000000       0.46875000000000000        0.0000000000000000     
   1.5000000000000000       0.46875000000000000        0.0000000000000000     
   1.3750000000000000       0.50000000000000000        0.0000000000000000     
   1.4062500000000000       0.50000000000000000        0.0000000000000000     
   1.4375000000000000       0.50000000000000000        0.0000000000000000     
   1.4687500000000000       0.50000000000000000        0.0000000000000000     
   1.5000000000000000       0.50000000000000000        0.0000000000000000     
  0.50000000000000000       0.50000000000000000        0.0000000000000000     
  0.53125000000000000       0.50000000000000000        0.0000000000000000     
  0.56250000000000000       0.50000000000000000        0.0000000000000000     
  0.59375000000000000       0.50000000000000000        0.0000000000000000     
  0.62500000000000000       0.50000000000000000        0.0000000000000000     
  0.50000000000000000       0.53125000000000000        0.0000000000000000     
  0.53125000000000000       0.53125000000000000        0.0000000000000000     
  0.56250000000000000       0.53125000000000000        0.0000000000000000     
  0.59375000000000000       0.53125000000000000        0.0000000000000000     
  0.62500000000000000       0.53125000000000000        0.0000000000000000     
  0.50000000000000000       0.56250000000000000        0.0000000000000000     
  0.53125000000000000       0.56250000000000000        0.0000000000000000     
  0.56250000000000000       0.56250000000000000        0.0000000000000000     
  0.59375000000000000       0.56250000000000000        0.0000000000000000     
  0.62500000000000000       0.56250000000000000        0.0000000000000000     
  0.50000000000000000       0.59375000000000000        0.0000000000000000     
  0.53125000000000000       0.59375000000000000        0.0000000000000000     
  0.56250000000000000       0.59375000000000000        0.0000000000000000     
  0.59375000000000000       0.59375000000000000        0.0000000000000000     
  0.62500000000000000       0.59375000000000000        0.0000000000000000     
  0.50000000000000000       0.62500000000000000        0.0000000000000000     
  0.53125000000000000       0.62500000000000000        0.0000000000000000     
  0.56250000000000000       0.62500000000000000        0.0000000000000000     
  0.59375000000000000       0.62500000000000000        0.0000000000000000     
  0.62500000000000000       0.62500000000000000        0.0000000000000000     
  0.62500000000000000       0.50000000000000000        0.0000000000000000     
  0.65625000000000000       0.50000000000000000        0.0000000000000000     
  0.68750000000000000       0.50000000000000000        0.0000000000000000     
  0.71875000000000000       0.50000000000000000        0.0000000000000000     
  0.75000000000000000       0.50000000000000000        0.0000000000000000     
  0.62500000000000000       0.53125000000000000        0.0000000000000000     
  0.65625000000000000       0.53125000000000000        0.0000000000000000     
  0.68750000000000000       0.53125000000000000        0.0000000000000000     
  0.71875000000000000       0.53125000000000000        0.0000000000000000     
  0.75000000000000000       0.53125000000000000        0.0000000000000000     
  0.62500000000000000       0.56250000000000000        0.0000000000000000     
  0.65625000000000000       0.56250000000000000        0.0000000000000000     
  0.68750000000000000       0.56250000000000000        0.0000000000000000     
  0.71875000000000000       0.56250000000000000        0.0000000000000000     
  0.75000000000000000       0.56250000000000000        0.0000000000000000     
  0.62500000000000000       0.59375000000000000        0.0000000000000000     
  0.65625000000000000       0.59375000000000000        0.0000000000000000     
  0.68750000000000000       0.59375000000000000        0.0000000000000000     
  0.71875000000000000       0.59375000000000000        0.0000000000000000     
  0.75000000000000000       0.59375000000000000        0.0000000000000000     
  0.62500000000000000       0.62500000000000000        0.0000000000000000     
  0.65625000000000000       0.62500000000000000        0.0000000000000000     
  0.68750000000000000       0.62500000000000000        0.0000000000000000     
  0.71875000000000000       0.62500000000000000        0.0000000000000000     
  0.75000000000000000       0.62500000000000000        0.0000000000000000     
  0.75000000000000000       0.50000000000000000        0.0000000000000000     
  0.78125000000000000       0.50000000000000000        0.0000000000000000     
  0.81250000000000000       0.50000000000000000        0.0000000000000000     
  0.84375000000000000       0.50000000000000000        0.0000000000000000     
  0.87500000000000000       0.50000000000000000        0.0000000000000000     
  0.75000000000000000       0.53125000000000000        0.0000000000000000     
  0.78125000000000000       0.53125000000000000        0.0000000000000000     
  0.81250000000000000       0.53125000000000000        0.0000000000000000     
  0.84375000000000000       0.53125000000000000        0.0000000000000000     
  0.87500000000000000       0.53125000000000000        0.0000000000000000     
  0.75000000000000000       0.56250000000000000        0.0000000000000000     
  0.78125000000000000       0.56250000000000000        0.0000000000000000     
  0.81250000000000000       0.56250000000000000        0.0000000000000000     
  0.84375000000000000       0.56250000000000000        0.0000000000000000     
  0.87500000000000000       0.56250000000000000        0.0000000000000000     
  0.75000000000000000       0.59375000000000000        0.0000000000000000     
  0.78125000000000000       0.59375000000000000        0.0000000000000000     
  0.81250000000000000       0.59375000000000000        0.0000000000000000     
  0.84375000000000000       0.59375000000000000        0.0000000000000000     
  0.87500000000000000       0.59375000000000000        0.0000000000000000     
  0.75000000000000000       0.62500000000000000        0.0000000000000000     
  0.78125000000000000       0.62500000000000000        0.0000000000000000     
  0.81250000000000000       0.62500000000000000        0.0000000000000000     
  0.84375000000000000       0.62500000000000000        0.0000000000000000     
  0.87500000000000000       0.62500000000000000        0.0000000000000000     
  0.87500000000000000       0.50000000000000000        0.0000000000000000     
  0.90625000000000000       0.50000000000000000        0.0000000000000000     
  0.93750000000000000       0.50000000000000000        0.0000000000000000     
  0.96875000000000000       0.50000000000000000        0.0000000000000000     
   1.0000000000000000       0.50000000000000000        0.0000000000000000     
  0.87500000000000000       0.53125000000000000        0.0000000000000000     
  0.90625000000000000       0.53125000000000000        0.0000000000000000     
  0.93750000000000000       0.53125000000000000        0.0000000000000000     
  0.96875000000000000       0.53125000000000000        0.0000000000000000     
   1.0000000000000000       0.53125000000000000        0.0000000000000000     
  0.87500000000000000       0.56250000000000000        0.0000000000000000     
  0.90625000000000000       0.56250000000000000        0.0000000000000000     
  0.93750000000000000       0.56250000000000000        0.0000000000000000     
  0.96875000000000000       0.56250000000000000        0.0000000000000000     
   1.0000000000000000       0.56250000000000000        0.0000000000000000     
  0.87500000000000000       0.59375000000000000        0.0000000000000000     
  0.90625000000000000       0.59375000000000000        0.0000000000000000     
  0.93750000000000000       0.59375000000000000        0.0000000000000000     
  0.96875000000000000       0.59375000000000000        0.0000000000000000     
   1.0000000000000000       0.59375000000000000        0.0000000000000000     
  0.87500000000000000       0.62500000000000000        0.0000000000000000     
  0.90625000000000000       0.62500000000000000        0.0000000000000000     
  0.93750000000000000       0.62500000000000000        0.0000000000000000     
  0.96875000000000000       0.62500000000000000        0.0000000000000000     
   1.0000000000000000       0.62500000000000000        0.0000000000000000     
   1.0000000000000000       0.50000000000000000        0.0000000000000000     
   1.0312500000000000       0.50000000000000000        0.0000000000000000     
   1.0625000000000000       0.50000000000000000        0.0000000000000000     
   1.0937500000000000       0.50000000000000000        0.0000000000000000     
   1.1250000000000000       0.50000000000000000        0.0000000000000000     
   1.0000000000000000       0.53125000000000000        0.0000000000000000     
   1.0312500000000000       0.53125000000000000        0.0000000000000000     
   1.0625000000000000       0.53125000000000000        0.0000000000000000     
   1.0937500000000000       0.53125000000000000        0.0000000000000000     
   1.1250000000000000       0.53125000000000000        0.0000000000000000     
   1.0000000000000000       0.56250000000000000        0.0000000000000000     
   1.0312500000000000       0.56250000000000000        0.0000000000000000     
   1.0625000000000000       0.56250000000000000        0.0000000000000000     
   1.0937500000000000       0.56250000000000000        0.0000000000000000     
   1.1250000000000000       0.56250000000000000        0.0000000000000000     
   1.0000000000000000       0.59375000000000000        0.0000000000000000     
   1.0312500000000000       0.59375000000000000        0.0000000000000000     
   1.0625000000000000       0.59375000000000000        0.0000000000000000     
   1.0937500000000000       0.59375000000000000        0.0000000000000000     
   1.1250000000000000       0.59375000000000000        0.0000000000000000     
   1.0000000000000000       0.62500000000000000        0.0000000000000000     
   1.0312500000000000       0.62500000000000000        0.0000000000000000     
   1.0625000000000000       0.62500000000000000        0.0000000000000000     
   1.0937500000000000       0.62500000000000000        0.0000000000000000     
   1.1250000000000000       0.62500000000000000        0.0000000000000000     
   1.1250000000000000       0.50000000000000000        0.0000000000000000     
   1.1562500000000000       0.50000000000000000        0.0000000000000000     
   1.1875000000000000       0.50000000000000000        0.0000000000000000     
   1.2187500000000000       0.50000000000000000        0.0000000000000000     
   1.2500000000000000       0.50000000000000000        0.0000000000000000     
   1.1250000000000000       0.53125000000000000        0.0000000000000000     
   1.1562500000000000       0.53125000000000000        0.0000000000000000     
   1.1875000000000000       0.53125000000000000        0.0000000000000000     
   1.2187500000000000       0.53125000000000000        0.0000000000000000     
   1.2500000000000000       0.53125000000000000        0.0000000000000000     
   1.1250000000000000       0.56250000000000000        0.0000000000000000     
   1.1562500000000000       0.56250000000000000        0.0000000000000000     
   1.1875000000000000       0.56250000000000000        0.0000000000000000     
   1.2187500000000000       0.56250000000000000        0.0000000000000000     
   1.2500000000000000       0.56250000000000000        0.0000000000000000     
   1.1250000000000000       0.59375000000000000        0.0000000000000000     
   1.1562500000000000       0.59375000000000000        0.0000000000000000     
   1.1875000000000000       0.59375000000000000        0.0000000000000000     
   1.2187500000000000       0.59375000000000000        0.0000000000000000     
   1.2500000000000000       0.59375000000000000        0.0000000000000000     
   1.1250000000000000       0.62500000000000000        0.0000000000000000     
   1.1562500000000000       0.62500000000000000        0.0000000000000000     
   1.1875000000000000       0.62500000000000000        0.0000000000000000     
   1.2187500000000000       0.62500000000000000        0.0000000000000000     
   1.2500000000000000       0.62500000000000000        0.0000000000000000     
   1.2500000000000000       0.50000000000000000        0.0000000000000000     
   1.2812500000000000       0.50000000000000000        0.0000000000000000     
   1.3125000000000000       0.50000000000000000        0.0000000000000000     
   1.3437500000000000       0.50000000000000000        0.0000000000000000     
   1.3750000000000000       0.50000000000000000        0.0000000000000000     
   1.2500000000000000       0.53125000000000000        0.0000000000000000     
   1.2812500000000000       0.53125000000000000        0.0000000000000000     
   1.3125000000000000       0.53125000000000000        0.0000000000000000     
   1.3437500000000000       0.53125000000000000        0.0000000000000000     
   1.3750000000000000       0.53125000000000000        0.0000000000000000     
   1.2500000000000000       0.56250000000000000        0.0000000000000000     
   1.2812500000000000       0.56250000000000000        0.0000000000000000     
   1.3125000000000000       0.56250000000000000        0.0000000000000000     
   1.3437500000000000       0.56250000000000000        0.0000000000000000     
   1.3750000000000000       0.56250000000000000        0.0000000000000000     
   1.2500000000000000       0.59375000000000000        0.0000000000000000     
   1.2812500000000000       0.59375000000000000        0.0000000000000000     
   1.3125000000000000       0.59375000000000000        0.0000000000000000     
   1.3437500000000000       0.59375000000000000        0.0000000000000000     
   1.3750000000000000       0.59375000000000000        0.0000000000000000     
   1.2500000000000000       0.62500000000000000        0.0000000000000000     
   1.2812500000000000       0.62500000000000000        0.0000000000000000     
   1.3125000000000000       0.62500000000000000        0.0000000000000000     
   1.3437500000000000       0.62500000000000000        0.0000000000000000     
   1.3750000000000000       0.62500000000000000        0.0000000000000000     
   1.3750000000000000       0.50000000000000000        0.0000000000000000     
   1.4062500000000000       0.50000000000000000        0.0000000000000000     
   1.4375000000000000       0.50000000000000000        0.0000000000000000     
   1.4687500000000000       0.50000000000000000        0.0000000000000000     
   1.5000000000000000       0.50000000000000000        0.0000000000000000     
   1.3750000000000000       0.53125000000000000        0.0000000000000000     
   1.4062500000000000       0.53125000000000000        0.0000000000000000     
   1.4375000000000000       0.53125000000000000        0.0000000000000000     
   1.4687500000000000       0.53125000000000000        0.0000000000000000     
   1.5000000000000000       0.53125000000000000        0.0000000000000000     
   1.3750000000000000       0.56250000000000000        0.0000000000000000     
   1.4062500000000000       0.56250000000000000        0.0000000000000000     
   1.4375000000000000       0.56250000000000000        0.0000000000000000     
   1.4687500000000000       0.56250000000000000        0.0000000000000000     
   1.5000000000000000       0.56250000000000000        0.0000000000000000     
   1.3750000000000000       0.59375000000000000        0.0000000000000000     
   1.4062500000000000       0.59375000000000000        0.0000000000000000     
   1.4375000000000000       0.59375000000000000        0.0000000000000000     
   1.4687500000000000       0.59375000000000000        0.0000000000000000     
   1.5000000000000000       0.59375000000000000        0.0000000000000000     
   1.3750000000000000       0.62500000000000000        0.0000000000000000     
   1.4062500000000000       0.62500000000000000        0.0000000000000000     
   1.4375000000000000       0.62500000000000000        0.0000000000000000     
   1.4687500000000000       0.62500000000000000        0.0000000000000000     
   1.5000000000000000       0.62500000000000000        0.0000000000000000     
  0.50000000000000000       0.62500000000000000        0.0000000000000000     
  0.53125000000000000       0.62500000000000000        0.0000000000000000     
  0.56250000000000000       0.62500000000000000        0.0000000000000000     
  0.59375000000000000       0.62500000000000000        0.0000000000000000     
  0.62500000000000000       0.62500000000000000        0.0000000000000000     
  0.50000000000000000       0.65625000000000000        0.0000000000000000     
  0.53125000000000000       0.65625000000000000        0.0000000000000000     
  0.56250000000000000       0.65625000000000000        0.0000000000000000     
  0.59375000000000000       0.65625000000000000        0.0000000000000000     
  0.62500000000000000       0.65625000000000000        0.0000000000000000     
  0.50000000000000000       0.68750000000000000        0.0000000000000000     
  0.53125000000000000       0.68750000000000000        0.0000000000000000     
  0.56250000000000000       0.68750000000000000        0.0000000000000000     
  0.59375000000000000       0.68750000000000000        0.0000000000000000     
  0.62500000000000000       0.68750000000000000        0.0000000000000000     
  0.50000000000000000       0.71875000000000000        0.0000000000000000     
  0.53125000000000000       0.71875000000000000        0.0000000000000000     
  0.56250000000000000       0.71875000000000000        0.0000000000000000     
  0.59375000000000000       0.71875000000000000        0.0000000000000000     
  0.62500000000000000       0.71875000000000000        0.0000000000000000     
  0.50000000000000000       0.75000000000000000        0.0000000000000000     
  0.53125000000000000       0.75000000000000000        0.0000000000000000     
  0.56250000000000000       0.75000000000000000        0.0000000000000000     
  0.59375000000000000       0.75000000000000000        0.0000000000000000     
  0.62500000000000000       0.75000000000000000        0.0000000000000000     
  0.62500000000000000       0.62500000000000000        0.0000000000000000     
  0.65625000000000000       0.62500000000000000        0.0000000000000000     
  0.68750000000000000       0.62500000000000000        0.0000000000000000     
  0.71875000000000000       0.62500000000000000        0.0000000000000000     
  0.75000000000000000       0.62500000000000000        0.0000000000000000     
  0.62500000000000000       0.65625000000000000        0.0000000000000000     
  0.65625000000000000       0.65625000000000000        0.0000000000000000     
  0.68750000000000000       0.65625000000000000        0.0000000000000000     
  0.71875000000000000       0.65625000000000000        0.0000000000000000     
  0.75000000000000000       0.65625000000000000        0.0000000000000000     
  0.62500000000000000       0.68750000000000000        0.0000000000000000     
  0.65625000000000000       0.68750000000000000        0.0000000000000000     
  0.68750000000000000       0.68750000000000000        0.0000000000000000     
  0.71875000000000000       0.68750000000000000        0.0000000000000000     
  0.75000000000000000       0.68750000000000000        0.0000000000000000     
  0.62500000000000000       0.71875000000000000        0.0000000000000000     
  0.65625000000000000       0.71875000000000000        0.0000000000000000     
  0.68750000000000000       0.71875000000000000        0.0000000000000000     
  0.71875000000000000       0.71875000000000000        0.0000000000000000     
  0.75000000000000000       0.71875000000000000        0.0000000000000000     
  0.62500000000000000       0.75000000000000000        0.0000000000000000     
  0.65625000000000000       0.75000000000000000        0.0000000000000000     
  0.68750000000000000       0.75000000000000000        0.0000000000000000     
  0.71875000000000000       0.75000000000000000        0.0000000000000000     
  0.75000000000000000       0.75000000000000000        0.0000000000000000     
  0.75000000000000000       0.62500000000000000        0.0000000000000000     
  0.78125000000000000       0.62500000000000000        0.0000000000000000     
  0.81250000000000000       0.62500000000000000        0.0000000000000000     
  0.84375000000000000       0.62500000000000000        0.0000000000000000     
  0.87500000000000000       0.62500000000000000        0.0000000000000000     
  0.75000000000000000       0.65625000000000000        0.0000000000000000     
  0.78125000000000000       0.65625000000000000        0.0000000000000000     
  0.81250000000000000       0.65625000000000000        0.0000000000000000     
  0.84375000000000000       0.65625000000000000        0.0000000000000000     
  0.87500000000000000       0.65625000000000000        0.0000000000000000     
  0.75000000000000000       0.68750000000000000        0.0000000000000000     
  0.78125000000000000       0.68750000000000000        0.0000000000000000     
  0.81250000000000000       0.68750000000000000        0.0000000000000000     
  0.84375000000000000       0.68750000000000000        0.0000000000000000     
  0.87500000000000000       0.68750000000000000        0.0000000000000000     
  0.75000000000000000       0.71875000000000000        0.0000000000000000     
  0.78125000000000000       0.71875000000000000        0.0000000000000000     
  0.81250000000000000       0.71875000000000000        0.0000000000000000     
  0.84375000000000000       0.71875000000000000        0.0000000000000000     
  0.87500000000000000       0.71875000000000000        0.0000000000000000     
  0.75000000000000000       0.75000000000000000        0.0000000000000000     
  0.78125000000000000       0.75000000000000000        0.0000000000000000     
  0.81250000000000000       0.75000000000000000        0.0000000000000000     
  0.84375000000000000       0.75000000000000000        0.0000000000000000     
  0.87500000000000000       0.75000000000000000        0.0000000000000000     
  0.87500000000000000       0.62500000000000000        0.0000000000000000     
  0.90625000000000000       0.62500000000000000        0.0000000000000000     
  0.93750000000000000       0.62500000000000000        0.0000000000000000     
  0.96875000000000000       0.62500000000000000        0.0000000000000000     
   1.0000000000000000       0.62500000000000000        0.0000000000000000     
  0.87500000000000000       0.65625000000000000        0.0000000000000000     
  0.90625000000000000       0.65625000000000000        0.0000000000000000     
  0.93750000000000000       0.65625000000000000        0.0000000000000000     
  0.96875000000000000       0.65625000000000000        0.0000000000000000     
   1.0000000000000000       0.65625000000000000        0.0000000000000000     
  0.87500000000000000       0.68750000000000000        0.0000000000000000     
  0.90625000000000000       0.68750000000000000        0.0000000000000000     
  0.93750000000000000       0.68750000000000000        0.0000000000000000     
  0.96875000000000000       0.68750000000000000        0.0000000000000000     
   1.0000000000000000       0.68750000000000000        0.0000000000000000     
  0.87500000000000000       0.71875000000000000        0.0000000000000000     
  0.90625000000000000       0.71875000000000000        0.0000000000000000     
  0.93750000000000000       0.71875000000000000        0.0000000000000000     
  0.96875000000000000       0.71875000000000000        0.0000000000000000     
   1.0000000000000000       0.71875000000000000        0.0000000000000000     
  0.87500000000000000       0.75000000000000000        0.0000000000000000     
  0.90625000000000000       0.75000000000000000        0.0000000000000000     
  0.93750000000000000       0.75000000000000000        0.0000000000000000     
  0.96875000000000000       0.75000000000000000        0.0000000000000000     
   1.0000000000000000       0.75000000000000000        0.0000000000000000     
   1.0000000000000000       0.62500000000000000        0.0000000000000000     
   1.0312500000000000       0.62500000000000000        0.0000000000000000     
   1.0625000000000000       0.62500000000000000        0.0000000000000000     
   1.0937500000000000       0.62500000000000000        0.0000000000000000     
   1.1250000000000000       0.62500000000000000        0.0000000000000000     
   1.0000000000000000       0.65625000000000000        0.0000000000000000     
   1.0312500000000000       0.65625000000000000        0.0000000000000000     
   1.0625000000000000       0.65625000000000000        0.0000000000000000     
   1.0937500000000000       0.65625000000000000        0.0000000000000000     
   1.1250000000000000       0.65625000000000000        0.0000000000000000     
   1.0000000000000000       0.68750000000000000        0.0000000000000000     
   1.0312500000000000       0.68750000000000000        0.0000000000000000     
   1.0625000000000000       0.68750000000000000        0.0000000000000000     
   1.0937500000000000       0.68750000000000000        0.0000000000000000     
   1.1250000000000000       0.68750000000000000        0.0000000000000000     
   1.0000000000000000       0.71875000000000000        0.0000000000000000     
   1.0312500000000000       0.71875000000000000        0.0000000000000000     
   1.0625000000000000       0.71875000000000000        0.0000000000000000     
   1.0937500000000000       0.71875000000000000        0.0000000000000000     
   1.1250000000000000       0.71875000000000000        0.0000000000000000     
   1.0000000000000000       0.75000000000000000        0.0000000000000000     
   1.0312500000000000       0.75000000000000000        0.0000000000000000     
   1.0625000000000000       0.75000000000000000        0.0000000000000000     
   1.0937500000000000       0.75000000000000000        0.0000000000000000     
   1.1250000000000000       0.75000000000000000        0.0000000000000000     
   1.1250000000000000       0.62500000000000000        0.0000000000000000     
   1.1562500000000000       0.62500000000000000        0.0000000000000000     
   1.1875000000000000       0.62500000000000000        0.0000000000000000     
   1.2187500000000000       0.62500000000000000        0.0000000000000000     
   1.2500000000000000       0.62500000000000000        0.0000000000000000     
   1.1250000000000000       0.65625000000000000        0.0000000000000000     
   1.1562500000000000       0.65625000000000000        0.0000000000000000     
   1.1875000000000000       0.65625000000000000        0.0000000000000000     
   1.2187500000000000       0.65625000000000000        0.0000000000000000     
   1.2500000000000000       0.65625000000000000        0.0000000000000000     
   1.1250000000000000       0.68750000000000000        0.0000000000000000     
   1.1562500000000000       0.68750000000000000        0.0000000000000000     
   1.1875000000000000       0.68750000000000000        0.0000000000000000     
   1.2187500000000000       0.68750000000000000        0.0000000000000000     
   1.2500000000000000       0.68750000000000000        0.0000000000000000     
   1.1250000000000000       0.71875000000000000        0.0000000000000000     
   1.1562500000000000       0.71875000000000000        0.0000000000000000     
   1.1875000000000000       0.71875000000000000        0.0000000000000000     
   1.2187500000000000       0.71875000000000000        0.0000000000000000     
   1.2500000000000000       0.71875000000000000        0.0000000000000000     
   1.1250000000000000       0.75000000000000000        0.0000000000000000     
   1.1562500000000000       0.75000000000000000        0.0000000000000000     
   1.1875000000000000       0.75000000000000000        0.0000000000000000     
   1.2187500000000000       0.75000000000000000        0.0000000000000000     
   1.2500000000000000       0.75000000000000000        0.0000000000000000     
   1.2500000000000000       0.62500000000000000        0.0000000000000000     
   1.2812500000000000       0.62500000000000000        0.0000000000000000     
   1.3125000000000000       0.62500000000000000        0.0000000000000000     
   1.3437500000000000       0.62500000000000000        0.0000000000000000     
   1.3750000000000000       0.62500000000000000        0.0000000000000000     
   1.2500000000000000       0.65625000000000000        0.0000000000000000     
   1.2812500000000000       0.65625000000000000        0.0000000000000000     
   1.3125000000000000       0.65625000000000000        0.0000000000000000     
   1.3437500000000000       0.65625000000000000        0.0000000000000000     
   1.3750000000000000       0.65625000000000000        0.0000000000000000     
   1.2500000000000000       0.68750000000000000        0.0000000000000000     
   1.2812500000000000       0.68750000000000000        0.0000000000000000     
   1.3125000000000000       0.68750000000000000        0.0000000000000000     
   1.3437500000000000       0.68750000000000000        0.0000000000000000     
   1.3750000000000000       0.68750000000000000        0.0000000000000000     
   1.2500000000000000       0.71875000000000000        0.0000000000000000     
   1.2812500000000000       0.71875000000000000        0.0000000000000000     
   1.3125000000000000       0.71875000000000000        0.0000000000000000     
   1.3437500000000000       0.71875000000000000        0.0000000000000000     
   1.3750000000000000       0.71875000000000000        0.0000000000000000     
   1.2500000000000000       0.75000000000000000        0.0000000000000000     
   1.2812500000000000       0.75000000000000000        0.0000000000000000     
   1.3125000000000000       0.75000000000000000        0.0000000000000000     
   1.3437500000000000       0.75000000000000000        0.0000000000000000     
   1.3750000000000000       0.75000000000000000        0.0000000000000000     
   1.3750000000000000       0.62500000000000000        0.0000000000000000     
   1.4062500000000000       0.62500000000000000        0.0000000000000000     
   1.4375000000000000       0.62500000000000000        0.0000000000000000     
   1.4687500000000000       0.62500000000000000        0.0000000000000000     
   1.5000000000000000       0.62500000000000000        0.0000000000000000     
   1.3750000000000000       0.65625000000000000        0.0000000000000000     
   1.4062500000000000       0.65625000000000000        0.0000000000000000     
   1.4375000000000000       0.65625000000000000        0.0000000000000000     
   1.4687500000000000       0.65625000000000000        0.0000000000000000     
   1.5000000000000000       0.65625000000000000        0.0000000000000000     
   1.3750000000000000       0.68750000000000000        0.0000000000000000     
   1.4062500000000000       0.68750000000000000        0.0000000000000000     
   1.4375000000000000       0.68750000000000000        0.0000000000000000     
   1.4687500000000000       0.68750000000000000        0.0000000000000000     
   1.5000000000000000       0.68750000000000000        0.0000000000000000     
   1.3750000000000000       0.71875000000000000        0.0000000000000000     
   1.4062500000000000       0.71875000000000000        0.0000000000000000     
   1.4375000000000000       0.71875000000000000        0.0000000000000000     
   1.4687500000000000       0.71875000000000000        0.0000000000000000     
   1.5000000000000000       0.71875000000000000        0.0000000000000000     
   1.3750000000000000       0.75000000000000000        0.0000000000000000     
   1.4062500000000000       0.75000000000000000        0.0000000000000000     
   1.4375000000000000       0.75000000000000000        0.0000000000000000     
   1.4687500000000000       0.75000000000000000        0.0000000000000000     
   1.5000000000000000       0.75000000000000000        0.0000000000000000     
  0.50000000000000000       0.75000000000000000        0.0000000000000000     
  0.53125000000000000       0.75000000000000000        0.0000000000000000     
  0.56250000000000000       0.75000000000000000        0.0000000000000000     
  0.59375000000000000       0.75000000000000000        0.0000000000000000     
  0.62500000000000000       0.75000000000000000        0.0000000000000000     
  0.50000000000000000       0.78125000000000000        0.0000000000000000     
  0.53125000000000000       0.78125000000000000        0.0000000000000000     
  0.56250000000000000       0.78125000000000000        0.0000000000000000     
  0.59375000000000000       0.78125000000000000        0.0000000000000000     
  0.62500000000000000       0.78125000000000000        0.0000000000000000     
  0.50000000000000000       0.81250000000000000        0.0000000000000000     
  0.53125000000000000       0.81250000000000000        0.0000000000000000     
  0.56250000000000000       0.81250000000000000        0.0000000000000000     
  0.59375000000000000       0.81250000000000000        0.0000000000000000     
  0.62500000000000000       0.81250000000000000        0.0000000000000000     
  0.50000000000000000       0.84375000000000000        0.0000000000000000     
  0.53125000000000000       0.84375000000000000        0.0000000000000000     
  0.56250000000000000       0.84375000000000000        0.0000000000000000     
  0.59375000000000000       0.84375000000000000        0.0000000000000000     
  0.62500000000000000       0.84375000000000000        0.0000000000000000     
  0.50000000000000000       0.87500000000000000        0.0000000000000000     
  0.53125000000000000       0.87500000000000000        0.0000000000000000     
  0.56250000000000000       0.87500000000000000        0.0000000000000000     
  0.59375000000000000       0.87500000000000000        0.0000000000000000     
  0.62500000000000000       0.87500000000000000        0.0000000000000000     
  0.62500000000000000       0.75000000000000000        0.0000000000000000     
  0.65625000000000000       0.75000000000000000        0.0000000000000000     
  0.68750000000000000       0.75000000000000000        0.0000000000000000     
  0.71875000000000000       0.75000000000000000        0.0000000000000000     
  0.75000000000000000       0.75000000000000000        0.0000000000000000     
  0.62500000000000000       0.78125000000000000        0.0000000000000000     
  0.65625000000000000       0.78125000000000000        0.0000000000000000     
  0.68750000000000000       0.78125000000000000        0.0000000000000000     
  0.71875000000000000       0.78125000000000000        0.0000000000000000     
  0.75000000000000000       0.78125000000000000        0.0000000000000000     
  0.62500000000000000       0.81250000000000000        0.0000000000000000     
  0.65625000000000000       0.81250000000000000        0.0000000000000000     
  0.68750000000000000       0.81250000000000000        0.0000000000000000     
  0.71875000000000000       0.81250000000000000        0.0000000000000000     
  0.75000000000000000       0.81250000000000000        0.0000000000000000     
  0.62500000000000000       0.84375000000000000        0.0000000000000000     
  0.65625000000000000       0.84375000000000000        0.0000000000000000     
  0.68750000000000000       0.84375000000000000        0.0000000000000000     
  0.71875000000000000       0.84375000000000000        0.0000000000000000     
  0.75000000000000000       0.84375000000000000        0.0000000000000000     
  0.62500000000000000       0.87500000000000000        0.0000000000000000     
  0.65625000000000000       0.87500000000000000        0.0000000000000000     
  0.68750000000000000       0.87500000000000000        0.0000000000000000     
  0.71875000000000000       0.87500000000000000        0.0000000000000000     
  0.75000000000000000       0.87500000000000000        0.0000000000000000     
  0.75000000000000000       0.75000000000000000        0.0000000000000000     
  0.78125000000000000       0.75000000000000000        0.0000000000000000     
  0.81250000000000000       0.75000000000000000        0.0000000000000000     
  0.84375000000000000       0.75000000000000000        0.0000000000000000     
  0.87500000000000000       0.75000000000000000        0.0000000000000000     
  0.75000000000000000       0.78125000000000000        0.0000000000000000     
  0.78125000000000000       0.78125000000000000        0.0000000000000000     
  0.81250000000000000       0.78125000000000000        0.0000000000000000     
  0.84375000000000000       0.78125000000000000        0.0000000000000000     
  0.87500000000000000       0.78125000000000000        0.0000000000000000     
  0.75000000000000000       0.81250000000000000        0.0000000000000000     
  0.78125000000000000       0.81250000000000000        0.0000000000000000     
  0.81250000000000000       0.81250000000000000        0.0000000000000000     
  0.84375000000000000       0.81250000000000000        0.0000000000000000     
  0.87500000000000000       0.81250000000000000        0.0000000000000000     
  0.75000000000000000       0.84375000000000000        0.0000000000000000     
  0.78125000000000000       0.84375000000000000        0.0000000000000000     
  0.81250000000000000       0.84375000000000000        0.0000000000000000     
  0.84375000000000000       0.84375000000000000        0.0000000000000000     
  0.87500000000000000       0.84375000000000000        0.0000000000000000     
  0.75000000000000000       0.87500000000000000        0.0000000000000000     
  0.78125000000000000       0.87500000000000000        0.0000000000000000     
  0.81250000000000000       0.87500000000000000        0.0000000000000000     
  0.84375000000000000       0.87500000000000000        0.0000000000000000     
  0.87500000000000000       0.87500000000000000        0.0000000000000000     
  0.87500000000000000       0.75000000000000000        0.0000000000000000     
  0.90625000000000000       0.75000000000000000        0.0000000000000000     
  0.93750000000000000       0.75000000000000000        0.0000000000000000     
  0.96875000000000000       0.75000000000000000        0.0000000000000000     
   1.0000000000000000       0.75000000000000000        0.0000000000000000     
  0.87500000000000000       0.78125000000000000        0.0000000000000000     
  0.90625000000000000       0.78125000000000000        0.0000000000000000     
  0.93750000000000000       0.78125000000000000        0.0000000000000000     
  0.96875000000000000       0.78125000000000000        0.0000000000000000     
   1.0000000000000000       0.78125000000000000        0.0000000000000000     
  0.87500000000000000       0.81250000000000000        0.0000000000000000     
  0.90625000000000000       0.81250000000000000        0.0000000000000000     
  0.93750000000000000       0.81250000000000000        0.0000000000000000     
  0.96875000000000000       0.81250000000000000        0.0000000000000000     
   1.0000000000000000       0.81250000000000000        0.0000000000000000     
  0.87500000000000000       0.84375000000000000        0.0000000000000000     
  0.90625000000000000       0.84375000000000000        0.0000000000000000     
  0.93750000000000000       0.84375000000000000        0.0000000000000000     
  0.96875000000000000       0.84375000000000000        0.0000000000000000     
   1.0000000000000000       0.84375000000000000        0.0000000000000000     
  0.87500000000000000       0.87500000000000000        0.0000000000000000     
  0.90625000000000000       0.87500000000000000        0.0000000000000000     
  0.93750000000000000       0.87500000000000000        0.0000000000000000     
  0.96875000000000000       0.87500000000000000        0.0000000000000000     
   1.0000000000000000       0.87500000000000000        0.0000000000000000     
   1.0000000000000000       0.75000000000000000        0.0000000000000000     
   1.0312500000000000       0.75000000000000000        0.0000000000000000     
   1.0625000000000000       0.75000000000000000        0.0000000000000000     
   1.0937500000000000       0.75000000000000000        0.0000000000000000     
   1.1250000000000000       0.75000000000000000        0.0000000000000000     
   1.0000000000000000       0.78125000000000000        0.0000000000000000     
   1.0312500000000000       0.78125000000000000        0.0000000000000000     
   1.0625000000000000       0.78125000000000000        0.0000000000000000     
   1.0937500000000000       0.78125000000000000        0.0000000000000000     
   1.1250000000000000       0.78125000000000000        0.0000000000000000     
   1.0000000000000000       0.81250000000000000        0.0000000000000000     
   1.0312500000000000       0.81250000000000000        0.0000000000000000     
   1.0625000000000000       0.81250000000000000        0.0000000000000000     
   1.0937500000000000       0.81250000000000000        0.0000000000000000     
   1.1250000000000000       0.81250000000000000        0.0000000000000000     
   1.0000000000000000       0.84375000000000000        0.0000000000000000     
   1.0312500000000000       0.84375000000000000        0.0000000000000000     
   1.0625000000000000       0.84375000000000000        0.0000000000000000     
   1.0937500000000000       0.84375000000000000        0.0000000000000000     
   1.1250000000000000       0.84375000000000000        0.0000000000000000     
   1.0000000000000000       0.87500000000000000        0.0000000000000000     
   1.0312500000000000       0.87500000000000000        0.0000000000000000     
   1.0625000000000000       0.87500000000000000        0.0000000000000000     
   1.0937500000000000       0.87500000000000000        0.0000000000000000     
   1.1250000000000000       0.87500000000000000        0.0000000000000000     
   1.1250000000000000       0.75000000000000000        0.0000000000000000     
   1.1562500000000000       0.75000000000000000        0.0000000000000000     
   1.1875000000000000       0.75000000000000000        0.0000000000000000     
   1.2187500000000000       0.75000000000000000        0.0000000000000000     
   1.2500000000000000       0.75000000000000000        0.0000000000000000     
   1.1250000000000000       0.78125000000000000        0.0000000000000000     
   1.1562500000000000       0.78125000000000000        0.0000000000000000     
   1.1875000000000000       0.78125000000000000        0.0000000000000000     
   1.2187500000000000       0.78125000000000000        0.0000000000000000     
   1.2500000000000000       0.78125000000000000        0.0000000000000000     
   1.1250000000000000       0.81250000000000000        0.0000000000000000     
   1.1562500000000000       0.81250000000000000        0.0000000000000000     
   1.1875000000000000       0.81250000000000000        0.0000000000000000     
   1.2187500000000000       0.81250000000000000        0.0000000000000000     
   1.2500000000000000       0.81250000000000000        0.0000000000000000     
   1.1250000000000000       0.84375000000000000        0.0000000000000000     
   1.1562500000000000       0.84375000000000000        0.0000000000000000     
   1.1875000000000000       0.84375000000000000        0.0000000000000000     
   1.2187500000000000       0.84375000000000000        0.0000000000000000     
   1.2500000000000000       0.84375000000000000        0.0000000000000000     
   1.1250000000000000       0.87500000000000000        0.0000000000000000     
   1.1562500000000000       0.87500000000000000        0.0000000000000000     
   1.1875000000000000       0.87500000000000000        0.0000000000000000     
   1.2187500000000000       0.87500000000000000        0.0000000000000000     
   1.2500000000000000       0.87500000000000000        0.0000000000000000     
   1.2500000000000000       0.75000000000000000        0.0000000000000000     
   1.2812500000000000       0.75000000000000000        0.0000000000000000     
   1.3125000000000000       0.75000000000000000        0.0000000000000000     
   1.3437500000000000       0.75000000000000000        0.0000000000000000     
   1.3750000000000000       0.75000000000000000        0.0000000000000000     
   1.2500000000000000       0.78125000000000000        0.0000000000000000     
   1.2812500000000000       0.78125000000000000        0.0000000000000000     
   1.3125000000000000       0.78125000000000000        0.0000000000000000     
   1.3437500000000000       0.78125000000000000        0.0000000000000000     
   1.3750000000000000       0.78125000000000000        0.0000000000000000     
   1.2500000000000000       0.81250000000000000        0.0000000000000000     
   1.2812500000000000       0.81250000000000000        0.0000000000000000     
   1.3125000000000000       0.81250000000000000        0.0000000000000000     
   1.3437500000000000       0.81250000000000000        0.0000000000000000     
   1.3750000000000000       0.81250000000000000        0.0000000000000000     
   1.2500000000000000       0.84375000000000000        0.0000000000000000     
   1.2812500000000000       0.84375000000000000        0.0000000000000000     
   1.3125000000000000       0.84375000000000000        0.0000000000000000     
   1.3437500000000000       0.84375000000000000        0.0000000000000000     
   1.3750000000000000       0.84375000000000000        0.0000000000000000     
   1.2500000000000000       0.87500000000000000        0.0000000000000000     
   1.2812500000000000       0.87500000000000000        0.0000000000000000     
   1.3125000000000000       0.87500000000000000        0.0000000000000000     
   1.3437500000000000       0.87500000000000000        0.0000000000000000     
   1.3750000000000000       0.87500000000000000        0.0000000000000000     
   1.3750000000000000       0.75000000000000000        0.0000000000000000     
   1.4062500000000000       0.75000000000000000        0.0000000000000000     
   1.4375000000000000       0.75000000000000000        0.0000000000000000     
   1.4687500000000000       0.75000000000000000        0.0000000000000000     
   1.5000000000000000       0.75000000000000000        0.0000000000000000     
   1.3750000000000000       0.78125000000000000        0.0000000000000000     
   1.4062500000000000       0.78125000000000000        0.0000000000000000     
   1.4375000000000000       0.78125000000000000        0.0000000000000000     
   1.4687500000000000       0.78125000000000000        0.0000000000000000     
   1.5000000000000000       0.78125000000000000        0.0000000000000000     
   1.3750000000000000       0.81250000000000000        0.0000000000000000     
   1.4062500000000000       0.81250000000000000        0.0000000000000000     
   1.4375000000000000       0.81250000000000000        0.0000000000000000     
   1.4687500000000000       0.81250000000000000        0.0000000000000000     
   1.5000000000000000       0.81250000000000000        0.0000000000000000     
   1.3750000000000000       0.84375000000000000        0.0000000000000000     
   1.4062500000000000       0.84375000000000000        0.0000000000000000     
   1.4375000000000000       0.84375000000000000        0.0000000000000000     
   1.4687500000000000       0.84375000000000000        0.0000000000000000     
   1.5000000000000000       0.84375000000000000        0.0000000000000000     
   1.3750000000000000       0.87500000000000000        0.0000000000000000     
   1.4062500000000000       0.87500000000000000        0.0000000000000000     
   1.4375000000000000       0.87500000000000000        0.0000000000000000     
   1.4687500000000000       0.87500000000000000        0.0000000000000000     
   1.5000000000000000       0.87500000000000000        0.0000000000000000     
  0.50000000000000000       0.87500000000000000        0.0000000000000000     
  0.53125000000000000       0.87500000000000000        0.0000000000000000     
  0.56250000000000000       0.87500000000000000        0.0000000000000000     
  0.59375000000000000       0.87500000000000000        0.0000000000000000     
  0.62500000000000000       0.87500000000000000        0.0000000000000000     
  0.50000000000000000       0.90625000000000000        0.0000000000000000     
  0.53125000000000000       0.90625000000000000        0.0000000000000000     
  0.56250000000000000       0.90625000000000000        0.0000000000000000     
  0.59375000000000000       0.90625000000000000        0.0000000000000000     
  0.62500000000000000       0.90625000000000000        0.0000000000000000     
  0.50000000000000000       0.93750000000000000        0.0000000000000000     
  0.53125000000000000       0.93750000000000000        0.0000000000000000     
  0.56250000000000000       0.93750000000000000        0.0000000000000000     
  0.59375000000000000       0.93750000000000000        0.0000000000000000     
  0.62500000000000000       0.93750000000000000        0.0000000000000000     
  0.50000000000000000       0.96875000000000000        0.0000000000000000     
  0.53125000000000000       0.96875000000000000        0.0000000000000000     
  0.56250000000000000       0.96875000000000000        0.0000000000000000     
  0.59375000000000000       0.96875000000000000        0.0000000000000000     
  0.62500000000000000       0.96875000000000000        0.0000000000000000     
  0.50000000000000000        1.0000000000000000        0.0000000000000000     
  0.53125000000000000        1.0000000000000000        0.0000000000000000     
  0.56250000000000000        1.0000000000000000        0.0000000000000000     
  0.59375000000000000        1.0000000000000000        0.0000000000000000     
  0.62500000000000000        1.0000000000000000        0.0000000000000000     
  0.62500000000000000       0.87500000000000000        0.0000000000000000     
  0.65625000000000000       0.87500000000000000        0.0000000000000000     
  0.68750000000000000       0.87500000000000000        0.0000000000000000     
  0.71875000000000000       0.87500000000000000        0.0000000000000000     
  0.75000000000000000       0.87500000000000000        0.0000000000000000     
  0.62500000000000000       0.90625000000000000        0.0000000000000000     
  0.65625000000000000       0.90625000000000000        0.0000000000000000     
  0.68750000000000000       0.90625000000000000        0.0000000000000000     
  0.71875000000000000       0.90625000000000000        0.0000000000000000     
  0.75000000000000000       0.90625000000000000        0.0000000000000000     
  0.62500000000000000       0.93750000000000000        0.0000000000000000     
  0.65625000000000000       0.93750000000000000        0.0000000000000000     
  0.68750000000000000       0.93750000000000000        0.0000000000000000     
  0.71875000000000000       0.93750000000000000        0.0000000000000000     
  0.75000000000000000       0.93750000000000000        0.0000000000000000     
  0.62500000000000000       0.96875000000000000        0.0000000000000000     
  0.65625000000000000       0.96875000000000000        0.0000000000000000     
  0.68750000000000000       0.96875000000000000        0.0000000000000000     
  0.71875000000000000       0.96875000000000000        0.0000000000000000     
  0.75000000000000000       0.96875000000000000        0.0000000000000000     
  0.62500000000000000        1.0000000000000000        0.0000000000000000     
  0.65625000000000000        1.0000000000000000        0.0000000000000000     
  0.68750000000000000        1.0000000000000000        0.0000000000000000     
  0.71875000000000000        1.0000000000000000        0.0000000000000000     
  0.75000000000000000        1.0000000000000000        0.0000000000000000     
  0.75000000000000000       0.87500000000000000        0.0000000000000000     
  0.78125000000000000       0.87500000000000000        0.0000000000000000     
  0.81250000000000000       0.87500000000000000        0.0000000000000000     
  0.84375000000000000       0.87500000000000000        0.0000000000000000     
  0.87500000000000000       0.87500000000000000        0.0000000000000000     
  0.75000000000000000       0.90625000000000000        0.0000000000000000     
  0.78125000000000000       0.90625000000000000        0.0000000000000000     
  0.81250000000000000       0.90625000000000000        0.0000000000000000     
  0.84375000000000000       0.90625000000000000        0.0000000000000000     
  0.87500000000000000       0.90625000000000000        0.0000000000000000     
  0.75000000000000000       0.93750000000000000        0.0000000000000000     
  0.78125000000000000       0.93750000000000000        0.0000000000000000     
  0.81250000000000000       0.93750000000000000        0.0000000000000000     
  0.84375000000000000       0.93750000000000000        0.0000000000000000     
  0.87500000000000000       0.93750000000000000        0.0000000000000000     
  0.75000000000000000       0.96875000000000000        0.0000000000000000     
  0.78125000000000000       0.96875000000000000        0.0000000000000000     
  0.81250000000000000       0.96875000000000000        0.0000000000000000     
  0.84375000000000000       0.96875000000000000        0.0000000000000000     
  0.87500000000000000       0.96875000000000000        0.0000000000000000     
  0.75000000000000000        1.0000000000000000        0.0000000000000000     
  0.78125000000000000        1.0000000000000000        0.0000000000000000     
  0.81250000000000000        1.0000000000000000        0.0000000000000000     
  0.84375000000000000        1.0000000000000000        0.0000000000000000     
  0.87500000000000000        1.0000000000000000        0.0000000000000000     
  0.87500000000000000       0.87500000000000000        0.0000000000000000     
  0.90625000000000000       0.87500000000000000        0.0000000000000000     
  0.93750000000000000       0.87500000000000000        0.0000000000000000     
  0.96875000000000000       0.87500000000000000        0.0000000000000000     
   1.0000000000000000       0.87500000000000000        0.0000000000000000     
  0.87500000000000000       0.90625000000000000        0.0000000000000000     
  0.90625000000000000       0.90625000000000000        0.0000000000000000     
  0.93750000000000000       0.90625000000000000        0.0000000000000000     
  0.96875000000000000       0.90625000000000000        0.0000000000000000     
   1.0000000000000000       0.90625000000000000        0.0000000000000000     
  0.87500000000000000       0.93750000000000000        0.0000000000000000     
  0.90625000000000000       0.93750000000000000        0.0000000000000000     
  0.93750000000000000       0.93750000000000000        0.0000000000000000     
  0.96875000000000000       0.93750000000000000        0.0000000000000000     
   1.0000000000000000       0.93750000000000000        0.0000000000000000     
  0.87500000000000000       0.96875000000000000        0.0000000000000000     
  0.90625000000000000       0.96875000000000000        0.0000000000000000     
  0.93750000000000000       0.96875000000000000        0.0000000000000000     
  0.96875000000000000       0.96875000000000000        0.0000000000000000     
   1.0000000000000000       0.96875000000000000        0.0000000000000000     
  0.87500000000000000        1.0000000000000000        0.0000000000000000     
  0.90625000000000000        1.0000000000000000        0.0000000000000000     
  0.93750000000000000        1.0000000000000000        0.0000000000000000     
  0.96875000000000000        1.0000000000000000        0.0000000000000000     
   1.0000000000000000        1.0000000000000000        0.0000000000000000     
   1.0000000000000000       0.87500000000000000        0.0000000000000000     
   1.0312500000000000       0.87500000000000000        0.0000000000000000     
   1.0625000000000000       0.87500000000000000        0.0000000000000000     
   1.0937500000000000       0.87500000000000000        0.0000000000000000     
   1.1250000000000000       0.87500000000000000        0.0000000000000000     
   1.0000000000000000       0.90625000000000000        0.0000000000000000     
   1.0312500000000000       0.90625000000000000        0.0000000000000000     
   1.0625000000000000       0.90625000000000000        0.0000000000000000     
   1.0937500000000000       0.90625000000000000        0.0000000000000000     
   1.1250000000000000       0.90625000000000000        0.0000000000000000     
   1.0000000000000000       0.93750000000000000        0.0000000000000000     
   1.0312500000000000       0.93750000000000000        0.0000000000000000     
   1.0625000000000000       0.93750000000000000        0.0000000000000000     
   1.0937500000000000       0.93750000000000000        0.0000000000000000     
   1.1250000000000000       0.93750000000000000        0.0000000000000000     
   1.0000000000000000       0.96875000000000000        0.0000000000000000     
   1.0312500000000000       0.96875000000000000        0.0000000000000000     
   1.0625000000000000       0.96875000000000000        0.0000000000000000     
   1.0937500000000000       0.96875000000000000        0.0000000000000000     
   1.1250000000000000       0.96875000000000000        0.0000000000000000     
   1.0000000000000000        1.0000000000000000        0.0000000000000000     
   1.0312500000000000        1.0000000000000000        0.0000000000000000     
   1.0625000000000000        1.0000000000000000        0.0000000000000000     
   1.0937500000000000        1.0000000000000000        0.0000000000000000     
   1.1250000000000000        1.0000000000000000        0.0000000000000000     
   1.1250000000000000       0.87500000000000000        0.0000000000000000     
   1.1562500000000000       0.87500000000000000        0.0000000000000000     
   1.1875000000000000       0.87500000000000000        0.0000000000000000     
   1.2187500000000000       0.87500000000000000        0.0000000000000000     
   1.2500000000000000       0.87500000000000000        0.0000000000000000     
   1.1250000000000000       0.90625000000000000        0.0000000000000000     
   1.1562500000000000       0.90625000000000000        0.0000000000000000     
   1.1875000000000000       0.90625000000000000        0.0000000000000000     
   1.2187500000000000       0.90625000000000000        0.0000000000000000     
   1.2500000000000000       0.90625000000000000        0.0000000000000000     
   1.1250000000000000       0.93750000000000000        0.0000000000000000     
   1.1562500000000000       0.93750000000000000        0.0000000000000000     
   1.1875000000000000       0.93750000000000000        0.0000000000000000     
   1.2187500000000000       0.93750000000000000        0.0000000000000000     
   1.2500000000000000       0.93750000000000000        0.0000000000000000     
   1.1250000000000000       0.96875000000000000        0.0000000000000000     
   1.1562500000000000       0.96875000000000000        0.0000000000000000     
   1.1875000000000000       0.96875000000000000        0.0000000000000000     
   1.2187500000000000       0.96875000000000000        0.0000000000000000     
   1.2500000000000000       0.96875000000000000        0.0000000000000000     
   1.1250000000000000        1.0000000000000000        0.0000000000000000     
   1.1562500000000000        1.0000000000000000        0.0000000000000000     
   1.1875000000000000        1.0000000000000000        0.0000000000000000     
   1.2187500000000000        1.0000000000000000        0.0000000000000000     
   1.2500000000000000        1.0000000000000000        0.0000000000000000     
   1.2500000000000000       0.87500000000000000        0.0000000000000000     
   1.2812500000000000       0.87500000000000000        0.0000000000000000     
   1.3125000000000000       0.87500000000000000        0.0000000000000000     
   1.3437500000000000       0.87500000000000000        0.0000000000000000     
   1.3750000000000000       0.87500000000000000        0.0000000000000000     
   1.2500000000000000       0.90625000000000000        0.0000000000000000     
   1.2812500000000000       0.90625000000000000        0.0000000000000000     
   1.3125000000000000       0.90625000000000000        0.0000000000000000     
   1.3437500000000000       0.90625000000000000        0.0000000000000000     
   1.3750000000000000       0.90625000000000000        0.0000000000000000     
   1.2500000000000000       0.93750000000000000        0.0000000000000000     
   1.2812500000000000       0.93750000000000000        0.0000000000000000     
   1.3125000000000000       0.93750000000000000        0.0000000000000000     
   1.3437500000000000       0.93750000000000000        0.0000000000000000     
   1.3750000000000000       0.93750000000000000        0.0000000000000000     
   1.2500000000000000       0.96875000000000000        0.0000000000000000     
   1.2812500000000000       0.96875000000000000        0.0000000000000000     
   1.3125000000000000       0.96875000000000000        0.0000000000000000     
   1.3437500000000000       0.96875000000000000        0.0000000000000000     
   1.3750000000000000       0.96875000000000000        0.0000000000000000     
   1.2500000000000000        1.0000000000000000        0.0000000000000000     
   1.2812500000000000        1.0000000000000000        0.0000000000000000     
   1.3125000000000000        1.0000000000000000        0.0000000000000000     
   1.3437500000000000        1.0000000000000000        0.0000000000000000     
   1.3750000000000000        1.0000000000000000        0.0000000000000000     
   1.3750000000000000       0.87500000000000000        0.0000000000000000     
   1.4062500000000000       0.87500000000000000        0.0000000000000000     
   1.4375000000000000       0.87500000000000000        0.0000000000000000     
   1.4687500000000000       0.87500000000000000        0.0000000000000000     
   1.5000000000000000       0.87500000000000000        0.0000000000000000     
   1.3750000000000000       0.90625000000000000        0.0000000000000000     
   1.4062500000000000       0.90625000000000000        0.0000000000000000     
   1.4375000000000000       0.90625000000000000        0.0000000000000000     
   1.4687500000000000       0.90625000000000000        0.0000000000000000     
   1.5000000000000000       0.90625000000000000        0.0000000000000000     
   1.3750000000000000       0.93750000000000000        0.0000000000000000     
   1.4062500000000000       0.93750000000000000        0.0000000000000000     
   1.4375000000000000       0.93750000000000000        0.0000000000000000     
   1.4687500000000000       0.93750000000000000        0.0000000000000000     
   1.5000000000000000       0.93750000000000000        0.0000000000000000     
   1.3750000000000000       0.96875000000000000        0.0000000000000000     
   1.4062500000000000       0.96875000000000000        0.0000000000000000     
   1.4375000000000000       0.96875000000000000        0.0000000000000000     
   1.4687500000000000       0.96875000000000000        0.0000000000000000     
   1.5000000000000000       0.96875000000000000        0.0000000000000000     
   1.3750000000000000        1.0000000000000000        0.0000000000000000     
   1.4062500000000000        1.0000000000000000        0.0000000000000000     
   1.4375000000000000        1.0000000000000000        0.0000000000000000     
   1.4687500000000000        1.0000000000000000        0.0000000000000000     
   1.5000000000000000        1.0000000000000000        0.0000000000000000     
 </DataArray>
 </Points>
 <Cells>
 <DataArray  type="Int32"  Name="connectivity"  format="ascii">
           0           1           6           5
           1           2           7           6
           2           3           8           7
           3           4           9           8
           5           6          11          10
           6           7          12          11
           7           8          13          12
           8           9          14          13
          10          11          16          15
          11          12          17          16
          12          13          18          17
          13          14          19          18
          15          16          21          20
          16          17          22          21
          17          18          23          22
          18          19          24          23
          25          26          31          30
          26          27          32          31
          27          28          33          32
          28          29          34          33
          30          31          36          35
          31          32          37          36
          32          33          38          37
          33          34          39          38
          35          36          41          40
          36          37          42          41
          37          38          43          42
          38          39          44          43
          40          41          46          45
          41          42          47          46
          42          43          48          47
          43          44          49          48
          50          51          56          55
          51          52          57          56
          52          53          58          57
          53          54          59          58
          55          56          61          60
          56          57          62          61
          57          58          63          62
          58          59          64          63
          60          61          66          65
          61          62          67          66
          62          63          68          67
          63          64          69          68
          65          66          71          70
          66          67          72          71
          67          68          73          72
          68          69          74          73
          75          76          81          80
          76          77          82          81
          77          78          83          82
          78          79          84          83
          80          81          86          85
          81          82          87          86
          82          83          88          87
          83          84          89          88
          85          86          91          90
          86          87          92          91
          87          88          93          92
          88          89          94          93
          90          91          96          95
          91          92          97          96
          92          93          98          97
          93          94          99          98
         100         101         106         105
         101         102         107         106
         102         103         108         107
         103         104         109         108
         105         106         111         110
         106         107         112         111
         107         108         113         112
         108         109         114         113
         110         111         116         115
         111         112         117         116
         112         113         118         117
         113         114         119         118
         115         116         121         120
         116         117         122         121
         117         118         123         122
         118         119         124         123
         125         126         131         130
         126         127         132         131
         127         128         133         132
         128         129         134         133
         130         131         136         135
         131         132         137         136
         132         133         138         137
         133         134         139         138
         135         136         141         140
         136         137         142         141
         137         138         143         142
         138         139         144         143
         140         141         146         145
         141         142         147         146
         142         143         148         147
         143         144         149         148
         150         151         156         155
         151         152         157         156
         152         153         158         157
         153         154         159         158
         155         156         161         160
         156         157         162         161
         157         158         163         162
         158         159         164         163
         160         161         166         165
         161         162         167         166
         162         163         168         167
         163         164         169         168
         165         166         171         170
         166         167         172         171
         167         168         173         172
         168         169         174         173
         175         176         181         180
         176         177         182         181
         177         178         183         182
         178         179         184         183
         180         181         186         185
         181         182         187         186
         182         183         188         187
         183         184         189         188
         185         186         191         190
         186         187         192         191
         187         188         193         192
         188         189         194         193
         190         191         196         195
         191         192         197         196
         192         193         198         197
         193         194         199         198
         200         201         206         205
         201         202         207         206
         202         203         208         207
         203         204         209         208
         205         206         211         210
         206         207         212         211
         207         208         213         212
         208         209         214         213
         210         211         216         215
         211         212         217         216
         212         213         218         217
         213         214         219         218
         215         216         221         220
         216         217         222         221
         217         218         223         222
         218         219         224         223
         225         226         231         230
         226         227         232         231
         227         228         233         232
         228         229         234         233
         230         231         236         235
         231         232         237         236
         232         233         238         237
         233         234         239         238
         235         236         241         240
         236         237         242         241
         237         238         243         242
         238         239         244         243
         240         241         246         245
         241         242         247         246
         242         243         248         247
         243         244         249         248
         250         251         256         255
         251         252         257         256
         252         253         258         257
         253         254         259         258
         255         256         261         260
         256         257         262         261
         257         258         263         262
         258         259         264         263
         260         261         266         265
         261         262         267         266
         262         263         268         267
         263         264         269         268
         265         266         271         270
         266         267         272         271
         267         268         273         272
         268         269         274         273
         275         276         281         280
         276         277         282         281
         277         278         283         282
         278         279         284         283
         280         281         286         285
         281         282         287         286
         282         283         288         287
         283         284         289         288
         285         286         291         290
         286         287         292         291
         287         288         293         292
         288         289         294         293
         290         291         296         295
         291         292         297         296
         292         293         298         297
         293         294         299         298
         300         301         306         305
         301         302         307         306
         302         303         308         307
         303         304         309         308
         305         306         311         310
         306         307         312         311
         307         308         313         312
         308         309         314         313
         310         311         316         315
         311         312         317         316
         312         313         318         317
         313         314         319         318
         315         316         321         320
         316         317         322         321
         317         318         323         322
         318         319         324         323
         325         326         331         330
         326         327         332         331
         327         328         333         332
         328         329         334         333
         330         331         336         335
         331         332         337         336
         332         333         338         337
         333         334         339         338
         335         336         341         340
         336         337         342         341
         337         338         343         342
         338         339         344         343
         340         341         346         345
         341         342         347         346
         342         343         348         347
         343         344         349         348
         350         351         356         355
         351         352         357         356
         352         353         358         357
         353         354         359         358
         355         356         361         360
         356         357         362         361
         357         358         363         362
         358         359         364         363
         360         361         366         365
         361         362         367         366
         362         363         368         367
         363         364         369         368
         365         366         371         370
         366         367         372         371
         367         368         373         372
         368         369         374         373
         375         376         381         380
         376         377         382         381
         377         378         383         382
         378         379         384         383
         380         381         386         385
         381         382         387         386
         382         383         388         387
         383         384         389         388
         385         386         391         390
         386         387         392         391
         387         388         393         392
         388         389         394         393
         390         391         396         395
         391         392         397         396
         392         393         398         397
         393         394         399         398
         400         401         406         405
         401         402         407         406
         402         403         408         407
         403         404         409         408
         405         406         411         410
         406         407         412         411
         407         408         413         412
         408         409         414         413
         410         411         416         415
         411         412         417         416
         412         413         418         417
         413         414         419         418
         415         416         421         420
         416         417         422         421
         417         418         423         422
         418         419         424         423
         425         426         431         430
         426         427         432         431
         427         428         433         432
         428         429         434         433
         430         431         436         435
         431         432         437         436
         432         433         438         437
         433         434         439         438
         435         436         441         440
         436         437         442         441
         437         438         443         442
         438         439         444         443
         440         441         446         445
         441         442         447         446
         442         443         448         447
         443         444         449         448
         450         451         456         455
         451         452         457         456
         452         453         458         457
         453         454         459         458
         455         456         461         460
         456         457         462         461
         457         458         463         462
         458         459         464         463
         460         461         466         465
         461         462         467         466
         462         463         468         467
         463         464         469         468
         465         466         471         470
         466         467         472         471
         467         468         473         472
         468         469         474         473
         475         476         481         480
         476         477         482         481
         477         478         483         482
         478         479         484         483
         480         481         486         485
         481         482         487         486
         482         483         488         487
         483         484         489         488
         485         486         491         490
         486         487         492         491
         487         488         493         492
         488         489         494         493
         490         491         496         495
         491         492         497         496
         492         493         498         497
         493         494         499         498
         500         501         506         505
         501         502         507         506
         502         503         508         507
         503         504         509         508
         505         506         511         510
         506         507         512         511
         507         508         513         512
         508         509         514         513
         510         511         516         515
         511         512         517         516
         512         513         518         517
         513         514         519         518
         515         516         521         520
         516         517         522         521
         517         518         523         522
         518         519         524         523
         525         526         531         530
         526         527         532         531
         527         528         533         532
         528         529         534         533
         530         531         536         535
         531         532         537         536
         532         533         538         537
         533         534         539         538
         535         536         541         540
         536         537         542         541
         537         538         543         542
         538         539         544         543
         540         541         546         545
         541         542         547         546
         542         543         548         547
         543         544         549         548
         550         551         556         555
         551         552         557         556
         552         553         558         557
         553         554         559         558
         555         556         561         560
         556         557         562         561
         557         558         563         562
         558         559         564         563
         560         561         566         565
         561         562         567         566
         562         563         568         567
         563         564         569         568
         565         566         571         570
         566         567         572         571
         567         568         573         572
         568         569         574         573
         575         576         581         580
         576         577         582         581
         577         578         583         582
         578         579         584         583
         580         581         586         585
         581         582         587         586
         582         583         588         587
         583         584         589         588
         585         586         591         590
         586         587         592         591
         587         588         593         592
         588         589         594         593
         590         591         596         595
         591         592         597         596
         592         593         598         597
         593         594         599         598
         600         601         606         605
         601         602         607         606
         602         603         608         607
         603         604         609         608
         605         606         611         610
         606         607         612         611
         607         608         613         612
         608         609         614         613
         610         611         616         615
         611         612         617         616
         612         613         618         617
         613         614         619         618
         615         616         621         620
         616         617         622         621
         617         618         623         622
         618         619         624         623
         625         626         631         630
         626         627         632         631
         627         628         633         632
         628         629         634         633
         630         631         636         635
         631         632         637         636
         632         633         638         637
         633         634         639         638
         635         636         641         640
         636         637         642         641
         637         638         643         642
         638         639         644         643
         640         641         646         645
         641         642         647         646
         642         643         648         647
         643         644         649         648
         650         651         656         655
         651         652         657         656
         652         653         658         657
         653         654         659         658
         655         656         661         660
         656         657         662         661
         657         658         663         662
         658         659         664         663
         660         661         666         665
         661         662         667         666
         662         663         668         667
         663         664         669         668
         665         666         671         670
         666         667         672         671
         667         668         673         672
         668         669         674         673
         675         676         681         680
         676         677         682         681
         677         678         683         682
         678         679         684         683
         680         681         686         685
         681         682         687         686
         682         683         688         687
         683         684         689         688
         685         686         691         690
         686         687         692         691
         687         688         693         692
         688         689         694         693
         690         691         696         695
         691         692         697         696
         692         693         698         697
         693         694         699         698
         700         701         706         705
         701         702         707         706
         702         703         708         707
         703         704         709         708
         705         706         711         710
         706         707         712         711
         707         708         713         712
         708         709         714         713
         710         711         716         715
         711         712         717         716
         712         713         718         717
         713         714         719         718
         715         716         721         720
         716         717         722         721
         717         718         723         722
         718         719         724         723
         725         726         731         730
         726         727         732         731
         727         728         733         732
         728         729         734         733
         730         731         736         735
         731         732         737         736
         732         733         738         737
         733         734         739         738
         735         736         741         740
         736         737         742         741
         737         738         743         742
         738         739         744         743
         740         741         746         745
         741         742         747         746
         742         743         748         747
         743         744         749         748
         750         751         756         755
         751         752         757         756
         752         753         758         757
         753         754         759         758
         755         756         761         760
         756         757         762         761
         757         758         763         762
         758         759         764         763
         760         761         766         765
         761         762         767         766
         762         763         768         767
         763         764         769         768
         765         766         771         770
         766         767         772         771
         767         768         773         772
         768         769         774         773
         775         776         781         780
         776         777         782         781
         777         778         783         782
         778         779         784         783
         780         781         786         785
         781         782         787         786
         782         783         788         787
         783         784         789         788
         785         786         791         790
         786         787         792         791
         787         788         793         792
         788         789         794         793
         790         791         796         795
         791         792         797         796
         792         793         798         797
         793         794         799         798
         800         801         806         805
         801         802         807         806
         802         803         808         807
         803         804         809         808
         805         806         811         810
         806         807         812         811
         807         808         813         812
         808         809         814         813
         810         811         816         815
         811         812         817         816
         812         813         818         817
         813         814         819         818
         815         816         821         820
         816         817         822         821
         817         818         823         822
         818         819         824         823
         825         826         831         830
         826         827         832         831
         827         828         833         832
         828         829         834         833
         830         831         836         835
         831         832         837         836
         832         833         838         837
         833         834         839         838
         835         836         841         840
         836         837         842         841
         837         838         843         842
         838         839         844         843
         840         841         846         845
         841         842         847         846
         842         843         848         847
         843         844         849         848
         850         851         856         855
         851         852         857         856
         852         853         858         857
         853         854         859         858
         855         856         861         860
         856         857         862         861
         857         858         863         862
         858         859         864         863
         860         861         866         865
         861         862         867         866
         862         863         868         867
         863         864         869         868
         865         866         871         870
         866         867         872         871
         867         868         873         872
         868         869         874         873
         875         876         881         880
         876         877         882         881
         877         878         883         882
         878         879         884         883
         880         881         886         885
         881         882         887         886
         882         883         888         887
         883         884         889         888
         885         886         891         890
         886         887         892         891
         887         888         893         892
         888         889         894         893
         890         891         896         895
         891         892         897         896
         892         893         898         897
         893         894         899         898
         900         901         906         905
         901         902         907         906
         902         903         908         907
         903         904         909         908
         905         906         911         910
         906         907         912         911
         907         908         913         912
         908         909         914         913
         910         911         916         915
         911         912         917         916
         912         913         918         917
         913         914         919         918
         915         916         921         920
         916         917         922         921
         917         918         923         922
         918         919         924         923
         925         926         931         930
         926         927         932         931
         927         928         933         932
         928         929         934         933
         930         931         936         935
         931         932         937         936
         932         933         938         937
         933         934         939         938
         935         936         941         940
         936         937         942         941
         937         938         943         942
         938         939         944         943
         940         941         946         945
         941         942         947         946
         942         943         948         947
         943         944         949         948
         950         951         956         955
         951         952         957         956
         952         953         958         957
         953         954         959         958
         955         956         961         960
         956         957         962         961
         957         958         963         962
         958         959         964         963
         960         961         966         965
         961         962         967         966
         962         963         968         967
         963         964         969         968
         965         966         971         970
         966         967         972         971
         967         968         973         972
         968         969         974         973
         975         976         981         980
         976         977         982         981
         977         978         983         982
         978         979         984         983
         980         981         986         985
         981         982         987         986
         982         983         988         987
         983         984         989         988
         985         986         991         990
         986         987         992         991
         987         988         993         992
         988         989         994         993
         990         991         996         995
         991         992         997         996
         992         993         998         997
         993         994         999         998
        1000        1001        1006        1005
        1001        1002        1007        1006
        1002        1003        1008        1007
        1003        1004        1009        1008
        1005        1006        1011        1010
        1006        1007        1012        1011
        1007        1008        1013        1012
        1008        1009        1014        1013
        1010        1011        1016        1015
        1011        1012        1017        1016
        1012        1013        1018        1017
        1013        1014        1019        1018
        1015        1016        1021        1020
        1016        1017        1022        1021
        1017        1018        1023        1022
        1018        1019        1024        1023
        1025        1026        1031        1030
        1026        1027        1032        1031
        1027        1028        1033        1032
        1028        1029        1034        1033
        1030        1031        1036        1035
        1031        1032        1037        1036
        1032        1033        1038        1037
        1033        1034        1039        1038
        1035        1036        1041        1040
        1036        1037        1042        1041
        1037        1038        1043        1042
        1038        1039        1044        1043
        1040        1041        1046        1045
        1041        1042        1047        1046
        1042        1043        1048        1047
        1043        1044        1049        1048
        1050        1051        1056        1055
        1051        1052        1057        1056
        1052        1053        1058        1057
        1053        1054        1059        1058
        1055        1056        1061        1060
        1056        1057        1062        1061
        1057        1058        1063        1062
        1058        1059        1064        1063
        1060        1061        1066        1065
        1061        1062        1067        1066
        1062        1063        1068        1067
        1063        1064        1069        1068
        1065        1066        1071        1070
        1066        1067        1072        1071
        1067        1068        1073        1072
        1068        1069        1074        1073
        1075        1076        1081        1080
        1076        1077        1082        1081
        1077        1078        1083        1082
        1078        1079        1084        1083
        1080        1081        1086        1085
        1081        1082        1087        1086
        1082        1083        1088        1087
        1083        1084        1089        1088
        1085        1086        1091        1090
        1086        1087        1092        1091
        1087        1088        1093        1092
        1088        1089        1094        1093
        1090        1091        1096        1095
        1091        1092        1097        1096
        1092        1093        1098        1097
        1093        1094        1099        1098
        1100        1101        1106        1105
        1101        1102        1107        1106
        1102        1103        1108        1107
        1103        1104        1109        1108
        1105        1106        1111        1110
        1106        1107        1112        1111
        1107        1108        1113        1112
        1108        1109        1114        1113
        1110        1111        1116        1115
        1111        1112        1117        1116
        1112        1113        1118        1117
        1113        1114        1119        1118
        1115        1116        1121        1120
        1116        1117        1122        1121
        1117        1118        1123        1122
        1118        1119        1124        1123
        1125        1126        1131        1130
        1126        1127        1132        1131
        1127        1128        1133        1132
        1128        1129        1134        1133
        1130        1131        1136        1135
        1131        1132        1137        1136
        1132        1133        1138        1137
        1133        1134        1139        1138
        1135        1136        1141        1140
        1136        1137        1142        1141
        1137        1138        1143        1142
        1138        1139        1144        1143
        1140        1141        1146        1145
        1141        1142        1147        1146
        1142        1143        1148        1147
        1143        1144        1149        1148
        1150        1151        1156        1155
        1151        1152        1157        1156
        1152        1153        1158        1157
        1153        1154        1159        1158
        1155        1156        1161        1160
        1156        1157        1162        1161
        1157        1158        1163        1162
        1158        1159        1164        1163
        1160        1161        1166        1165
        1161        1162        1167        1166
        1162        1163        1168        1167
        1163        1164        1169        1168
        1165        1166        1171        1170
        1166        1167        1172        1171
        1167        1168        1173        1172
        1168        1169        1174        1173
        1175        1176        1181        1180
        1176        1177        1182        1181
        1177        1178        1183        1182
        1178        1179        1184        1183
        1180        1181        1186        1185
        1181        1182        1187        1186
        1182        1183        1188        1187
        1183        1184        1189        1188
        1185        1186        1191        1190
        1186        1187        1192        1191
        1187        1188        1193        1192
        1188        1189        1194        1193
        1190        1191        1196        1195
        1191        1192        1197        1196
        1192        1193        1198        1197
        1193        1194        1199        1198
        1200        1201        1206        1205
        1201        1202        1207        1206
        1202        1203        1208        1207
        1203        1204        1209        1208
        1205        1206        1211        1210
        1206        1207        1212        1211
        1207        1208        1213        1212
        1208        1209        1214        1213
        1210        1211        1216        1215
        1211        1212        1217        1216
        1212        1213        1218        1217
        1213        1214        1219        1218
        1215        1216        1221        1220
        1216        1217        1222        1221
        1217        1218        1223        1222
        1218        1219        1224        1223
        1225        1226        1231        1230
        1226        1227        1232        1231
        1227        1228        1233        1232
        1228        1229        1234        1233
        1230        1231        1236        1235
        1231        1232        1237        1236
        1232        1233        1238        1237
        1233        1234        1239        1238
        1235        1236        1241        1240
        1236        1237        1242        1241
        1237        1238        1243        1242
        1238        1239        1244        1243
        1240        1241        1246        1245
        1241        1242        1247        1246
        1242        1243        1248        1247
        1243        1244        1249        1248
        1250        1251        1256        1255
        1251        1252        1257        1256
        1252        1253        1258        1257
        1253        1254        1259        1258
        1255        1256        1261        1260
        1256        1257        1262        1261
        1257        1258        1263        1262
        1258        1259        1264        1263
        1260        1261        1266        1265
        1261        1262        1267        1266
        1262        1263        1268        1267
        1263        1264        1269        1268
        1265        1266        1271        1270
        1266        1267        1272        1271
        1267        1268        1273        1272
        1268        1269        1274        1273
        1275        1276        1281        1280
        1276        1277        1282        1281
        1277        1278        1283        1282
        1278        1279        1284        1283
        1280        1281        1286        1285
        1281        1282        1287        1286
        1282        1283        1288        1287
        1283        1284        1289        1288
        1285        1286        1291        1290
        1286        1287        1292        1291
        1287        1288        1293        1292
        1288        1289        1294        1293
        1290        1291        1296        1295
        1291        1292        1297        1296
        1292        1293        1298        1297
        1293        1294        1299        1298
        1300        1301        1306        1305
        1301        1302        1307        1306
        1302        1303        1308        1307
        1303        1304        1309        1308
        1305        1306        1311        1310
        1306        1307        1312        1311
        1307        1308        1313        1312
        1308        1309        1314        1313
        1310        1311        1316        1315
        1311        1312        1317        1316
        1312        1313        1318        1317
        1313        1314        1319        1318
        1315        1316        1321        1320
        1316        1317        1322        1321
        1317        1318        1323        1322
        1318        1319        1324        1323
        1325        1326        1331        1330
        1326        1327        1332        1331
        1327        1328        1333        1332
        1328        1329        1334        1333
        1330        1331        1336        1335
        1331        1332        1337        1336
        1332        1333        1338        1337
        1333        1334        1339        1338
        1335        1336        1341        1340
        1336        1337        1342        1341
        1337        1338        1343        1342
        1338        1339        1344        1343
        1340        1341        1346        1345
        1341        1342        1347        1346
        1342        1343        1348        1347
        1343        1344        1349        1348
        1350        1351        1356        1355
        1351        1352        1357        1356
        1352        1353        1358        1357
        1353        1354        1359        1358
        1355        1356        1361        1360
        1356        1357        1362        1361
        1357        1358        1363        1362
        1358        1359        1364        1363
        1360        1361        1366        1365
        1361        1362        1367        1366
        1362        1363        1368        1367
        1363        1364        1369        1368
        1365        1366        1371        1370
        1366        1367        1372        1371
        1367        1368        1373        1372
        1368        1369        1374        1373
        1375        1376        1381        1380
        1376        1377        1382        1381
        1377        1378        1383        1382
        1378        1379        1384        1383
        1380        1381        1386        1385
        1381        1382        1387        1386
        1382        1383        1388        1387
        1383        1384        1389        1388
        1385        1386        1391        1390
        1386        1387        1392        1391
        1387        1388        1393        1392
        1388        1389        1394        1393
        1390        1391        1396        1395
        1391        1392        1397        1396
        1392        1393        1398        1397
        1393        1394        1399        1398
        1400        1401        1406        1405
        1401        1402        1407        1406
        1402        1403        1408        1407
        1403        1404        1409        1408
        1405        1406        1411        1410
        1406        1407        1412        1411
        1407        1408        1413        1412
        1408        1409        1414        1413
        1410        1411        1416        1415
        1411        1412        1417        1416
        1412        1413        1418        1417
        1413        1414        1419        1418
        1415        1416        1421        1420
        1416        1417        1422        1421
        1417        1418        1423        1422
        1418        1419        1424        1423
        1425        1426        1431        1430
        1426        1427        1432        1431
        1427        1428        1433        1432
        1428        1429        1434        1433
        1430        1431        1436        1435
        1431        1432        1437        1436
        1432        1433        1438        1437
        1433        1434        1439        1438
        1435        1436        1441        1440
        1436        1437        1442        1441
        1437        1438        1443        1442
        1438        1439        1444        1443
        1440        1441        1446        1445
        1441        1442        1447        1446
        1442        1443        1448        1447
        1443        1444        1449        1448
        1450        1451        1456        1455
        1451        1452        1457        1456
        1452        1453        1458        1457
        1453        1454        1459        1458
        1455        1456        1461        1460
        1456        1457        1462        1461
        1457        1458        1463        1462
        1458        1459        1464        1463
        1460        1461        1466        1465
        1461        1462        1467        1466
        1462        1463        1468        1467
        1463        1464        1469        1468
        1465        1466        1471        1470
        1466        1467        1472        1471
        1467        1468        1473        1472
        1468        1469        1474        1473
        1475        1476        1481        1480
        1476        1477        1482        1481
        1477        1478        1483        1482
        1478        1479        1484        1483
        1480        1481        1486        1485
        1481        1482        1487        1486
        1482        1483        1488        1487
        1483        1484        1489        1488
        1485        1486        1491        1490
        1486        1487        1492        1491
        1487        1488        1493        1492
        1488        1489        1494        1493
        1490        1491        1496        1495
        1491        1492        1497        1496
        1492        1493        1498        1497
        1493        1494        1499        1498
        1500        1501        1506        1505
        1501        1502        1507        1506
        1502        1503        1508        1507
        1503        1504        1509        1508
        1505        1506        1511        1510
        1506        1507        1512        1511
        1507        1508        1513        1512
        1508        1509        1514        1513
        1510        1511        1516        1515
        1511        1512        1517        1516
        1512        1513        1518        1517
        1513        1514        1519        1518
        1515        1516        1521        1520
        1516        1517        1522        1521
        1517        1518        1523        1522
        1518        1519        1524        1523
        1525        1526        1531        1530
        1526        1527        1532        1531
        1527        1528        1533        1532
        1528        1529        1534        1533
        1530        1531        1536        1535
        1531        1532        1537        1536
        1532        1533        1538        1537
        1533        1534        1539        1538
        1535        1536        1541        1540
        1536        1537        1542        1541
        1537        1538        1543        1542
        1538        1539        1544        1543
        1540        1541        1546        1545
        1541        1542        1547        1546
        1542        1543        1548        1547
        1543        1544        1549        1548
        1550        1551        1556        1555
        1551        1552        1557        1556
        1552        1553        1558        1557
        1553        1554        1559        1558
        1555        1556        1561        1560
        1556        1557        1562        1561
        1557        1558        1563        1562
        1558        1559        1564        1563
        1560        1561        1566        1565
        1561        1562        1567        1566
        1562        1563        1568        1567
        1563        1564        1569        1568
        1565        1566        1571        1570
        1566        1567        1572        1571
        1567        1568        1573        1572
        1568        1569        1574        1573
        1575        1576        1581        1580
        1576        1577        1582        1581
        1577        1578        1583        1582
        1578        1579        1584        1583
        1580        1581        1586        1585
        1581        1582        1587        1586
        1582        1583        1588        1587
        1583        1584        1589        1588
        1585        1586        1591        1590
        1586        1587        1592        1591
        1587        1588        1593        1592
        1588        1589        1594        1593
        1590        1591        1596        1595
        1591        1592        1597        1596
        1592        1593        1598        1597
        1593        1594        1599        1598
 </DataArray>
 <DataArray  type="Int32"  Name="offsets"  format="ascii"> 
           4
           8
          12
          16
          20
          24
          28
          32
          36
          40
          44
          48
          52
          56
          60
          64
          68
          72
          76
          80
          84
          88
          92
          96
         100
         104
         108
         112
         116
         120
         124
         128
         132
         136
         140
         144
         148
         152
         156
         160
         164
         168
         172
         176
         180
         184
         188
         192
         196
         200
         204
         208
         212
         216
         220
         224
         228
         232
         236
         240
         244
         248
         252
         256
         260
         264
         268
         272
         276
         280
         284
         288
         292
         296
         300
         304
         308
         312
         316
         320
         324
         328
         332
         336
         340
         344
         348
         352
         356
         360
         364
         368
         372
         376
         380
         384
         388
         392
         396
         400
         404
         408
         412
         416
         420
         424
         428
         432
         436
         440
         444
         448
         452
         456
         460
         464
         468
         472
         476
         480
         484
         488
         492
         496
         500
         504
         508
         512
         516
         520
         524
         528
         532
         536
         540
         544
         548
         552
         556
         560
         564
         568
         572
         576
         580
         584
         588
         592
         596
         600
         604
         608
         612
         616
         620
         624
         628
         632
         636
         640
         644
         648
         652
         656
         660
         664
         668
         672
         676
         680
         684
         688
         692
         696
         700
         704
         708
         712
         716
         720
         724
         728
         732
         736
         740
         744
         748
         752
         756
         760
         764
         768
         772
         776
         780
         784
         788
         792
         796
         800
         804
         808
         812
         816
         820
         824
         828
         832
         836
         840
         844
         848
         852
         856
         860
         864
         868
         872
         876
         880
         884
         888
         892
         896
         900
         904
         908
         912
         916
         920
         924
         928
         932
         936
         940
         944
         948
         952
         956
         960
         964
         968
         972
         976
         980
         984
         988
         992
         996
        1000
        1004
        1008
        1012
        1016
        1020
        1024
        1028
        1032
        1036
        1040
        1044
        1048
        1052
        1056
        1060
        1064
        1068
        1072
        1076
        1080
        1084
        1088
        1092
        1096
        1100
        1104
        1108
        1112
        1116
        1120
        1124
        1128
        1132
        1136
        1140
        1144
        1148
        1152
        1156
        1160
        1164
        1168
        1172
        1176
        1180
        1184
        1188
        1192
        1196
        1200
        1204
        1208
        1212
        1216
        1220
        1224
        1228
        1232
        1236
        1240
        1244
        1248
        1252
        1256
        1260
        1264
        1268
        1272
        1276
        1280
        1284
        1288
        1292
        1296
        1300
        1304
        1308
        1312
        1316
        1320
        1324
        1328
        1332
        1336
        1340
        1344
        1348
        1352
        1356
        1360
        1364
        1368
        1372
        1376
        1380
        1384
        1388
        1392
        1396
        1400
        1404
        1408
        1412
        1416
        1420
        1424
        1428
        1432
        1436
        1440
        1444
        1448
        1452
        1456
        1460
        1464
        1468
        1472
        1476
        1480
        1484
        1488
        1492
        1496
        1500
        1504
        1508
        1512
        1516
        1520
        1524
        1528
        1532
        1536
        1540
        1544
        1548
        1552
        1556
        1560
        1564
        1568
        1572
        1576
        1580
        1584
        1588
        1592
        1596
        1600
        1604
        1608
        1612
        1616
        1620
        1624
        1628
        1632
        1636
        1640
        1644
        1648
        1652
        1656
        1660
        1664
        1668
        1672
        1676
        1680
        1684
        1688
        1692
        1696
        1700
        1704
        1708
        1712
        1716
        1720
        1724
        1728
        1732
        1736
        1740
        1744
        1748
        1752
        1756
        1760
        1764
        1768
        1772
        1776
        1780
        1784
        1788
        1792
        1796
        1800
        1804
        1808
        1812
        1816
        1820
        1824
        1828
        1832
        1836
        1840
        1844
        1848
        1852
        1856
        1860
        1864
        1868
        1872
        1876
        1880
        1884
        1888
        1892
        1896
        1900
        1904
        1908
        1912
        1916
        1920
        1924
        1928
        1932
        1936
        1940
        1944
        1948
        1952
        1956
        1960
        1964
        1968
        1972
        1976
        1980
        1984
        1988
        1992
        1996
        2000
        2004
        2008
        2012
        2016
        2020
        2024
        2028
        2032
        2036
        2040
        2044
        2048
        2052
        2056
        2060
        2064
        2068
        2072
        2076
        2080
        2084
        2088
        2092
        2096
        2100
        2104
        2108
        2112
        2116
        2120
        2124
        2128
        2132
        2136
        2140
        2144
        2148
        2152
        2156
        2160
        2164
        2168
        2172
        2176
        2180
        2184
        2188
        2192
        2196
        2200
        2204
        2208
        2212
        2216
        2220
        2224
        2228
        2232
        2236
        2240
        2244
        2248
        2252
        2256
        2260
        2264
        2268
        2272
        2276
        2280
        2284
        2288
        2292
        2296
        2300
        2304
        2308
        2312
        2316
        2320
        2324
        2328
        2332
        2336
        2340
        2344
        2348
        2352
        2356
        2360
        2364
        2368
        2372
        2376
        2380
        2384
        2388
        2392
        2396
        2400
        2404
        2408
        2412
        2416
        2420
        2424
        2428
        2432
        2436
        2440
        2444
        2448
        2452
        2456
        2460
        2464
        2468
        2472
        2476
        2480
        2484
        2488
        2492
        2496
        2500
        2504
        2508
        2512
        2516
        2520
        2524
        2528
        2532
        2536
        2540
        2544
        2548
        2552
        2556
        2560
        2564
        2568
        2572
        2576
        2580
        2584
        2588
        2592
        2596
        2600
        2604
        2608
        2612
        2616
        2620
        2624
        2628
        2632
        2636
        2640
        2644
        2648
        2652
        2656
        2660
        2664
        2668
        2672
        2676
        2680
        2684
        2688
        2692
        2696
        2700
        2704
        2708
        2712
        2716
        2720
        2724
        2728
        2732
        2736
        2740
        2744
        2748
        2752
        2756
        2760
        2764
        2768
        2772
        2776
        2780
        2784
        2788
        2792
        2796
        2800
        2804
        2808
        2812
        2816
        2820
        2824
        2828
        2832
        2836
        2840
        2844
        2848
        2852
        2856
        2860
        2864
        2868
        2872
        2876
        2880
        2884
        2888
        2892
        2896
        2900
        2904
        2908
        2912
        2916
        2920
        2924
        2928
        2932
        2936
        2940
        2944
        2948
        2952
        2956
        2960
        2964
        2968
        2972
        2976
        2980
        2984
        2988
        2992
        2996
        3000
        3004
        3008
        3012
        3016
        3020
        3024
        3028
        3032
        3036
        3040
        3044
        3048
        3052
        3056
        3060
        3064
        3068
        3072
        3076
        3080
        3084
        3088
        3092
        3096
        3100
        3104
        3108
        3112
        3116
        3120
        3124
        3128
        3132
        3136
        3140
        3144
        3148
        3152
        3156
        3160
        3164
        3168
        3172
        3176
        3180
        3184
        3188
        3192
        3196
        3200
        3204
        3208
        3212
        3216
        3220
        3224
        3228
        3232
        3236
        3240
        3244
        3248
        3252
        3256
        3260
        3264
        3268
        3272
        3276
        3280
        3284
        3288
        3292
        3296
        3300
        3304
        3308
        3312
        3316
        3320
        3324
        3328
        3332
        3336
        3340
        3344
        3348
        3352
        3356
        3360
        3364
        3368
        3372
        3376
        3380
        3384
        3388
        3392
        3396
        3400
        3404
        3408
        3412
        3416
        3420
        3424
        3428
        3432
        3436
        3440
        3444
        3448
        3452
        3456
        3460
        3464
        3468
        3472
        3476
        3480
        3484
        3488
        3492
        3496
        3500
        3504
        3508
        3512
        3516
        3520
        3524
        3528
        3532
        3536
        3540
        3544
        3548
        3552
        3556
        3560
        3564
        3568
        3572
        3576
        3580
        3584
        3588
        3592
        3596
        3600
        3604
        3608
        3612
        3616
        3620
        3624
        3628
        3632
        3636
        3640
        3644
        3648
        3652
        3656
        3660
        3664
        3668
        3672
        3676
        3680
        3684
        3688
        3692
        3696
        3700
        3704
        3708
        3712
        3716
        3720
        3724
        3728
        3732
        3736
        3740
        3744
        3748
        3752
        3756
        3760
        3764
        3768
        3772
        3776
        3780
        3784
        3788
        3792
        3796
        3800
        3804
        3808
        3812
        3816
        3820
        3824
        3828
        3832
        3836
        3840
        3844
        3848
        3852
        3856
        3860
        3864
        3868
        3872
        3876
        3880
        3884
        3888
        3892
        3896
        3900
        3904
        3908
        3912
        3916
        3920
        3924
        3928
        3932
        3936
        3940
        3944
        3948
        3952
        3956
        3960
        3964
        3968
        3972
        3976
        3980
        3984
        3988
        3992
        3996
        4000
        4004
        4008
        4012
        4016
        4020
        4024
        4028
        4032
        4036
        4040
        4044
        4048
        4052
        4056
        4060
        4064
        4068
        4072
        4076
        4080
        4084
        4088
        4092
        4096
 </DataArray>
 <DataArray  type="UInt8"  Name="types"  format="ascii">
 9
 9
 9
 9
 9
 9
 9
 9
 9
 9
 9
 9
 9
 9
 9
 9
 9
 9
 9
 9
 9
 9
 9
 9
 9
 9
 9
 9
 9
 9
 9
 9
 9
 9
 9
 9
 9
 9
 9
 9
 9
 9
 9
 9
 9
 9
 9
 9
 9
 9
 9
 9
 9
 9
 9
 9
 9
 9
 9
 9
 9
 9
 9
 9
 9
 9
 9
 9
 9
 9
 9
 9
 9
 9
 9
 9
 9
 9
 9
 9
 9
 9
 9
 9
 9
 9
 9
 9
 9
 9
 9
 9
 9
 9
 9
 9
 9
 9
 9
 9
 9
 9
 9
 9
 9
 9
 9
 9
 9
 9
 9
 9
 9
 9
 9
 9
 9
 9
 9
 9
 9
 9
 9
 9
 9
 9
 9
 9
 9
 9
 9
 9
 9
 9
 9
 9
 9
 9
 9
 9
 9
 9
 9
 9
 9
 9
 9
 9
 9
 9
 9
 9
 9
 9
 9
 9
 9
 9
 9
 9
 9
 9
 9
 9
 9
 9
 9
 9
 9
 9
 9
 9
 9
 9
 9
 9
 9
 9
 9
 9
 9
 9
 9
 9
 9
 9
 9
 9
 9
 9
 9
 9
 9
 9
 9
 9
 9
 9
 9
 9
 9
 9
 9
 9
 9
 9
 9
 9
 9
 9
 9
 9
 9
 9
 9
 9
 9
 9
 9
 9
 9
 9
 9
 9
 9
 9
 9
 9
 9
 9
 9
 9
 9
 9
 9
 9
 9
 9
 9
 9
 9
 9
 9
 9
 9
 9
 9
 9
 9
 9
 9
 9
 9
 9
 9
 9
 9
 9
 9
 9
 9
 9
 9
 9
 9
 9
 9
 9
 9
 9
 9
 9
 9
 9
 9
 9
 9
 9
 9
 9
 9
 9
 9
 9
 9
 9
 9
 9
 9
 9
 9
 9
 9
 9
 9
 9
 9
 9
 9
 9
 9
 9
 9
 9
 9
 9
 9
 9
 9
 9
 9
 9
 9
 9
 9
 9
 9
 9
 9
 9
 9
 9
 9
 9
 9
 9
 9
 9
 9
 9
 9
 9
 9
 9
 9
 9
 9
 9
 9
 9
 9
 9
 9
 9
 9
 9
 9
 9
 9
 9
 9
 9
 9
 9
 9
 9
 9
 9
 9
 9
 9
 9
 9
 9
 9
 9
 9
 9
 9
 9
 9
 9
 9
 9
 9
 9
 9
 9
 9
 9
 9
 9
 9
 9
 9
 9
 9
 9
 9
 9
 9
 9
 9
 9
 9
 9
 9
 9
 9
 9
 9
 9
 9
 9
 9
 9
 9
 9
 9
 9
 9
 9
 9
 9
 9
 9
 9
 9
 9
 9
 9
 9
 9
 9
 9
 9
 9
 9
 9
 9
 9
 9
 9
 9
 9
 9
 9
 9
 9
 9
 9
 9
 9
 9
 9
 9
 9
 9
 9
 9
 9
 9
 9
 9
 9
 9
 9
 9
 9
 9
 9
 9
 9
 9
 9
 9
 9
 9
 9
 9
 9
 9
 9
 9
 9
 9
 9
 9
 9
 9
 9
 9
 9
 9
 9
 9
 9
 9
 9
 9
 9
 9
 9
 9
 9
 9
 9
 9
 9
 9
 9
 9
 9
 9
 9
 9
 9
 9
 9
 9
 9
 9
 9
 9
 9
 9
 9
 9
 9
 9
 9
 9
 9
 9
 9
 9
 9
 9
 9
 9
 9
 9
 9
 9
 9
 9
 9
 9
 9
 9
 9
 9
 9
 9
 9
 9
 9
 9
 9
 9
 9
 9
 9
 9
 9
 9
 9
 9
 9
 9
 9
 9
 9
 9
 9
 9
 9
 9
 9
 9
 9
 9
 9
 9
 9
 9
 9
 9
 9
 9
 9
 9
 9
 9
 9
 9
 9
 9
 9
 9
 9
 9
 9
 9
 9
 9
 9
 9
 9
 9
 9
 9
 9
 9
 9
 9
 9
 9
 9
 9
 9
 9
 9
 9
 9
 9
 9
 9
 9
 9
 9
 9
 9
 9
 9
 9
 9
 9
 9
 9
 9
 9
 9
 9
 9
 9
 9
 9
 9
 9
 9
 9
 9
 9
 9
 9
 9
 9
 9
 9
 9
 9
 9
 9
 9
 9
 9
 9
 9
 9
 9
 9
 9
 9
 9
 9
 9
 9
 9
 9
 9
 9
 9
 9
 9
 9
 9
 9
 9
 9
 9
 9
 9
 9
 9
 9
 9
 9
 9
 9
 9
 9
 9
 9
 9
 9
 9
 9
 9
 9
 9
 9
 9
 9
 9
 9
 9
 9
 9
 9
 9
 9
 9
 9
 9
 9
 9
 9
 9
 9
 9
 9
 9
 9
 9
 9
 9
 9
 9
 9
 9
 9
 9
 9
 9
 9
 9
 9
 9
 9
 9
 9
 9
 9
 9
 9
 9
 9
 9
 9
 9
 9
 9
 9
 9
 9
 9
 9
 9
 9
 9
 9
 9
 9
 9
 9
 9
 9
 9
 9
 9
 9
 9
 9
 9
 9
 9
 9
 9
 9
 9
 9
 9
 9
 9
 9
 9
 9
 9
 9
 9
 9
 9
 9
 9
 9
 9
 9
 9
 9
 9
 9
 9
 9
 9
 9
 9
 9
 9
 9
 9
 9
 9
 9
 9
 9
 9
 9
 9
 9
 9
 9
 9
 9
 9
 9
 9
 9
 9
 9
 9
 9
 9
 9
 9
 9
 9
 9
 9
 9
 9
 9
 9
 9
 9
 9
 9
 9
 9
 9
 9
 9
 9
 9
 9
 9
 9
 9
 9
 9
 9
 9
 9
 9
 9
 9
 9
 9
 9
 9
 9
 9
 9
 9
 9
 9
 9
 9
 9
 9
 9
 9
 9
 9
 9
 9
 9
 9
 9
 9
 9
 9
 9
 9
 9
 9
 9
 9
 9
 9
 9
 9
 9
 9
 9
 9
 9
 9
 9
 9
 9
 9
 9
 9
 9
 9
 9
 9
 9
 9
 9
 9
 9
 9
 9
 9
 9
 9
 9
 9
 9
 9
 9
 9
 9
 9
 9
 9
 9
 9
 9
 9
 9
 9
 9
 9
 9
 9
 9
 9
 9
 9
 9
 9
 9
 9
 9
 9
 9
 9
 9
 9
 9
 9
 9
 9
 9
 9
 9
 9
 9
 9
 9
 9
 9
 9
 9
 9
 9
 9
 9
 9
 9
 9
 9
 9
 9
 9
 9
 9
 9
 9
 9
 9
 9
 9
 9
 9
 9
 9
 9
 9
 9
 9
 9
 9
 9
 9
 9
 9
 9
 9
 9
 9
 9
 9
 9
 9
 9
 9
 9
 9
 9
 9
 </DataArray>
 </Cells> 
 <PointData>
 <DataArray  type="Float64" Name="disp" NumberOfComponents="3" format="ascii">
   6.5294493204561543E-002   6.2800467055246043E-002   0.0000000000000000     
   6.8494392403906396E-002   6.8212108734886645E-002   0.0000000000000000     
   7.1536211572643144E-002   7.3795622180684015E-002   0.0000000000000000     
   7.4419950710771829E-002   7.9551007392638123E-002   0.0000000000000000     
   7.7145609818292382E-002   8.5478264370748985E-002   0.0000000000000000     
   6.0113339234742366E-002   6.1902140017738055E-002   0.0000000000000000     
   6.3125209541539329E-002   6.7331598609682394E-002   0.0000000000000000     
   6.5982668670439587E-002   7.2937339460558817E-002   0.0000000000000000     
   6.8685716621443099E-002   7.8719362570367310E-002   0.0000000000000000     
   7.1234353394549879E-002   8.4677667939107915E-002   0.0000000000000000     
   5.5128765637297822E-002   6.1054137373198009E-002   0.0000000000000000     
   5.7948185244285397E-002   6.6507064712944541E-002   0.0000000000000000     
   6.0620582419979072E-002   7.2137852897404625E-002   0.0000000000000000     
   6.3145957164378819E-002   7.7946501926578288E-002   0.0000000000000000     
   6.5524309477484680E-002   8.3933011800465501E-002   0.0000000000000000     
   5.0340772412227910E-002   6.0256459121625888E-002   0.0000000000000000     
   5.2963319512144565E-002   6.5738507044673086E-002   0.0000000000000000     
   5.5449952821261597E-002   7.1397162491221466E-002   0.0000000000000000     
   5.7800672339579001E-002   7.7232425461271029E-002   0.0000000000000000     
   6.0015478067096770E-002   8.3244295954821759E-002   0.0000000000000000     
   4.5749359559532639E-002   5.9509105263021708E-002   0.0000000000000000     
   4.8170612345116860E-002   6.5025925604868057E-002   0.0000000000000000     
   5.0470779874287192E-002   7.0715268242009327E-002   0.0000000000000000     
   5.2649862147043626E-002   7.6577133174445547E-002   0.0000000000000000     
   5.4707859163386177E-002   8.2611520402176675E-002   0.0000000000000000     
   7.7145609818292382E-002   8.5478264370748985E-002   0.0000000000000000     
   7.9761154029226691E-002   9.1572698891209045E-002   0.0000000000000000     
   8.2314548477596519E-002   9.7829616730210803E-002   0.0000000000000000     
   8.4805793163401894E-002  0.10424901788775423        0.0000000000000000     
   8.7234888086642787E-002  0.11083090236383936        0.0000000000000000     
   7.1234353394549879E-002   8.4677667939107915E-002   0.0000000000000000     
   7.3679164401912092E-002   9.0804234227635949E-002   0.0000000000000000     
   7.6070735055681890E-002   9.7091040096806830E-002   0.0000000000000000     
   7.8409065355859273E-002  0.10353808554662056        0.0000000000000000     
   8.0694155302444226E-002  0.11014537057707711        0.0000000000000000     
   6.5524309477484680E-002   8.3933011800465501E-002   0.0000000000000000     
   6.7804929950984569E-002   9.0087920916420455E-002   0.0000000000000000     
   7.0037109176566470E-002   9.6401767671797423E-002   0.0000000000000000     
   7.2220847154230328E-002  0.10287455206659636        0.0000000000000000     
   7.4356143883976183E-002  0.10950627410081727        0.0000000000000000     
   6.0015478067096770E-002   8.3244295954821759E-002   0.0000000000000000     
   6.2138450676444107E-002   8.9423758957562632E-002   0.0000000000000000     
   6.4213670840250189E-002   9.5761799455182567E-002   0.0000000000000000     
   6.6241138558515031E-002  0.10225841744768165        0.0000000000000000     
   6.8220853831238604E-002  0.10891361293505981        0.0000000000000000     
   5.4707859163386177E-002   8.2611520402176675E-002   0.0000000000000000     
   5.6679726578290714E-002   8.8811748351062383E-002   0.0000000000000000     
   5.8600420046733125E-002   9.5171135446962304E-002   0.0000000000000000     
   6.0469939568713396E-002  0.10168968168987642        0.0000000000000000     
   6.2288285144231521E-002  0.10836738707980473        0.0000000000000000     
   8.7234888086642787E-002  0.11083090236383936        0.0000000000000000     
   8.9575059262094220E-002  0.11755896972077486        0.0000000000000000     
   9.1799532704531117E-002  0.12441691952086938        0.0000000000000000     
   9.3908308413953520E-002  0.13140475176412292        0.0000000000000000     
   9.5901386390361415E-002  0.13852246645053551        0.0000000000000000     
   8.0694155302444226E-002  0.11014537057707711        0.0000000000000000     
   8.2896710942821472E-002  0.11689867474292748        0.0000000000000000     
   8.4987438324375608E-002  0.12378377759892263        0.0000000000000000     
   8.6966337447106704E-002  0.13080067914506255        0.0000000000000000     
   8.8833408311014730E-002  0.13794937938134727        0.0000000000000000     
   7.4356143883976183E-002  0.10950627410081727        0.0000000000000000     
   7.6414533366104889E-002  0.11628399181703752        0.0000000000000000     
   7.8367549600917366E-002  0.12319476325783453        0.0000000000000000     
   8.0215192588413572E-002  0.13023858842320826        0.0000000000000000     
   8.1957462328593522E-002  0.13741546731315868        0.0000000000000000     
   6.8220853831238604E-002  0.10891361293505981        0.0000000000000000     
   7.0128526531944513E-002  0.11571492094310495        0.0000000000000000     
   7.1939866534156349E-002  0.12264987649760500        0.0000000000000000     
   7.3654873837874099E-002  0.12971847959855995        0.0000000000000000     
   7.5273548443097776E-002  0.13692073024596976        0.0000000000000000     
   6.2288285144231521E-002  0.10836738707980473        0.0000000000000000     
   6.4038690440340329E-002  0.11519146212112980        0.0000000000000000     
   6.5704389124092585E-002  0.12214911731823409        0.0000000000000000     
   6.7285381195488311E-002  0.12924035267111764        0.0000000000000000     
   6.8781666654527493E-002  0.13646516817978044        0.0000000000000000     
   9.5901386390361415E-002  0.13852246645053551        0.0000000000000000     
   9.7794595416799163E-002  0.14576082980190097        0.0000000000000000     
   9.9603764276311138E-002  0.15311060804001314        0.0000000000000000     
  0.10132889296889735       0.16057180116487202        0.0000000000000000     
  0.10296998149455781       0.16814440917647760        0.0000000000000000     
   8.8833408311014730E-002  0.13794937938134727        0.0000000000000000     
   9.0605839680521841E-002  0.14521851714874937        0.0000000000000000     
   9.2300820320050103E-002  0.15259673128824144        0.0000000000000000     
   9.3918350229599601E-002  0.16008402179982348        0.0000000000000000     
   9.5458429409170278E-002  0.16768038868349550        0.0000000000000000     
   8.1957462328593522E-002  0.13741546731315868        0.0000000000000000     
   8.3610744735954645E-002  0.14471272417171913        0.0000000000000000     
   8.5191425724994302E-002  0.15211768324292277        0.0000000000000000     
   8.6699505295712492E-002  0.15963034452676958        0.0000000000000000     
   8.8134983448109230E-002  0.16725070802325959        0.0000000000000000     
   7.5273548443097776E-002  0.13692073024596976        0.0000000000000000     
   7.6809310583097562E-002  0.14424345087081022        0.0000000000000000     
   7.8275580491143665E-002  0.15167346390405706        0.0000000000000000     
   7.9672358167236015E-002  0.15921076934571030        0.0000000000000000     
   8.0999643611374683E-002  0.16685536719576990        0.0000000000000000     
   6.8781666654527493E-002  0.13646516817978044        0.0000000000000000     
   7.0201537221950633E-002  0.14381069724602263        0.0000000000000000     
   7.1553284618498192E-002  0.15126407327164440        0.0000000000000000     
   7.2836908844170184E-002  0.15882529625664565        0.0000000000000000     
   7.4052409898966595E-002  0.16649436620102645        0.0000000000000000     
  0.10296998149455781       0.16814440917647760        0.0000000000000000     
  0.10452513388017891       0.17581696001840755        0.0000000000000000     
  0.10599245415264705       0.18357798163423950        0.0000000000000000     
  0.10737194231196223       0.19142747402397348        0.0000000000000000     
  0.10866359835812446       0.19936543718760952        0.0000000000000000     
   9.5458429409170278E-002  0.16768038868349550        0.0000000000000000     
   9.6916471570976742E-002  0.17537636439462281        0.0000000000000000     
   9.8287890427233529E-002  0.18316248138857080        0.0000000000000000     
   9.9572685977940653E-002  0.19103873966533944        0.0000000000000000     
  0.10077085822309811       0.19900513922492871        0.0000000000000000     
   8.8134983448109230E-002  0.16725070802325959        0.0000000000000000     
   8.9492066802208586E-002  0.17497044326602310        0.0000000000000000     
   9.0764961978034575E-002  0.18278121978869025        0.0000000000000000     
   9.1953668975587183E-002  0.19068303759126118        0.0000000000000000     
   9.3058187794866437E-002  0.19867589667373578        0.0000000000000000     
   8.0999643611374683E-002  0.16685536719576990        0.0000000000000000     
   8.2251919573874469E-002  0.17459919663260831        0.0000000000000000     
   8.3423668805050158E-002  0.18243419683459794        0.0000000000000000     
   8.4514891304901835E-002  0.19036036780173871        0.0000000000000000     
   8.5525587073429429E-002  0.19837770953403067        0.0000000000000000     
   7.4052409898966595E-002  0.16649436620102645        0.0000000000000000     
   7.5196029885974361E-002  0.17426262449437857        0.0000000000000000     
   7.6264010908280347E-002  0.18212141252629374        0.0000000000000000     
   7.7256352965884581E-002  0.19007073029677204        0.0000000000000000     
   7.8173056058787063E-002  0.19811057780581343        0.0000000000000000     
  0.10866359835812446       0.19936543718760952        0.0000000000000000     
  0.10987360374678617       0.20738886632016970        0.0000000000000000     
  0.11100813993359976       0.21549475661667636        0.0000000000000000     
  0.11206720691856531       0.22368310807712938        0.0000000000000000     
  0.11305080470168272       0.23195392070152882        0.0000000000000000     
  0.10077085822309811       0.19900513922492871        0.0000000000000000     
  0.10188922329873862       0.20705545667903247        0.0000000000000000     
  0.10293459734089482       0.21518346863934446        0.0000000000000000     
  0.10390698034956673       0.22338917510586467        0.0000000000000000     
  0.10480637232475434       0.23167257607859315        0.0000000000000000     
   9.3058187794866437E-002  0.19867589667373578        0.0000000000000000     
   9.4084704161717714E-002  0.20675171693027208        0.0000000000000000     
   9.5039403801986361E-002  0.21490241825502787        0.0000000000000000     
   9.5922286715672364E-002  0.22312800064800328        0.0000000000000000     
   9.6733352902775738E-002  0.23142846410919826        0.0000000000000000     
   8.5525587073429429E-002  0.19837770953403067        0.0000000000000000     
   8.6460046335723462E-002  0.20647764707388847        0.0000000000000000     
   8.7322559316874382E-002  0.21465160546372666        0.0000000000000000     
   8.8113126016882190E-002  0.22289958470354518        0.0000000000000000     
   8.8831746435746942E-002  0.23122158479334412        0.0000000000000000     
   7.8173056058787063E-002  0.19811057780581343        0.0000000000000000     
   7.9015249820755820E-002  0.20623324710988170        0.0000000000000000     
   7.9784063885558865E-002  0.21443103026544066        0.0000000000000000     
   8.0479498253196266E-002  0.22270392727249033        0.0000000000000000     
   8.1101552923667941E-002  0.23105193813103075        0.0000000000000000     
  0.11305080470168272       0.23195392070152882        0.0000000000000000     
  0.11398697538047103       0.24032312301020159        0.0000000000000000     
  0.11490376105244920       0.24880664352347470        0.0000000000000000     
  0.11580116171761724       0.25740448224134815        0.0000000000000000     
  0.11667917737597513       0.26611663916382189        0.0000000000000000     
  0.10480637232475434       0.23167257607859315        0.0000000000000000     
  0.10563749244304700       0.24005694853044030        0.0000000000000000     
  0.10640505988103406       0.24856556943431646        0.0000000000000000     
  0.10710907463871550       0.25719843879022170        0.0000000000000000     
  0.10774953671609132       0.26595555659815595        0.0000000000000000     
   9.6733352902775738E-002  0.23142846410919826        0.0000000000000000     
   9.7463087726248968E-002  0.23983032689901221        0.0000000000000000     
   9.8101976549044442E-002  0.24836010727784441        0.0000000000000000     
   9.8650019371162231E-002  0.25701780524569490        0.0000000000000000     
   9.9107216192602293E-002  0.26580342080256375        0.0000000000000000     
   8.8831746435746942E-002  0.23122158479334412        0.0000000000000000     
   8.9463761230076905E-002  0.23964325811591736        0.0000000000000000     
   8.9994511056480431E-002  0.24819025705405856        0.0000000000000000     
   9.0423995914957464E-002  0.25686258160776787        0.0000000000000000     
   9.0752215805508074E-002  0.26566023177704517        0.0000000000000000     
   8.1101552923667941E-002  0.23105193813103075        0.0000000000000000     
   8.1639512954530868E-002  0.23949574218115569        0.0000000000000000     
   8.2082663403341957E-002  0.24805601876295891        0.0000000000000000     
   8.2431004270101194E-002  0.25673276787644050        0.0000000000000000     
   8.2684535554808591E-002  0.26552598952160034        0.0000000000000000     
  0.11667917737597513       0.26611663916382189        0.0000000000000000     
  0.11747829255986189       0.27510800296414817        0.0000000000000000     
  0.11813899180161652       0.28454346231557925        0.0000000000000000     
  0.11866127510123903       0.29442301721811509        0.0000000000000000     
  0.11904514245872941       0.30474666767175568        0.0000000000000000     
  0.10774953671609132       0.26595555659815595        0.0000000000000000     
  0.10830763799773578       0.27496907605900445        0.0000000000000000     
  0.10876457036822307       0.28437115037365213        0.0000000000000000     
  0.10912033382755321       0.29416177954209927        0.0000000000000000     
  0.10937492837572617       0.30434096356434559        0.0000000000000000     
   9.9107216192602293E-002  0.26580342080256375        0.0000000000000000     
   9.9484761304327207E-002  0.27481507108545372        0.0000000000000000     
   9.9793848997299511E-002  0.28415087323136773        0.0000000000000000     
  0.10003447927151925       0.29381082724030583        0.0000000000000000     
  0.10020665212698637       0.30379493311226802        0.0000000000000000     
   9.0752215805508074E-002  0.26566023177704517        0.0000000000000000     
   9.1009662479636211E-002  0.27464598804349610        0.0000000000000000     
   9.1226827688845907E-002  0.28388263088872601        0.0000000000000000     
   9.1403711433137205E-002  0.29337016031273494        0.0000000000000000     
   9.1540313712510049E-002  0.30310857631552296        0.0000000000000000     
   8.2684535554808591E-002  0.26552598952160034        0.0000000000000000     
   8.2882341523662750E-002  0.27446182693313148        0.0000000000000000     
   8.3063506442862201E-002  0.28356642334572685        0.0000000000000000     
   8.3228030312407025E-002  0.29283977875938644        0.0000000000000000     
   8.3375913132297169E-002  0.30228189317411031        0.0000000000000000     
   4.5749359559532639E-002   5.9509105263021708E-002   0.0000000000000000     
   4.8170612345116860E-002   6.5025925604868057E-002   0.0000000000000000     
   5.0470779874287192E-002   7.0715268242009327E-002   0.0000000000000000     
   5.2649862147043626E-002   7.6577133174445547E-002   0.0000000000000000     
   5.4707859163386177E-002   8.2611520402176675E-002   0.0000000000000000     
   4.1327807890370306E-002   5.8820558378630594E-002   0.0000000000000000     
   4.3547319814006266E-002   6.4370509351567282E-002   0.0000000000000000     
   4.5660262382182334E-002   7.0088567880040087E-002   0.0000000000000000     
   4.7666635594898504E-002   7.5974733964049052E-002   0.0000000000000000     
   4.9566439452154783E-002   8.2029007603594162E-002   0.0000000000000000     
   3.7049398215899206E-002   5.8199301049697651E-002   0.0000000000000000     
   3.9070697989616793E-002   6.3773447242808590E-002   0.0000000000000000     
   4.0995599148073526E-002   6.9513459135585653E-002   0.0000000000000000     
   4.2824101691269434E-002   7.5419336728028780E-002   0.0000000000000000     
   4.4556205619204474E-002   8.1491080020138038E-002   0.0000000000000000     
   3.2914130536119357E-002   5.7645333276222906E-002   0.0000000000000000     
   3.4740746871948433E-002   6.3234739278592023E-002   0.0000000000000000     
   3.6476790171960781E-002   6.8989942008645985E-002   0.0000000000000000     
   3.8122260436156394E-002   7.4910941466384731E-002   0.0000000000000000     
   3.9677157664535272E-002   8.0997737651808344E-002   0.0000000000000000     
   2.8922004851030744E-002   5.7158655058206345E-002   0.0000000000000000     
   3.0557466461001194E-002   6.2754385458917553E-002   0.0000000000000000     
   3.2103835453844078E-002   6.8518016499221082E-002   0.0000000000000000     
   3.3561111829559405E-002   7.4449548179116920E-002   0.0000000000000000     
   3.4929295588147162E-002   8.0548980498605066E-002   0.0000000000000000     
   5.4707859163386177E-002   8.2611520402176675E-002   0.0000000000000000     
   5.6679726578290714E-002   8.8811748351062383E-002   0.0000000000000000     
   5.8600420046733125E-002   9.5171135446962304E-002   0.0000000000000000     
   6.0469939568713396E-002  0.10168968168987642        0.0000000000000000     
   6.2288285144231521E-002  0.10836738707980473        0.0000000000000000     
   4.9566439452154783E-002   8.2029007603594162E-002   0.0000000000000000     
   5.1386032505143890E-002   8.8247473182396133E-002   0.0000000000000000     
   5.3151773305058589E-002   9.4626215084175777E-002   0.0000000000000000     
   5.4863661851898872E-002  0.10116523330893301        0.0000000000000000     
   5.6521698145664712E-002  0.10786452785666792        0.0000000000000000     
   4.4556205619204474E-002   8.1491080020138038E-002   0.0000000000000000     
   4.6214643305623172E-002   8.7726517537040222E-002   0.0000000000000000     
   4.7822147124269979E-002   9.4123477803862127E-002   0.0000000000000000     
   4.9378717075144914E-002  0.10068196082060379        0.0000000000000000     
   5.0884353158247971E-002  0.10740196658726517        0.0000000000000000     
   3.9677157664535272E-002   8.0997737651808344E-002   0.0000000000000000     
   4.1165558979728532E-002   8.7248881414994608E-002   0.0000000000000000     
   4.2611541504367287E-002   9.3662923606021395E-002   0.0000000000000000     
   4.4015105238451542E-002  0.10023986422488870        0.0000000000000000     
   4.5376250181981284E-002  0.10697970327159650        0.0000000000000000     
   3.4929295588147162E-002   8.0548980498605066E-002   0.0000000000000000     
   3.6238779527459991E-002   8.6814564816259363E-002   0.0000000000000000     
   3.7519956445350514E-002   9.3244552490653596E-002   0.0000000000000000     
   3.8772826341818736E-002   9.9838943521787793E-002   0.0000000000000000     
   3.9997389216864659E-002  0.10659773790966195        0.0000000000000000     
   6.2288285144231521E-002  0.10836738707980473        0.0000000000000000     
   6.4038690440340329E-002  0.11519146212112980        0.0000000000000000     
   6.5704389124092585E-002  0.12214911731823409        0.0000000000000000     
   6.7285381195488311E-002  0.12924035267111764        0.0000000000000000     
   6.8781666654527493E-002  0.13646516817978044        0.0000000000000000     
   5.6521698145664712E-002  0.10786452785666792        0.0000000000000000     
   5.8115989467858661E-002  0.11471056643297697        0.0000000000000000     
   5.9636643099983198E-002  0.12168981674345668        0.0000000000000000     
   6.1083659042038309E-002  0.12880227878810707        0.0000000000000000     
   6.2457037294024027E-002  0.13604795256692814        0.0000000000000000     
   5.0884353158247971E-002  0.10740196658726517        0.0000000000000000     
   5.2331387991065861E-002  0.11426918496051142        0.0000000000000000     
   5.3712154191085278E-002  0.12126930579700770        0.0000000000000000     
   5.5026651758306240E-002  0.12840232909675392        0.0000000000000000     
   5.6274880692728728E-002  0.13566825485975018        0.0000000000000000     
   4.5376250181981284E-002  0.10697970327159650        0.0000000000000000     
   4.6684886009961922E-002  0.11386731770373319        0.0000000000000000     
   4.7930922397398865E-002  0.12088758447888708        0.0000000000000000     
   4.9114359344292077E-002  0.12804050359705821        0.0000000000000000     
   5.0235196850641602E-002  0.13532607505824654        0.0000000000000000     
   3.9997389216864659E-002  0.10659773790966195        0.0000000000000000     
   4.1176483524546864E-002  0.11350496466264223        0.0000000000000000     
   4.2292947718923925E-002  0.12054465278909492        0.0000000000000000     
   4.3346781799995855E-002  0.12771680228901994        0.0000000000000000     
   4.4337985767762642E-002  0.13502141316241728        0.0000000000000000     
   6.8781666654527493E-002  0.13646516817978044        0.0000000000000000     
   7.0201537221950633E-002  0.14381069724602263        0.0000000000000000     
   7.1553284618498192E-002  0.15126407327164440        0.0000000000000000     
   7.2836908844170184E-002  0.15882529625664565        0.0000000000000000     
   7.4052409898966595E-002  0.16649436620102645        0.0000000000000000     
   6.2457037294024027E-002  0.13604795256692814        0.0000000000000000     
   6.3760325306252585E-002  0.14341460932721681        0.0000000000000000     
   6.4997070529036249E-002  0.15089002031626997        0.0000000000000000     
   6.6167272962375026E-002  0.15847418553408762        0.0000000000000000     
   6.7270932606268902E-002  0.16616710498066986        0.0000000000000000     
   5.6274880692728728E-002  0.13566825485975018        0.0000000000000000     
   5.7458575489742217E-002  0.14305533314425301        0.0000000000000000     
   5.8579470644736169E-002  0.15055181400851902        0.0000000000000000     
   5.9637566157710591E-002  0.15815769745254829        0.0000000000000000     
   6.0632862028665489E-002  0.16587298347634072        0.0000000000000000     
   5.0235196850641602E-002  0.13532607505824654        0.0000000000000000     
   5.1296287772419520E-002  0.14273286869713128        0.0000000000000000     
   5.2300484965597950E-002  0.15024945434839163        0.0000000000000000     
   5.3247788430176891E-002  0.15787583201202754        0.0000000000000000     
   5.4138198166156351E-002  0.16561200168803911        0.0000000000000000     
   4.4337985767762642E-002  0.13502141316241728        0.0000000000000000     
   4.5273462154284495E-002  0.14244721598585164        0.0000000000000000     
   4.6160113491621579E-002  0.14998294133588772        0.0000000000000000     
   4.6997939779773928E-002  0.15762858921252551        0.0000000000000000     
   4.7786941018741508E-002  0.16538415961576497        0.0000000000000000     
   7.4052409898966595E-002  0.16649436620102645        0.0000000000000000     
   7.5196029885974361E-002  0.17426262449437857        0.0000000000000000     
   7.6264010908280347E-002  0.18212141252629374        0.0000000000000000     
   7.7256352965884581E-002  0.19007073029677204        0.0000000000000000     
   7.8173056058787063E-002  0.19811057780581343        0.0000000000000000     
   6.7270932606268902E-002  0.16616710498066986        0.0000000000000000     
   6.8306133304260080E-002  0.17395923521332327        0.0000000000000000     
   6.9270958899890767E-002  0.18184103278935448        0.0000000000000000     
   7.0165409393160960E-002  0.18981249770876357        0.0000000000000000     
   7.0989484784070633E-002  0.19787362997155059        0.0000000000000000     
   6.0632862028665489E-002  0.16587298347634072        0.0000000000000000     
   6.1563965394483458E-002  0.17368753715143173        0.0000000000000000     
   6.2429483392047104E-002  0.18159122354935678        0.0000000000000000     
   6.3229416021356399E-002  0.18958404267011578        0.0000000000000000     
   6.3963763282411407E-002  0.19766599451370878        0.0000000000000000     
   5.4138198166156351E-002  0.16561200168803911        0.0000000000000000     
   5.4969526156644452E-002  0.17344753030870416        0.0000000000000000     
   5.5739584384749331E-002  0.18137198480630062        0.0000000000000000     
   5.6448372850470968E-002  0.18938536518082857        0.0000000000000000     
   5.7095891553809383E-002  0.19748767143228796        0.0000000000000000     
   4.7786941018741508E-002  0.16538415961576497        0.0000000000000000     
   4.8522815590743104E-002  0.17323921468514039        0.0000000000000000     
   4.9201261877997476E-002  0.18118331656018610        0.0000000000000000     
   4.9822279880504625E-002  0.18921646524090202        0.0000000000000000     
   5.0385869598264549E-002  0.19733866072728820        0.0000000000000000     
   7.8173056058787063E-002  0.19811057780581343        0.0000000000000000     
   7.9015249820755820E-002  0.20623324710988170        0.0000000000000000     
   7.9784063885558865E-002  0.21443103026544066        0.0000000000000000     
   8.0479498253196266E-002  0.22270392727249033        0.0000000000000000     
   8.1101552923667941E-002  0.23105193813103075        0.0000000000000000     
   7.0989484784070633E-002  0.19787362997155059        0.0000000000000000     
   7.1741291559224651E-002  0.20601782698938878        0.0000000000000000     
   7.2418936205227893E-002  0.21423848617395153        0.0000000000000000     
   7.3022418722080304E-002  0.22253560752523882        0.0000000000000000     
   7.3551739109781911E-002  0.23090919104325061        0.0000000000000000     
   6.3963763282411407E-002  0.19766599451370878        0.0000000000000000     
   6.4629148493539831E-002  0.20583069666354673        0.0000000000000000     
   6.5222194973069400E-002  0.21407176670304059        0.0000000000000000     
   6.5742902721000113E-002  0.22238920463219042        0.0000000000000000     
   6.6191271737332025E-002  0.23078301045099614        0.0000000000000000     
   5.7095891553809383E-002  0.19748767143228796        0.0000000000000000     
   5.7678820623701277E-002  0.20567185613235556        0.0000000000000000     
   5.8193840189083398E-002  0.21393087185270793        0.0000000000000000     
   5.8640950249955727E-002  0.22226471859334523        0.0000000000000000     
   5.9020150806318276E-002  0.23067339635426737        0.0000000000000000     
   5.0385869598264549E-002  0.19733866072728820        0.0000000000000000     
   5.0890307949709043E-002  0.20554130539581519        0.0000000000000000     
   5.1333871853269895E-002  0.21381580162295355        0.0000000000000000     
   5.1716561308947105E-002  0.22216214940870327        0.0000000000000000     
   5.2038376316740673E-002  0.23058034875306432        0.0000000000000000     
   8.1101552923667941E-002  0.23105193813103075        0.0000000000000000     
   8.1639512954530868E-002  0.23949574218115569        0.0000000000000000     
   8.2082663403341957E-002  0.24805601876295891        0.0000000000000000     
   8.2431004270101194E-002  0.25673276787644050        0.0000000000000000     
   8.2684535554808591E-002  0.26552598952160034        0.0000000000000000     
   7.3551739109781911E-002  0.23090919104325061        0.0000000000000000     
   7.4003722498063612E-002  0.23937281863164434        0.0000000000000000     
   7.4375194016656321E-002  0.24794007219407752        0.0000000000000000     
   7.4666153665560009E-002  0.25661095173054999        0.0000000000000000     
   7.4876601444774718E-002  0.26538545724106177        0.0000000000000000     
   6.6191271737332025E-002  0.23078301045099614        0.0000000000000000     
   6.6569769459127945E-002  0.23925952700430059        0.0000000000000000     
   6.6880863323450807E-002  0.24782509713694634        0.0000000000000000     
   6.7124553330300568E-002  0.25647972084893356        0.0000000000000000     
   6.7300839479677271E-002  0.26522339814026225        0.0000000000000000     
   5.9020150806318276E-002  0.23067339635426737        0.0000000000000000     
   5.9337653837723887E-002  0.23915586729912416        0.0000000000000000     
   5.9599671323725407E-002  0.24771109359156554        0.0000000000000000     
   5.9806203264322871E-002  0.25633907523159127        0.0000000000000000     
   5.9957249659516237E-002  0.26503981221920153        0.0000000000000000     
   5.2038376316740673E-002  0.23058034875306432        0.0000000000000000     
   5.2307375633851412E-002  0.23906183951611534        0.0000000000000000     
   5.2531618017480144E-002  0.24759806155793496        0.0000000000000000     
   5.2711103467626891E-002  0.25618901487852314        0.0000000000000000     
   5.2845831984291616E-002  0.26483469947787985        0.0000000000000000     
   8.2684535554808591E-002  0.26552598952160034        0.0000000000000000     
   8.2882341523662750E-002  0.27446182693313148        0.0000000000000000     
   8.3063506442862201E-002  0.28356642334572685        0.0000000000000000     
   8.3228030312407025E-002  0.29283977875938644        0.0000000000000000     
   8.3375913132297169E-002  0.30228189317411031        0.0000000000000000     
   7.4876601444774718E-002  0.26538545724106177        0.0000000000000000     
   7.5047543196213165E-002  0.27425703441584115        0.0000000000000000     
   7.5219984761788095E-002  0.28321912894511603        0.0000000000000000     
   7.5393926141499507E-002  0.29227174082888663        0.0000000000000000     
   7.5569367335347415E-002  0.30141487006715278        0.0000000000000000     
   6.7300839479677271E-002  0.26522339814026225        0.0000000000000000     
   6.7450012257093822E-002  0.27402605715310607        0.0000000000000000     
   6.7612362148063224E-002  0.28285762602963921        0.0000000000000000     
   6.7787889152585420E-002  0.29171810476986154        0.0000000000000000     
   6.7976593270660454E-002  0.30060749337377302        0.0000000000000000     
   5.9957249659516237E-002  0.26503981221920153        0.0000000000000000     
   6.0089748706304735E-002  0.27376889514492647        0.0000000000000000     
   6.0240638601687588E-002  0.28248191459929645        0.0000000000000000     
   6.0409919345664781E-002  0.29117887058231118        0.0000000000000000     
   6.0597590938236322E-002  0.29985976309397105        0.0000000000000000     
   5.2845831984291616E-002  0.26483469947787985        0.0000000000000000     
   5.2966752543845891E-002  0.27348554839130229        0.0000000000000000     
   5.3104814122661208E-002  0.28209199465408757        0.0000000000000000     
   5.3260016720737574E-002  0.29065403826623576        0.0000000000000000     
   5.3432360338074990E-002  0.29917167922774679        0.0000000000000000     
   2.8922004851030744E-002   5.7158655058206345E-002   0.0000000000000000     
   3.0557466461001194E-002   6.2754385458917553E-002   0.0000000000000000     
   3.2103835453844078E-002   6.8518016499221082E-002   0.0000000000000000     
   3.3561111829559405E-002   7.4449548179116920E-002   0.0000000000000000     
   3.4929295588147162E-002   8.0548980498605066E-002   0.0000000000000000     
   2.5025455814067180E-002   5.6721483568559425E-002   0.0000000000000000     
   2.6486396793794505E-002   6.2329051601654403E-002   0.0000000000000000     
   2.7854121238552205E-002   6.8104227712185883E-002   0.0000000000000000     
   2.9128629148340263E-002   7.4047011900153850E-002   0.0000000000000000     
   3.0309920523158694E-002   8.0157404165558319E-002   0.0000000000000000     
   2.1176918078662479E-002   5.6316035980193628E-002   0.0000000000000000     
   2.2493077907347819E-002   6.1955403524671784E-002   0.0000000000000000     
   2.3705033770913920E-002   6.7755120752415271E-002   0.0000000000000000     
   2.4812785669360789E-002   7.3715187663424081E-002   0.0000000000000000     
   2.5816333602688420E-002   7.9835604257698214E-002   0.0000000000000000     
   1.7376391644816629E-002   5.5942312293108934E-002   0.0000000000000000     
   1.8577509801661125E-002   6.1633441227969703E-002   0.0000000000000000     
   1.9656573050929237E-002   6.7470695619909260E-002   0.0000000000000000     
   2.0613581392620973E-002   7.3454075468927613E-002   0.0000000000000000     
   2.1448534826736341E-002   7.9583580775024726E-002   0.0000000000000000     
   1.3623876512529646E-002   5.5600312507305349E-002   0.0000000000000000     
   1.4739692476734418E-002   6.1363164711548131E-002   0.0000000000000000     
   1.5708739078598141E-002   6.7250952314667822E-002   0.0000000000000000     
   1.6531016318120824E-002   7.3263675316664403E-002   0.0000000000000000     
   1.7206524195302449E-002   7.9401333717537881E-002   0.0000000000000000     
   3.4929295588147162E-002   8.0548980498605066E-002   0.0000000000000000     
   3.6238779527459991E-002   8.6814564816259363E-002   0.0000000000000000     
   3.7519956445350514E-002   9.3244552490653596E-002   0.0000000000000000     
   3.8772826341818736E-002   9.9838943521787793E-002   0.0000000000000000     
   3.9997389216864659E-002  0.10659773790966195        0.0000000000000000     
   3.0309920523158694E-002   8.0157404165558319E-002   0.0000000000000000     
   3.1437717973568383E-002   8.6434580093128613E-002   0.0000000000000000     
   3.2551744110130197E-002   9.2877715267594016E-002   0.0000000000000000     
   3.3651998932844145E-002   9.9486809688954542E-002   0.0000000000000000     
   3.4738482441710225E-002  0.10626186335721018        0.0000000000000000     
   2.5816333602688420E-002   7.9835604257698214E-002   0.0000000000000000     
   2.6765787342804541E-002   8.6119939597896517E-002   0.0000000000000000     
   2.7711256661616862E-002   9.2571762746677930E-002   0.0000000000000000     
   2.8652741559125387E-002   9.9191073704042398E-002   0.0000000000000000     
   2.9590242035330120E-002  0.10597787246998995        0.0000000000000000     
   2.1448534826736341E-002   7.9583580775024726E-002   0.0000000000000000     
   2.2222987635168473E-002   8.5870643330563171E-002   0.0000000000000000     
   2.2998494099810522E-002   9.2326694927905378E-002   0.0000000000000000     
   2.3775054220662478E-002   9.8951735567051405E-002   0.0000000000000000     
   2.4552667997724344E-002  0.10574576524800125        0.0000000000000000     
   1.7206524195302449E-002   7.9401333717537881E-002   0.0000000000000000     
   1.7809318850660182E-002   8.5686691291128464E-002   0.0000000000000000     
   1.8413456424711167E-002   9.2142511811276348E-002   0.0000000000000000     
   1.9018936917455407E-002   9.8768795277981575E-002   0.0000000000000000     
   1.9625760328892902E-002  0.10556554169124409        0.0000000000000000     
   3.9997389216864659E-002  0.10659773790966195        0.0000000000000000     
   4.1176483524546864E-002  0.11350496466264223        0.0000000000000000     
   4.2292947718923925E-002  0.12054465278909492        0.0000000000000000     
   4.3346781799995855E-002  0.12771680228901994        0.0000000000000000     
   4.4337985767762642E-002  0.13502141316241728        0.0000000000000000     
   3.4738482441710225E-002  0.10626186335721018        0.0000000000000000     
   3.5787010895634269E-002  0.11318620662783034        0.0000000000000000     
   3.6773400553522108E-002  0.12024316985628440        0.0000000000000000     
   3.7697651415373727E-002  0.12743275304257240        0.0000000000000000     
   3.8559763481189134E-002  0.13475495618669425        0.0000000000000000     
   2.9590242035330120E-002  0.10597787246998995        0.0000000000000000     
   3.0497298484037764E-002  0.11291512438988921        0.0000000000000000     
   3.1347451299055015E-002  0.11998579480910887        0.0000000000000000     
   3.2140700480381867E-002  0.12718988372764897        0.0000000000000000     
   3.2877046028018345E-002  0.13452739114550941        0.0000000000000000     
   2.4552667997724344E-002  0.10574576524800125        0.0000000000000000     
   2.5307346289757334E-002  0.11269171794881890        0.0000000000000000     
   2.6015099955522650E-002  0.11977252764756836        0.0000000000000000     
   2.6675928995020297E-002  0.12698819434424966        0.0000000000000000     
   2.7289833408250263E-002  0.13433871803886277        0.0000000000000000     
   1.9625760328892902E-002  0.10556554169124409        0.0000000000000000     
   2.0217154312792990E-002  0.11251598730461936        0.0000000000000000     
   2.0776346522925017E-002  0.11960336837166283        0.0000000000000000     
   2.1303336959288988E-002  0.12682768489237445        0.0000000000000000     
   2.1798125621884899E-002  0.13418893686675429        0.0000000000000000     
   4.4337985767762642E-002  0.13502141316241728        0.0000000000000000     
   4.5273462154284495E-002  0.14244721598585164        0.0000000000000000     
   4.6160113491621579E-002  0.14998294133588772        0.0000000000000000     
   4.6997939779773928E-002  0.15762858921252551        0.0000000000000000     
   4.7786941018741508E-002  0.16538415961576497        0.0000000000000000     
   3.8559763481189134E-002  0.13475495618669425        0.0000000000000000     
   3.9370456339750608E-002  0.14219836798393470        0.0000000000000000     
   4.0140449579840400E-002  0.14975157712957834        0.0000000000000000     
   4.0869743201458517E-002  0.15741458362362523        0.0000000000000000     
   4.1558337204604959E-002  0.16518738746607539        0.0000000000000000     
   3.2877046028018345E-002  0.13452739114550941        0.0000000000000000     
   3.3567628033231323E-002  0.14198631766490102        0.0000000000000000     
   3.4223586587287719E-002  0.14955466388803459        0.0000000000000000     
   3.4844921690187519E-002  0.15723242981491004        0.0000000000000000     
   3.5431633341930724E-002  0.16501961544552746        0.0000000000000000     
   2.7289833408250263E-002  0.13433871803886277        0.0000000000000000     
   2.7864977234726647E-002  0.14181106502875065        0.0000000000000000     
   2.8409524513963537E-002  0.14939220161125638        0.0000000000000000     
   2.8923475245960919E-002  0.15708212778637984        0.0000000000000000     
   2.9406829430718800E-002  0.16488084355412114        0.0000000000000000     
   2.1798125621884899E-002  0.13418893686675429        0.0000000000000000     
   2.2262503944236574E-002  0.14167261007548360        0.0000000000000000     
   2.2698263359867851E-002  0.14926419029924373        0.0000000000000000     
   2.3105403868778726E-002  0.15696367753803467        0.0000000000000000     
   2.3483925470969197E-002  0.16477107179185640        0.0000000000000000     
   4.7786941018741508E-002  0.16538415961576497        0.0000000000000000     
   4.8522815590743104E-002  0.17323921468514039        0.0000000000000000     
   4.9201261877997476E-002  0.18118331656018610        0.0000000000000000     
   4.9822279880504625E-002  0.18921646524090202        0.0000000000000000     
   5.0385869598264549E-002  0.19733866072728820        0.0000000000000000     
   4.1558337204604959E-002  0.16518738746607539        0.0000000000000000     
   4.2200100331827917E-002  0.17305979223024376        0.0000000000000000     
   4.2788901325675595E-002  0.18102160148944538        0.0000000000000000     
   4.3324740186147979E-002  0.18907281524368025        0.0000000000000000     
   4.3807616913245077E-002  0.19721343349294840        0.0000000000000000     
   3.5431633341930724E-002  0.16501961544552746        0.0000000000000000     
   3.5977647014947434E-002  0.17290646489351744        0.0000000000000000     
   3.6476888181667728E-002  0.18088322227251080        0.0000000000000000     
   3.6929356842091615E-002  0.18894988758250753        0.0000000000000000     
   3.7335052996219087E-002  0.19710646082350761        0.0000000000000000     
   2.9406829430718800E-002  0.16488084355412114        0.0000000000000000     
   2.9855455640101641E-002  0.17277923267496154        0.0000000000000000     
   3.0265222445973888E-002  0.18076817890938243        0.0000000000000000     
   3.0636129848335535E-002  0.18884768225738383        0.0000000000000000     
   3.0968177847186595E-002  0.19701774271896569        0.0000000000000000     
   2.3483925470969197E-002  0.16477107179185640        0.0000000000000000     
   2.3833526207290547E-002  0.17267809557457592        0.0000000000000000     
   2.4153904118594062E-002  0.18067647140006016        0.0000000000000000     
   2.4445059204879747E-002  0.18876619926830909        0.0000000000000000     
   2.4706991466147594E-002  0.19694727917932275        0.0000000000000000     
   5.0385869598264549E-002  0.19733866072728820        0.0000000000000000     
   5.0890307949709043E-002  0.20554130539581519        0.0000000000000000     
   5.1333871853269895E-002  0.21381580162295355        0.0000000000000000     
   5.1716561308947105E-002  0.22216214940870327        0.0000000000000000     
   5.2038376316740673E-002  0.23058034875306432        0.0000000000000000     
   4.3807616913245077E-002  0.19721343349294840        0.0000000000000000     
   4.4237664934348248E-002  0.20543281809206895        0.0000000000000000     
   4.4615017676838876E-002  0.21372033089586098        0.0000000000000000     
   4.4939675140716943E-002  0.22207597190432452        0.0000000000000000     
   4.5211637325982462E-002  0.23049974111745958        0.0000000000000000     
   3.7335052996219087E-002  0.19710646082350761        0.0000000000000000     
   3.7694946040404027E-002  0.20534016785925999        0.0000000000000000     
   3.8010005371000313E-002  0.21363823455351388        0.0000000000000000     
   3.8280230988007952E-002  0.22200066090626910        0.0000000000000000     
   3.8505622891426908E-002  0.23042744691752576        0.0000000000000000     
   3.0968177847186595E-002  0.19701774271896569        0.0000000000000000     
   3.1262151267876376E-002  0.20526335469738838        0.0000000000000000     
   3.1518834935754220E-002  0.21356951259591211        0.0000000000000000     
   3.1738228850820088E-002  0.22193621641453695        0.0000000000000000     
   3.1920333013074030E-002  0.23036346615326289        0.0000000000000000     
   2.4706991466147594E-002  0.19694727917932275        0.0000000000000000     
   2.4939280616765307E-002  0.20520237860645404        0.0000000000000000     
   2.5141506371100578E-002  0.21351416502305581        0.0000000000000000     
   2.5313668729153409E-002  0.22188263842912812        0.0000000000000000     
   2.5455767690923808E-002  0.23030779882467090        0.0000000000000000     
   5.2038376316740673E-002  0.23058034875306432        0.0000000000000000     
   5.2307375633851412E-002  0.23906183951611534        0.0000000000000000     
   5.2531618017480144E-002  0.24759806155793496        0.0000000000000000     
   5.2711103467626891E-002  0.25618901487852314        0.0000000000000000     
   5.2845831984291616E-002  0.26483469947787985        0.0000000000000000     
   4.5211637325982462E-002  0.23049974111745958        0.0000000000000000     
   4.5439569825168363E-002  0.23897622223924961        0.0000000000000000     
   4.5632138230807591E-002  0.24748999897367807        0.0000000000000000     
   4.5789342542900145E-002  0.25604107132074500        0.0000000000000000     
   4.5911182761446026E-002  0.26462943928045046        0.0000000000000000     
   3.8505622891426908E-002  0.23042744691752576        0.0000000000000000     
   3.8694871389332600E-002  0.23889779405250255        0.0000000000000000     
   3.8856666789800341E-002  0.24739090377641834        0.0000000000000000     
   3.8991009092830167E-002  0.25590677608927304        0.0000000000000000     
   3.9097898298422057E-002  0.26444541099106672        0.0000000000000000     
   3.1920333013074030E-002  0.23036346615326289        0.0000000000000000     
   3.2073280326344100E-002  0.23882655495587432        0.0000000000000000     
   3.2205203694458402E-002  0.24730077596615574        0.0000000000000000     
   3.2316103117416929E-002  0.25578612918410709        0.0000000000000000     
   3.2405978595219695E-002  0.26428261460972863        0.0000000000000000     
   2.5455767690923808E-002  0.23030779882467090        0.0000000000000000     
   2.5574796636202886E-002  0.23876250494936477        0.0000000000000000     
   2.5677748944781767E-002  0.24721961554289026        0.0000000000000000     
   2.5764624616660462E-002  0.25567913060524744        0.0000000000000000     
   2.5835423651838954E-002  0.26414105013643618        0.0000000000000000     
   5.2845831984291616E-002  0.26483469947787985        0.0000000000000000     
   5.2966752543845891E-002  0.27348554839130229        0.0000000000000000     
   5.3104814122661208E-002  0.28209199465408757        0.0000000000000000     
   5.3260016720737574E-002  0.29065403826623576        0.0000000000000000     
   5.3432360338074990E-002  0.29917167922774679        0.0000000000000000     
   4.5911182761446026E-002  0.26462943928045046        0.0000000000000000     
   4.6021935434593604E-002  0.27320473813512064        0.0000000000000000     
   4.6145877110491257E-002  0.28171660316708191        0.0000000000000000     
   4.6283007789138977E-002  0.29016503437633434        0.0000000000000000     
   4.6433327470536759E-002  0.29855003176287787        0.0000000000000000     
   3.9097898298422057E-002  0.26444541099106672        0.0000000000000000     
   3.9196209043424239E-002  0.27295518561926874        0.0000000000000000     
   3.9304815964684936E-002  0.28138447711134856        0.0000000000000000     
   3.9423719062204168E-002  0.28973328546730615        0.0000000000000000     
   3.9552918335981908E-002  0.29800161068714165        0.0000000000000000     
   3.2405978595219695E-002  0.26428261460972863        0.0000000000000000     
   3.2489573370337768E-002  0.27273689084374653        0.0000000000000000     
   3.2581630685242259E-002  0.28109561648688736        0.0000000000000000     
   3.2682150539933147E-002  0.28935879153915128        0.0000000000000000     
   3.2791132934410439E-002  0.29752641600053820        0.0000000000000000     
   2.5835423651838954E-002  0.26414105013643618        0.0000000000000000     
   2.5902028415334215E-002  0.27254985380855412        0.0000000000000000     
   2.5976321272163205E-002  0.28085002129369863        0.0000000000000000     
   2.6058302222325917E-002  0.28904155259186970        0.0000000000000000     
   2.6147971265822356E-002  0.29712444770306745        0.0000000000000000     
   1.3623876512529646E-002   5.5600312507305349E-002   0.0000000000000000     
   1.4739692476734418E-002   6.1363164711548131E-002   0.0000000000000000     
   1.5708739078598141E-002   6.7250952314667822E-002   0.0000000000000000     
   1.6531016318120824E-002   7.3263675316664403E-002   0.0000000000000000     
   1.7206524195302449E-002   7.9401333717537881E-002   0.0000000000000000     
   1.0063248829498894E-002   5.5378105137181700E-002   0.0000000000000000     
   1.1051161060978920E-002   6.1187614826679518E-002   0.0000000000000000     
   1.1878886233954843E-002   6.7107705290335537E-002   0.0000000000000000     
   1.2546424348426658E-002   7.3138376528149779E-002   0.0000000000000000     
   1.3053775404394365E-002   7.9279628540122216E-002   0.0000000000000000     
   6.8383847434217524E-003   5.5363758697136826E-002   0.0000000000000000     
   7.5834506828058399E-003   6.1149832424636216E-002   0.0000000000000000     
   8.1843688970335282E-003   6.7052769000556942E-002   0.0000000000000000     
   8.6411393861048208E-003   7.3072568424898982E-002   0.0000000000000000     
   8.9537621500197142E-003   7.9209230697662322E-002   0.0000000000000000     
   3.9492842542982222E-003   5.5557273187170728E-002   0.0000000000000000     
   4.3365613422151755E-003   6.1249817505418275E-002   0.0000000000000000     
   4.6251870678342046E-003   6.7086143445332036E-002   0.0000000000000000     
   4.8151614311553095E-003   7.3066251006911997E-002   0.0000000000000000     
   4.9064844321784909E-003   7.9190140190158159E-002   0.0000000000000000     
   1.3959473621283033E-003   5.5958648607283397E-002   0.0000000000000000     
   1.3104930392069277E-003   6.1487570069025686E-002   0.0000000000000000     
   1.2013407463568682E-003   6.7207828624660834E-002   0.0000000000000000     
   1.0684904835781249E-003   7.3119424274188868E-002   0.0000000000000000     
   9.1194225087069770E-004   7.9222357017609782E-002   0.0000000000000000     
   1.7206524195302449E-002   7.9401333717537881E-002   0.0000000000000000     
   1.7809318850660182E-002   8.5686691291128464E-002   0.0000000000000000     
   1.8413456424711167E-002   9.2142511811276348E-002   0.0000000000000000     
   1.9018936917455407E-002   9.8768795277981575E-002   0.0000000000000000     
   1.9625760328892902E-002  0.10556554169124409        0.0000000000000000     
   1.3053775404394365E-002   7.9279628540122216E-002   0.0000000000000000     
   1.3481815393291593E-002   8.5561866311576806E-002   0.0000000000000000     
   1.3911420306551958E-002   9.2015494827837371E-002   0.0000000000000000     
   1.4342590144175457E-002   9.8640514088903980E-002   0.0000000000000000     
   1.4775324906162093E-002  0.10543692409477659        0.0000000000000000     
   8.9537621500197142E-003   7.9209230697662322E-002   0.0000000000000000     
   9.1975116670746440E-003   8.5489951223892482E-002   0.0000000000000000     
   9.4476624155660389E-003   9.1941925408634995E-002   0.0000000000000000     
   9.7042143954939007E-003   9.8565153251889789E-002   0.0000000000000000     
   9.9671676068582345E-003  0.10535963475365692        0.0000000000000000     
   4.9064844321784909E-003   7.9190140190158159E-002   0.0000000000000000     
   4.9564076720093339E-003   8.5470946028075548E-002   0.0000000000000000     
   5.0221827517534191E-003   9.1921803553669162E-002   0.0000000000000000     
   5.1038096714107481E-003   9.8542712766939017E-002   0.0000000000000000     
   5.2012884309813202E-003  0.10533367366788508        0.0000000000000000     
   9.1194225087069770E-004   7.9222357017609782E-002   0.0000000000000000     
   7.5850340809566121E-004   8.5504850724126003E-002   0.0000000000000000     
   6.3498131511409211E-004   9.1955129262939958E-002   0.0000000000000000     
   5.4137597192598942E-004   9.8573192634051635E-002   0.0000000000000000     
   4.7768737853135304E-004  0.10535904083746109        0.0000000000000000     
   1.9625760328892902E-002  0.10556554169124409        0.0000000000000000     
   2.0217154312792990E-002  0.11251598730461936        0.0000000000000000     
   2.0776346522925017E-002  0.11960336837166283        0.0000000000000000     
   2.1303336959288988E-002  0.12682768489237445        0.0000000000000000     
   2.1798125621884899E-002  0.13418893686675429        0.0000000000000000     
   1.4775324906162093E-002  0.10543692409477659        0.0000000000000000     
   1.5200482517996402E-002  0.11238859868887660        0.0000000000000000     
   1.5608920905162915E-002  0.11947941171462538        0.0000000000000000     
   1.6000640067661630E-002  0.12670936317202297        0.0000000000000000     
   1.6375640005492548E-002  0.13407845306106930        0.0000000000000000     
   9.9671676068582345E-003  0.10535963475365692        0.0000000000000000     
   1.0231090870219237E-002  0.11231021833317667        0.0000000000000000     
   1.0490553006137118E-002  0.11940175240968927        0.0000000000000000     
   1.0745554014611879E-002  0.12663423698319479        0.0000000000000000     
   1.0996093895643518E-002  0.13400767205369313        0.0000000000000000     
   5.2012884309813202E-003  0.10533367366788508        0.0000000000000000     
   5.3089793694614962E-003  0.11228084623751952        0.0000000000000000     
   5.4212428258476348E-003  0.11937039045685445        0.0000000000000000     
   5.5380788001397376E-003  0.12660230632588987        0.0000000000000000     
   5.6594872923378019E-003  0.13397659384462574        0.0000000000000000     
   4.7768737853135304E-004  0.10535904083746109        0.0000000000000000     
   4.3414801572317957E-004  0.11230048240190518        0.0000000000000000     
   4.0099036429446194E-004  0.11938532585612091        0.0000000000000000     
   3.7821442424520465E-004  0.12661357120010824        0.0000000000000000     
   3.6582019557540243E-004  0.13398521843386718        0.0000000000000000     
   2.1798125621884899E-002  0.13418893686675429        0.0000000000000000     
   2.2262503944236574E-002  0.14167261007548360        0.0000000000000000     
   2.2698263359867851E-002  0.14926419029924373        0.0000000000000000     
   2.3105403868778726E-002  0.15696367753803467        0.0000000000000000     
   2.3483925470969197E-002  0.16477107179185640        0.0000000000000000     
   1.6375640005492548E-002  0.13407845306106930        0.0000000000000000     
   1.6728974615798857E-002  0.14157066609435676        0.0000000000000000     
   1.7055697795723721E-002  0.14916998698447759        0.0000000000000000     
   1.7355809545267154E-002  0.15687641573143185        0.0000000000000000     
   1.7629309864429142E-002  0.16468995233521955        0.0000000000000000     
   1.0996093895643518E-002  0.13400767205369313        0.0000000000000000     
   1.1233155703451226E-002  0.14150494637462693        0.0000000000000000     
   1.1447722492254191E-002  0.14910894869943878        0.0000000000000000     
   1.1639794262052413E-002  0.15681967902812871        0.0000000000000000     
   1.1809371012845890E-002  0.16463713736069660        0.0000000000000000     
   5.6594872923378019E-003  0.13397659384462574        0.0000000000000000     
   5.7750472071936903E-003  0.14147545091629421        0.0000000000000000     
   5.8743374494592583E-003  0.14908107544412738        0.0000000000000000     
   5.9573580191345076E-003  0.15679346742812517        0.0000000000000000     
   6.0241089162194356E-003  0.16461262686828768        0.0000000000000000     
   3.6582019557540243E-004  0.13398521843386718        0.0000000000000000     
   3.5464912702624658E-004  0.14148217971935859        0.0000000000000000     
   3.3554266733892444E-004  0.14908636721854332        0.0000000000000000     
   3.0850081651343571E-004  0.15679778093142135        0.0000000000000000     
   2.7352357454977876E-004  0.16461642085799277        0.0000000000000000     
   2.3483925470969197E-002  0.16477107179185640        0.0000000000000000     
   2.3833526207290547E-002  0.17267809557457592        0.0000000000000000     
   2.4153904118594062E-002  0.18067647140006016        0.0000000000000000     
   2.4445059204879747E-002  0.18876619926830909        0.0000000000000000     
   2.4706991466147594E-002  0.19694727917932275        0.0000000000000000     
   1.7629309864429142E-002  0.16468995233521955        0.0000000000000000     
   1.7879954013372262E-002  0.17260308303393457        0.0000000000000000     
   1.8111497252259069E-002  0.18060829406567092        0.0000000000000000     
   1.8323939581089563E-002  0.18870558543042867        0.0000000000000000     
   1.8517280999863744E-002  0.19689495712820770        0.0000000000000000     
   1.1809371012845890E-002  0.16463713736069660        0.0000000000000000     
   1.1962834355204899E-002  0.17255422449461139        0.0000000000000000     
   1.2106565899699702E-002  0.18056384122734173        0.0000000000000000     
   1.2240565646330307E-002  0.18866598755888769        0.0000000000000000     
   1.2364833595096707E-002  0.19686066348924933        0.0000000000000000     
   6.0241089162194356E-003  0.16461262686828768        0.0000000000000000     
   6.0821672327884537E-003  0.17253151995660632        0.0000000000000000     
   6.1391100609159673E-003  0.18054311288507252        0.0000000000000000     
   6.1949374006019728E-003  0.18864740565368632        0.0000000000000000     
   6.2496492518464772E-003  0.19684439826244773        0.0000000000000000     
   2.7352357454977876E-004  0.16461642085799277        0.0000000000000000     
   2.3795264612292886E-004  0.17253496941991942        0.0000000000000000     
   2.0912973590785696E-004  0.18054610903886337        0.0000000000000000     
   1.8705484390456827E-004  0.18864983971482449        0.0000000000000000     
   1.7172797011305845E-004  0.19684616144780287        0.0000000000000000     
   2.4706991466147594E-002  0.19694727917932275        0.0000000000000000     
   2.4939280616765307E-002  0.20520237860645404        0.0000000000000000     
   2.5141506371100578E-002  0.21351416502305581        0.0000000000000000     
   2.5313668729153409E-002  0.22188263842912812        0.0000000000000000     
   2.5455767690923808E-002  0.23030779882467090        0.0000000000000000     
   1.8517280999863744E-002  0.19689495712820770        0.0000000000000000     
   1.8689682963094732E-002  0.20515704003231908        0.0000000000000000     
   1.8839306925295632E-002  0.21347246501607395        0.0000000000000000     
   1.8966152886466449E-002  0.22184123207947226        0.0000000000000000     
   1.9070220846607186E-002  0.23026334122251410        0.0000000000000000     
   1.2364833595096707E-002  0.19686066348924933        0.0000000000000000     
   1.2476707182888579E-002  0.20512713942084559        0.0000000000000000     
   1.2573523846595604E-002  0.21344468575609554        0.0000000000000000     
   1.2655283586217779E-002  0.22181330249499923        0.0000000000000000     
   1.2721986401755106E-002  0.23023298963755662        0.0000000000000000     
   6.2496492518464772E-003  0.19684439826244773        0.0000000000000000     
   6.3003532761468587E-003  0.20511267677203354        0.0000000000000000     
   6.3441571350004999E-003  0.21343082724312057        0.0000000000000000     
   6.3810608284074017E-003  0.22179884967570887        0.0000000000000000     
   6.4110643563675650E-003  0.23021674406979847        0.0000000000000000     
   1.7172797011305845E-004  0.19684616144780287        0.0000000000000000     
   1.6062124286956247E-004  0.20511365208588295        0.0000000000000000     
   1.5120679051031593E-004  0.21343088947714911        0.0000000000000000     
   1.4348461303531813E-004  0.22179787362160133        0.0000000000000000     
   1.3745471044456859E-004  0.23021460451923970        0.0000000000000000     
   2.5455767690923808E-002  0.23030779882467090        0.0000000000000000     
   2.5574796636202886E-002  0.23876250494936477        0.0000000000000000     
   2.5677748944781767E-002  0.24721961554289026        0.0000000000000000     
   2.5764624616660462E-002  0.25567913060524744        0.0000000000000000     
   2.5835423651838954E-002  0.26414105013643618        0.0000000000000000     
   1.9070220846607186E-002  0.23026334122251410        0.0000000000000000     
   1.9156967091115303E-002  0.23871015069346999        0.0000000000000000     
   1.9231847905388271E-002  0.24715301874061063        0.0000000000000000     
   1.9294863289426083E-002  0.25559194536393604        0.0000000000000000     
   1.9346013243228741E-002  0.26402693056344628        0.0000000000000000     
   1.2721986401755106E-002  0.23023298963755662        0.0000000000000000     
   1.2777338463287711E-002  0.23867399884868601        0.0000000000000000     
   1.2825045940895721E-002  0.24710658179330564        0.0000000000000000     
   1.2865108834579139E-002  0.25553073847141555        0.0000000000000000     
   1.2897527144337966E-002  0.26394646888301576        0.0000000000000000     
   6.4110643563675650E-003  0.23021674406979847        0.0000000000000000     
   6.4359107527201028E-003  0.23865404941501278        0.0000000000000000     
   6.4573430513041258E-003  0.24708030470097520        0.0000000000000000     
   6.4753612521196314E-003  0.25549550992768583        0.0000000000000000     
   6.4899653551666204E-003  0.26389966509514462        0.0000000000000000     
   1.3745471044456859E-004  0.23021460451923970        0.0000000000000000     
   1.3268395941248325E-004  0.23865030239245036        0.0000000000000000     
   1.2873923661348022E-004  0.24707418746361942        0.0000000000000000     
   1.2562054204755333E-004  0.25548625973274691        0.0000000000000000     
   1.2332787571471071E-004  0.26388651919983291        0.0000000000000000     
   2.5835423651838954E-002  0.26414105013643618        0.0000000000000000     
   2.5902028415334215E-002  0.27254985380855412        0.0000000000000000     
   2.5976321272163205E-002  0.28085002129369863        0.0000000000000000     
   2.6058302222325917E-002  0.28904155259186970        0.0000000000000000     
   2.6147971265822356E-002  0.29712444770306745        0.0000000000000000     
   1.9346013243228741E-002  0.26402693056344628        0.0000000000000000     
   1.9394746126732122E-002  0.27240035202214152        0.0000000000000000     
   1.9450510299872079E-002  0.28065458742302207        0.0000000000000000     
   1.9513305762648626E-002  0.28878963676608804        0.0000000000000000     
   1.9583132515061750E-002  0.29680550005133932        0.0000000000000000     
   1.2897527144337966E-002  0.26394646888301576        0.0000000000000000     
   1.2928898452850033E-002  0.27229466299295896        0.0000000000000000     
   1.2965820342793180E-002  0.28051621076609806        0.0000000000000000     
   1.3008292814167405E-002  0.28861111220243296        0.0000000000000000     
   1.3056315866972708E-002  0.29657936730196360        0.0000000000000000     
   6.4899653551666204E-003  0.26389966509514462        0.0000000000000000     
   6.5044853936879598E-003  0.27223278672100654        0.0000000000000000     
   6.5222514009265053E-003  0.28043489132292643        0.0000000000000000     
   6.5432633768822647E-003  0.28850597890090435        0.0000000000000000     
   6.5675213215552301E-003  0.29644604945494030        0.0000000000000000     
   1.2332787571471071E-004  0.26388651919983291        0.0000000000000000     
   1.2150694924589495E-004  0.27221472320628409        0.0000000000000000     
   1.1980347427205786E-004  0.28041062909350722        0.0000000000000000     
   1.1821745079320010E-004  0.28847423686150236        0.0000000000000000     
   1.1674887880931944E-004  0.29640554651026940        0.0000000000000000     
   1.3959473621283033E-003   5.5958648607283397E-002   0.0000000000000000     
   1.3104930392069277E-003   6.1487570069025686E-002   0.0000000000000000     
   1.2013407463568682E-003   6.7207828624660834E-002   0.0000000000000000     
   1.0684904835781249E-003   7.3119424274188868E-002   0.0000000000000000     
   9.1194225087069770E-004   7.9222357017609782E-002   0.0000000000000000     
  -1.3505888609074031E-003   5.6332301285161160E-002   0.0000000000000000     
  -1.8827041263155379E-003   6.1711127047789950E-002   0.0000000000000000     
  -2.3654505065437161E-003   6.7326759275279355E-002   0.0000000000000000     
  -2.7988280015919386E-003   7.3179197967629367E-002   0.0000000000000000     
  -3.1828366114602024E-003   7.9268443124839993E-002   0.0000000000000000     
  -4.8192873426282958E-003   5.6442647548490349E-002   0.0000000000000000     
  -5.6309800544488567E-003   6.1768525374042614E-002   0.0000000000000000     
  -6.3534671300127842E-003   6.7351870133923603E-002   0.0000000000000000     
  -6.9867485693200782E-003   7.3192681828133280E-002   0.0000000000000000     
  -7.5308243723707386E-003   7.9290960456671680E-002   0.0000000000000000     
  -9.0101480830343719E-003   5.6289687397270943E-002   0.0000000000000000     
  -9.9343347451930266E-003   6.1659765047783692E-002   0.0000000000000000     
  -1.0762709124050335E-002   6.7283161200593591E-002   0.0000000000000000     
  -1.1495271219606300E-002   7.3159875855700662E-002   0.0000000000000000     
  -1.2132021031860918E-002   7.9289909013104828E-002   0.0000000000000000     
  -1.3923171082125634E-002   5.5873420831502957E-002   0.0000000000000000     
  -1.4792768198548049E-002   6.1384846069013170E-002   0.0000000000000000     
  -1.5593176488656371E-002   6.7120632475289321E-002   0.0000000000000000     
  -1.6324395952450600E-002   7.3080780050331418E-002   0.0000000000000000     
  -1.6986426589930732E-002   7.9265288794139466E-002   0.0000000000000000     
   9.1194225087069770E-004   7.9222357017609782E-002   0.0000000000000000     
   7.5850340809566121E-004   8.5504850724126003E-002   0.0000000000000000     
   6.3498131511409211E-004   9.1955129262939958E-002   0.0000000000000000     
   5.4137597192598942E-004   9.8573192634051635E-002   0.0000000000000000     
   4.7768737853135304E-004  0.10535904083746109        0.0000000000000000     
  -3.1828366114602024E-003   7.9268443124839993E-002   0.0000000000000000     
  -3.5217698077567436E-003   8.5558093490118822E-002   0.0000000000000000     
  -3.8199210620897964E-003   9.2011747806673400E-002   0.0000000000000000     
  -4.0772903744593610E-003   9.8629406074503767E-002   0.0000000000000000     
  -4.2938777448654382E-003  0.10541106829360990        0.0000000000000000     
  -7.5308243723707386E-003   7.9290960456671680E-002   0.0000000000000000     
  -8.0099806586382549E-003   8.5597102504129038E-002   0.0000000000000000     
  -8.4485035475961069E-003   9.2061504455095644E-002   0.0000000000000000     
  -8.8463930392442946E-003   9.8684166309571456E-002   0.0000000000000000     
  -9.2036491335828249E-003  0.10546508806755653        0.0000000000000000     
  -1.2132021031860918E-002   7.9289909013104828E-002   0.0000000000000000     
  -1.2706129144548869E-002   8.5621877766156665E-002   0.0000000000000000     
  -1.3250766141404835E-002   9.2104399208206664E-002   0.0000000000000000     
  -1.3765932022428812E-002   9.8737473339254755E-002   0.0000000000000000     
  -1.4251626787620802E-002  0.10552110015930100        0.0000000000000000     
  -1.6986426589930732E-002   7.9265288794139466E-002   0.0000000000000000     
  -1.7610215265488595E-002   8.5632419276201743E-002   0.0000000000000000     
  -1.8226708843515984E-002   9.2140432066006445E-002   0.0000000000000000     
  -1.8835907324012913E-002   9.8789327163553625E-002   0.0000000000000000     
  -1.9437810706979378E-002  0.10557910456884328        0.0000000000000000     
   4.7768737853135304E-004  0.10535904083746109        0.0000000000000000     
   4.3414801572317957E-004  0.11230048240190518        0.0000000000000000     
   4.0099036429446194E-004  0.11938532585612091        0.0000000000000000     
   3.7821442424520465E-004  0.12661357120010824        0.0000000000000000     
   3.6582019557540243E-004  0.13398521843386718        0.0000000000000000     
  -4.2938777448654382E-003  0.10541106829360990        0.0000000000000000     
  -4.4825854960513231E-003  0.11234672135811676        0.0000000000000000     
  -4.6563159507603110E-003  0.11942635216214938        0.0000000000000000     
  -4.8150691089924071E-003  0.12664996070570766        0.0000000000000000     
  -4.9588449707476051E-003  0.13401754698879170        0.0000000000000000     
  -9.2036491335828249E-003  0.10546508806755653        0.0000000000000000     
  -9.5304034709176155E-003  0.11239715763793737        0.0000000000000000     
  -9.8367876915545997E-003  0.11947326292960048        0.0000000000000000     
  -1.0122801795493777E-002  0.12669340394254588        0.0000000000000000     
  -1.0388445782735147E-002  0.13405758067677362        0.0000000000000000     
  -1.4251626787620802E-002  0.10552110015930100        0.0000000000000000     
  -1.4709305908875703E-002  0.11245179124136695        0.0000000000000000     
  -1.5140424858088404E-002  0.11952605815847427        0.0000000000000000     
  -1.5544983635258910E-002  0.12674390091062290        0.0000000000000000     
  -1.5922982240387219E-002  0.13410531949781287        0.0000000000000000     
  -1.9437810706979378E-002  0.10557910456884328        0.0000000000000000     
  -2.0019292809925579E-002  0.11251062216840559        0.0000000000000000     
  -2.0567227450361721E-002  0.11958473784877074        0.0000000000000000     
  -2.1081614628287802E-002  0.12680145160993872        0.0000000000000000     
  -2.1562454343703824E-002  0.13416076345190958        0.0000000000000000     
   3.6582019557540243E-004  0.13398521843386718        0.0000000000000000     
   3.5464912702624658E-004  0.14148217971935859        0.0000000000000000     
   3.3554266733892444E-004  0.14908636721854332        0.0000000000000000     
   3.0850081651343571E-004  0.15679778093142135        0.0000000000000000     
   2.7352357454977876E-004  0.16461642085799277        0.0000000000000000     
  -4.9588449707476051E-003  0.13401754698879170        0.0000000000000000     
  -5.0945646652105648E-003  0.14151117641473060        0.0000000000000000     
  -5.2291493215659325E-003  0.14911291438685351        0.0000000000000000     
  -5.3625989398137152E-003  0.15682276090516042        0.0000000000000000     
  -5.4949135199539086E-003  0.16464071596965132        0.0000000000000000     
  -1.0388445782735147E-002  0.13405758067677362        0.0000000000000000     
  -1.0639120297676200E-002  0.14154848463332084        0.0000000000000000     
  -1.0880225984714437E-002  0.14914880731322480        0.0000000000000000     
  -1.1111762843849855E-002  0.15685854871648550        0.0000000000000000     
  -1.1333730875082455E-002  0.16467770884310295        0.0000000000000000     
  -1.5922982240387219E-002  0.13410531949781287        0.0000000000000000     
  -1.6279017770370666E-002  0.14159410437512931        0.0000000000000000     
  -1.6617687322106587E-002  0.14919404599765723        0.0000000000000000     
  -1.6938990895594985E-002  0.15690514436539665        0.0000000000000000     
  -1.7242928490835859E-002  0.16472739947834758        0.0000000000000000     
  -2.1562454343703824E-002  0.13416076345190958        0.0000000000000000     
  -2.2014257083293957E-002  0.14164803564015599        0.0000000000000000     
  -2.2441533333742384E-002  0.14924863044015074        0.0000000000000000     
  -2.2844283095049107E-002  0.15696254785189387        0.0000000000000000     
  -2.3222506367214121E-002  0.16478978787538529        0.0000000000000000     
   2.7352357454977876E-004  0.16461642085799277        0.0000000000000000     
   2.3795264612292886E-004  0.17253496941991942        0.0000000000000000     
   2.0912973590785696E-004  0.18054610903886337        0.0000000000000000     
   1.8705484390456827E-004  0.18864983971482449        0.0000000000000000     
   1.7172797011305845E-004  0.19684616144780287        0.0000000000000000     
  -5.4949135199539086E-003  0.16464071596965132        0.0000000000000000     
  -5.6197899151052425E-003  0.17255863722587719        0.0000000000000000     
  -5.7309249783864431E-003  0.18056838231938882        0.0000000000000000     
  -5.8283187097975106E-003  0.18866995125018629        0.0000000000000000     
  -5.9119711093384448E-003  0.19686334401826963        0.0000000000000000     
  -1.1333730875082455E-002  0.16467770884310295        0.0000000000000000     
  -1.1541040961209628E-002  0.17259658771580602        0.0000000000000000     
  -1.1728603985028762E-002  0.18060548535732371        0.0000000000000000     
  -1.1896419946539860E-002  0.18870440176765590        0.0000000000000000     
  -1.2044488845742923E-002  0.19689333694680278        0.0000000000000000     
  -1.7242928490835859E-002  0.16472739947834758        0.0000000000000000     
  -1.7525800492190224E-002  0.17264882088970607        0.0000000000000000     
  -1.7783907284019098E-002  0.18065741815266798        0.0000000000000000     
  -1.8017248866322486E-002  0.18875319126723339        0.0000000000000000     
  -1.8225825239100372E-002  0.19693614023340231        0.0000000000000000     
  -2.3222506367214121E-002  0.16478978787538529        0.0000000000000000     
  -2.3574068508047032E-002  0.17271533674757716        0.0000000000000000     
  -2.3896834875357452E-002  0.18072418070542168        0.0000000000000000     
  -2.4190805469145375E-002  0.18881631974891869        0.0000000000000000     
  -2.4455980289410810E-002  0.19699175387806825        0.0000000000000000     
   1.7172797011305845E-004  0.19684616144780287        0.0000000000000000     
   1.6062124286956247E-004  0.20511365208588295        0.0000000000000000     
   1.5120679051031593E-004  0.21343088947714911        0.0000000000000000     
   1.4348461303531813E-004  0.22179787362160133        0.0000000000000000     
   1.3745471044456859E-004  0.23021460451923970        0.0000000000000000     
  -5.9119711093384448E-003  0.19686334401826963        0.0000000000000000     
  -5.9837186392869392E-003  0.20512796643323583        0.0000000000000000     
  -6.0453977619206916E-003  0.21344322430468204        0.0000000000000000     
  -6.0970084772396975E-003  0.22180911763260838        0.0000000000000000     
  -6.1385507852439614E-003  0.23022564641701468        0.0000000000000000     
  -1.2044488845742923E-002  0.19689333694680278        0.0000000000000000     
  -1.2173896092666279E-002  0.20515352088493422        0.0000000000000000     
  -1.2285727097338259E-002  0.21346618357222058        0.0000000000000000     
  -1.2379981859758867E-002  0.22183132500866168        0.0000000000000000     
  -1.2456660379928099E-002  0.23024894519425765        0.0000000000000000     
  -1.8225825239100372E-002  0.19693614023340231        0.0000000000000000     
  -1.8409911117268453E-002  0.20519031544097815        0.0000000000000000     
  -1.8569781215742397E-002  0.21349976727976450        0.0000000000000000     
  -1.8705435534522186E-002  0.22186449574976141        0.0000000000000000     
  -1.8816874073607839E-002  0.23028450085096877        0.0000000000000000     
  -2.4455980289410810E-002  0.19699175387806825        0.0000000000000000     
  -2.4691763713093472E-002  0.20523835010136762        0.0000000000000000     
  -2.4897560117133087E-002  0.21354397542731404        0.0000000000000000     
  -2.5073369501529663E-002  0.22190862985590748        0.0000000000000000     
  -2.5219191866283193E-002  0.23033231338714791        0.0000000000000000     
   1.3745471044456859E-004  0.23021460451923970        0.0000000000000000     
   1.3268395941248325E-004  0.23865030239245036        0.0000000000000000     
   1.2873923661348022E-004  0.24707418746361942        0.0000000000000000     
   1.2562054204755333E-004  0.25548625973274691        0.0000000000000000     
   1.2332787571471071E-004  0.26388651919983291        0.0000000000000000     
  -6.1385507852439614E-003  0.23022564641701468        0.0000000000000000     
  -6.1725648995161128E-003  0.23866210011401157        0.0000000000000000     
  -6.2015910336387786E-003  0.24708776817970973        0.0000000000000000     
  -6.2256291876119606E-003  0.25550265061410921        0.0000000000000000     
  -6.2446793614356622E-003  0.26390674741720987        0.0000000000000000     
  -1.2456660379928099E-002  0.23024894519425765        0.0000000000000000     
  -1.2520058806946649E-002  0.23868878491270937        0.0000000000000000     
  -1.2574473289915216E-002  0.24712058494771780        0.0000000000000000     
  -1.2619903828833798E-002  0.25554434529928299        0.0000000000000000     
  -1.2656350423702391E-002  0.26396006596740490        0.0000000000000000     
  -1.8816874073607839E-002  0.23028450085096877        0.0000000000000000     
  -1.8909797762879127E-002  0.23873035678854373        0.0000000000000000     
  -1.8989907532215834E-002  0.24717263776764359        0.0000000000000000     
  -1.9057203381617951E-002  0.25561134378826833        0.0000000000000000     
  -1.9111685311085477E-002  0.26404647485041793        0.0000000000000000     
  -2.5219191866283193E-002  0.23033231338714791        0.0000000000000000     
  -2.5341781767313557E-002  0.23878681574151470        0.0000000000000000     
  -2.5447893760540630E-002  0.24724392663948713        0.0000000000000000     
  -2.5537527845964421E-002  0.25570364608106522        0.0000000000000000     
  -2.5610684023584920E-002  0.26416597406624898        0.0000000000000000     
   1.2332787571471071E-004  0.26388651919983291        0.0000000000000000     
   1.2150694924589495E-004  0.27221472320628409        0.0000000000000000     
   1.1980347427205786E-004  0.28041062909350722        0.0000000000000000     
   1.1821745079320010E-004  0.28847423686150236        0.0000000000000000     
   1.1674887880931944E-004  0.29640554651026940        0.0000000000000000     
  -6.2446793614356622E-003  0.26390674741720987        0.0000000000000000     
  -6.2627494382717259E-003  0.27224019657727155        0.0000000000000000     
  -6.2838473012819997E-003  0.28044313608255406        0.0000000000000000     
  -6.3079729504664861E-003  0.28851556593305722        0.0000000000000000     
  -6.3351263858251834E-003  0.29645748612878126        0.0000000000000000     
  -1.2656350423702391E-002  0.26396006596740490        0.0000000000000000     
  -1.2690996326660469E-002  0.27230893096244890        0.0000000000000000     
  -1.2731024789847506E-002  0.28053212429478047        0.0000000000000000     
  -1.2776435813263494E-002  0.28862964596439955        0.0000000000000000     
  -1.2827229396908439E-002  0.29660149597130625        0.0000000000000000     
  -1.9111685311085477E-002  0.26404647485041793        0.0000000000000000     
  -1.9163233715920339E-002  0.27242092636181603        0.0000000000000000     
  -1.9221728991424457E-002  0.28067759373018653        0.0000000000000000     
  -1.9287171137597817E-002  0.28881647695552926        0.0000000000000000     
  -1.9359560154440441E-002  0.29683757603784439        0.0000000000000000     
  -2.5610684023584920E-002  0.26416597406624898        0.0000000000000000     
  -2.5679461606051331E-002  0.27257618277537310        0.0000000000000000     
  -2.5755959906012843E-002  0.28087954438877227        0.0000000000000000     
  -2.5840178923469473E-002  0.28907605890644644        0.0000000000000000     
  -2.5932118658421200E-002  0.29716572632839572        0.0000000000000000     
  -1.3923171082125634E-002   5.5873420831502957E-002   0.0000000000000000     
  -1.4792768198548049E-002   6.1384846069013170E-002   0.0000000000000000     
  -1.5593176488656371E-002   6.7120632475289321E-002   0.0000000000000000     
  -1.6324395952450600E-002   7.3080780050331418E-002   0.0000000000000000     
  -1.6986426589930732E-002   7.9265288794139466E-002   0.0000000000000000     
  -1.8844037617199882E-002   5.5534999769177210E-002   0.0000000000000000     
  -1.9670560040775917E-002   6.1183482279386865E-002   0.0000000000000000     
  -2.0452580231337260E-002   6.7026802385742365E-002   0.0000000000000000     
  -2.1190098188883903E-002   7.3064960088243688E-002   0.0000000000000000     
  -2.1883113913415859E-002   7.9297955386890856E-002   0.0000000000000000     
  -2.3058428965554913E-002   5.5615576128284494E-002   0.0000000000000000     
  -2.4031989898138637E-002   6.1295387520560650E-002   0.0000000000000000     
  -2.4948631359599387E-002   6.7164189359684323E-002   0.0000000000000000     
  -2.5808353349937158E-002   7.3221981645655521E-002   0.0000000000000000     
  -2.6611155869151960E-002   7.9468764378474235E-002   0.0000000000000000     
  -2.6566345127190735E-002   5.6115149908824824E-002   0.0000000000000000     
  -2.7877057770636191E-002   6.1720561792534497E-002   0.0000000000000000     
  -2.9081329873442731E-002   6.7532793397115168E-002   0.0000000000000000     
  -3.0179161435610349E-002   7.3551844722566886E-002   0.0000000000000000     
  -3.1170552457139039E-002   7.9777715768889645E-002   0.0000000000000000     
  -2.9367786102107340E-002   5.7033721110798200E-002   0.0000000000000000     
  -3.1205763658268604E-002   6.2459005095308391E-002   0.0000000000000000     
  -3.2850675772867322E-002   6.8132614498034941E-002   0.0000000000000000     
  -3.4302522445903476E-002   7.4054549318977841E-002   0.0000000000000000     
  -3.5561303677377087E-002   8.0224809558137058E-002   0.0000000000000000     
  -1.6986426589930732E-002   7.9265288794139466E-002   0.0000000000000000     
  -1.7610215265488595E-002   8.5632419276201743E-002   0.0000000000000000     
  -1.8226708843515984E-002   9.2140432066006445E-002   0.0000000000000000     
  -1.8835907324012913E-002   9.8789327163553625E-002   0.0000000000000000     
  -1.9437810706979378E-002  0.10557910456884328        0.0000000000000000     
  -2.1883113913415859E-002   7.9297955386890856E-002   0.0000000000000000     
  -2.2560874046751840E-002   8.5694595222773187E-002   0.0000000000000000     
  -2.3252625230710561E-002   9.2223686536980098E-002   0.0000000000000000     
  -2.3958367465292046E-002   9.8885229329511562E-002   0.0000000000000000     
  -2.4678100750496271E-002  0.10567922360036762        0.0000000000000000     
  -2.6611155869151960E-002   7.9468764378474235E-002   0.0000000000000000     
  -2.7396740513633024E-002   8.5874273794380118E-002   0.0000000000000000     
  -2.8204808879769595E-002   9.2408246129612709E-002   0.0000000000000000     
  -2.9035360967561655E-002   9.9070681384172091E-002   0.0000000000000000     
  -2.9888396777009208E-002  0.10586157955805821        0.0000000000000000     
  -3.1170552457139039E-002   7.9777715768889645E-002   0.0000000000000000     
  -3.2117814666132158E-002   8.6171454991022425E-002   0.0000000000000000     
  -3.3083259790693056E-002   9.2694110843904262E-002   0.0000000000000000     
  -3.4066887830821735E-002   9.9345683327535142E-002   0.0000000000000000     
  -3.5068698786518193E-002  0.10612617244191506        0.0000000000000000     
  -3.5561303677377087E-002   8.0224809558137058E-002   0.0000000000000000     
  -3.6724096504249230E-002   8.6586138812700192E-002   0.0000000000000000     
  -3.7887977963480958E-002   9.3081280679854758E-002   0.0000000000000000     
  -3.9052948055072305E-002   9.9710235159600744E-002   0.0000000000000000     
  -4.0219006779023236E-002  0.10647300225193818        0.0000000000000000     
  -1.9437810706979378E-002  0.10557910456884328        0.0000000000000000     
  -2.0019292809925579E-002  0.11251062216840559        0.0000000000000000     
  -2.0567227450361721E-002  0.11958473784877074        0.0000000000000000     
  -2.1081614628287802E-002  0.12680145160993872        0.0000000000000000     
  -2.1562454343703824E-002  0.13416076345190958        0.0000000000000000     
  -2.4678100750496271E-002  0.10567922360036762        0.0000000000000000     
  -2.5384562544546622E-002  0.11261017863381149        0.0000000000000000     
  -2.6050490305666467E-002  0.11968260371410654        0.0000000000000000     
  -2.6675884033855811E-002  0.12689649884125273        0.0000000000000000     
  -2.7260743729114648E-002  0.13425186401525005        0.0000000000000000     
  -2.9888396777009208E-002  0.10586157955805821        0.0000000000000000     
  -3.0729313483218203E-002  0.11278698885234298        0.0000000000000000     
  -3.1523508261294568E-002  0.11985295746809835        0.0000000000000000     
  -3.2270981111238294E-002  0.12705948540532430        0.0000000000000000     
  -3.2971732033049386E-002  0.13440657266402078        0.0000000000000000     
  -3.5068698786518193E-002  0.10612617244191506        0.0000000000000000     
  -3.6053545625940334E-002  0.11304105282400007        0.0000000000000000     
  -3.6986281317246003E-002  0.12009579911074618        0.0000000000000000     
  -3.7866905860435250E-002  0.12729041130215343        0.0000000000000000     
  -3.8695419255508040E-002  0.13462488939822176        0.0000000000000000     
  -4.0219006779023236E-002  0.10647300225193818        0.0000000000000000     
  -4.1357258972712994E-002  0.11337237054878271        0.0000000000000000     
  -4.2438809473520821E-002  0.12041112864205003        0.0000000000000000     
  -4.3463658281446688E-002  0.12758927653174013        0.0000000000000000     
  -4.4431805396490609E-002  0.13490681421785300        0.0000000000000000     
  -2.1562454343703824E-002  0.13416076345190958        0.0000000000000000     
  -2.2014257083293957E-002  0.14164803564015599        0.0000000000000000     
  -2.2441533333742384E-002  0.14924863044015074        0.0000000000000000     
  -2.2844283095049107E-002  0.15696254785189387        0.0000000000000000     
  -2.3222506367214121E-002  0.16478978787538529        0.0000000000000000     
  -2.7260743729114648E-002  0.13425186401525005        0.0000000000000000     
  -2.7809567074862603E-002  0.14173548088254784        0.0000000000000000     
  -2.8326851754519287E-002  0.14933413108959537        0.0000000000000000     
  -2.8812597768084713E-002  0.15704781463639267        0.0000000000000000     
  -2.9266805115558864E-002  0.16487653152293971        0.0000000000000000     
  -3.2971732033049386E-002  0.13440657266402078        0.0000000000000000     
  -3.3629676583493112E-002  0.14188164255645172        0.0000000000000000     
  -3.4248730319334751E-002  0.14947211839488103        0.0000000000000000     
  -3.4828893240574296E-002  0.15717800017930864        0.0000000000000000     
  -3.5370165347211734E-002  0.16499928790973456        0.0000000000000000     
  -3.8695419255508040E-002  0.13462488939822176        0.0000000000000000     
  -3.9474585609185514E-002  0.14208652066186769        0.0000000000000000     
  -4.0207169028188772E-002  0.14966259235600768        0.0000000000000000     
  -4.0893169512517841E-002  0.15735310448064180        0.0000000000000000     
  -4.1532587062172700E-002  0.16515805703576988        0.0000000000000000     
  -4.4431805396490609E-002  0.13490681421785300        0.0000000000000000     
  -4.5344294151939767E-002  0.14235011519879570        0.0000000000000000     
  -4.6202167881081363E-002  0.14990555297297542        0.0000000000000000     
  -4.7005426583915363E-002  0.15757312754039204        0.0000000000000000     
  -4.7754070260441789E-002  0.16535283890104563        0.0000000000000000     
  -2.3222506367214121E-002  0.16478978787538529        0.0000000000000000     
  -2.3574068508047032E-002  0.17271533674757716        0.0000000000000000     
  -2.3896834875357452E-002  0.18072418070542168        0.0000000000000000     
  -2.4190805469145375E-002  0.18881631974891869        0.0000000000000000     
  -2.4455980289410810E-002  0.19699175387806825        0.0000000000000000     
  -2.9266805115558864E-002  0.16487653152293971        0.0000000000000000     
  -2.9688879447462582E-002  0.17280274291103961        0.0000000000000000     
  -3.0078226414316685E-002  0.18080890996249538        0.0000000000000000     
  -3.0434846016121172E-002  0.18889503267730709        0.0000000000000000     
  -3.0758738252876040E-002  0.19706111105547472        0.0000000000000000     
  -3.5370165347211734E-002  0.16499928790973456        0.0000000000000000     
  -3.5873267749119406E-002  0.17291764700171347        0.0000000000000000     
  -3.6338921556169662E-002  0.18091474287080003        0.0000000000000000     
  -3.6767126768362489E-002  0.18899057551699414        0.0000000000000000     
  -3.7157883385697900E-002  0.19714514494029589        0.0000000000000000     
  -4.1532587062172700E-002  0.16515805703576988        0.0000000000000000     
  -4.2127233413017509E-002  0.17306004901959887        0.0000000000000000     
  -4.2678920300916391E-002  0.18104167943033553        0.0000000000000000     
  -4.3187647725869346E-002  0.18910294826797980        0.0000000000000000     
  -4.3653415687876389E-002  0.19724385553253171        0.0000000000000000     
  -4.7754070260441789E-002  0.16535283890104563        0.0000000000000000     
  -4.8450776439156878E-002  0.17322994896469571        0.0000000000000000     
  -4.9098222648556872E-002  0.18118971964110178        0.0000000000000000     
  -4.9696408888641727E-002  0.18923215093026396        0.0000000000000000     
  -5.0245335159411500E-002  0.19735724283218214        0.0000000000000000     
  -2.4455980289410810E-002  0.19699175387806825        0.0000000000000000     
  -2.4691763713093472E-002  0.20523835010136762        0.0000000000000000     
  -2.4897560117133087E-002  0.21354397542731404        0.0000000000000000     
  -2.5073369501529663E-002  0.22190862985590748        0.0000000000000000     
  -2.5219191866283193E-002  0.23033231338714791        0.0000000000000000     
  -3.0758738252876040E-002  0.19706111105547472        0.0000000000000000     
  -3.1048358158144350E-002  0.20529869628600178        0.0000000000000000     
  -3.1302160765489161E-002  0.21359933955789179        0.0000000000000000     
  -3.1520146074910459E-002  0.22196304087114477        0.0000000000000000     
  -3.1702314086408258E-002  0.23038980022576069        0.0000000000000000     
  -3.7157883385697900E-002  0.19714514494029589        0.0000000000000000     
  -3.7508598730424128E-002  0.20537242541477982        0.0000000000000000     
  -3.7816680124789406E-002  0.21366639121452061        0.0000000000000000     
  -3.8082127568793755E-002  0.22202704233951823        0.0000000000000000     
  -3.8304941062437155E-002  0.23045437878977265        0.0000000000000000     
  -4.3653415687876389E-002  0.19724385553253171        0.0000000000000000     
  -4.4072485429932792E-002  0.20545953748770174        0.0000000000000000     
  -4.4441118195033838E-002  0.21374513039720047        0.0000000000000000     
  -4.4759313983179547E-002  0.22210063426102786        0.0000000000000000     
  -4.5027072794369870E-002  0.23052604907918386        0.0000000000000000     
  -5.0245335159411500E-002  0.19735724283218214        0.0000000000000000     
  -5.0740018256670349E-002  0.20556003250476756        0.0000000000000000     
  -5.1175474976222456E-002  0.21383555710593136        0.0000000000000000     
  -5.1551705318067811E-002  0.22218381663567358        0.0000000000000000     
  -5.1868709282206424E-002  0.23060481109399419        0.0000000000000000     
  -2.5219191866283193E-002  0.23033231338714791        0.0000000000000000     
  -2.5341781767313557E-002  0.23878681574151470        0.0000000000000000     
  -2.5447893760540630E-002  0.24724392663948713        0.0000000000000000     
  -2.5537527845964421E-002  0.25570364608106522        0.0000000000000000     
  -2.5610684023584920E-002  0.26416597406624898        0.0000000000000000     
  -3.1702314086408258E-002  0.23038980022576069        0.0000000000000000     
  -3.1856138344751712E-002  0.23885366287279258        0.0000000000000000     
  -3.1989092394709970E-002  0.24732867406329354        0.0000000000000000     
  -3.2101176236283030E-002  0.25581483379726344        0.0000000000000000     
  -3.2192389869470900E-002  0.26431214207470244        0.0000000000000000     
  -3.8304941062437155E-002  0.23045437878977265        0.0000000000000000     
  -3.8492995019695379E-002  0.23892639928354795        0.0000000000000000     
  -3.8654163854544205E-002  0.24742110253910807        0.0000000000000000     
  -3.8788447566983610E-002  0.25593848855645296        0.0000000000000000     
  -3.8895846157013601E-002  0.26447855733558268        0.0000000000000000     
  -4.5027072794369870E-002  0.23052604907918386        0.0000000000000000     
  -4.5252351792144568E-002  0.23900502497378071        0.0000000000000000     
  -4.5443108140043334E-002  0.24752121206693065        0.0000000000000000     
  -4.5599341838066146E-002  0.25607461035863360        0.0000000000000000     
  -4.5721052886213032E-002  0.26466521984888969        0.0000000000000000     
  -5.1868709282206424E-002  0.23060481109399419        0.0000000000000000     
  -5.2134208662099273E-002  0.23908953994349089        0.0000000000000000     
  -5.2355925251207358E-002  0.24762900264676133        0.0000000000000000     
  -5.2533859049530653E-002  0.25622319920380554        0.0000000000000000     
  -5.2668010057069177E-002  0.26487212961462359        0.0000000000000000     
  -2.5610684023584920E-002  0.26416597406624898        0.0000000000000000     
  -2.5679461606051331E-002  0.27257618277537310        0.0000000000000000     
  -2.5755959906012843E-002  0.28087954438877227        0.0000000000000000     
  -2.5840178923469473E-002  0.28907605890644644        0.0000000000000000     
  -2.5932118658421200E-002  0.29716572632839572        0.0000000000000000     
  -3.2192389869470900E-002  0.26431214207470244        0.0000000000000000     
  -3.2277475248361359E-002  0.27276828266511061        0.0000000000000000     
  -3.2371174327042181E-002  0.28113093933798816        0.0000000000000000     
  -3.2473487105513350E-002  0.28940011209333516        0.0000000000000000     
  -3.2584413583774896E-002  0.29757580093115155        0.0000000000000000     
  -3.8895846157013601E-002  0.26447855733558268        0.0000000000000000     
  -3.8995069894158338E-002  0.27299080849301932        0.0000000000000000     
  -3.9104829047941936E-002  0.28142474164528497        0.0000000000000000     
  -3.9225123618364395E-002  0.28978035679237979        0.0000000000000000     
  -3.9355953605425723E-002  0.29805765393430345        0.0000000000000000     
  -4.5721052886213032E-002  0.26466521984888969        0.0000000000000000     
  -4.5832245543442250E-002  0.27324376025909930        0.0000000000000000     
  -4.5956924068712109E-002  0.28176095131066276        0.0000000000000000     
  -4.6095088462022586E-002  0.29021679300358000        0.0000000000000000     
  -4.6246738723373690E-002  0.29861128533785125        0.0000000000000000     
  -5.2668010057069177E-002  0.26487212961462359        0.0000000000000000     
  -5.2789002196213138E-002  0.27352713796335043        0.0000000000000000     
  -5.2927459389352713E-002  0.28213956833412129        0.0000000000000000     
  -5.3083381636487931E-002  0.29070942072693617        0.0000000000000000     
  -5.3256768937618784E-002  0.29923669514179507        0.0000000000000000     
  -2.9367786102107340E-002   5.7033721110798200E-002   0.0000000000000000     
  -3.1205763658268604E-002   6.2459005095308391E-002   0.0000000000000000     
  -3.2850675772867322E-002   6.8132614498034941E-002   0.0000000000000000     
  -3.4302522445903476E-002   7.4054549318977841E-002   0.0000000000000000     
  -3.5561303677377087E-002   8.0224809558137058E-002   0.0000000000000000     
  -3.2167807336805972E-002   5.8062261794982306E-002   0.0000000000000000     
  -3.4532815104700965E-002   6.3305317952125684E-002   0.0000000000000000     
  -3.6623504999265546E-002   6.8835609271598083E-002   0.0000000000000000     
  -3.8439877020499703E-002   7.4653135753399519E-002   0.0000000000000000     
  -3.9981931168403449E-002   8.0757897397529990E-002   0.0000000000000000     
  -3.5671464277787855E-002   5.8891744022154836E-002   0.0000000000000000     
  -3.8372919653598389E-002   6.4054100886229676E-002   0.0000000000000000     
  -4.0766653494029831E-002   6.9513734326959134E-002   0.0000000000000000     
  -4.2852665799082180E-002   7.5270644344343218E-002   0.0000000000000000     
  -4.4630956568755445E-002   8.1324830938381928E-002   0.0000000000000000     
  -3.9878756925053001E-002   5.9522167792315790E-002   0.0000000000000000     
  -4.2726077304960870E-002   6.4705353897620332E-002   0.0000000000000000     
  -4.5280121257160175E-002   7.0166989664118037E-002   0.0000000000000000     
  -4.7540888781650907E-002   7.5907075091808870E-002   0.0000000000000000     
  -4.9508379878433081E-002   8.1925610180692846E-002   0.0000000000000000     
  -4.4789685278601409E-002   5.9953533105465182E-002   0.0000000000000000     
  -4.7592288058788415E-002   6.5259076986297737E-002   0.0000000000000000     
  -5.0163908288656578E-002   7.0795375283074835E-002   0.0000000000000000     
  -5.2504545968205890E-002   7.6562427995796531E-002   0.0000000000000000     
  -5.4614201097436352E-002   8.2560235124462769E-002   0.0000000000000000     
  -3.5561303677377087E-002   8.0224809558137058E-002   0.0000000000000000     
  -3.6724096504249230E-002   8.6586138812700192E-002   0.0000000000000000     
  -3.7887977963480958E-002   9.3081280679854758E-002   0.0000000000000000     
  -3.9052948055072305E-002   9.9710235159600744E-002   0.0000000000000000     
  -4.0219006779023236E-002  0.10647300225193818        0.0000000000000000     
  -3.9981931168403449E-002   8.0757897397529990E-002   0.0000000000000000     
  -4.1377001677296715E-002   8.7076748248171368E-002   0.0000000000000000     
  -4.2752422781499440E-002   9.3536542349505508E-002   0.0000000000000000     
  -4.4108194481011609E-002  0.10013727970153241        0.0000000000000000     
  -4.5444316775833229E-002  0.10687896030425212        0.0000000000000000     
  -4.4630956568755445E-002   8.1324830938381928E-002   0.0000000000000000     
  -4.6237945834587089E-002   8.7601706286193917E-002   0.0000000000000000     
  -4.7810053628114586E-002   9.4026682564897823E-002   0.0000000000000000     
  -4.9347279949337929E-002  0.10059975977449366        0.0000000000000000     
  -5.0849624798257123E-002  0.10732093791498143        0.0000000000000000     
  -4.9508379878433081E-002   8.1925610180692846E-002   0.0000000000000000     
  -5.1306928976120360E-002   8.8161012926767854E-002   0.0000000000000000     
  -5.3060870503326411E-002   9.4551701326031717E-002   0.0000000000000000     
  -5.4770204460051257E-002  0.10109767537848448        0.0000000000000000     
  -5.6434930846294883E-002  0.10779893508412612        0.0000000000000000     
  -5.4614201097436352E-002   8.2560235124462769E-002   0.0000000000000000     
  -5.6583951101896519E-002   8.8754668169893136E-002   0.0000000000000000     
  -5.8504873407134929E-002   9.5111598632907149E-002   0.0000000000000000     
  -6.0376968013151622E-002  0.10163102651350485        0.0000000000000000     
  -6.2200234919946543E-002  0.10831295181168621        0.0000000000000000     
  -4.0219006779023236E-002  0.10647300225193818        0.0000000000000000     
  -4.1357258972712994E-002  0.11337237054878271        0.0000000000000000     
  -4.2438809473520821E-002  0.12041112864205003        0.0000000000000000     
  -4.3463658281446688E-002  0.12758927653174013        0.0000000000000000     
  -4.4431805396490609E-002  0.13490681421785300        0.0000000000000000     
  -4.5444316775833229E-002  0.10687896030425212        0.0000000000000000     
  -4.6739781891204361E-002  0.11376044367364675        0.0000000000000000     
  -4.7973582052365044E-002  0.12078058932569855        0.0000000000000000     
  -4.9145717259315276E-002  0.12793939726040748        0.0000000000000000     
  -5.0256187512055059E-002  0.13523686747777353        0.0000000000000000     
  -5.0849624798257123E-002  0.10732093791498143        0.0000000000000000     
  -5.2300442749082604E-002  0.11418477384554802        0.0000000000000000     
  -5.3683088376024798E-002  0.12118582442538040        0.0000000000000000     
  -5.4997561679083727E-002  0.12832408965447853        0.0000000000000000     
  -5.6243862658259383E-002  0.13559956953284241        0.0000000000000000     
  -5.6434930846294883E-002  0.10779893508412612        0.0000000000000000     
  -5.8039241546347688E-002  0.11464536106448653        0.0000000000000000     
  -5.9567328444500085E-002  0.12162683394109559        0.0000000000000000     
  -6.1019191540752041E-002  0.12874335371395335        0.0000000000000000     
  -6.2394830835103568E-002  0.13599492038305969        0.0000000000000000     
  -6.2200234919946543E-002  0.10831295181168621        0.0000000000000000     
  -6.3956178282999668E-002  0.11514220533046229        0.0000000000000000     
  -6.5626302257790883E-002  0.12210361787284416        0.0000000000000000     
  -6.7210606844320203E-002  0.12919718943883182        0.0000000000000000     
  -6.8709092042587627E-002  0.13642292002842529        0.0000000000000000     
  -4.4431805396490609E-002  0.13490681421785300        0.0000000000000000     
  -4.5344294151939767E-002  0.14235011519879570        0.0000000000000000     
  -4.6202167881081363E-002  0.14990555297297542        0.0000000000000000     
  -4.7005426583915363E-002  0.15757312754039204        0.0000000000000000     
  -4.7754070260441789E-002  0.16535283890104563        0.0000000000000000     
  -5.0256187512055059E-002  0.13523686747777353        0.0000000000000000     
  -5.1304930811367257E-002  0.14265851886260145        0.0000000000000000     
  -5.2291885158034720E-002  0.15018987029969585        0.0000000000000000     
  -5.3217050552057450E-002  0.15783092178905678        0.0000000000000000     
  -5.4080426993435446E-002  0.16558167333068424        0.0000000000000000     
  -5.6243862658259383E-002  0.13559956953284241        0.0000000000000000     
  -5.7422624187079323E-002  0.14299782434865038        0.0000000000000000     
  -5.8534479139071081E-002  0.15050441439008061        0.0000000000000000     
  -5.9579427514234687E-002  0.15811933965713318        0.0000000000000000     
  -6.0557469312570111E-002  0.16584260014980803        0.0000000000000000     
  -6.2394830835103568E-002  0.13599492038305969        0.0000000000000000     
  -6.3697374279075972E-002  0.14336803165694254        0.0000000000000000     
  -6.4929949824190453E-002  0.15084918524412971        0.0000000000000000     
  -6.6092557470447066E-002  0.15843838114462125        0.0000000000000000     
  -6.7185197217845785E-002  0.16613561935841711        0.0000000000000000     
  -6.8709092042587627E-002  0.13642292002842529        0.0000000000000000     
  -7.0129181087357176E-002  0.14376914078747793        0.0000000000000000     
  -7.1478297213392814E-002  0.15122418286184319        0.0000000000000000     
  -7.2756440420694596E-002  0.15878804625152099        0.0000000000000000     
  -7.3963610709262467E-002  0.16646073095651143        0.0000000000000000     
  -4.7754070260441789E-002  0.16535283890104563        0.0000000000000000     
  -4.8450776439156878E-002  0.17322994896469571        0.0000000000000000     
  -4.9098222648556872E-002  0.18118971964110178        0.0000000000000000     
  -4.9696408888641727E-002  0.18923215093026396        0.0000000000000000     
  -5.0245335159411500E-002  0.19735724283218214        0.0000000000000000     
  -5.4080426993435446E-002  0.16558167333068424        0.0000000000000000     
  -5.4885003145839696E-002  0.17343041304426940        0.0000000000000000     
  -5.5633767672941176E-002  0.18136542904950340        0.0000000000000000     
  -5.6326720574739905E-002  0.18938672134638634        0.0000000000000000     
  -5.6963861851235864E-002  0.19749428993491813        0.0000000000000000     
  -6.0557469312570111E-002  0.16584260014980803        0.0000000000000000     
  -6.1471019851368117E-002  0.17366450746558523        0.0000000000000000     
  -6.2322494447919451E-002  0.18157537320194464        0.0000000000000000     
  -6.3111893102224106E-002  0.18957519735888642        0.0000000000000000     
  -6.3839215814282091E-002  0.19766397993641044        0.0000000000000000     
  -6.7185197217845785E-002  0.16613561935841711        0.0000000000000000     
  -6.8208826555742147E-002  0.17393223222864326        0.0000000000000000     
  -6.9164402973491676E-002  0.18181955209842565        0.0000000000000000     
  -7.0051926471094345E-002  0.18979757896776428        0.0000000000000000     
  -7.0871397048550194E-002  0.19786631283665912        0.0000000000000000     
  -7.3963610709262467E-002  0.16646073095651143        0.0000000000000000     
  -7.5098423258961794E-002  0.17423358733344352        0.0000000000000000     
  -7.6159493249657845E-002  0.18209796573894627        0.0000000000000000     
  -7.7146820681350620E-002  0.19005386617301986        0.0000000000000000     
  -7.8060405554040146E-002  0.19810128863566415        0.0000000000000000     
  -5.0245335159411500E-002  0.19735724283218214        0.0000000000000000     
  -5.0740018256670349E-002  0.20556003250476756        0.0000000000000000     
  -5.1175474976222456E-002  0.21383555710593136        0.0000000000000000     
  -5.1551705318067811E-002  0.22218381663567358        0.0000000000000000     
  -5.1868709282206424E-002  0.23060481109399419        0.0000000000000000     
  -5.6963861851235864E-002  0.19749428993491813        0.0000000000000000     
  -5.7539548778205274E-002  0.20568239832288010        0.0000000000000000     
  -5.8048138631424349E-002  0.21394531001805361        0.0000000000000000     
  -5.8489631410893091E-002  0.22228302502043865        0.0000000000000000     
  -5.8864027116611491E-002  0.23069554333003517        0.0000000000000000     
  -6.3839215814282091E-002  0.19766397993641044        0.0000000000000000     
  -6.4499428562106054E-002  0.20583512279894228        0.0000000000000000     
  -6.5087497323708651E-002  0.21408202781090757        0.0000000000000000     
  -6.5603422099089898E-002  0.22240469497230622        0.0000000000000000     
  -6.6047202888249779E-002  0.23080312428313823        0.0000000000000000     
  -7.0871397048550194E-002  0.19786631283665912        0.0000000000000000     
  -7.1619657608372703E-002  0.20601820593295411        0.0000000000000000     
  -7.2293551053075361E-002  0.21424571048449317        0.0000000000000000     
  -7.2893077382658267E-002  0.22254882649127627        0.0000000000000000     
  -7.3418236597121295E-002  0.23092755395330339        0.0000000000000000     
  -7.8060405554040146E-002  0.19810128863566415        0.0000000000000000     
  -7.8900235917005179E-002  0.20623164772491553        0.0000000000000000     
  -7.9666299819524486E-002  0.21443635803881045        0.0000000000000000     
  -8.0358597261598108E-002  0.22271541957734881        0.0000000000000000     
  -8.0977128243226018E-002  0.23106883234053066        0.0000000000000000     
  -5.1868709282206424E-002  0.23060481109399419        0.0000000000000000     
  -5.2134208662099273E-002  0.23908953994349089        0.0000000000000000     
  -5.2355925251207358E-002  0.24762900264676133        0.0000000000000000     
  -5.2533859049530653E-002  0.25622319920380554        0.0000000000000000     
  -5.2668010057069177E-002  0.26487212961462359        0.0000000000000000     
  -5.8864027116611491E-002  0.23069554333003517        0.0000000000000000     
  -5.9177635057668543E-002  0.23918190282286092        0.0000000000000000     
  -5.9436764543153220E-002  0.24774114137493364        0.0000000000000000     
  -5.9641415573065522E-002  0.25637325898625335        0.0000000000000000     
  -5.9791588147405442E-002  0.26507825565681997        0.0000000000000000     
  -6.6047202888249779E-002  0.23080312428313823        0.0000000000000000     
  -6.6421700406961395E-002  0.23928407224207332        0.0000000000000000     
  -6.6729775370997849E-002  0.24785429534778114        0.0000000000000000     
  -6.6971427780359138E-002  0.25651379360026161        0.0000000000000000     
  -6.7146657635045251E-002  0.26526256699951484        0.0000000000000000     
  -7.3418236597121295E-002  0.23092755395330339        0.0000000000000000     
  -7.3866404709977851E-002  0.23939604820112809        0.0000000000000000     
  -7.4234957734741244E-002  0.24796846456530380        0.0000000000000000     
  -7.4523895671411475E-002  0.25664480304583043        0.0000000000000000     
  -7.4733218519988556E-002  0.26542506364270818        0.0000000000000000     
  -8.0977128243226018E-002  0.23106883234053066        0.0000000000000000     
  -8.1511747966717896E-002  0.23951783070002519        0.0000000000000000     
  -8.1952311634383421E-002  0.24808364902750157        0.0000000000000000     
  -8.2298819246222593E-002  0.25676628732295986        0.0000000000000000     
  -8.2551270802235399E-002  0.26556574558639989        0.0000000000000000     
  -5.2668010057069177E-002  0.26487212961462359        0.0000000000000000     
  -5.2789002196213138E-002  0.27352713796335043        0.0000000000000000     
  -5.2927459389352713E-002  0.28213956833412129        0.0000000000000000     
  -5.3083381636487931E-002  0.29070942072693617        0.0000000000000000     
  -5.3256768937618784E-002  0.29923669514179507        0.0000000000000000     
  -5.9791588147405442E-002  0.26507825565681997        0.0000000000000000     
  -5.9923881129894871E-002  0.27381240771064080        0.0000000000000000     
  -6.0074893384255618E-002  0.28253199147172292        0.0000000000000000     
  -6.0244624910487724E-002  0.29123700694006638        0.0000000000000000     
  -6.0433075708591168E-002  0.29992745411567112        0.0000000000000000     
  -6.7146657635045251E-002  0.26526256699951484        0.0000000000000000     
  -6.7295423621911377E-002  0.27407103560583834        0.0000000000000000     
  -6.7457684427812706E-002  0.28290961947952969        0.0000000000000000     
  -6.7633440052749239E-002  0.29177831862058884        0.0000000000000000     
  -6.7822690496721003E-002  0.30067713302901583        0.0000000000000000     
  -7.4733218519988556E-002  0.26542506364270818        0.0000000000000000     
  -7.4903629672262675E-002  0.27430302164894321        0.0000000000000000     
  -7.5075832520023991E-002  0.28327245235754167        0.0000000000000000     
  -7.5249827063272531E-002  0.29233335576850361        0.0000000000000000     
  -7.5425613302008268E-002  0.30148573188182914        0.0000000000000000     
  -8.2551270802235399E-002  0.26556574558639989        0.0000000000000000     
  -8.2748499280948726E-002  0.27450836583995514        0.0000000000000000     
  -8.2929337660889432E-002  0.28362049010575879        0.0000000000000000     
  -8.3093785942057533E-002  0.29290211838381081        0.0000000000000000     
  -8.3241844124453013E-002  0.30235325067411112        0.0000000000000000     
  -4.4789685278601409E-002   5.9953533105465182E-002   0.0000000000000000     
  -4.7592288058788415E-002   6.5259076986297737E-002   0.0000000000000000     
  -5.0163908288656578E-002   7.0795375283074835E-002   0.0000000000000000     
  -5.2504545968205890E-002   7.6562427995796531E-002   0.0000000000000000     
  -5.4614201097436352E-002   8.2560235124462769E-002   0.0000000000000000     
  -4.9988609487397612E-002   6.0393042512782540E-002   0.0000000000000000     
  -5.2722483176538271E-002   6.5829051779094969E-002   0.0000000000000000     
  -5.5291010403826606E-002   7.1447191933821833E-002   0.0000000000000000     
  -5.7694191169262589E-002   7.7247462976963180E-002   0.0000000000000000     
  -5.9932025472846248E-002   8.3229864908518983E-002   0.0000000000000000     
  -5.5059889700406164E-002   6.1047898565447435E-002   0.0000000000000000     
  -5.7867593919667705E-002   6.6529059902845203E-002   0.0000000000000000     
  -6.0534423417977823E-002   7.2170740366351363E-002   0.0000000000000000     
  -6.3060378195336511E-002   7.7972939955965853E-002   0.0000000000000000     
  -6.5445458251743777E-002   8.3935658671688770E-002   0.0000000000000000     
  -6.0003525917627060E-002   6.1918101263459854E-002   0.0000000000000000     
  -6.3027620288176697E-002   6.7359101357548440E-002   0.0000000000000000     
  -6.5894147331110223E-002   7.2966020580663343E-002   0.0000000000000000     
  -6.8603107046427636E-002   7.8738858932804578E-002   0.0000000000000000     
  -7.1154499434128951E-002   8.4677616413972159E-002   0.0000000000000000     
  -6.4819518139060284E-002   6.3003650606819797E-002   0.0000000000000000     
  -6.8202562282065254E-002   6.8319176143204707E-002   0.0000000000000000     
  -7.1370182143223812E-002   7.3833032576757884E-002   0.0000000000000000     
  -7.4322377722535984E-002   7.9545219907479356E-002   0.0000000000000000     
  -7.7059149020001744E-002   8.5455738135369108E-002   0.0000000000000000     
  -5.4614201097436352E-002   8.2560235124462769E-002   0.0000000000000000     
  -5.6583951101896519E-002   8.8754668169893136E-002   0.0000000000000000     
  -5.8504873407134929E-002   9.5111598632907149E-002   0.0000000000000000     
  -6.0376968013151622E-002  0.10163102651350485        0.0000000000000000     
  -6.2200234919946543E-002  0.10831295181168621        0.0000000000000000     
  -5.9932025472846248E-002   8.3229864908518983E-002   0.0000000000000000     
  -6.2062049653653653E-002   8.9387286431078350E-002   0.0000000000000000     
  -6.4141800050760936E-002   9.5712616247230403E-002   0.0000000000000000     
  -6.6171276664168041E-002  0.10220585435697507        0.0000000000000000     
  -6.8150479493874996E-002  0.10886700076031246        0.0000000000000000     
  -6.5445458251743777E-002   8.3935658671688770E-002   0.0000000000000000     
  -6.7734262073129922E-002   9.0063482125832026E-002   0.0000000000000000     
  -6.9971388145425181E-002   9.6360995930707585E-002   0.0000000000000000     
  -7.2156836468629609E-002  0.10282820008631546        0.0000000000000000     
  -7.4290607042743151E-002  0.10946509459265566        0.0000000000000000     
  -7.1154499434128951E-002   8.4677616413972159E-002   0.0000000000000000     
  -7.3600588360325292E-002   9.0783255254154163E-002   0.0000000000000000     
  -7.5993637691127700E-002   9.7056737683338778E-002   0.0000000000000000     
  -7.8333647426536285E-002  0.10349806370152599        0.0000000000000000     
  -8.0620617566550992E-002  0.11010723330871582        0.0000000000000000     
  -7.7059149020001744E-002   8.5455738135369108E-002   0.0000000000000000     
  -7.9661028515239721E-002   9.1546605816044763E-002   0.0000000000000000     
  -8.2208548687868505E-002   9.7799841505123941E-002   0.0000000000000000     
  -8.4701709537888123E-002  0.10421544520260666        0.0000000000000000     
  -8.7140511065298520E-002  0.11079341690849290        0.0000000000000000     
  -6.2200234919946543E-002  0.10831295181168621        0.0000000000000000     
  -6.3956178282999668E-002  0.11514220533046229        0.0000000000000000     
  -6.5626302257790883E-002  0.12210361787284416        0.0000000000000000     
  -6.7210606844320203E-002  0.12919718943883182        0.0000000000000000     
  -6.8709092042587627E-002  0.13642292002842529        0.0000000000000000     
  -6.8150479493874996E-002  0.10886700076031246        0.0000000000000000     
  -7.0056666649024962E-002  0.11567693723418564        0.0000000000000000     
  -7.1867096238761127E-002  0.12261654555553782        0.0000000000000000     
  -7.3581768263083450E-002  0.12968582572436896        0.0000000000000000     
  -7.5200682721991957E-002  0.13688477774067909        0.0000000000000000     
  -7.4290607042743151E-002  0.10946509459265566        0.0000000000000000     
  -7.6346120334410086E-002  0.11625118736636698        0.0000000000000000     
  -7.8296796810274696E-002  0.12316598632408830        0.0000000000000000     
  -8.0142636470336953E-002  0.13020949146581962        0.0000000000000000     
  -8.1883639314596884E-002  0.13738170279156089        0.0000000000000000     
  -8.0620617566550992E-002  0.11010723330871582        0.0000000000000000     
  -8.2824539339155026E-002  0.11686495572700629        0.0000000000000000     
  -8.4915403972331618E-002  0.12375194017849561        0.0000000000000000     
  -8.6893211466080741E-002  0.13076818666318377        0.0000000000000000     
  -8.8757961820402465E-002  0.13791369518107069        0.0000000000000000     
  -8.7140511065298520E-002  0.11079341690849290        0.0000000000000000     
  -8.9491923663259754E-002  0.11751824231610362        0.0000000000000000     
  -9.1722917724931866E-002  0.12437440711875980        0.0000000000000000     
  -9.3833493250314842E-002  0.13136191131646144        0.0000000000000000     
  -9.5823650239408670E-002  0.13848075490920853        0.0000000000000000     
  -6.8709092042587627E-002  0.13642292002842529        0.0000000000000000     
  -7.0129181087357176E-002  0.14376914078747793        0.0000000000000000     
  -7.1478297213392814E-002  0.15122418286184319        0.0000000000000000     
  -7.2756440420694596E-002  0.15878804625152099        0.0000000000000000     
  -7.3963610709262467E-002  0.16646073095651143        0.0000000000000000     
  -7.5200682721991957E-002  0.13688477774067909        0.0000000000000000     
  -7.6735883296910626E-002  0.14420355421169520        0.0000000000000000     
  -7.8199413669263473E-002  0.15163230774464423        0.0000000000000000     
  -7.9591273839050500E-002  0.15917103833952614        0.0000000000000000     
  -8.0911463806271691E-002  0.16681974599634100        0.0000000000000000     
  -8.1883639314596884E-002  0.13738170279156089        0.0000000000000000     
  -8.3535319592723950E-002  0.14467367440103279        0.0000000000000000     
  -8.5113191554387638E-002  0.15207646039395595        0.0000000000000000     
  -8.6617255199587975E-002  0.15959006077033033        0.0000000000000000     
  -8.8047510528324921E-002  0.16721447553015592        0.0000000000000000     
  -8.8757961820402465E-002  0.13791369518107069        0.0000000000000000     
  -9.0527489974797176E-002  0.14517950135549079        0.0000000000000000     
  -9.2219630868765376E-002  0.15255664080977838        0.0000000000000000     
  -9.3834384502307050E-002  0.16004511354393353        0.0000000000000000     
  -9.5371750875422184E-002  0.16764491955795616        0.0000000000000000     
  -9.5823650239408670E-002  0.13848075490920853        0.0000000000000000     
  -9.7712394443130304E-002  0.14572103507506917        0.0000000000000000     
  -9.9518731612396633E-002  0.15307284899211160        0.0000000000000000     
 -0.10124266174720768       0.16053619666033578        0.0000000000000000     
 -0.10288418484756347       0.16811107807974168        0.0000000000000000     
  -7.3963610709262467E-002  0.16646073095651143        0.0000000000000000     
  -7.5098423258961794E-002  0.17423358733344352        0.0000000000000000     
  -7.6159493249657845E-002  0.18209796573894627        0.0000000000000000     
  -7.7146820681350620E-002  0.19005386617301986        0.0000000000000000     
  -7.8060405554040146E-002  0.19810128863566415        0.0000000000000000     
  -8.0911463806271691E-002  0.16681974599634100        0.0000000000000000     
  -8.2156399119624135E-002  0.17456928311047043        0.0000000000000000     
  -8.3322495327804877E-002  0.18241050207729592        0.0000000000000000     
  -8.4409752430813972E-002  0.19034340289681753        0.0000000000000000     
  -8.5418170428651338E-002  0.19836798556903523        0.0000000000000000     
  -8.8047510528324921E-002  0.16721447553015592        0.0000000000000000     
  -8.9399343296326261E-002  0.17494002989020846        0.0000000000000000     
  -9.0668139259319755E-002  0.18275704906726367        0.0000000000000000     
  -9.1853898417305388E-002  0.19066553306132150        0.0000000000000000     
  -9.2956620770283160E-002  0.19866548187238200        0.0000000000000000     
  -9.5371750875422184E-002  0.16764491955795616        0.0000000000000000     
  -9.6827255789068173E-002  0.17534582767265769        0.0000000000000000     
  -9.8196425044202409E-002  0.18313760670884963        0.0000000000000000     
  -9.9479258640824894E-002  0.19102025666653191        0.0000000000000000     
 -0.10067575657893561       0.19899377754570452        0.0000000000000000     
 -0.10288418484756347       0.16811107807974168        0.0000000000000000     
 -0.10444013659784988       0.17578667645781809        0.0000000000000000     
 -0.10590735268245290       0.18355217500205373        0.0000000000000000     
 -0.10728583310137249       0.19140757371244863        0.0000000000000000     
 -0.10857557785460867       0.19935287258900275        0.0000000000000000     
  -7.8060405554040146E-002  0.19810128863566415        0.0000000000000000     
  -7.8900235917005179E-002  0.20623164772491553        0.0000000000000000     
  -7.9666299819524486E-002  0.21443635803881045        0.0000000000000000     
  -8.0358597261598108E-002  0.22271541957734881        0.0000000000000000     
  -8.0977128243226018E-002  0.23106883234053066        0.0000000000000000     
  -8.5418170428651338E-002  0.19836798556903523        0.0000000000000000     
  -8.6350993052304745E-002  0.20647513535468418        0.0000000000000000     
  -8.7211464032761865E-002  0.21465573751449937        0.0000000000000000     
  -8.7999583370022685E-002  0.22290979204848091        0.0000000000000000     
  -8.8715351064087247E-002  0.23123729895662876        0.0000000000000000     
  -9.2956620770283160E-002  0.19866548187238200        0.0000000000000000     
  -9.3981758578572619E-002  0.20674835600211741        0.0000000000000000     
  -9.4934764102493296E-002  0.21490561595219992        0.0000000000000000     
  -9.5815637342045165E-002  0.22313726172262960        0.0000000000000000     
  -9.6624378297228281E-002  0.23144329331340643        0.0000000000000000     
 -0.10067575657893561       0.19899377754570452        0.0000000000000000     
 -0.10179253249580882       0.20705130966721530        0.0000000000000000     
 -0.10283620002871881       0.21518599335191210        0.0000000000000000     
 -0.10380675917766556       0.22339782859979490        0.0000000000000000     
 -0.10470420994264908       0.23168681541086367        0.0000000000000000     
 -0.10857557785460867       0.19935287258900275        0.0000000000000000     
 -0.10978331480401332       0.20738399634997792        0.0000000000000000     
 -0.11091577181143839       0.21549686971363596        0.0000000000000000     
 -0.11197294887688383       0.22369149267997679        0.0000000000000000     
 -0.11295484600034968       0.23196786524900048        0.0000000000000000     
  -8.0977128243226018E-002  0.23106883234053066        0.0000000000000000     
  -8.1511747966717896E-002  0.23951783070002519        0.0000000000000000     
  -8.1952311634383421E-002  0.24808364902750157        0.0000000000000000     
  -8.2298819246222593E-002  0.25676628732295986        0.0000000000000000     
  -8.2551270802235399E-002  0.26556574558639989        0.0000000000000000     
  -8.8715351064087247E-002  0.23123729895662876        0.0000000000000000     
  -8.9344610923474191E-002  0.23966439089000213        0.0000000000000000     
  -8.9873206756702184E-002  0.24821720049966009        0.0000000000000000     
  -9.0301138563771227E-002  0.25689572778560277        0.0000000000000000     
  -9.0628406344681348E-002  0.26569997274783003        0.0000000000000000     
  -9.6624378297228281E-002  0.23144329331340643        0.0000000000000000     
  -9.7351874326539398E-002  0.23985069992229621        0.0000000000000000     
  -9.7989012788475410E-002  0.24838647074706477        0.0000000000000000     
  -9.8535793683036263E-002  0.25705060578771211        0.0000000000000000     
  -9.8992217010221970E-002  0.26584310504423836        0.0000000000000000     
 -0.10470420994264908       0.23168681541086367        0.0000000000000000     
 -0.10553353817591353       0.24007675779690757        0.0000000000000000     
 -0.10629972972970306       0.24859145976971567        0.0000000000000000     
 -0.10700278460401763       0.25723092132928815        0.0000000000000000     
 -0.10764270279885733       0.26599514247562478        0.0000000000000000     
 -0.11295484600034968       0.23196786524900048        0.0000000000000000     
 -0.11388960247159655       0.24034256451383615        0.0000000000000000     
 -0.11480535758038513       0.24883216756761287        0.0000000000000000     
 -0.11570211132671539       0.25743667441033069        0.0000000000000000     
 -0.11657986371058734       0.26615608504198962        0.0000000000000000     
  -8.2551270802235399E-002  0.26556574558639989        0.0000000000000000     
  -8.2748499280948726E-002  0.27450836583995514        0.0000000000000000     
  -8.2929337660889432E-002  0.28362049010575879        0.0000000000000000     
  -8.3093785942057533E-002  0.29290211838381081        0.0000000000000000     
  -8.3241844124453013E-002  0.30235325067411112        0.0000000000000000     
  -9.0628406344681348E-002  0.26569997274783003        0.0000000000000000     
  -9.0885302292427889E-002  0.27469280350511288        0.0000000000000000     
  -9.1102118600006277E-002  0.28393708817622210        0.0000000000000000     
  -9.1278855267416512E-002  0.29343282676115789        0.0000000000000000     
  -9.1415512294658580E-002  0.30318001925992011        0.0000000000000000     
  -9.8992217010221970E-002  0.26584310504423836        0.0000000000000000     
  -9.9369308551158511E-002  0.27486206997065471        0.0000000000000000     
  -9.9678094086971744E-002  0.28420560202097289        0.0000000000000000     
  -9.9918573617661710E-002  0.29387370119519285        0.0000000000000000     
 -0.10009074714322838       0.30386636749331442        0.0000000000000000     
 -0.10764270279885733       0.26599514247562478        0.0000000000000000     
 -0.10820051805714057       0.27501616523658079        0.0000000000000000     
 -0.10865726412178581       0.28442603164001107        0.0000000000000000     
 -0.10901294099279307       0.29422474168591545        0.0000000000000000     
 -0.10926754867016242       0.30441229537429410        0.0000000000000000     
 -0.11657986371058734       0.26615608504198962        0.0000000000000000     
 -0.11737893081037404       0.27515508930289101        0.0000000000000000     
 -0.11803962870444848       0.28459837703333646        0.0000000000000000     
 -0.11856195739281070       0.29448594823332580        0.0000000000000000     
 -0.11894591687546069       0.30481780290285920        0.0000000000000000     
 </DataArray>
 <DataArray  type="Float64" Name="stress" NumberOfComponents="3" format="ascii">
   6333663179.5016718        126999624.58596373        34162442.256551012     
   6009620491.6949053        58569527.788541555        23863693.141193196     
   5689265752.2978354        2432592.3567762375        14900751.360468457     
   5372598961.3104744       -41411181.709314585        7273616.9143652674     
   5059620118.7328053       -72961794.409745455        982289.80288490758     
   5964926122.4189148        113001341.95956850        190858101.30198106     
   5652201736.2087975        58818259.798216105        180550996.87375602     
   5341372794.6408157        10953326.444030762        174326698.34615511     
   5032439297.7150068       -30593458.102945089        172185205.71917260     
   4725401245.4313440       -65822093.842744827        174126518.99281675     
   5582935254.2615318        95026916.010778904        352773050.68248194     
   5289377736.9794712        57445418.684915543        340366336.54591340     
   4995923160.5720177        20207057.607753754        334789426.87597483     
   4702571525.0391893       -16688167.220681190        336042321.67265010     
   4409322830.3809662       -53240255.800415993        344125020.93595153     
   5187690575.0295076        73076346.739603758        519907290.39805144     
   4921148494.0069399        54451004.448658228        503309712.15767819     
   4652916850.0914431        30193785.847945929        496288936.94992959     
   4382995643.2830124        304690.93746519089        498844964.77479953     
   4111384873.5816612       -35216280.282760382        510977795.63229334     
   4779192084.7228470        47149634.146034241        692260820.44868469     
   4547514007.2912006        49835017.089431763        669381123.70904005     
   4312353863.1990776        40913511.164591789        658825228.56802034     
   4073711652.4464865        20385116.371519566        660593135.02562249     
   3831587375.0334215       -11750167.289791584        674684843.08184004     
   5059620118.7328053       -72961794.409745455        982289.80288490758     
   4950028436.5218229       -40508921.367117882       -7525687.9585543331     
   4838718479.0657930       -13783632.474669456       -7936759.4153449787     
   4725690246.3647223        7214072.2676458359       -250924.56750176204     
   4610943738.4185877        22484192.859762669        15531816.584978521     
   4725401245.4313440       -65822093.842744827        174126518.99281675     
   4632209162.5797977       -35724107.023103476        168793137.03020939     
   4537894930.7321272       -9366616.8572075367        168521360.47552454     
   4442458549.8883276        13250376.654928684        173311189.32875419     
   4345900020.0483942        32126873.513297081        183162623.58990702     
   4409322830.3809662       -53240255.800415993        344125020.93595153     
   4323858058.6125088       -28098841.686643124        342661715.39591575     
   4237867264.0968494       -4710836.7302296162        343224714.36708510     
   4151350446.8339877        16923759.068847895        345814017.84944582     
   4064307606.8239069        36804945.710547209        350429625.84300834     
   4111384873.5816612       -35216280.282760382        510977795.63229334     
   4024975124.6199498       -17633125.357769728        514080047.13857085     
   3938635479.1599555        183707.90627074242        516173302.25933009     
   3852365937.2016768        18234219.509369135        517257560.99456525     
   3766166498.7451153        36518409.451517344        517332823.34428364     
   3831587375.0334215       -11750167.289791584        674684843.08184004     
   3735560360.6021128       -4326958.0364949703        683048132.25817513     
   3640199575.9214492        5317017.0522818565        687367124.15226603     
   3545505020.9914174        17181757.976501226        687641818.76411569     
   3451476695.8120289        31267264.736185789        683872216.09372830     
   4610943738.4185877        22484192.859762669        15531816.584978521     
   4383068851.6142693        3366728.1382400990        12239917.265832733     
   4156616148.8531184       -11010123.106054306        10850815.879313964     
   3931585630.1351342       -20646360.873138428        11364512.425422212     
   3707977295.4603238       -25541985.162955284        13781006.904149791     
   4345900020.0483942        32126873.513297081        183162623.58990702     
   4125668203.0525002        13721673.327921629        176448415.70074946     
   3906440044.3514318       -1337999.2080223560        173546325.60787001     
   3688215543.9452009       -13052144.094525576        174456353.31127059     
   3470994701.8337908       -21420761.331605673        179178498.81094930     
   4064307606.8239069        36804945.710547209        350429625.84300834     
   3857174059.2468643        20748569.944430113        339804829.34411043     
   3650625644.2163200        6642635.9999628067        334901470.50515103     
   3444662361.7322683       -5512856.1228592396        335719549.32612038     
   3239284211.7947130       -15717906.424019933        342259065.80702466     
   3766166498.7451153        36518409.451517344        517332823.34428364     
   3577586420.1973701        24447417.987787724        502309158.19592273     
   3389172948.4477844        12931782.517930508        494916250.57114989     
   3200926083.4963584        1971503.0419378281        495154100.46996522     
   3012845825.3430963       -8433420.4401822090        503022707.89237589     
   3451476695.8120289        31267264.736185789        683872216.09372830     
   3286905285.9040160        24818217.457987309        663961402.25618064     
   3122081957.0458269        17529440.345870018        653590665.80587912     
   2957006709.2374611        9400933.3998278379        652760006.74281216     
   2791679542.4789219        432696.61987495422        661469425.06698763     
   3707977295.4603238       -25541985.162955284        13781006.904149791     
   3550981335.7950230       -11004782.389060259        6265597.0016645137     
   3392199970.9179215       -2418930.3211758137        4258740.6438698852     
   3231633200.8290043        215571.04065823555        7760437.8307646243     
   3069281025.5282884       -3101278.3035011292        16770688.562329516     
   3470994701.8337908       -21420761.331605673        179178498.81094930     
   3326220996.9028516       -8315105.9037089348        171138914.23370898     
   3180272291.8160815        873882.33806228638        167322867.60267654     
   3033148586.5734706        6146203.3937015533        167730358.91785389     
   2884849881.1750221        7501857.2632290125        172361388.17922503     
   3239284211.7947130       -15717906.424019933        342259065.80702466     
   3103061288.4596114       -5145240.2837182283        334407445.78699112     
   2966273770.0246649        3545442.1904072762        329494348.11469930     
   2828921656.4898472        10354140.998304844        327519772.79013067     
   2691004947.8551669        15280856.140002489        328483719.81328839     
   3012845825.3430963       -8433420.4401822090        503022707.89237589     
   2881502210.4653282       -1495185.5290137529        496071191.66152769     
   2750204405.5436735        5595749.2358700037        490773182.17993253     
   2618952410.5781398        12839383.854489326        487128679.44758511     
   2487746225.5687118        20235718.326792598        485137683.46449208     
   2791679542.4789219        432696.61987495422        661469425.06698763     
   2661543762.9199762        2635058.3603733778        656130151.85729897     
   2532064198.3731165        7024803.4744862318        651159369.79837513     
   2403240848.8383527        13601931.962245822        646557078.89023185     
   2275073714.3156657        22366443.823612094        642323279.13284695     
   3069281025.5282884       -3101278.3035011292        16770688.562329516     
   2898686173.4641576       -9625261.0050249100        11811802.679461392     
   2729392552.7690263       -11811805.809880733        7292779.7628335580     
   2561400163.4428806       -9660912.7181084156        3213619.8124601045     
   2394709005.4857349       -3172581.7296917439       -425677.17168074689     
   2884849881.1750221        7501857.2632290125        172361388.17922503     
   2717017310.6087799        2449110.8935868740        165794077.70030716     
   2549998262.8210773        108107.11905956268        160572220.09998724     
   2383792737.8119369        478845.93974244595        156695815.37829208     
   2218400735.5813589        3561327.3556329012        154164863.53521791     
   2691004947.8551669        15280856.140002489        328483719.81328839     
   2528522058.5364170        12475566.027019382        319738991.38279396     
   2366364983.4057889        10756323.207771301        313245305.74328649     
   2204533722.4632907        10123127.682295799        309002662.89477611     
   2043028275.7089126        10575979.450556397        307011062.83725524     
   2487746225.5687118        20235718.326792598        485137683.46449208     
   2333200417.2470927        20454104.395392060        473646543.72693318     
   2178492714.5231686        20132842.456310153        465312036.69273257     
   2023623117.3969347        19271932.509516478        460134162.36190438     
   1868591625.8683972        17871374.555055737        458112920.73442197     
   2275073714.3156657        22366443.823612094        642323279.13284695     
   2131052386.7408061        26384725.998682857        627516734.73271883     
   1986381456.1732135        28237664.864635229        616772412.94833195     
   1841060922.6128731        27925260.421431899        610090313.77967417     
   1695090786.0598013        25447512.669124484        607470437.22674084     
   2394709005.4857349       -3172581.7296917439       -425677.17168074689     
   2252935197.9744143        7250951.7270278931       -7127179.5895055942     
   2107526091.4026117        5556821.6488188505       -11517224.214181613     
   1958481685.7703495       -8254971.9642560482       -13595811.045753641     
   1805801981.0776086       -34184429.112270236       -13362940.084179401     
   2218400735.5813589        3561327.3556329012        154164863.53521791     
   2080978603.0706530        12630166.619422913        143789475.45129898     
   1941157495.2090344        13702421.380159736        134762693.61925074     
   1798937411.9965084        6778091.6378872395        127084518.03904687     
   1654318353.4330792       -8142822.6073938608        120754948.71073289     
   2043028275.7089126        10575979.450556397        307011062.83725524     
   1907206813.7951992        17464823.200313568        294404166.74839908     
   1770222700.2401359        20478161.478905916        282183025.37014246     
   1632075935.0437398        19615994.286392748        270347638.70248413     
   1492766518.2059989        14878321.622736990        258898006.74541250     
   1868591625.8683972        17871374.555055737        458112920.73442197     
   1731619830.1480513        21754921.469687700        444716894.30179119     
   1594721706.4959266        25884041.945057929        430743771.03849858     
   1457897254.9120357        30258735.981197417        416193550.94453001     
   1321146475.3963706        34879003.578087032        401066234.01989460     
   1695090786.0598013        25447512.669124484        607470437.22674084     
   1554217652.1292121        25500461.427564442        594727658.11149347     
   1414654513.9764087        29920062.778619111        580444930.62431180     
   1276401371.6014028        38706316.722330451        564622254.76519454     
   1139458225.0041871        51859223.258683741        547259630.53414536     
   1805801981.0776086       -34184429.112270236       -13362940.084179401     
   1773769644.0366545       -16894842.330581069       -7872470.2257935666     
   1750004364.4962404        27951602.786287546       -41228658.871126875     
   1734506142.4564126        100354906.23842084       -113431506.02023058     
   1727274977.9171672        200315068.02582937       -224481011.67306367     
   1654318353.4330792       -8142822.6073938608        120754948.71073289     
   1530565685.7208641       -13914561.025539637        136285182.09275806     
   1411116999.0112438       -5339696.1017130613        125429817.73907003     
   1295972293.3042510        17581772.164220393        88188855.649664953     
   1185131568.5998662        54849843.772160292        24562295.824526180     
   1492766518.2059989        14878321.622736990        258898006.74541250     
   1312896550.5883057       -3273832.7655355334        279844414.40346414     
   1133367487.4752467       -20289638.805010676        286866285.09382582     
   954179328.86685431       -36169096.495603025        279963618.81647384     
   775332074.76309586       -50912205.837409735        259136415.57142809     
   1321146475.3963706        34879003.578087032        401066234.01989460     
   1120762238.6389675        15027342.449438095        422805226.70633620     
   916755829.88825047       -16898225.323623002        443080743.19311941     
   709127249.14422345       -60897699.741023749        461892783.48021394     
   497876496.40689695       -116971080.80277824        479241347.56763858     
   1139458225.0041871        51859223.258683741        547259630.53414536     
   954162749.87285900        40988964.619367182        565167619.00137556     
   761282026.25025165        4834544.3424706459        594073192.03694499     
   560816054.13638783       -56604037.571964324        633976349.64086902     
   352764833.53123957       -143326781.12399763        684877091.81313479     
   1727274977.9171672        200315068.02582937       -224481011.67306367     
   1456859818.6309009        184793233.38387579       -96835879.832267120     
   1154093998.7637115        61435863.472189665        59989412.200648434     
   818977518.31557584       -169757041.70930004        245994864.42569706     
   451510377.28653610       -508785482.16051489        461180476.84284163     
   1185131568.5998662        54849843.772160292        24562295.824526180     
   978096620.85985184        12214382.711273313        155838468.90887883     
   733101472.93605995       -156955078.96221641        312945481.39489096     
   450146124.82848620       -452658541.24831271        495883333.28258181     
   129230576.53711957       -874896004.14701796        704652024.57196546     
   775332074.76309586       -50912205.837409735        259136415.57142809     
   622107850.59662938       -123532139.70902789        387499167.02933663     
   425313886.64353418       -341384539.53608310        538343437.09846628     
   184950182.90378851       -704469405.31861389        711669225.77882636     
  -98983260.622568607       -1212786737.0565493        907476533.07039142     
   497876496.40689695       -116971080.80277824        479241347.56763858     
   388893507.84124798       -222446333.87698001        598146214.52910209     
   230731239.88612449       -491852518.24942911        736183279.31133699     
   23389692.541529655       -925189633.92015386        893352541.91435909     
  -233131134.19258586       -1522457680.8892059        1069654002.3381401     
   352764833.53123957       -143326781.12399763        684877091.81313479     
   278453592.59371328       -284528199.79253817        787779611.40817487     
   149353532.66384736       -608359015.10222197        906465008.03354204     
  -34535346.258350611       -1114819227.0530102        1040933281.6892158     
  -273213044.17289591       -1803908835.6449504        1191184432.3752320     
   4779192084.7228470        47149634.146034241        692260820.44868469     
   4547514007.2912006        49835017.089431763        669381123.70904005     
   4312353863.1990776        40913511.164591789        658825228.56802034     
   4073711652.4464865        20385116.371519566        660593135.02562249     
   3831587375.0334215       -11750167.289791584        674684843.08184004     
   4380819627.6760645        56833843.511720896        824061432.62909782     
   4174112685.5675020        49854578.093167305        800527438.48963773     
   3965299040.6665096        35852970.033204794        786108511.85284436     
   3754378692.9730992        14829019.331851959        780804652.71871603     
   3541351642.4872684       -13217274.010915995        784615861.08724725     
   3994476271.0931368        70126783.016563416        948461291.92793882     
   3803572652.6049194        50732525.725233793        925877591.56805944     
   3611937695.1923323        28900472.019340992        909200224.61488390     
   3419571398.8553700        4630621.8988728523        898429191.06841183     
   3226473763.5940404       -22077024.636159897        893564490.92865264     
   3620162014.9740591        87028452.660562038        1065460398.3452111     
   3435893908.4034591        52468859.985640526        1045431582.9442970     
   3252269826.7765331        20056017.122987509        1028100366.8541298     
   3069289770.0932865       -10210075.927411079        1013466750.0747164     
   2886953738.3537226       -38329419.165532470        1001530732.6060494     
   3257876859.3188367        107538852.44371545        1175058751.8809078     
   3071076452.9631166        55063580.874375820        1159189412.6183543     
   2886295435.4191256        9319605.3441499472        1142808938.5705919     
   2703533806.6868606       -29693074.146993518        1125917329.7376211     
   2522791566.7663298       -61974457.599027395        1108514586.1194415     
   3831587375.0334215       -11750167.289791584        674684843.08184004     
   3735560360.6021128       -4326958.0364949703        683048132.25817513     
   3640199575.9214492        5317017.0522818565        687367124.15226603     
   3545505020.9914174        17181757.976501226        687641818.76411569     
   3451476695.8120289        31267264.736185789        683872216.09372830     
   3541351642.4872684       -13217274.010915995        784615861.08724725     
   3438872554.2299690       -10159815.192296982        787245861.38365328     
   3337141507.3317814       -4608885.1766366959        789964506.11953807     
   3236158501.7927084        3435516.0360797644        792771795.29489839     
   3135923537.6127553        13973388.445846319        795667728.90974104     
   3226473763.5940404       -22077024.636159897        893564490.92865264     
   3129351006.4299426       -19842794.776471496        890556649.22168303     
   3033058102.2334342       -14842388.358152390        891770393.67591429     
   2937595051.0045218       -7075805.3811784983        897205724.29134524     
   2842961852.7431965        3456954.1544178724        906862641.06797385     
   2886953738.3537226       -38329419.165532470        1001530732.6060494     
   2806995717.2020354       -33375896.789006472        992980495.77226591     
   2727949360.6264081       -25383492.492272019        992784786.82139683     
   2649814668.6268544       -14352206.275288343        1000943605.7534519     
   2572591641.2033663       -282038.13809025288        1017456952.5684279     
   2522791566.7663298       -61974457.599027395        1108514586.1194415     
   2471806686.5462465       -50759121.229909062        1094517401.0353975     
   2421815282.5107031       -36232197.578988671        1093007685.5559866     
   2372817354.6597085       -18393686.646236897        1103985439.6812229     
   2324812902.9932566        2756411.5683176517        1127450663.4110987     
   3451476695.8120289        31267264.736185789        683872216.09372830     
   3286905285.9040160        24818217.457987309        663961402.25618064     
   3122081957.0458269        17529440.345870018        653590665.80587912     
   2957006709.2374611        9400933.3998278379        652760006.74281216     
   2791679542.4789219        432696.61987495422        661469425.06698763     
   3135923537.6127553        13973388.445846319        795667728.90974104     
   2994210257.0193915        12877002.912195563        782025761.54374778     
   2852282497.9112802        11065688.996044993        775191663.55303991     
   2710140260.2884102        8539446.6973656416        775165434.93761802     
   2567783544.1507816        5298276.0161657333        781947075.69748533     
   2842961852.7431965        3456954.1544178724        906862641.06797385     
   2716300392.8589129        5371337.7836505175        899533200.68151951     
   2589461894.8952918        6695594.4817752838        896279421.65839922     
   2462446358.8523393        7429724.2487875223        897101303.99861562     
   2335253784.7300549        7573727.0846875906        901998847.70217335     
   2572591641.2033663       -282038.13809025288        1017456952.5684279     
   2453175693.4225798        2301222.0723575354        1016483719.6695057     
   2333620147.9978766        4419156.8030918837        1016853940.1219637     
   2213925004.9292617        6071766.0541108847        1018567613.9258089     
   2094090264.2167323        7259049.8254238367        1021624741.0810411     
   2324812902.9932566        2756411.5683176517        1127450663.4110987     
   2204836158.7103825        3666655.7782871723        1132877318.5077019     
   2084757257.2190216        4236375.9599581957        1136915218.9437306     
   1964576198.5191684        4465572.1133307219        1139564364.7191973     
   1844292982.6108239        4354244.2383910418        1140824755.8340919     
   2791679542.4789219        432696.61987495422        661469425.06698763     
   2661543762.9199762        2635058.3603733778        656130151.85729897     
   2532064198.3731165        7024803.4744862318        651159369.79837513     
   2403240848.8383527        13601931.962245822        646557078.89023185     
   2275073714.3156657        22366443.823612094        642323279.13284695     
   2567783544.1507816        5298276.0161657333        781947075.69748533     
   2440535213.5187678        7011026.3567717075        775054529.40310550     
   2313779211.0960946        10364870.728508830        770127593.76325858     
   2187515536.8827519        15359809.131353498        767166268.77795315     
   2061744190.8787439        21995841.565320730        766170554.44718492     
   2335253784.7300549        7573727.0846875906        901998847.70217335     
   2215456101.6071687        10165825.600074530        893361827.05321920     
   2095986859.8908641        13852728.804062009        888287536.56257486     
   1976846059.5811458        18634436.696672916        886775976.23023582     
   1858033700.6780105        24510949.277882457        888827146.05619788     
   2094090264.2167323        7259049.8254238367        1021624741.0810411     
   1986306427.1851680        12099456.090245843        1011052044.8076421     
   1878687144.7574315        17488377.701161146        1005639198.1963176     
   1771232416.9335232        23425814.658170700        1005386201.2470622     
   1663942243.7134523        29911766.961305141        1010293053.9598808     
   1844292982.6108239        4354244.2383910418        1140824755.8340919     
   1753086190.2527709        12811917.827301741        1128125182.6663694     
   1661880065.6957929        21271817.419802070        1122182578.6644831     
   1570674608.9398952        29733943.015890956        1122996943.8284407     
   1479469819.9850702        38198294.615567267        1130568278.1582317     
   2275073714.3156657        22366443.823612094        642323279.13284695     
   2131052386.7408061        26384725.998682857        627516734.73271883     
   1986381456.1732135        28237664.864635229        616772412.94833195     
   1841060922.6128731        27925260.421431899        610090313.77967417     
   1695090786.0598013        25447512.669124484        607470437.22674084     
   2061744190.8787439        21995841.565320730        766170554.44718492     
   1927912183.6355062        26289805.861719251        753918763.27153397     
   1793638043.9417362        29109995.323016524        745379069.24570560     
   1658921771.7974346        30456409.949211299        740551472.36969841     
   1523763367.2026083        30329049.740323901        739435972.64351511     
   1858033700.6780105        24510949.277882457        888827146.05619788     
   1733390655.2923563        28780488.153384089        879372157.07092345     
   1608512947.9983890        32267820.667830408        873279139.76956952     
   1483400578.7961059        34972946.821223676        870548094.15212715     
   1358053547.6855011        36895866.613545656        871179020.21860147     
   1663942243.7134523        29911766.961305141        1010293053.9598808     
   1547487801.7113652        33856772.873708308        1003876916.1309066     
   1431006168.3431790        37711140.899095237        1000472624.5199381     
   1314497343.6088846        41474871.037464917        1000080179.1269735     
   1197961327.5084863        45147963.288810194        1002699579.9520180     
   1479469819.9850702        38198294.615567267        1130568278.1582317     
   1370203622.8925347        41518660.022677362        1127433040.4514711     
   1261117704.9761002        45439956.016796172        1126959523.4967976     
   1152212066.2357745        49962182.597941995        1129147727.2942297     
   1043486706.6715436        55085339.766069770        1133997651.8437552     
   1695090786.0598013        25447512.669124484        607470437.22674084     
   1554217652.1292121        25500461.427564442        594727658.11149347     
   1414654513.9764087        29920062.778619111        580444930.62431180     
   1276401371.6014028        38706316.722330451        564622254.76519454     
   1139458225.0041871        51859223.258683741        547259630.53414536     
   1523763367.2026083        30329049.740323901        739435972.64351511     
   1380592127.2159221        27729209.683208287        730617184.68366158     
   1237817769.6375785        26452310.987215161        722182753.24080503     
   1095440294.4675608        26498353.652326524        714132678.31493616     
   953459701.70587885        27867337.678540766        706466959.90605855     
   1358053547.6855011        36895866.613545656        871179020.21860147     
   1218082215.6110876        33292641.931410432        865218924.48311508     
   1077594652.5755503        27968647.378850996        861567490.15354657     
   936590858.57888389        20923882.955858469        860224717.22989202     
   795070833.62108517        12158348.662438959        861190605.71215367     
   1197961327.5084863        45147963.288810194        1002699579.9520180     
   1066687917.3146945        42190758.172134101        998532877.50986266     
   933985162.79032815        34469071.953532338        998599141.36253536     
   799853063.93536448        21982904.632941186        1002898371.5100604     
   664291620.74981523        4732256.2103942633        1011430567.9524250     
   1043486706.6715436        55085339.766069770        1133997651.8437552     
   926409232.32674718        54423558.405398190        1130559043.7638800     
   806989300.28191102        45953584.711255193        1133277706.8677750     
   685226910.53701317        29675418.683575958        1142153641.1554348     
   561122063.09206891        5589060.3224199414        1157186846.6268642     
   1139458225.0041871        51859223.258683741        547259630.53414536     
   954162749.87285900        40988964.619367182        565167619.00137556     
   761282026.25025165        4834544.3424706459        594073192.03694499     
   560816054.13638783       -56604037.571964324        633976349.64086902     
   352764833.53123957       -143326781.12399763        684877091.81313479     
   953459701.70587885        27867337.678540766        706466959.90605855     
   793941472.15951419        11415871.866940230        724112365.07962620     
   625745596.15925992       -33961082.124297708        751876807.02072036     
   448872073.70514464       -108263524.29507488        789760285.72936666     
   263320904.79713804       -211491454.64547920        837762801.20555234     
   795070833.62108517        12158348.662438959        861190605.71215367     
   658819713.08597004       -10627365.293559909        877298963.30233347     
   512798548.13436496       -65979893.971190363        902647809.85924697     
   357007338.76627308       -153899237.37043402        937237145.38290763     
   191446084.98168772       -274385395.49133205        981066969.87329924     
   664291620.74981523        4732256.2103942633        1011430567.9524250     
   548797472.65222085       -25140746.862128168        1024727413.6695020     
   422440882.17553484       -91221891.198293537        1046386200.5525280     
   285221849.31974995       -193511176.79812860        1076406928.6014826     
   137140374.08486927       -332008603.66159868        1114789597.8163753     
   561122063.09206891        5589060.3224199414        1157186846.6268642     
   463874750.85828412       -32124272.838729441        1166397716.1811438     
   354672598.28279430       -109687073.80555655        1183091979.1005576     
   233515605.36560047       -227099342.57806116        1207269635.3851075     
   100403772.10669026       -384361079.15628684        1238930685.0347917     
   352764833.53123957       -143326781.12399763        684877091.81313479     
   278453592.59371328       -284528199.79253817        787779611.40817487     
   149353532.66384736       -608359015.10222197        906465008.03354204     
  -34535346.258350611       -1114819227.0530102        1040933281.6892158     
  -273213044.17289591       -1803908835.6449504        1191184432.3752320     
   263320904.79713804       -211491454.64547920        837762801.20555234     
   224336579.87421614       -351038014.86207342        886649515.37920642     
   141092308.17764002       -638117730.99083173        946546012.89100814     
   13588089.707434475       -1072730603.0316908        1017452293.7409613     
  -158176075.53640753       -1654876630.9846935        1099368357.9290826     
   191446084.98168772       -274385395.49133205        981066969.87329924     
   174151265.52429166       -416368320.42071688        988221562.88071942     
   123125371.51194897       -670788160.53325999        1001612845.5341218     
   38368402.944676280       -1037644915.8289244        1021240817.8335080     
  -80119640.177555740       -1516938586.3077412        1047105479.7788554     
   137140374.08486927       -332008603.66159868        1114789597.8163753     
   127897649.54394501       -480519116.46850365        1092495753.9127100     
   95452722.666778862       -706370303.72953844        1071665505.9628526     
   39805593.453365147       -1009562165.4447223        1052298853.9668083     
  -39043738.096291006       -1390094701.6140647        1034395797.9245547     
   100403772.10669026       -384361079.15628684        1238930685.0347917     
   85575731.933181822       -543490403.00537539        1199472088.4751859     
   58074361.642114311       -744864160.57967198        1156703994.1772199     
   17899661.233508945       -988482351.87909210        1110626402.1408787     
  -34948369.292645991       -1274344976.9036608        1061239312.3661826     
   3257876859.3188367        107538852.44371545        1175058751.8809078     
   3071076452.9631166        55063580.874375820        1159189412.6183543     
   2886295435.4191256        9319605.3441499472        1142808938.5705919     
   2703533806.6868606       -29693074.146993518        1125917329.7376211     
   2522791566.7663298       -61974457.599027395        1108514586.1194415     
   2914088197.9996166        65312144.507676601        1219362910.6653011     
   2731221989.4976263        52343939.973350406        1225238987.0669818     
   2545966027.7844543        31409891.401754260        1225535488.8255868     
   2358320312.8601055        2509998.7929054499        1220252415.9411063     
   2168284844.7245746       -34355737.853218555        1209389768.4135494     
   2640287198.0885439        44081734.994085193        1280980148.8395500     
   2446873930.7035046        66276220.473727345        1303457641.8787429     
   2246661768.0843792        65807721.839748144        1315287120.4169812     
   2039650710.2311623        42676239.092136264        1316468584.4542692     
   1825840757.1438613       -3118227.7690939903        1307002033.9906054     
   2436473859.5856204        43847623.902935266        1359910466.4036601     
   2218032276.5807533        96860422.375517726        1393845377.0536325     
   1988382656.3188961        112513096.65811765        1412063833.3447833     
   1747524998.8000374        90805646.750718415        1414565835.2771106     
   1495459304.0241852        31738072.653338671        1401351382.8506160     
   2302648182.4908381        64609811.234231114        1456153863.3576252     
   2044697027.1293733        144096545.67871958        1496402192.5916560     
   1771128692.4880044        171526015.85686046        1515865627.6089890     
   1481943178.5667262        146898221.76864290        1514544168.4096277     
   1177140485.3655481        70213163.414086163        1492437814.9935708     
   2522791566.7663298       -61974457.599027395        1108514586.1194415     
   2471806686.5462465       -50759121.229909062        1094517401.0353975     
   2421815282.5107031       -36232197.578988671        1093007685.5559866     
   2372817354.6597085       -18393686.646236897        1103985439.6812229     
   2324812902.9932566        2756411.5683176517        1127450663.4110987     
   2168284844.7245746       -34355737.853218555        1209389768.4135494     
   2145163275.3891685       -23291227.011559129        1199010061.8019333     
   2123017884.2194977       -8972788.9507899284        1197611007.5417645     
   2101848671.2155590        8599576.3290915489        1205192605.6330414     
   2081655636.3773525        29425868.828084946        1221754856.0757704     
   1825840757.1438613       -3118227.7690939903        1307002033.9906054     
   1820563020.8268709        4789614.1852283478        1300219624.8294730     
   1816244164.6568031        15893723.295962095        1298911050.7665946     
   1812884188.6336584        30194099.563104510        1303076311.8019743     
   1810483092.7574384        47690742.986659050        1312715407.9356101     
   1495459304.0241852        31738072.653338671        1401351382.8506160     
   1498005922.8593476        33483402.360449672        1398146090.1180162     
   1501494123.8226254        38367339.161275864        1396907815.2304847     
   1505923906.9140110        46389883.055791736        1397636558.1880157     
   1511295272.1335084        57551034.044021726        1400332318.9906130     
   1177140485.3655481        70213163.414086163        1492437814.9935708     
   1177491981.4865987        62790137.514096677        1492789457.6675665     
   1178767761.7169542        58448058.645124078        1491601300.9334347     
   1180967826.0566077        57186926.807147980        1488873344.7911716     
   1184092174.5055673        59006742.000187814        1484605589.2407851     
   2324812902.9932566        2756411.5683176517        1127450663.4110987     
   2204836158.7103825        3666655.7782871723        1132877318.5077019     
   2084757257.2190216        4236375.9599581957        1136915218.9437306     
   1964576198.5191684        4465572.1133307219        1139564364.7191973     
   1844292982.6108239        4354244.2383910418        1140824755.8340919     
   2081655636.3773525        29425868.828084946        1221754856.0757704     
   1960052075.5895956        21768960.833980203        1219244846.2394295     
   1838751429.3559380        15121768.020203471        1218849228.8762279     
   1717753697.6763911        9484290.3867927790        1220568003.9861624     
   1597058880.5509520        4856527.9337459207        1224401171.5692341     
   1810483092.7574384        47690742.986659050        1312715407.9356101     
   1697261707.2753801        34469380.331623912        1302741316.8893583     
   1584748308.1100278        23607972.065604568        1298384765.4499502     
   1472942895.2613766        15106518.188590527        1299645753.6173842     
   1361845468.7294319        8965018.7005997896        1306524281.3916698     
   1511295272.1335084        57551034.044021726        1400332318.9906130     
   1416465053.7677481        41767914.271252871        1383366730.4574814     
   1322747893.4812863        29694988.096154332        1375521828.6649003     
   1230143791.2741251        21332255.518720388        1376797613.6128664     
   1138652747.1462662        16679716.538959861        1387194085.3013918     
   1184092174.5055673        59006742.000187814        1484605589.2407851     
   1117662115.0666912        43664562.652851105        1461121086.9438007     
   1052750185.4697125        33382816.111845255        1450260418.5210762     
   989356385.71463263        28161502.377165675        1452023583.9726093     
   927480715.80145693        28000621.448833466        1466410583.2984002     
   1844292982.6108239        4354244.2383910418        1140824755.8340919     
   1753086190.2527709        12811917.827301741        1128125182.6663694     
   1661880065.6957929        21271817.419802070        1122182578.6644831     
   1570674608.9398952        29733943.015890956        1122996943.8284407     
   1479469819.9850702        38198294.615567267        1130568278.1582317     
   1597058880.5509520        4856527.9337459207        1224401171.5692341     
   1521670261.8367393        14038690.438431859        1215059749.5991178     
   1446122507.9757009        22690402.453687191        1210961994.5932419     
   1370415618.9678340        30811663.979521990        1212107906.5516138     
   1294549594.8131344        38402475.015911222        1218497485.4742310     
   1361845468.7294319        8965018.7005997896        1306524281.3916698     
   1297951303.0830781        17574553.948264718        1300354573.8465998     
   1233738199.3419881        25120962.213482857        1297915231.0641806     
   1169206157.5061648        31604243.496253908        1299206253.0444076     
   1104355177.5756078        37024397.796577990        1304227639.7872896     
   1138652747.1462662        16679716.538959861        1387194085.3013918     
   1081929313.9917831        23419508.356814981        1384009655.4088104     
   1024727139.7946591        28563496.699202001        1383042288.0772848     
   967046224.55489397        32111681.566116929        1384291983.3068137     
   908886568.27248931        34064062.957567126        1387758741.0973985     
   927480715.80145693        28000621.448833466        1466410583.2984002     
   873604294.56285548        31573553.664068729        1466024994.2857542     
   819089329.33371174        33018005.910832256        1466343165.6325669     
   763935820.11401892        32333978.189097941        1467365097.3388412     
   708143766.90378058        29521470.498872578        1469090789.4045744     
   1479469819.9850702        38198294.615567267        1130568278.1582317     
   1370203622.8925347        41518660.022677362        1127433040.4514711     
   1261117704.9761002        45439956.016796172        1126959523.4967976     
   1152212066.2357745        49962182.597941995        1129147727.2942297     
   1043486706.6715436        55085339.766069770        1133997651.8437552     
   1294549594.8131344        38402475.015911222        1218497485.4742310     
   1192867710.1542945        38420513.088284910        1214416780.6428292     
   1091458357.4689908        39346991.072449088        1214270517.0855756     
   990321536.75724041        41181908.968459785        1218058694.8024659     
   889457248.01904213        43925266.776308715        1225781313.7935076     
   1104355177.5756078        37024397.796577990        1304227639.7872896     
   1013893949.6991644        34831011.838797271        1299309096.0949376     
   923797506.59371471        33853575.117665321        1299597714.1987805     
   834065848.25925493        34092087.633168936        1305093494.0988221     
   744698974.69579268        35546549.385323226        1315796435.7950556     
   908886568.27248931        34064062.957567126        1387758741.0973985     
   833282341.52716148        30750156.274268568        1382109986.8077843     
   758135152.35026240        28959708.152405351        1382941114.8364122     
   683445000.74180770        28692718.592019469        1390252125.1832891     
   609211886.70179534        29949187.593110085        1404043017.8484082     
   708143766.90378058        29521470.498872578        1469090789.4045744     
   651032885.63827288        26177946.394660830        1462819452.7813807     
   594471294.73864841        24665390.176723510        1464300718.9984808     
   538458994.20490122        24983801.845043927        1473534588.0558727     
   482995984.03704709        27133181.399671659        1490521059.9535561     
   1043486706.6715436        55085339.766069770        1133997651.8437552     
   926409232.32674718        54423558.405398190        1130559043.7638800     
   806989300.28191102        45953584.711255193        1133277706.8677750     
   685226910.53701317        29675418.683575958        1142153641.1554348     
   561122063.09206891        5589060.3224199414        1157186846.6268642     
   889457248.01904213        43925266.776308715        1225781313.7935076     
   788106728.04632413        43339983.320915133        1222720797.6397088     
   684385145.18165994        34851156.892383784        1225583014.1486721     
   578292499.42505515        18458787.490717709        1234367963.3204041     
   469828790.77651751       -5837124.8840746284        1249075645.1548996     
   744698974.69579268        35546549.385323226        1315796435.7950556     
   658405299.03512967        34836730.817177325        1313080638.8434620     
   569711955.29064023        26128018.636281818        1316053036.0336323     
   478618943.46232677        9420412.8426350355        1324713627.3655655     
   385126263.55018020       -15286086.563784957        1339062412.8392527     
   609211886.70179534        29949187.593110085        1404043017.8484082     
   537304945.29318488        28913800.894226074        1401638567.3751519     
   462969730.60886055        19784169.942971811        1404687772.5226533     
   386206242.64881432        2560294.7393104583        1413190633.2909100     
   307014481.41305637       -22757824.716731265        1427147149.6799269     
   482995984.03704709        27133181.399671659        1490521059.9535561     
   424805666.82047611        25571193.552042276        1488394583.2347627     
   364158471.13630432        15819610.812407225        1491487223.6157284     
   301054396.98453295       -2121566.8192235231        1499798981.0964413     
   235493444.36514020       -28252339.342928588        1513329855.6769104     
   561122063.09206891        5589060.3224199414        1157186846.6268642     
   463874750.85828412       -32124272.838729441        1166397716.1811438     
   354672598.28279430       -109687073.80555655        1183091979.1005576     
   233515605.36560047       -227099342.57806116        1207269635.3851075     
   100403772.10669026       -384361079.15628684        1238930685.0347917     
   469828790.77651751       -5837124.8840746284        1249075645.1548996     
   391687664.95785493       -39977345.580903932        1247170564.3198912     
   303428975.76455063       -107842777.52654169        1251654592.1780815     
   205052723.19657481       -209433420.72108603        1262527728.7294614     
   96558907.253953949       -344749275.16444147        1279789973.9740419     
   385126263.55018020       -15286086.563784957        1339062412.8392527     
   322964796.51253474       -46791153.086524069        1328184871.4098518     
   252523043.06728891       -105897174.30125894        1322602154.0017049     
   173801003.21443951       -192604150.20801049        1322314260.6148198     
   86798676.953987628       -306912080.80677170        1327321191.2491848     
   307014481.41305637       -22757824.716731265        1427147149.6799269     
   257706145.52231252       -52565695.355615661        1409440637.4510274     
   201954800.19101954       -103850264.12966178        1395934664.5714326     
   139760445.41917640       -176611531.03888327        1386629231.0411661     
   71123081.206776828       -270849496.08327866        1381524336.8602121     
   235493444.36514020       -28252339.342928588        1513329855.6769104     
   195911711.98718780       -57300972.388191342        1490937862.4433961     
   151724247.13574138       -101702047.01176727        1471652123.8872657     
   102931049.81078842       -161455563.21369854        1455472640.0085115     
   49532120.012340352       -236561520.99394664        1442399410.8071313     
   100403772.10669026       -384361079.15628684        1238930685.0347917     
   85575731.933181822       -543490403.00537539        1199472088.4751859     
   58074361.642114311       -744864160.57967198        1156703994.1772199     
   17899661.233508945       -988482351.87909210        1110626402.1408787     
  -34948369.292645991       -1274344976.9036608        1061239312.3661826     
   96558907.253953949       -344749275.16444147        1279789973.9740419     
   79738567.843677074       -485226690.79914260        1224598296.4467118     
   51499349.510655463       -663767036.17631233        1166879292.2722816     
   11841252.254897654       -880370311.29594457        1106632961.4507747     
  -39235723.923604786       -1135036516.1580560        1043859303.9821779     
   86798676.953987628       -306912080.80677170        1327321191.2491848     
   70220812.853443384       -428067155.86310190        1257859959.1480589     
   43478521.024961382       -583103656.67922997        1186653571.4911234     
   6571801.4685489833       -772021583.25512815        1113702028.2783728     
  -40499345.815805614       -994820935.59082401        1039005329.5098122     
   71123081.206776828       -270849496.08327866        1381524336.8602121     
   57022466.962467656       -372011798.19731039        1299257076.5792487     
   34011876.185026824       -502874022.08843642        1216026831.8337417     
   2091308.8744573891       -663436167.75665641        1131833602.6236951     
  -38739234.969231039       -853698235.20195937        1046677388.9491205     
   49532120.012340352       -236561520.99394664        1442399410.8071313     
   40143530.170762539       -317060617.80171770        1348789648.7402623     
   23099414.990868539       -423078132.40388167        1254999073.3001282     
  -1600225.5273434818       -554614064.80044031        1161027684.4867260     
  -33955391.383900285       -711668414.99146771        1066875482.3000653     
   2302648182.4908381        64609811.234231114        1456153863.3576252     
   2044697027.1293733        144096545.67871958        1496402192.5916560     
   1771128692.4880044        171526015.85686046        1515865627.6089890     
   1481943178.5667262        146898221.76864290        1514544168.4096277     
   1177140485.3655481        70213163.414086163        1492437814.9935708     
   2178509410.1945701        426461165.29659224        1743857293.1924353     
   1847881549.0627270        349565469.28338689        1688624624.9447122     
   1514698858.7757063        264153676.08626390        1634359945.8113143     
   1178961339.3335168        170225785.70523942        1581063255.7922559     
   840668990.73615479        67781798.140310198        1528734554.8875265     
   1780778921.0598121        706235004.30740798        1972179703.8929746     
   1439625449.3890903        491602206.40594876        1836705446.6423512     
   1108979498.6879296        311994478.40302593        1723952061.8370876     
   788841068.95633185        167411820.29864514        1633919549.4771824     
   479210160.19429511        57854232.092801034        1566607909.5626378     
   1109456715.0865583        903931328.26667428        2141121095.4592450     
   819928728.10846746        570206757.04641557        1940644657.6845791     
   553970612.22467172        315048422.80714238        1784641975.6863010     
   311582367.43517250        138456325.54885596        1673113049.4644055     
   92763993.739966899        40430465.271549627        1606057879.0188990     
   164542792.27481323        1019550137.1743932        2250681467.8912487     
  -11208614.779141158        585379121.20478845        2000442258.0713956     
  -150327800.61406672        273315509.29861307        1816429687.3589542     
  -252814765.22996163        83359301.455873117        1698643755.7539299     
  -318669508.62682933        15510497.676557824        1647084463.2563169     
   1177140485.3655481        70213163.414086163        1492437814.9935708     
   1177491981.4865987        62790137.514096677        1492789457.6675665     
   1178767761.7169542        58448058.645124078        1491601300.9334347     
   1180967826.0566077        57186926.807147980        1488873344.7911716     
   1184092174.5055673        59006742.000187814        1484605589.2407851     
   840668990.73615479        67781798.140310198        1528734554.8875265     
   842503260.11793959        63880513.488848835        1522729515.3709340     
   844587776.79977357        60813386.504216135        1518592160.5595276     
   846922540.78165245        58580417.186400115        1516322490.4533124     
   849507552.06357849        57181605.535410464        1515920505.0522778     
   479210160.19429511        57854232.092801034        1566607909.5626378     
   492262871.73199618        60395389.358414039        1553459811.5779939     
   504891793.76049238        61523914.926678434        1545586882.4118531     
   517096926.27977765        61239808.797573119        1542989122.0642109     
   528878269.28985894        59543070.971118867        1545666530.5350721     
   92763993.739966899        40430465.271549627        1606057879.0188990     
   126770816.32876827        52334765.122794732        1584980346.2887435     
   159679812.59910738        60579643.912499376        1572585466.4904053     
   191490982.55098540        65165101.640667573        1568873239.6238801     
   222204326.18440336        66091138.307300642        1573843665.6891673     
  -318669508.62682933        15510497.676557824        1647084463.2563169     
  -253972906.09174466        39698640.781988263        1617291119.5031879     
  -191048166.68437484        57980573.461701974        1599587912.7951851     
  -129895290.40472187        70356295.715693533        1593974843.1323135     
  -70514277.252782181        76825807.543973416        1600451910.5145702     
   1184092174.5055673        59006742.000187814        1484605589.2407851     
   1117662115.0666912        43664562.652851105        1461121086.9438007     
   1052750185.4697125        33382816.111845255        1450260418.5210762     
   989356385.71463263        28161502.377165675        1452023583.9726093     
   927480715.80145693        28000621.448833466        1466410583.2984002     
   849507552.06357849        57181605.535410464        1515920505.0522778     
   814275489.30252004        46744434.205776513        1497756619.3015544     
   780314121.57169580        40542912.976922482        1489835433.7323523     
   747623448.87109947        38577041.848827332        1492156948.3446634     
   716203471.20073795        40846820.821517289        1504721163.1384890     
   528878269.28985894        59543070.971118867        1545666530.5350721     
   518040964.08449531        51969935.922550753        1532534587.3836708     
   508226919.09769642        47807668.269197822        1527264210.7210422     
   499436134.32945991        47056268.011053622        1529855400.5471835     
   491668609.77978843        49715735.148125321        1540308156.8620989     
   222204326.18440336        66091138.307300642        1573843665.6891673     
   228958539.41261181        59341067.803164892        1565454991.1901388     
   236488578.04771465        55177081.988676995        1562546749.4871416     
   244794442.08971721        53599180.863854036        1565118940.5801706     
   253876131.53861144        54607364.428671777        1573171564.4692295     
  -70514277.252782181        76825807.543973416        1600451910.5145702     
  -52971784.713128448        68857829.847621977        1596517830.7209671     
  -34900901.578245267        62651154.135369390        1595683050.0306504     
  -16301627.848134339        58205780.407209292        1597947568.4436209     
   2826036.4772059359        55521708.663146317        1603311385.9598768     
   927480715.80145693        28000621.448833466        1466410583.2984002     
   873604294.56285548        31573553.664068729        1466024994.2857542     
   819089329.33371174        33018005.910832256        1466343165.6325669     
   763935820.11401892        32333978.189097941        1467365097.3388412     
   708143766.90378058        29521470.498872578        1469090789.4045744     
   716203471.20073795        40846820.821517289        1504721163.1384890     
   664360805.24747920        38351088.751850814        1499883944.3530791     
   612145001.69861889        34611564.696845293        1497307853.3396106     
   559556060.55416012        29628248.656510264        1496992890.0980740     
   506593981.81409252        23401140.630815417        1498939054.6284747     
   491668609.77978843        49715735.148125321        1540308156.8620989     
   446309320.29037333        42486225.147093982        1531328949.0980337     
   400842299.60030437        34897611.143885151        1526168236.5183804     
   355267547.70957911        26949893.138485998        1524826019.1231372     
   309585064.61819673        18643071.130899251        1527302296.9123120     
   253876131.53861144        54607364.428671777        1573171564.4692295     
   219449839.69154876        43978962.849838212        1560360008.5206089     
   185181223.03877398        33876145.251966879        1552924315.1688759     
   151070281.58029094        24298911.635066219        1550864484.4140356     
   117117015.31609589        15247261.999126572        1554180516.2560794     
   2826036.4772059359        55521708.663146317        1603311385.9598768     
  -16217636.549004741        42829301.860047102        1586977122.6208038     
  -34838227.985974349        31547167.021084070        1577576089.2910984     
  -53035737.833713129        21675304.146225207        1575108285.9707553     
  -70810166.092218205        13213713.235476583        1579573712.6597831     
   708143766.90378058        29521470.498872578        1469090789.4045744     
   651032885.63827288        26177946.394660830        1462819452.7813807     
   594471294.73864841        24665390.176723510        1464300718.9984808     
   538458994.20490122        24983801.845043927        1473534588.0558727     
   482995984.03704709        27133181.399671659        1490521059.9535561     
   506593981.81409252        23401140.630815417        1498939054.6284747     
   469478045.37026024        21927176.845110118        1494516878.1658199     
   432734786.00627458        21695469.992222354        1497291388.6522002     
   396364203.72212201        22706020.072111860        1507262586.0876153     
   360366298.51782286        24958827.084850103        1524430470.4720602     
   309585064.61819673        18643071.130899251        1527302296.9123120     
   290875741.87815863        18562168.328332692        1524523231.7764819     
   272362482.93192530        19134811.505115211        1528384937.6984336     
   254045287.77949417        20361000.661238566        1538887414.6781542     
   235924156.42087057        22240735.796720117        1556030662.7156544     
   117117015.31609589        15247261.999126572        1554180516.2560794     
   115225975.16196330        16082920.844317168        1552838513.6133711     
   113354385.51560198        16983414.715409201        1557581366.1371746     
   111502246.37700646        17948743.612387296        1568409073.8274937     
   109669557.74618286        18978907.535274509        1585321636.6843314     
  -70810166.092218205        13213713.235476583        1579573712.6597831     
  -57471254.778316356        14489434.393089667        1579462723.6764729     
  -44289506.242686898        15241279.623130178        1584880673.9684222     
  -31264920.485325128        15469248.925610349        1595827563.5356290     
  -18397497.506242432        15173342.300494291        1612303392.3780944     
   482995984.03704709        27133181.399671659        1490521059.9535561     
   424805666.82047611        25571193.552042276        1488394583.2347627     
   364158471.13630432        15819610.812407225        1491487223.6157284     
   301054396.98453295       -2121566.8192235231        1499798981.0964413     
   235493444.36514020       -28252339.342928588        1513329855.6769104     
   360366298.51782286        24958827.084850103        1524430470.4720602     
   315907695.55975699        22542690.483825088        1519360413.7807677     
   269671535.77175623        14201364.449683726        1519831208.3624263     
   221657819.15381953       -65151.017580136657        1525842854.2170365     
   171866545.70595437       -20256855.917933449        1537395351.3446085     
   235924156.42087057        22240735.796720117        1556030662.7156544     
   206116508.21616083        19246222.590726480        1548809567.9624746     
   175210624.81919280        12590925.410536483        1547451058.6554501     
   143206506.22996518        2274844.2561478466        1551955134.7945876     
   110104152.44848171       -11702020.872427680        1562321796.3798776     
   109669557.74618286        18978907.535274509        1585321636.6843314     
   95432104.789688006        15681789.872754050        1576742045.7798855     
   80775738.278616518        10988293.694978299        1574346774.4948020     
   65700458.212963730        4898419.0019315965        1578135822.8290751     
   50206264.592721783       -2587834.2064097561        1588109190.7827106     
  -18397497.506242432        15173342.300494291        1612303392.3780944     
  -16145514.719644513        11849392.329960350        1603157847.2330019     
  -13633123.849959679        9393469.3030501232        1600518355.8804822     
  -10860324.897188859        7805573.2197591821        1604384918.3205113     
  -7827117.8613195987        7085704.0801303899        1614757534.5531094     
   235493444.36514020       -28252339.342928588        1513329855.6769104     
   195911711.98718780       -57300972.388191342        1490937862.4433961     
   151724247.13574138       -101702047.01176727        1471652123.8872657     
   102931049.81078842       -161455563.21369854        1455472640.0085115     
   49532120.012340352       -236561520.99394664        1442399410.8071313     
   171866545.70595437       -20256855.917933449        1537395351.3446085     
   142496944.43335420       -42216773.321622446        1510973296.6823587     
   109699593.95381388       -75602521.415114641        1487664615.3526313     
   73474494.267343029       -120414100.19837260        1467469307.3554323     
   33821645.373932302       -176651509.67143279        1450387372.6907620     
   110104152.44848171       -11702020.872427680        1562321796.3798776     
   90967021.295948625       -26567120.930141807        1533243994.0998697     
   69580124.203042388       -48931440.789101861        1507286683.8075404     
   45943461.169762582       -78794980.449307144        1484449865.5028954     
   20057032.196115188       -116157739.91073835        1464733539.1859269     
   50206264.592721783       -2587834.2064097561        1588109190.7827106     
   41321942.574976325       -10352015.213729519        1557749954.6959367     
   31365837.883420154       -21688805.133754306        1530518329.2519953     
   20337950.518060684       -36598203.966454819        1506414314.4508905     
   8238280.4788866527       -55080211.711868994        1485437910.2926178     
  -7827117.8613195987        7085704.0801303899        1614757534.5531094     
  -6438291.7295580041        6428543.8276241478        1584491178.4705613     
  -4943265.0050509041        6125385.5509369439        1557359551.6860020     
  -3342037.6877837060        6176229.2501160428        1533362654.1994262     
  -1634609.7777542584        6581074.9251699997        1512500486.0108380     
   49532120.012340352       -236561520.99394664        1442399410.8071313     
   40143530.170762539       -317060617.80171770        1348789648.7402623     
   23099414.990868539       -423078132.40388167        1254999073.3001282     
  -1600225.5273434818       -554614064.80044031        1161027684.4867260     
  -33955391.383900285       -711668414.99146771        1066875482.3000653     
   33821645.373932302       -176651509.67143279        1450387372.6907620     
   29474966.468378916       -236140693.03074306        1349363777.3876934     
   19428372.011964127       -314629594.89292747        1247550946.9205563     
   3681862.0047157109       -412118215.25788987        1144948881.2893696     
  -17764563.553385496       -528606554.12569630        1041557580.4941294     
   20057032.196115188       -116157739.91073835        1464733539.1859269     
   19013916.252884962       -155158514.21373814        1358577655.3987024     
   14226494.546281889       -206640307.72798085        1251024114.6566298     
   5694767.0763093233       -270603120.45345271        1142072916.9597113     
  -6581266.1570403129       -347046952.39018905        1031724062.3079474     
   8238280.4788866527       -55080211.711868994        1485437910.2926178     
   8760379.5242970809       -74114081.350643113        1376431282.7732942     
   7493782.5938111581       -99110270.909070343        1265418576.5083275     
   4438489.6874231473       -130068780.38717270        1152399791.4977264     
  -405499.19486116618       -166989609.78492498        1037374927.7414895     
  -1634609.7777542584        6581074.9251699997        1512500486.0108380     
  -1285643.7173880166        6992605.5585294366        1402924659.5114610     
  -769763.84545153286        7960515.5637875982        1290734332.4756656     
  -86970.161930923350        9484804.9409931935        1175929504.9034340     
   762737.33315686276        11565473.690090764        1058510176.7947828     
   164542792.27481323        1019550137.1743932        2250681467.8912487     
  -11208614.779141158        585379121.20478845        2000442258.0713956     
  -150327800.61406672        273315509.29861307        1816429687.3589542     
  -252814765.22996163        83359301.455873117        1698643755.7539299     
  -318669508.62682933        15510497.676557824        1647084463.2563169     
  -1021608510.2074466        158156430.49643660        1589763823.6210575     
  -981705551.61096823       -24794572.667026460        1496486731.0015035     
  -920873588.56886375       -137982227.67840147        1444897123.7426839     
  -839112621.08113587       -181406534.53770003        1434995001.8445945     
  -736422649.14777946       -155067493.24490145        1466780365.3072379     
  -1820176062.8727772       -586962151.23644280        1009746274.9472810     
  -1634730606.4735293       -539726701.94806659        1055110879.9590545     
  -1444059362.4020565       -475071960.41894400        1117623816.5848804     
  -1248162330.6583643       -392997926.64908797        1197285084.8247581     
  -1047039511.2424464       -293504600.63848072        1294094684.6786854     
  -2231159865.7211800       -1215805608.0242422        510628821.86991251     
  -1970283779.3668215       -959417266.63832355        676314704.94404566     
  -1719885122.1136434       -737953688.92300510        834609765.88555002     
  -1479963893.9616463       -551414874.87828934        985514004.69442320     
  -1250520094.9108272       -399800824.50416827        1129027421.3706670     
  -2254559918.7526536       -1728373939.8669643        92411464.388956279     
  -1988365070.2908480       -1283866266.7378008        360098205.95647854     
  -1748350867.7036209       -926627413.19057679        595854971.64469028     
  -1534517310.9909844       -656657379.22531343        799681761.45359099     
  -1346864400.1529255       -473956164.84197783        971578575.38317859     
  -318669508.62682933        15510497.676557824        1647084463.2563169     
  -253972906.09174466        39698640.781988263        1617291119.5031879     
  -191048166.68437484        57980573.461701974        1599587912.7951851     
  -129895290.40472187        70356295.715693533        1593974843.1323135     
  -70514277.252782181        76825807.543973416        1600451910.5145702     
  -736422649.14777946       -155067493.24490145        1466780365.3072379     
  -642892923.03684711       -104306168.10811968        1467626073.2675056     
  -552377679.88315749       -63593119.495480314        1472428697.2337549     
  -464876919.68670982       -32928347.406981066        1481188237.2059801     
  -380390642.44750404       -12311851.842621490        1493904693.1841919     
  -1047039511.2424464       -293504600.63848072        1294094684.6786854     
  -947914435.95323598       -223141425.78961605        1324129721.2179065     
  -853046463.45079458       -166968593.56331605        1349988452.7239571     
  -762435593.73512292       -124986103.95958002        1371670879.1968374     
  -676081826.80622017       -97193956.978409648        1389177000.6365507     
  -1250520094.9108272       -399800824.50416827        1129027421.3706670     
  -1169037444.8409114       -316807132.26250046        1186802063.3543923     
  -1093054517.3872876       -252145848.74181175        1232267179.2657957     
  -1022571312.5499609       -205816973.94210804        1265422769.1048810     
  -957587830.32893002       -177820507.86339346        1286268832.8716469     
  -1346864400.1529255       -473956164.84197783        971578575.38317859     
  -1306261949.6998706       -385303287.52676493        1055643099.6769571     
  -1272401841.6926334       -319124885.03095061        1119264876.8592687     
  -1245284076.1312253       -275420957.35456336        1162443906.9301107     
  -1224908653.0156391       -254191504.49758369        1185180189.8894851     
  -70514277.252782181        76825807.543973416        1600451910.5145702     
  -52971784.713128448        68857829.847621977        1596517830.7209671     
  -34900901.578245267        62651154.135369390        1595683050.0306504     
  -16301627.848134339        58205780.407209292        1597947568.4436209     
   2826036.4772059359        55521708.663146317        1603311385.9598768     
  -380390642.44750404       -12311851.842621490        1493904693.1841919     
  -351756274.37562096       -12718655.721806020        1495655033.3164315     
  -322921309.07838309       -12456802.183142468        1501093400.0277565     
  -293885746.55578160       -11526291.226600111        1510219793.3181627     
  -264649586.80781662       -9927122.8521783501        1523034213.1876581     
  -676081826.80622017       -97193956.978409648        1389177000.6365507     
  -634673504.69983554       -89534963.489763930        1396229335.0964549     
  -593392378.73795545       -82299957.149468035        1407558423.6112409     
  -552238448.92058682       -75488937.957543582        1423164266.1809075     
  -511211715.24772328       -69101905.913969964        1443046862.8054526     
  -957587830.32893002       -177820507.86339346        1286268832.8716469     
  -901723475.68576539       -161591093.45623147        1298240736.0610392     
  -846314110.55697274       -146878310.76364541        1315078120.7811060     
  -791359734.94255543       -133682159.78564273        1336780987.0318515     
  -736860348.84251618       -122002640.52223322        1363349334.8132746     
  -1224908653.0156391       -254191504.49758369        1185180189.8894851     
  -1152906187.3334119       -228887045.62121066        1201689236.2101793     
  -1081686504.5354261       -206191863.02563944        1223652491.5373499     
  -1011249604.6216893       -186105956.71089953        1251069955.8709958     
  -941595487.59218800       -168629326.67694688        1283941629.2111187     
   2826036.4772059359        55521708.663146317        1603311385.9598768     
  -16217636.549004741        42829301.860047102        1586977122.6208038     
  -34838227.985974349        31547167.021084070        1577576089.2910984     
  -53035737.833713129        21675304.146225207        1575108285.9707553     
  -70810166.092218205        13213713.235476583        1579573712.6597831     
  -264649586.80781662       -9927122.8521783501        1523034213.1876581     
  -264171825.89501974       -15598830.364751592        1514436174.7788389     
  -263000171.81402305       -18957560.649990194        1512301232.6313069     
  -261134624.56482232       -20003313.707883574        1516629386.7450612     
  -258575184.14742213       -18736089.538442820        1527420637.1201048     
  -511211715.24772328       -69101905.913969964        1443046862.8054526     
  -492555759.67614615       -68155885.920085385        1442500996.1690180     
  -472935099.35740322       -63994183.435647681        1447948092.0457909     
  -452349734.29149252       -56616798.460650727        1459388150.4357722     
  -430799664.47841650       -46023730.995106012        1476821171.3389583     
  -736860348.84251618       -122002640.52223322        1363349334.8132746     
  -701369437.89238489       -114841864.80595870        1371171586.7913470     
  -664643010.61612117       -103562701.33591124        1384516667.5345485     
  -626681067.01372457       -88165150.112088069        1403384577.0428803     
  -587483607.08520174       -68649211.134509802        1427775315.3163395     
  -941595487.59218800       -168629326.67694688        1283941629.2111187     
  -890612860.54372823       -155656767.02235001        1300447946.6458266     
  -838123905.59017885       -137663114.35078675        1322006959.0975838     
  -784128622.73152614       -114648368.66221040        1348618666.5663884     
  -728627011.96777487       -86612529.956643313        1380283069.0522461     
  -70810166.092218205        13213713.235476583        1579573712.6597831     
  -57471254.778316356        14489434.393089667        1579462723.6764729     
  -44289506.242686898        15241279.623130178        1584880673.9684222     
  -31264920.485325128        15469248.925610349        1595827563.5356290     
  -18397497.506242432        15173342.300494291        1612303392.3780944     
  -258575184.14742213       -18736089.538442820        1527420637.1201048     
  -229477946.02185166       -9689819.7553968132        1531817627.9649017     
  -201194794.71207425       -3357172.6916588321        1541014265.8606226     
  -173725730.21808815        261851.65277482569        1555010550.8072655     
  -147070752.53989297        1167253.2779031992        1573806482.8048425     
  -430799664.47841650       -46023730.995106012        1476821171.3389583     
  -388027791.61070079       -29832020.207487449        1484959730.6347539     
  -346726929.59629542       -18543678.930904627        1497168644.7571371     
  -306897078.43519902       -12158707.165351704        1513447913.7061164     
  -268538238.12741649       -10677104.910846427        1533797537.4816909     
  -587483607.08520174       -68649211.134509802        1427775315.3163395     
  -533120791.54485697       -45937166.963161871        1438889031.6860223     
  -480885910.89534819       -30318239.094599903        1453343810.6579666     
  -430778965.13666916       -21792427.528802723        1471139652.2321692     
  -382799954.26881349       -20359732.265753135        1492276556.4086368     
  -728627011.96777487       -86612529.956643313        1380283069.0522461     
  -664756945.82432556       -58005260.022433311        1393605531.1187134     
  -603671738.60923111       -38680853.182737589        1409539763.5631118     
  -545371390.32248402       -28639309.437533796        1428085766.3854344     
  -489855900.96408880       -27880628.786836639        1449243539.5856907     
  -18397497.506242432        15173342.300494291        1612303392.3780944     
  -16145514.719644513        11849392.329960350        1603157847.2330019     
  -13633123.849959679        9393469.3030501232        1600518355.8804822     
  -10860324.897188859        7805573.2197591821        1604384918.3205113     
  -7827117.8613195987        7085704.0801303899        1614757534.5531094     
  -147070752.53989297        1167253.2779031992        1573806482.8048425     
  -128139969.61778362       -167943.79609110951        1567518628.0159876     
  -108344555.00447145        1378964.7672562003        1567095622.7165337     
  -87684508.699959278        5807978.9679359496        1572537466.9064779     
  -66159830.704246670        13119098.805953272        1583844160.5858238     
  -268538238.12741649       -10677104.910846427        1533797537.4816909     
  -234760667.36453718       -10573152.776711904        1531072300.5918629     
  -199514241.30234402       -5573016.3115309775        1533570708.8882744     
  -162798959.94084585        4323304.4846649542        1541292762.3709273     
  -124614823.28002810        19115809.611926503        1554238461.0398190     
  -382799954.26881349       -20359732.265753135        1492276556.4086368     
  -336007607.95991492       -19366234.611930802        1493818864.9606376     
  -287142182.74358630       -11462473.933339879        1499943614.3957119     
  -236203678.61984202        3351549.7699675411        1510650804.7138686     
  -183192095.58866847        25075836.498042069        1525940435.9151037     
  -489855900.96408880       -27880628.786836639        1449243539.5856907     
  -431880791.40390879       -26547189.301724523        1455758321.1223102     
  -371228379.32818949       -16289408.098145440        1466214339.2388425     
  -307898664.73694617        2892714.8238456696        1480611593.9352953     
  -241891647.63016361        30999179.464301169        1498950085.2116666     
  -7827117.8613195987        7085704.0801303899        1614757534.5531094     
  -6438291.7295580041        6428543.8276241478        1584491178.4705613     
  -4943265.0050509041        6125385.5509369439        1557359551.6860020     
  -3342037.6877837060        6176229.2501160428        1533362654.1994262     
  -1634609.7777542584        6581074.9251699997        1512500486.0108380     
  -66159830.704246670        13119098.805953272        1583844160.5858238     
  -54324914.971886754        20645744.957125802        1554232244.8009768     
  -41295869.397440486        32152823.915252183        1527632482.5485253     
  -27072693.980898794        47640335.680362605        1504044873.8284669     
  -11655388.722266898        67108280.252439678        1483469418.6408098     
  -124614823.28002810        19115809.611926503        1554238461.0398190     
  -102684034.42018119        34721197.224839427        1526550236.3435640     
  -78471186.468909055        57933448.475837901        1501751589.4141147     
  -51976279.426212907        88752563.364916354        1479842520.2514734     
  -23199313.292086616        127178541.89209390        1460823028.8556445     
  -183192095.58866847        25075836.498042069        1525940435.9151037     
  -151515650.07444423        48654900.630761638        1501445153.0983264     
  -116469216.21945541        83467259.232696533        1479716872.2827718     
  -78052794.023708090        129512912.30382568        1460755593.4684391     
  -36266383.487197936        186791859.84416568        1444561316.6553164     
  -241891647.63016361        30999179.464301169        1498950085.2116666     
  -200819761.93467203        62446855.174897745        1478916995.0652664     
  -155289958.64907289        108754256.18585213        1461528331.1544957     
  -105302237.77338985        169921382.49708694        1446784093.4793591     
  -50856599.307604432        245948234.10866219        1434684282.0398486     
  -1634609.7777542584        6581074.9251699997        1512500486.0108380     
  -1285643.7173880166        6992605.5585294366        1402924659.5114610     
  -769763.84545153286        7960515.5637875982        1290734332.4756656     
  -86970.161930923350        9484804.9409931935        1175929504.9034340     
   762737.33315686276        11565473.690090764        1058510176.7947828     
  -11655388.722266898        67108280.252439678        1483469418.6408098     
  -11504822.502208315        86987999.167588651        1374973066.8693407     
  -9257092.0222814158        113858265.61563134        1264445941.5382593     
  -4912197.2824609429        147719079.59664980        1151888042.6475775     
   1529861.7172245532        188570441.11055517        1037299370.1972874     
  -23199313.292086616        127178541.89209390        1460823028.8556445     
  -21579355.549989685        167026786.49772957        1355658110.6684220     
  -15931983.099715933        220299746.79728782        1249046145.8984251     
  -6257195.9412553906        286997422.79080725        1140987134.5456536     
   7445005.9253825545        367119814.47824669        1031481076.6100720     
  -36266383.487197936        186791859.84416568        1444561316.6553164     
  -31509242.860715687        247108967.54900211        1344979790.9087155     
  -20794437.077757329        327284959.10875189        1244534945.5561564     
  -4121966.1382986903        427319834.52350670        1143226780.5976231     
   18508169.957630545        547213593.79316521        1041055296.0331289     
  -50856599.307604432        245948234.10866219        1434684282.0398486     
  -41294484.434391811        327234542.32138962        1342938107.5902131     
  -23844453.956398010        434813902.55005276        1250912340.5114291     
   1493492.1263933480        568686314.79471087        1158606980.8035204     
   34719353.813968629        728851779.05531061        1066022028.4664503     
  -2254559918.7526536       -1728373939.8669643        92411464.388956279     
  -1988365070.2908480       -1283866266.7378008        360098205.95647854     
  -1748350867.7036209       -926627413.19057679        595854971.64469028     
  -1534517310.9909844       -656657379.22531343        799681761.45359099     
  -1346864400.1529255       -473956164.84197783        971578575.38317859     
  -1872422496.1395776       -809257663.93160081        726228753.54248369     
  -1725236232.4463847       -603451076.24833298        831722184.72907376     
  -1589244219.2064917       -434958656.74274325        932685392.46048176     
  -1464446456.4199066       -303780405.41484249        1029118376.7367073     
  -1350842944.0866251       -209916322.26461530        1121021137.5577495     
  -1930545541.3409743       -22219528.340579033        1273227628.6943753     
  -1824082855.4903052       -31628524.025385380        1234011877.4915268     
  -1713828024.6716628       -28397036.483603060        1217665655.2576239     
  -1599781048.8850472       -12525065.715236962        1224188961.9926660     
  -1481941928.1304541        15987388.279708266        1253581797.6966574     
  -2428929054.3568225        632740466.90610540        1733408089.8446338     
  -2284904939.4226036        431601389.93105721        1566967284.2438345     
  -2122102284.0991290        293057447.58685338        1450795760.0361130     
  -1940521088.3863995        217108639.87349999        1384893517.2214680     
  -1740161352.2844191        203754966.79099119        1369260555.7998965     
  -3367573035.1871424        1155622321.8084519        2106770136.9932511     
  -3107702484.2432909        786238665.62097120        1830588404.9859998     
  -2814066997.4888945        529404795.46861935        1632075706.7959523     
  -2486666574.9239678        385120711.35137951        1511232042.4231102     
  -2125501216.5485125        353386413.26923549        1468057411.8674707     
  -1346864400.1529255       -473956164.84197783        971578575.38317859     
  -1306261949.6998706       -385303287.52676493        1055643099.6769571     
  -1272401841.6926334       -319124885.03095061        1119264876.8592687     
  -1245284076.1312253       -275420957.35456336        1162443906.9301107     
  -1224908653.0156391       -254191504.49758369        1185180189.8894851     
  -1350842944.0866251       -209916322.26461530        1121021137.5577495     
  -1368216223.4808249       -178284529.59302014        1159091409.9488575     
  -1389520034.5934029       -159754509.31601548        1186166426.0251489     
  -1414754377.4243562       -154326261.43359625        1202246185.7866218     
  -1443919251.9736900       -161999785.94578087        1207330689.2332783     
  -1481941928.1304541        15987388.279708266        1253581797.6966574     
  -1530298106.5243351       -1304054.4380393624        1248938264.0337808     
  -1579773005.9091477       -22324567.125555933        1242746964.8527384     
  -1630366626.2848940       -47074149.782854378        1235007900.1535285     
  -1682078967.6515718       -75552802.409922302        1225721069.9361539     
  -1740161352.2844191        203754966.79099119        1369260555.7998965     
  -1792507598.8304067        145638137.93816662        1325183661.9317200     
  -1843160755.6398792        93164941.540392399        1289006493.3420303     
  -1892120822.7128377        46335377.597667336        1260729050.0308259     
  -1939387800.0492857        5149446.1099809408        1240351331.9981081     
  -2125501216.5485125        353386413.26923549        1468057411.8674707     
  -2154844700.3990288        262542047.53562081        1387827603.6426823     
  -2179683283.7855878        186714016.68186438        1324945011.4930317     
  -2200016966.7081890        125902320.70796907        1279409635.4185190     
  -2215845749.1668282        80106959.613942027        1251221475.4191411     
  -1224908653.0156391       -254191504.49758369        1185180189.8894851     
  -1152906187.3334119       -228887045.62121066        1201689236.2101793     
  -1081686504.5354261       -206191863.02563944        1223652491.5373499     
  -1011249604.6216893       -186105956.71089953        1251069955.8709958     
  -941595487.59218800       -168629326.67694688        1283941629.2111187     
  -1443919251.9736900       -161999785.94578087        1207330689.2332783     
  -1360330074.7136407       -142787005.83417165        1216009639.5494025     
  -1277386131.1763349       -125725004.79837900        1229553007.9415531     
  -1195087421.3617704       -110813782.83838719        1247960794.4097297     
  -1113433945.2699492       -98053339.954212964        1271232998.9539318     
  -1682078967.6515718       -75552802.409922302        1225721069.9361539     
  -1588588195.7578399       -62937236.146333814        1226730398.2694583     
  -1495605108.4253497       -52013951.753547311        1232014353.7483349     
  -1403129705.6540995       -42782949.231559277        1241572936.3727953     
  -1311161987.4440901       -35244228.580379784        1255406146.1428320     
  -1939387800.0492857        5149446.1099809408        1240351331.9981081     
  -1837680550.4660087        10662263.442314863        1233851512.3703384     
  -1736343436.2824697        14941296.108847857        1231036528.9577024     
  -1635376457.4986703        17986544.109591126        1231906381.7601974     
  -1534779614.1146054        19798007.444544435        1236461070.7778184     
  -2215845749.1668282        80106959.613942027        1251221475.4191411     
  -2107607138.8381407        78011492.931786180        1237372981.8520551     
  -1999601114.7476954        75140738.788816571        1226619533.5696499     
  -1891827676.8954775        71494697.185091972        1218961130.5719295     
  -1784286825.2815077        67073368.120539308        1214397772.8588901     
  -941595487.59218800       -168629326.67694688        1283941629.2111187     
  -890612860.54372823       -155656767.02235001        1300447946.6458266     
  -838123905.59017885       -137663114.35078675        1322006959.0975838     
  -784128622.73152614       -114648368.66221040        1348618666.5663884     
  -728627011.96777487       -86612529.956643313        1380283069.0522461     
  -1113433945.2699492       -98053339.954212964        1271232998.9539318     
  -1050752651.0937147       -90963155.684197664        1280066796.6078134     
  -987412015.96803069       -81675168.249354005        1294204345.2009125     
  -923412039.89289820       -70189377.649680614        1313645644.7332325     
  -858752722.86831319       -56505783.885170162        1338390695.2047749     
  -1311161987.4440901       -35244228.580379784        1255406146.1428320     
  -1236064723.5053024       -33821228.904508948        1255579272.5676267     
  -1161155105.5727146       -33023715.915970862        1261307205.8538139     
  -1086433133.6463249       -32851689.614763796        1272589946.0013945     
  -1011898807.7261341       -33305150.000878513        1289427493.0103614     
  -1534779614.1146054        19798007.444544435        1236461070.7778184     
  -1446549077.7784941        15769013.316700280        1226985374.5252740     
  -1359353174.4042282        8291242.6493633389        1223315541.0562923     
  -1273191903.9918103       -2635304.5574597120        1225451570.3708727     
  -1188065266.5412357       -17010628.303766072        1233393462.4690130     
  -1784286825.2815077        67073368.120539308        1214397772.8588901     
  -1682205713.9132917        57807570.979421020        1194285102.4807496     
  -1582006222.4625750        42269707.446646035        1180229350.8083420     
  -1483688350.9293542        20459777.522218168        1172230517.8416665     
  -1387252099.3136239       -7622218.7938529253        1170288603.5807278     
  -728627011.96777487       -86612529.956643313        1380283069.0522461     
  -664756945.82432556       -58005260.022433311        1393605531.1187134     
  -603671738.60923111       -38680853.182737589        1409539763.5631118     
  -545371390.32248402       -28639309.437533796        1428085766.3854344     
  -489855900.96408880       -27880628.786836639        1449243539.5856907     
  -858752722.86831319       -56505783.885170162        1338390695.2047749     
  -791977025.95190561       -43375263.814680874        1341481550.2092221     
  -726643958.55304229       -35053508.802661806        1347767293.0911858     
  -662753520.67169201       -31540518.849027783        1357247923.8506608     
  -600305712.30787134       -32836293.953824669        1369923442.4876490     
  -1011898807.7261341       -33305150.000878513        1289427493.0103614     
  -940551430.03796387       -35151564.794493496        1283852675.2654202     
  -869304452.45650542       -37332646.610474885        1282055862.8975785     
  -798157874.98174179       -39848395.448781013        1284037055.9068348     
  -727111697.61368418       -42698811.309435099        1289796254.2931850     
  -1188065266.5412357       -17010628.303766072        1233393462.4690130     
  -1110480158.0824881       -33334162.961838484        1220718906.2873085     
  -1031653220.3196241       -45518266.606184781        1212405472.9822884     
  -951584453.25263643       -53562939.236787647        1208453162.5539489     
  -870273856.88152695       -57468180.853651196        1208861975.0022941     
  -1387252099.3136239       -7622218.7938529253        1170288603.5807278     
  -1301763210.0854785       -37923058.316713333        1152080243.2748868     
  -1213690262.1423955       -59610368.789780319        1138816123.3453166     
  -1123033255.4843652       -72684150.213027120        1130496243.7920110     
  -1029792190.1113952       -77144402.586468250        1127120604.6149712     
  -489855900.96408880       -27880628.786836639        1449243539.5856907     
  -431880791.40390879       -26547189.301724523        1455758321.1223102     
  -371228379.32818949       -16289408.098145440        1466214339.2388425     
  -307898664.73694617        2892714.8238456696        1480611593.9352953     
  -241891647.63016361        30999179.464301169        1498950085.2116666     
  -600305712.30787134       -32836293.953824669        1369923442.4876490     
  -530848265.76470077       -30542178.853688419        1374052979.1088278     
  -458967750.96700597       -20171169.571796492        1382852151.6873820     
  -384664167.91476488       -1723266.1080865711        1396320960.2233129     
  -307937516.60799366        24801531.537382439        1414459404.7166200     
  -727111697.61368418       -42698811.309435099        1289796254.2931850     
  -644090773.00907767       -38819678.270762742        1291243939.3610888     
  -558901014.41093099       -27711098.586959302        1298089659.7638342     
  -471542421.81924880       -9373072.2580381036        1310333415.5014119     
  -382014995.23403114        16194400.716004804        1327975206.5738301     
  -870273856.88152695       -57468180.853651196        1208861975.0022941     
  -771608313.13701987       -51379687.552889138        1207331201.8790975     
  -671028169.65997720       -38909195.143675566        1211926863.4682012     
  -568533426.45038772       -20056703.625969678        1222648959.7695930     
  -464124083.50826681        5177787.0001693666        1239497490.7832959     
  -1029792190.1113952       -77144402.586468250        1127120604.6149712     
  -913400886.14853358       -68222206.700087070        1122314766.6628497     
  -795349216.71412992       -53765459.241893768        1124363762.8004754     
  -675637181.80819178       -33774160.211919814        1133267593.0278594     
  -554264781.43070936       -8248309.6101348102        1149026257.3449957     
  -241891647.63016361        30999179.464301169        1498950085.2116666     
  -200819761.93467203        62446855.174897745        1478916995.0652664     
  -155289958.64907289        108754256.18585213        1461528331.1544957     
  -105302237.77338985        169921382.49708694        1446784093.4793591     
  -50856599.307604432        245948234.10866219        1434684282.0398486     
  -307937516.60799366        24801531.537382439        1414459404.7166200     
  -258359467.98247784        56492359.957203582        1398520831.4403791     
  -202428260.19696602        109360385.57700440        1386424922.0186989     
  -140143893.25146604        183405608.39677176        1378171676.4515853     
  -71506367.145948216        278628028.41659355        1373761094.7390447     
  -382014995.23403114        16194400.716004804        1327975206.5738301     
  -320507247.62438995        49155442.661249205        1318342265.3326197     
  -250751099.28484359        109611153.70617551        1313750225.5649159     
  -172746550.21540484        197561533.85074461        1314199087.2707207     
  -86493600.416066304        313006583.09497935        1319688850.4500253     
  -464124083.50826681        5177787.0001693666        1239497490.7832959     
  -387263100.86039495        40436103.287067801        1238381296.7420001     
  -300258475.91270423        109506560.57336788        1243504241.7931566     
  -203110208.66523388        212389158.85893363        1254866325.9367521     
  -95818299.117957711        349083898.14384651        1272467549.1727972     
  -554264781.43070936       -8248309.6101348102        1149026257.3449957     
  -458627027.69049424        30334341.834678113        1158637925.6685152     
  -350950390.08056295        109046606.17853424        1175686970.7034113     
  -231234868.60094339        227888483.42135349        1200173392.4496930     
  -99480463.251627445        386859973.56316674        1232097190.9073484     
  -50856599.307604432        245948234.10866219        1434684282.0398486     
  -41294484.434391811        327234542.32138962        1342938107.5902131     
  -23844453.956398010        434813902.55005276        1250912340.5114291     
   1493492.1263933480        568686314.79471087        1158606980.8035204     
   34719353.813968629        728851779.05531061        1066022028.4664503     
  -71506367.145948216        278628028.41659355        1373761094.7390447     
  -57385574.270662695        380825016.65919429        1293485160.0659966     
  -34235794.494764298        513118627.90383995        1212169951.8629510     
  -2057027.8182833791        675508862.15043163        1129815470.1298869     
   39150725.758807480        867995719.39904726        1046421714.8668392     
  -86493600.416066304        313006583.09497935        1319688850.4500253     
  -69984646.398299098        435463096.30962938        1252214405.3986835     
  -43305634.184123039        591819803.51231444        1182941005.9164648     
  -6456563.7735499442        782076704.70299160        1111868652.0033922     
   40562564.833438098        1006233799.8817080        1038997343.6594441     
  -95818299.117957711        349083898.14384651        1272467549.1727972     
  -79091700.817318678        491148781.27264953        1219125843.5882590     
  -51053973.024468303        670917429.37548709        1163225502.6719851     
  -11705115.739395738        888389842.45239639        1104766526.4239917     
   38954871.037876070        1143566020.5033112        1043748914.8442696     
  -99480463.251627445        386859973.56316674        1232097190.9073484     
  -84706737.527723759        547882071.54822719        1194219474.6347303     
  -57480811.015792221        750411505.49338627        1153023442.1295152     
  -17802683.715852201        994448275.39857626        1108509093.3917112     
   34327644.372122288        1279992381.2638700        1060676428.4213229     
  -3367573035.1871424        1155622321.8084519        2106770136.9932511     
  -3107702484.2432909        786238665.62097120        1830588404.9859998     
  -2814066997.4888945        529404795.46861935        1632075706.7959523     
  -2486666574.9239678        385120711.35137951        1511232042.4231102     
  -2125501216.5485125        353386413.26923549        1468057411.8674707     
  -4691263158.5548162        376323047.33592653        1438227314.3177400     
  -4195694690.3031483        272583552.19347715        1331516854.6286790     
  -3684633987.2929950        220484839.57932210        1267140952.6564925     
  -3158081049.5243506        220026909.49346614        1245099608.4011812     
  -2616035876.9972205        271209761.93589234        1265392821.8627460     
  -5562367108.0089016       -267200374.96251917        855318484.89157319     
  -4932056368.4503698       -135582402.86023045        896761146.29331303     
  -4304526095.1853809       -13232651.736458778        945203889.31160092     
  -3679776288.2139559        99848878.408789635        1000646713.9464347     
  -3057806947.5360847        203662187.57551241        1063089620.1978170     
  -5980884883.5494003       -774947945.08688951        358043648.71474040     
  -5316787518.6849251       -438259199.54013634        526321279.97989559     
  -4673743321.1660576       -171747678.47872949        666264516.76127255     
  -4051752290.9927835        24586618.097345829        777873359.05886877     
  -3450814428.1651173        150743690.18807840        861147806.87268531     
  -5946816485.1763077       -1146919663.0371842       -53597194.212753244     
  -5349888141.0068388       -635446837.84625292        220197255.68843600     
  -4792285665.2350140       -255060240.64748240        430322835.00551438     
  -4274009057.8608398       -5759871.4408671856        576779543.73848379     
  -3795058318.8843102        112454269.77359343        659567381.88734508     
  -2125501216.5485125        353386413.26923549        1468057411.8674707     
  -2154844700.3990288        262542047.53562081        1387827603.6426823     
  -2179683283.7855878        186714016.68186438        1324945011.4930317     
  -2200016966.7081890        125902320.70796907        1279409635.4185190     
  -2215845749.1668282        80106959.613942027        1251221475.4191411     
  -2616035876.9972205        271209761.93589234        1265392821.8627460     
  -2601306061.7647800        194552956.02453566        1205462998.7585137     
  -2582054229.3119669        132969540.84775662        1158814445.0685916     
  -2558280379.6387777        86459516.405565619        1125447160.7929726     
  -2529984512.7452106        55022882.697953343        1105361145.9316683     
  -3057806947.5360847        203662187.57551241        1063089620.1978170     
  -3010620823.6802030        137707844.34855413        1023479751.7632953     
  -2958895565.8475342        86883947.710895658        993085206.08225095     
  -2902631174.0380673        51190497.662551641        971905983.15468550     
  -2841827648.2518120        30627494.203512192        959942082.98060036     
  -3450814428.1651173        150743690.18807840        861147806.87268531     
  -3382788986.1453066        92006712.507662296        841877862.65702534     
  -3310207293.3922853        48457237.271279335        827757294.53401494     
  -3233069349.9060564        20095264.478922844        818786102.50365245     
  -3151375155.6866112        6920794.1306102276        814964286.56594419     
  -3795058318.8843102        112454269.77359343        659567381.88734508     
  -3717810549.1600780        57449560.501876831        660657331.43970048     
  -3635989411.9462252        17689409.528906107        662830710.42387867     
  -3549594907.2427425       -6826183.1453025341        666087518.83987582     
  -3458627035.0496349       -16097217.520765781        670427756.68769193     
  -2215845749.1668282        80106959.613942027        1251221475.4191411     
  -2107607138.8381407        78011492.931786180        1237372981.8520551     
  -1999601114.7476954        75140738.788816571        1226619533.5696499     
  -1891827676.8954775        71494697.185091972        1218961130.5719295     
  -1784286825.2815077        67073368.120539308        1214397772.8588901     
  -2529984512.7452106        55022882.697953343        1105361145.9316683     
  -2411123643.9583774        56570071.707201004        1092349013.5668299     
  -2292951173.3926706        55822599.979359031        1083572191.1101735     
  -2175467101.0480814        52780467.514452219        1079030678.5617039     
  -2058671426.9246216        47443674.312459707        1078724475.9214132     
  -2841827648.2518120        30627494.203512192        959942082.98060036     
  -2709086622.0825472        36794708.581433415        947234531.17131472     
  -2577489806.1172900        39147888.945995569        939902553.89371133     
  -2447037200.3560386        37687035.297209859        937946151.14779079     
  -2317728804.7987919        32412147.635066628        941365322.93355596     
  -3151375155.6866112        6920794.1306102276        814964286.56594419     
  -3001496073.2106342        18685403.554493546        802029534.66550660     
  -2853217012.9215417        25116605.688758850        795610621.92025566     
  -2706537974.8193431        26214400.533371925        795707548.33019030     
  -2561458958.9040351        21978788.088349938        802320313.89530444     
  -3458627035.0496349       -16097217.520765781        670427756.68769193     
  -3288351997.3426518        2242156.6263728142        656734024.04941273     
  -3120132793.8054390        13728750.207606077        650696395.18981636     
  -2953969424.4380054        18362563.222912312        652314870.10890234     
  -2789861889.2403436        16143595.672307014        661589448.80667555     
  -1784286825.2815077        67073368.120539308        1214397772.8588901     
  -1682205713.9132917        57807570.979421020        1194285102.4807496     
  -1582006222.4625750        42269707.446646035        1180229350.8083420     
  -1483688350.9293542        20459777.522218168        1172230517.8416665     
  -1387252099.3136239       -7622218.7938529253        1170288603.5807278     
  -2058671426.9246216        47443674.312459707        1078724475.9214132     
  -1942559895.5849893        39032815.184934974        1061417644.3505590     
  -1827651497.7321892        26611511.101318717        1048649231.4334574     
  -1713946233.3662219        10179762.061586380        1040419237.1701130     
  -1601444102.4870756       -10262431.934217393        1036727661.5605286     
  -2317728804.7987919        32412147.635066628        941365322.93355596     
  -2191925425.0648222        23554655.048018217        927655897.67242491     
  -2066646692.3870223        12948338.940416694        916966391.01307297     
  -1941892606.7653813        593199.31228053570        909296802.95549941     
  -1817663168.1999011       -13510763.836394072        904647133.49970770     
  -2561458958.9040351        21978788.088349938        802320313.89530444     
  -2430302302.3528075        11373090.568647385        792999862.44634724     
  -2298991806.4270768        1280190.9639561176        785180829.54719031     
  -2167527471.1268377       -8299910.7257112265        778863215.19783688     
  -2035909296.4521027       -17367214.500396729        774047019.39828515     
  -2789861889.2403436        16143595.672307014        661589448.80667555     
  -2657690527.4489279        2488121.7468360662        657449538.67233038     
  -2524686839.8523464       -8392932.8280689716        653292547.03580832     
  -2390850826.4505968       -16499568.052415490        649118473.89711320     
  -2256182487.2436762       -21831783.926191092        644927319.25624645     
  -1387252099.3136239       -7622218.7938529253        1170288603.5807278     
  -1301763210.0854785       -37923058.316713333        1152080243.2748868     
  -1213690262.1423955       -59610368.789780319        1138816123.3453166     
  -1123033255.4843652       -72684150.213027120        1130496243.7920110     
  -1029792190.1113952       -77144402.586468250        1127120604.6149712     
  -1601444102.4870756       -10262431.934217393        1036727661.5605286     
  -1501158466.0102499       -33171378.949143410        1020373774.7475444     
  -1398879677.1664376       -49436484.740788519        1008751939.4785306     
  -1294607735.9556377       -59057749.309136569        1001862155.7534809     
  -1188342642.3778520       -62035172.654199958        999704423.57239211     
  -1817663168.1999011       -13510763.836394072        904647133.49970770     
  -1703187038.2809682       -29209694.485346138        889458329.44030952     
  -1587308662.3430188       -40234471.737558424        878789388.09256852     
  -1470028040.3860271       -46585095.592971087        872640309.45648766     
  -1351345172.4100125       -48261566.051642776        871011093.53207028     
  -2035909296.4521027       -17367214.500396729        774047019.39828515     
  -1907848926.8976479       -26038004.925336242        759333907.35317719     
  -1778977217.6721296       -32004329.780067205        748928469.18742573     
  -1649294168.7755358       -35266189.064553082        742830704.90103185     
  -1518799780.2078753       -35823582.778799713        741040614.49399066     
  -2256182487.2436762       -21831783.926191092        644927319.25624645     
  -2115144131.8602867       -23656310.269130826        630000508.48614657     
  -1973885343.1537881       -24746058.868368506        619169182.76310229     
  -1832406121.1241646       -25101029.723857999        612433342.08711290     
  -1690706465.7714362       -24721222.835659385        609792986.45817292     
  -1029792190.1113952       -77144402.586468250        1127120604.6149712     
  -913400886.14853358       -68222206.700087070        1122314766.6628497     
  -795349216.71412992       -53765459.241893768        1124363762.8004754     
  -675637181.80819178       -33774160.211919814        1133267593.0278594     
  -554264781.43070936       -8248309.6101348102        1149026257.3449957     
  -1188342642.3778520       -62035172.654199958        999704423.57239211     
  -1056790883.8006846       -52950582.732459486        993825148.68915236     
  -924281059.72214925       -40672441.139495105        992715452.33439147     
  -790813170.14225829       -25200747.875338018        996375334.50810194     
  -656387215.06100905       -6535502.9399983585        1004804795.2102876     
  -1351345172.4100125       -48261566.051642776        871011093.53207028     
  -1210590832.2507596       -40801944.004182458        863239031.75251043     
  -1069580726.5603328       -32489770.186140776        858151292.94014108     
  -928314855.33872807       -23325044.597497642        855747877.09496820     
  -786793218.58594131       -13307767.238265038        856028784.21698380     
  -1518799780.2078753       -35823582.778799713        741040614.49399066     
  -1374800731.4987724       -31776290.515296757        730556415.85289705     
  -1231248217.2286749       -29217446.381816387        720671284.61771441     
  -1088142237.3975894       -28147050.378367782        711385220.78844452     
  -945482792.00550187       -28565102.504913449        702698224.36508417     
  -1690706465.7714362       -24721222.835659385        609792986.45817292     
  -1549420581.5447180       -25873622.265790939        595777300.99033344     
  -1409283531.7271900       -30855469.726563931        580275427.36712134     
  -1270295316.3188455       -39666765.217944801        563287365.58853793     
  -1132455935.3196883       -52307508.739949703        544813115.65458977     
  -554264781.43070936       -8248309.6101348102        1149026257.3449957     
  -458627027.69049424        30334341.834678113        1158637925.6685152     
  -350950390.08056295        109046606.17853424        1175686970.7034113     
  -231234868.60094339        227888483.42135349        1200173392.4496930     
  -99480463.251627445        386859973.56316674        1232097190.9073484     
  -656387215.06100905       -6535502.9399983585        1004804795.2102876     
  -542640249.98714650        23958931.643025815        1018377710.7826573     
  -417961535.04109579        90892532.466677308        1040309923.7914813     
  -282351070.22284627        194265299.53099385        1070601434.2367524     
  -135808855.53240895        334077232.83593178        1109252242.1184764     
  -786793218.58594131       -13307767.238265038        856028784.21698380     
  -652302982.96395361        9888668.2472904027        872271290.70778549     
  -507988131.46728206        65833823.315131038        897795015.36010432     
  -353848664.09591269        154527697.96529180        932599958.17394483     
  -189884580.84987319        275970292.19769198        976686119.14930630     
  -945482792.00550187       -28565102.504913449        702698224.36508417     
  -787615226.62089860       -11876448.352468014        720318665.44388855     
  -621030179.35912323        33870478.723884940        748142245.40928543     
  -445727650.22016054        108675678.72419864        786168964.26127458     
  -261707639.20401436        212539151.64846241        834398821.99985802     
  -1132455935.3196883       -52307508.739949703        544813115.65458977     
  -948576980.95798731       -41336418.156269550        562519834.99097097     
  -757087678.71661079       -4997501.3070317209        591351613.93902159     
  -557988028.59554577        56709241.807836741        631308452.49873066     
  -351278030.59483868        143783811.18820122        682390350.67010510     
  -99480463.251627445        386859973.56316674        1232097190.9073484     
  -84706737.527723759        547882071.54822719        1194219474.6347303     
  -57480811.015792221        750411505.49338627        1153023442.1295152     
  -17802683.715852201        994448275.39857626        1108509093.3917112     
   34327644.372122288        1279992381.2638700        1060676428.4213229     
  -135808855.53240895        334077232.83593178        1109252242.1184764     
  -126736820.15345848        484120690.74235427        1088239159.0909595     
  -94658570.869808525        710851528.33111775        1068692008.9719071     
  -39574107.681486726        1014269745.6021044        1050610791.7613137     
   38516569.411532998        1394375342.5554409        1033995507.4592092     
  -189884580.84987319        275970292.19769198        976686119.14930630     
  -172844952.55570576        419135895.00355417        984850684.66966963     
  -122245097.24019158        674168921.21391249        999265432.23955309     
  -38085014.903308213        1041069370.8288099        1019930361.8589711     
   79635294.454910576        1519837243.8482015        1046845473.5278926     
  -261707639.20401436        212539151.64846241        834398821.99985802     
  -223031134.73446989        352927684.33178562        884054051.37087512     
  -140240390.12691313        640363684.14183915        944743711.93247461     
  -13335405.381331146        1074847151.0786381        1016467803.6846594     
   157683819.50227034        1656378085.1421571        1099226326.6274154     
  -351278030.59483868        143783811.18820122        682390350.67010510     
  -277295366.68975526        285496058.72706079        785849259.19455898     
  -148644449.53001320        609435817.11479890        905126848.05065584     
   34674720.884444535        1115603086.3515892        1040223117.2383792     
   272662144.55358291        1803997866.4372983        1191138066.7577534     
  -5946816485.1763077       -1146919663.0371842       -53597194.212753244     
  -5349888141.0068388       -635446837.84625292        220197255.68843600     
  -4792285665.2350140       -255060240.64748240        430322835.00551438     
  -4274009057.8608398       -5759871.4408671856        576779543.73848379     
  -3795058318.8843102        112454269.77359343        659567381.88734508     
  -5596255861.5971670       -628285916.89618659        154959959.04207590     
  -5191812966.8199511       -338360290.16041827        287573006.82831264     
  -4809598383.5513315       -122529035.11995935        386915471.46350294     
  -4449612111.7913074        19207848.225178719        452987352.94764036     
  -4111854151.5398717        86850359.875006199        485788651.28072619     
  -5589906497.6928053       -212915548.65762281        290542936.04592454     
  -5291096802.4991026       -118481445.43437672        301921731.42110658     
  -4997417861.9249439       -41149857.609621763        310428231.07829529     
  -4708869675.9703341        19079214.816656590        316062435.01749647     
  -4425452244.6352577        62205771.844465494        318824343.23870695     
  -5927768393.4632158        99191441.678511143        353151736.79879820     
  -5647739648.0442877        24189696.331843615        263243429.46682158     
  -5355744100.3558512       -10922708.116472721        200861113.84990302     
  -5051781750.3979101       -6145771.6664302349        166004789.94805786     
  -4735852598.1704550        38520505.681977749        158674457.76128075     
  -6609841548.9084129        308035054.11220217        342786361.30069709     
  -6261741503.4555130        89653135.138249159        171538100.96544427     
  -5884577098.8440542       -31847586.640514374        58214119.778317630     
  -5478348335.0740452       -56467111.224079609        2814417.7393200803     
  -5043055212.1454697        15794561.387551785        5338994.8484519394     
  -3795058318.8843102        112454269.77359343        659567381.88734508     
  -3717810549.1600780        57449560.501876831        660657331.43970048     
  -3635989411.9462252        17689409.528906107        662830710.42387867     
  -3549594907.2427425       -6826183.1453025341        666087518.83987582     
  -3458627035.0496349       -16097217.520765781        670427756.68769193     
  -4111854151.5398717        86850359.875006199        485788651.28072619     
  -4026862830.2062473        48402548.639463902        491977981.83803177     
  -3939595064.0959058        17542886.659643888        499219638.50085527     
  -3850050853.2088528       -5728626.0644695759        507513621.26920068     
  -3758230197.5450788       -21411989.532850981        516859930.14306688     
  -4425452244.6352577        62205771.844465494        318824343.23870695     
  -4332806238.3388023        40288198.651143312        327433311.63589287     
  -4240180709.9785447        18302365.670488119        337063502.81230116     
  -4147575659.5544810       -3751727.0974750519        347714916.76792645     
  -4054991087.0666203       -25874079.652773857        359387553.50277811     
  -4735852598.1704550        38520505.681977749        158674457.76128075     
  -4635640773.5577402        33106510.536907434        167023320.83328858     
  -4537746349.5941410        19967846.561453342        176362303.35821688     
  -4442169326.2796421       -895486.24434399605        186691405.33606157     
  -4348909703.6142588       -29483487.880514860        198010626.76683351     
  -5043055212.1454697        15794561.387551785        5338994.8484519394     
  -4935366435.8630667        26857484.296744347        10748009.430216605     
  -4832291982.9426918        22539329.332527161        17116040.138591841     
  -4733831853.3843269        2840096.4949193001        24443086.973592144     
  -4639986047.1879940       -32240214.216098070        32729149.935224637     
  -3458627035.0496349       -16097217.520765781        670427756.68769193     
  -3288351997.3426518        2242156.6263728142        656734024.04941273     
  -3120132793.8054390        13728750.207606077        650696395.18981636     
  -2953969424.4380054        18362563.222912312        652314870.10890234     
  -2789861889.2403436        16143595.672307014        661589448.80667555     
  -3758230197.5450788       -21411989.532850981        516859930.14306688     
  -3569851921.7034364       -6332822.0425214767        502007166.94705153     
  -3382566412.6789246        5103789.3907022476        494176223.15059066     
  -3196373670.4715462        12897844.766802549        493367098.75367546     
  -3011273695.0813084        17049344.085785151        499579793.75630552     
  -4054991087.0666203       -25874079.652773857        359387553.50277811     
  -3850321814.1735606       -14598791.144228697        344499338.32711434     
  -3645782240.7449923       -3755834.1839895248        335998658.17186302     
  -3441372366.7809200        6654791.2279357910        333885513.03702652     
  -3237092192.2813377        16633085.091547012        338159902.92260236     
  -4348909703.6142588       -29483487.880514860        198010626.76683351     
  -4129761674.7530284       -22555750.678736687        184210538.18959635     
  -3909780278.0036416       -12850120.516435862        176163700.25363705     
  -3688965513.3661180       -366597.39368081093        173870112.95896056     
  -3467317380.8404460        14894818.689570189        177329776.30555797     
  -4639986047.1879940       -32240214.216098070        32729149.935224637     
  -4408171503.4418306       -30203700.646032095        21140766.534501091     
  -4174560524.4548826       -22179069.606693268        14671349.395921031     
  -3939153110.2271376       -8166321.0980291367        13320898.519476769     
  -3701949260.7586155        11834544.879901886        17089413.905183677     
  -2789861889.2403436        16143595.672307014        661589448.80667555     
  -2657690527.4489279        2488121.7468360662        657449538.67233038     
  -2524686839.8523464       -8392932.8280689716        653292547.03580832     
  -2390850826.4505968       -16499568.052415490        649118473.89711320     
  -2256182487.2436762       -21831783.926191092        644927319.25624645     
  -3011273695.0813084        17049344.085785151        499579793.75630552     
  -2877226405.1394124        5184347.4708288908        495283014.86707121     
  -2742548341.9844036       -4578071.7670810223        492033152.06257027     
  -2607239505.6162872       -12237913.627961516        489830205.34280711     
  -2471299896.0350513       -17795178.111801505        488674174.70777225     
  -3237092192.2813377        16633085.091547012        338159902.92260236     
  -3098128981.0835147        7470563.7187297344        333471110.58774400     
  -2958736549.2646232       -261222.25054872036        330893231.92452955     
  -2818914896.8246808       -6562272.8163118362        330426266.93295836     
  -2678664023.7636886       -11432587.978580594        332070215.61302948     
  -3467317380.8404460        14894818.689570189        177329776.30555797     
  -3320398255.2812290        9346770.4905474186        172013825.83434683     
  -3173251461.6930060        4557615.7215247154        169872786.62168458     
  -3025877000.0757880        527354.38250708580        170906658.66757476     
  -2878274870.4295731       -2744013.5265419483        175115441.97201374     
  -3701949260.7586155        11834544.879901886        17089413.905183677     
  -3544034227.7325625        10812967.786272049        10911160.606883975     
  -3386093079.2695503        9878442.1491630077        8971816.1540353056     
  -3228125815.3695993        9030967.9685181379        11271380.546652401     
  -3070132436.0327158        8270545.2443257570        17809853.784726933     
  -2256182487.2436762       -21831783.926191092        644927319.25624645     
  -2115144131.8602867       -23656310.269130826        630000508.48614657     
  -1973885343.1537881       -24746058.868368506        619169182.76310229     
  -1832406121.1241646       -25101029.723857999        612433342.08711290     
  -1690706465.7714362       -24721222.835659385        609792986.45817292     
  -2471299896.0350513       -17795178.111801505        488674174.70777225     
  -2319928356.3995161       -17793652.425474644        476247154.55645710     
  -2168574923.2822266       -17852481.799986720        467251856.00684249     
  -2017239596.6832018       -17971666.235362411        461688279.05891526     
  -1865922376.6024232       -18151205.731576443        459556423.71268660     
  -2678664023.7636886       -11432587.978580594        332070215.61302948     
  -2518855766.8627405       -10173950.359021902        321864689.59890372     
  -2359304156.3214102       -9770800.6048475504        314427121.74111634     
  -2200009192.1397047       -10223138.716099620        309757512.03966653     
  -2040970874.3176229       -11530964.692757368        307855860.49454319     
  -2878274870.4295731       -2744013.5265419483        175115441.97201374     
  -2711926363.2499456       -797204.06974077225        166853113.61347863     
  -2546073042.2713175       -501015.28291606903        160694979.96592975     
  -2380714907.4936886       -1855447.1660944223        156641041.02934164     
  -2215851958.9170313       -4860499.7191909552        154691296.80374217     
  -3070132436.0327158        8270545.2443257570        17809853.784726933     
  -2899140145.5611653        10336586.442309260        11212426.600192538     
  -2728881581.1319618        9956874.1657809019        6055430.6812721649     
  -2559356742.7451329        7131408.4146893024        2338866.0279672537     
  -2390565630.4006519        1860189.1890919209        62732.640285010013     
  -1690706465.7714362       -24721222.835659385        609792986.45817292     
  -1549420581.5447180       -25873622.265790939        595777300.99033344     
  -1409283531.7271900       -30855469.726563931        580275427.36712134     
  -1270295316.3188455       -39666765.217944801        563287365.58853793     
  -1132455935.3196883       -52307508.739949703        544813115.65458977     
  -1865922376.6024232       -18151205.731576443        459556423.71268660     
  -1728296567.1559961       -22449024.033023477        445376966.36186135     
  -1590659808.7396231       -26710345.767961800        430594120.92110002     
  -1453012101.3533044       -30935170.936412990        415207887.39039582     
  -1315353444.9970369       -35123499.538382351        399218265.76975352     
  -2040970874.3176229       -11530964.692757368        307855860.49454319     
  -1904482853.7502658       -18217516.095143318        294865711.86973315     
  -1766824100.8338184       -21001626.333895087        282154975.22040683     
  -1627994615.5683029       -19883295.409069538        269723650.54656994     
  -1487994397.9536872       -14862523.320598602        257571737.84822634     
  -2215851958.9170313       -4860499.7191909552        154691296.80374217     
  -2077979441.3275106       -13179098.452134371        144243537.51393107     
  -1937776408.0097795       -13729311.424371243        134957990.26503190     
  -1795242858.9638245       -6511138.6358566284        126834655.05706333     
  -1650378794.1896455        8475419.9133892059        119873531.89000367     
  -2390565630.4006519        1860189.1890919209        62732.640285010013     
  -2248786329.8877544       -7333771.1040648222       -6489556.7055300865     
  -2103516730.2674870       -4893401.0393449068       -10996833.945007790     
  -1954756831.5398829        9181299.3831837177       -13459099.078125045     
  -1802506633.7049131        34890330.163584352       -13876352.104899783     
  -1132455935.3196883       -52307508.739949703        544813115.65458977     
  -948576980.95798731       -41336418.156269550        562519834.99097097     
  -757087678.71661079       -4997501.3070317209        591351613.93902159     
  -557988028.59554577        56709241.807836741        631308452.49873066     
  -351278030.59483868        143783811.18820122        682390350.67010510     
  -1315353444.9970369       -35123499.538382351        399218265.76975352     
  -1116126515.2706392       -15283501.201002002        420840067.64669943     
  -913246021.37469041        16735044.368250549        441096273.78780377     
  -706711963.30913413        60932137.169506490        459986884.19307929     
  -496524341.07401383        117307777.20265031        477511898.86251831     
  -1487994397.9536872       -14862523.320598602        257571737.84822634     
  -1309107079.5697436        3140106.7583363652        278492374.60395050     
  -1130522980.7263324        20132005.035505772        285556760.27633876     
  -952242101.42342710        36113171.510971904        278764894.86539882     
  -774264441.66103697        51083606.184744984        258116778.37112364     
  -1650378794.1896455        8475419.9133892059        119873531.89000367     
  -1527518673.8552825        13934405.721751153        135476755.86272699     
  -1408918556.7715592        5193380.6946513653        124733073.40462127     
  -1294578442.9384270       -17747655.167751729        87642484.515694082     
  -1184498332.3559144       -54888701.865556598        24204989.195929866     
  -1802506633.7049131        34890330.163584352       -13876352.104899783     
  -1771361298.1272721        17099395.689197302       -8206788.5769579252     
  -1748432749.5103462       -28080828.654217839       -41374786.827342391     
  -1733720987.8541403       -100650342.86671585       -113380346.85604437     
  -1727226013.1586192       -200609146.94815308       -224223468.66307876     
  -351278030.59483868        143783811.18820122        682390350.67010510     
  -277295366.68975526        285496058.72706079        785849259.19455898     
  -148644449.53001320        609435817.11479890        905126848.05065584     
   34674720.884444535        1115603086.3515892        1040223117.2383792     
   272662144.55358291        1803997866.4372983        1191138066.7577534     
  -496524341.07401383        117307777.20265031        477511898.86251831     
  -387798874.14336932        223216303.22857216        596789966.09810638     
  -229998488.35978839        492707892.09762108        735236983.37086141     
  -23123183.723284483        925782543.80974221        892852950.68077660     
   232827039.76614487        1522440258.3649955        1069637868.0278677     
  -774264441.66103697        51083606.184744984        258116778.37112364     
  -621223972.54614663        124060070.44537458        386688447.51578254     
  -424701918.98008978        341975149.54327214        537779336.40314651     
  -184698280.96286887        704828843.47835529        711389445.03320646     
   98786941.505543411        1212621152.2507305        907518773.40596437     
  -1184498332.3559144       -54888701.865556598        24204989.195929866     
  -977570661.89812279       -11972639.622589290        155544703.44761413     
  -732754741.39092314        157237589.45175686        312753907.14753217     
  -450050570.83432066        452741985.35743958        495832600.29567498     
  -129458150.22829938        874540548.09451282        704780782.89204705     
  -1727226013.1586192       -200609146.94815308       -224223468.66307876     
  -1456838942.1992903       -184881826.97533727       -96641266.106418401     
  -1154156955.5922885       -61504788.176944613        60160695.604006574     
  -819180053.33765352        169521969.44688636        246182416.46818593     
  -451908235.43534470        508198445.89630783        461423896.48612475     
 </DataArray>
 <DataArray  type="Float64" Name="VM" NumberOfComponents="1" format="ascii">
   6271407062.8011656     
   5980693658.5105896     
   5688108398.2782221     
   5393438501.8642883     
   5096493012.5433722     
   5918475203.7306862     
   5631712649.9628420     
   5344440747.1763659     
   5056607973.8181143     
   4768201486.5600023     
   5569651113.3468628     
   5293818473.5651407     
   5019457692.3659096     
   4746757637.4697180     
   4476045343.0293922     
   5229654572.8462114     
   4971183755.6531038     
   4716880943.0009384     
   4467197593.5105543     
   4222890996.7058249     
   4904613954.5283451     
   4669042193.3737249     
   4441147178.8614788     
   4221569490.6370511     
   4011461153.2510242     
   5096493012.5433722     
   4970423796.3902855     
   4845644498.0818462     
   4722087363.1650429     
   4599821524.9604311     
   4768201486.5600023     
   4659355410.6672020     
   4551953559.2797613     
   4445993656.7585325     
   4341532515.1441460     
   4476045343.0293922     
   4378388357.8996458     
   4281695301.4558454     
   4185988831.3397021     
   4091303835.4662347     
   4222890996.7058249     
   4130925254.2803984     
   4038741208.2064176     
   3946324501.0974016     
   3853661769.0922551     
   4011461153.2510242     
   3920492034.9536362     
   3827420398.9222584     
   3732095506.5816622     
   3634390514.4925904     
   4599821524.9604311     
   4381437747.8561802     
   4162174564.7962155     
   3941998507.2871103     
   3720890601.2102022     
   4341532515.1441460     
   4130147390.2108622     
   3918655050.5799570     
   3707094338.6198978     
   3495558499.2349873     
   4091303835.4662347     
   3891605497.3316970     
   3693147563.5744276     
   3496118126.3379555     
   3300840472.9504781     
   3853661769.0922551     
   3670041279.1748533     
   3489650232.2213578     
   3312876966.1666594     
   3140352722.1317587     
   3634390514.4925904     
   3470637031.3431163     
   3312780849.0231743     
   3161402428.0525231     
   3017431408.6181374     
   3720890601.2102022     
   3556513053.8753033     
   3393418099.7778935     
   3231553375.3637800     
   3070970220.3426652     
   3495558499.2349873     
   3343551812.8133225     
   3193014916.3519034     
   3043975393.4321704     
   2896532189.9037695     
   3300840472.9504781     
   3159187688.1204395     
   3018936149.2159305     
   2880177337.9071846     
   2743050297.9370022     
   3140352722.1317587     
   3007594634.6694913     
   2875907001.1948552     
   2745420531.4260697     
   2616299896.9900804     
   3017431408.6181374     
   2892806448.9100637     
   2768688637.9289827     
   2645216633.9173074     
   2522560790.0903988     
   3070970220.3426652     
   2903582846.2299056     
   2735346748.5110116     
   2566250294.8839245     
   2396296984.9063373     
   2896532189.9037695     
   2730933506.3673639     
   2565066430.4682984     
   2398955462.7662182     
   2232647413.0282111     
   2743050297.9370022     
   2582389158.1619425     
   2422542757.3728352     
   2263670155.2716756     
   2106000175.6267855     
   2616299896.9900804     
   2463644085.0237055     
   2313422240.4125876     
   2166008573.9950900     
   2021920397.5154712     
   2522560790.0903988     
   2380585002.1781530     
   2243132298.6875744     
   2110806388.1202905     
   1984415657.3020813     
   2396296984.9063373     
   2249352361.9644456     
   2104847713.4843388     
   1962763461.9847903     
   1823281487.9698560     
   2232647413.0282111     
   2089587184.3046327     
   1948374853.6582558     
   1808999672.8449848     
   1671541687.7446120     
   2106000175.6267855     
   1965821777.5330868     
   1826674201.0153401     
   1688580880.5088344     
   1551595280.8821931     
   2021920397.5154712     
   1885372272.9429817     
   1749042609.5782969     
   1613045902.7574463     
   1477540745.2632325     
   1984415657.3020813     
   1854106922.0525668     
   1723532710.6453946     
   1593012465.8503232     
   1463025056.7640183     
   1823281487.9698560     
   1782329282.6053309     
   1737665257.7296007     
   1697974258.8752699     
   1681898018.5853837     
   1671541687.7446120     
   1555584467.4997373     
   1430388950.8542101     
   1296302293.8015225     
   1159461503.4554474     
   1551595280.8821931     
   1401051377.7485735     
   1246918579.7932451     
   1086930118.7198980     
   919054291.46921778     
   1477540745.2632325     
   1332585651.2083137     
   1202156388.8276269     
   1090774511.0252917     
   1004398924.2153393     
   1463025056.7640183     
   1353233098.1663504     
   1278539055.7540863     
   1247093080.8715672     
   1265984255.3202295     
   1681898018.5853837     
   1384016906.1982391     
   1129424964.6122596     
   1010004578.9120760     
   1153476705.1509609     
   1159461503.4554474     
   1008827155.4643459     
   985363531.38397241     
   1161462275.5642688     
   1544283102.9997659     
   919054291.46921778     
   964155326.99577200     
   1145457052.9518635     
   1476548244.8304253     
   1957331025.6598027     
   1004398924.2153393     
   1166432659.3724592     
   1426372675.1299181     
   1808977371.3192320     
   2334475162.4458442     
   1265984255.3202295     
   1448968856.6643617     
   1717062657.3822169     
   2110957181.4490585     
   2663201473.0820708     
   4904613954.5283451     
   4669042193.3737249     
   4441147178.8614788     
   4221569490.6370511     
   4011461153.2510242     
   4580727410.9106207     
   4374944125.7282848     
   4175717177.5535412     
   3983575433.3223228     
   3799344590.2571616     
   4287117346.4405503     
   4104695093.3130245     
   3927146240.2434154     
   3754887519.8088245     
   3588484886.5907202     
   4025382894.7089748     
   3860909747.5231028     
   3699108647.1778955     
   3540243802.4190712     
   3384644400.3440289     
   3797007651.7610211     
   3646450108.5608668     
   3495987109.7346525     
   3345642307.9197197     
   3195478137.0941062     
   4011461153.2510242     
   3920492034.9536362     
   3827420398.9222584     
   3732095506.5816622     
   3634390514.4925904     
   3799344590.2571616     
   3704072638.9339075     
   3608884446.2784820     
   3513840795.3851218     
   3419013544.2984104     
   3588484886.5907202     
   3497799303.0149150     
   3410343513.4005098     
   3326444789.3631344     
   3246508217.6380987     
   3384644400.3440289     
   3306365935.7630038     
   3235500242.1232967     
   3172604412.1993208     
   3118430591.1597567     
   3195478137.0941062     
   3135566383.0973043     
   3088405272.4040132     
   3054602582.7032771     
   3035092994.5929275     
   3634390514.4925904     
   3470637031.3431163     
   3312780849.0231743     
   3161402428.0525231     
   3017431408.6181374     
   3419013544.2984104     
   3280487357.2990651     
   3147513585.6799102     
   3020667874.6358380     
   2900734262.7254157     
   3246508217.6380987     
   3129090354.3950562     
   3016284163.4021974     
   2908569102.2411523     
   2806525750.7044392     
   3118430591.1597567     
   3018633537.4518003     
   2921894196.8114300     
   2828515213.2379131     
   2738834963.5732889     
   3035092994.5929275     
   2950163489.0709777     
   2866204388.7481980     
   2783276387.3624387     
   2701453022.6581259     
   3017431408.6181374     
   2892806448.9100637     
   2768688637.9289827     
   2645216633.9173074     
   2522560790.0903988     
   2900734262.7254157     
   2782315438.0576386     
   2666268774.4965100     
   2552938028.7374110     
   2442739258.0059266     
   2806525750.7044392     
   2698168490.6455717     
   2594509957.6260562     
   2496105981.0860267     
   2403619965.0516777     
   2738834963.5732889     
   2643521345.4871950     
   2555552118.7618952     
   2475626127.3154583     
   2404558840.2500415     
   2701453022.6581259     
   2620880428.9356241     
   2550456400.9636612     
   2490896804.9200859     
   2443016727.0472322     
   2522560790.0903988     
   2380585002.1781530     
   2243132298.6875744     
   2110806388.1202905     
   1984415657.3020813     
   2442739258.0059266     
   2317764571.6325226     
   2198304323.8008013     
   2085107595.7805593     
   1979105107.9839582     
   2403619965.0516777     
   2296839093.8479104     
   2196429210.4803338     
   2103184121.1175203     
   2018024488.6056292     
   2404558840.2500415     
   2316630834.3603253     
   2235636894.9325633     
   2162310319.4326754     
   2097446902.7050757     
   2443016727.0472322     
   2373943666.3581839     
   2311988500.2225389     
   2257752334.9086833     
   2211847667.6842918     
   1984415657.3020813     
   1854106922.0525668     
   1723532710.6453946     
   1593012465.8503232     
   1463025056.7640183     
   1979105107.9839582     
   1862773527.2659750     
   1750655078.0306690     
   1643660756.9305296     
   1542912280.1160021     
   2018024488.6056292     
   1920960923.8083384     
   1832689072.3493843     
   1754423785.7908769     
   1687473402.9344647     
   2097446902.7050757     
   2021336815.9364529     
   1957785364.8559234     
   1907899501.8319564     
   1872735308.2764115     
   2211847667.6842918     
   2155288555.3437619     
   2114051677.2766385     
   2088929623.9817557     
   2080624246.7691762     
   1463025056.7640183     
   1353233098.1663504     
   1278539055.7540863     
   1247093080.8715672     
   1265984255.3202295     
   1542912280.1160021     
   1481359511.0616820     
   1452555714.1118078     
   1460468256.6382937     
   1508408495.3144078     
   1687473402.9344647     
   1658348059.3745608     
   1656945773.7484150     
   1685622369.4601529     
   1746982013.8129210     
   1872735308.2764115     
   1861667725.0406787     
   1873522305.8930554     
   1910483531.0489881     
   1975559799.5033703     
   2080624246.7691762     
   2076671444.7371266     
   2091852480.1318016     
   2128763680.4909952     
   2191176256.2112756     
   1265984255.3202295     
   1448968856.6643617     
   1717062657.3822169     
   2110957181.4490585     
   2663201473.0820708     
   1508408495.3144078     
   1615780723.3577526     
   1790246587.8045824     
   2066673523.4779506     
   2475420530.5184693     
   1746982013.8129210     
   1790516094.1712887     
   1886105122.1790118     
   2060774201.1103294     
   2339930536.3650870     
   1975559799.5033703     
   1972144673.3340061     
   2005217211.9172666     
   2093558001.6972966     
   2256000265.9071417     
   2191176256.2112756     
   2159957056.5600977     
   2148335437.0927634     
   2166929687.9409380     
   2226954616.5450010     
   3797007651.7610211     
   3646450108.5608668     
   3495987109.7346525     
   3345642307.9197197     
   3195478137.0941062     
   3573008267.0158267     
   3438456376.1056962     
   3302843136.2355170     
   3165882103.4325147     
   3027375653.2898774     
   3432113295.3821492     
   3305513649.4303360     
   3177091860.6688185     
   3045360448.5052905     
   2909323036.6718812     
   3373360834.9870014     
   3246940773.0394421     
   3118393577.3386188     
   2984358164.8628387     
   2842762729.0822248     
   3393927170.2469568     
   3259535938.5407443     
   3123470693.6638513     
   2980196632.5322313     
   2826667781.7195454     
   3195478137.0941062     
   3135566383.0973043     
   3088405272.4040132     
   3054602582.7032771     
   3035092994.5929275     
   3027375653.2898774     
   2994178823.8288083     
   2971388768.7791448     
   2959262480.9808631     
   2958201536.3309484     
   2909323036.6718812     
   2894385267.5674911     
   2886457750.8271055     
   2885610157.7476935     
   2891962202.2017226     
   2842762729.0822248     
   2838912118.4071140     
   2837675572.5499773     
   2839060240.1293554     
   2843086478.8578610     
   2826667781.7195454     
   2828737559.2594776     
   2828186034.7572107     
   2825004591.2594852     
   2819192777.8525972     
   3035092994.5929275     
   2950163489.0709777     
   2866204388.7481980     
   2783276387.3624387     
   2701453022.6581259     
   2958201536.3309484     
   2873896956.2350407     
   2794675409.1417394     
   2720998860.6810551     
   2653363748.0687299     
   2891962202.2017226     
   2813323070.3289776     
   2744445452.1945477     
   2686033357.1349821     
   2638846637.4086156     
   2843086478.8578610     
   2773096743.5492959     
   2717985596.4439850     
   2678466366.6370387     
   2655322612.6695695     
   2819192777.8525972     
   2758060452.9586487     
   2717355229.6583543     
   2697568318.1710668     
   2699280362.0575461     
   2701453022.6581259     
   2620880428.9356241     
   2550456400.9636612     
   2490896804.9200859     
   2443016727.0472322     
   2653363748.0687299     
   2592956960.3292370     
   2541310472.5282712     
   2498875801.8675237     
   2466136221.1701932     
   2638846637.4086156     
   2595176600.5600858     
   2558417510.4263763     
   2528814080.6922178     
   2506613709.3741336     
   2655322612.6695695     
   2625305589.8371782     
   2600005712.6726613     
   2579524949.5282636     
   2563961340.4973769     
   2699280362.0575461     
   2680351919.4885097     
   2663726648.8919711     
   2649419431.8601298     
   2637445148.0630927     
   2443016727.0472322     
   2373943666.3581839     
   2311988500.2225389     
   2257752334.9086833     
   2211847667.6842918     
   2466136221.1701932     
   2408942355.3926778     
   2360771610.2024550     
   2322208069.1374164     
   2293820713.5575423     
   2506613709.3741336     
   2461400327.0581889     
   2426960384.0413456     
   2403788707.1658664     
   2392348098.1157112     
   2563961340.4973769     
   2529894368.8404808     
   2508232561.4839268     
   2499342585.7192359     
   2503557681.2935748     
   2637445148.0630927     
   2612854502.9115939     
   2602281964.4084740     
   2605958954.5065479     
   2624095120.7937965     
   2211847667.6842918     
   2155288555.3437619     
   2114051677.2766385     
   2088929623.9817557     
   2080624246.7691762     
   2293820713.5575423     
   2252547998.0323544     
   2225288113.8678985     
   2212483032.7005515     
   2214516993.8279362     
   2392348098.1157112     
   2363115896.3870435     
   2346562533.0968313     
   2342915839.8801908     
   2352383347.4070115     
   2503557681.2935748     
   2483499366.7346439     
   2474876992.4655886     
   2477800700.8680530     
   2492390369.2349801     
   2624095120.7937965     
   2610786521.1046925     
   2607815795.1676784     
   2615237639.1262579     
   2633136979.7201662     
   2080624246.7691762     
   2076671444.7371266     
   2091852480.1318016     
   2128763680.4909952     
   2191176256.2112756     
   2214516993.8279362     
   2199313369.5996161     
   2199167907.6159883     
   2216028580.0694938     
   2252787480.2200928     
   2352383347.4070115     
   2326764432.6305871     
   2312910060.6857991     
   2312211701.6832743     
   2326738754.6604357     
   2492390369.2349801     
   2458107166.9071016     
   2432785325.7693248     
   2417360087.8597441     
   2413194992.7274432     
   2633136979.7201662     
   2592600598.0349798     
   2558529683.4854226     
   2531498233.8463564     
   2512305785.2630796     
   2191176256.2112756     
   2159957056.5600977     
   2148335437.0927634     
   2166929687.9409380     
   2226954616.5450010     
   2252787480.2200928     
   2186187875.0578742     
   2135941075.9909987     
   2111759058.5357971     
   2124674115.0546615     
   2326738754.6604357     
   2228198085.1376209     
   2142823566.4696670     
   2078973474.9474244     
   2046855031.0306284     
   2413194992.7274432     
   2286277372.3528395     
   2169632813.6363964     
   2069947169.4442132     
   1995953521.0517004     
   2512305785.2630796     
   2360628607.0660720     
   2216837740.6562209     
   2085825416.0992751     
   1974368204.2954645     
   3393927170.2469568     
   3259535938.5407443     
   3123470693.6638513     
   2980196632.5322313     
   2826667781.7195454     
   3622407692.5703149     
   3383085282.3587766     
   3158698121.5485172     
   2952544681.1025777     
   2768650336.5779281     
   3752435394.6946182     
   3424460805.6935244     
   3145983588.2198043     
   2920156658.9583378     
   2751008211.7085791     
   3846857419.1165218     
   3439214303.6010609     
   3128330597.0442872     
   2910504252.6930552     
   2782939996.1022086     
   4011919540.0698638     
   3514920101.6936994     
   3168065207.9785295     
   2957720468.1595998     
   2871479625.7749825     
   2826667781.7195454     
   2828737559.2594776     
   2828186034.7572107     
   2825004591.2594852     
   2819192777.8525972     
   2768650336.5779281     
   2759744273.1865559     
   2753911942.6969695     
   2751144864.3722553     
   2751436269.3322678     
   2751008211.7085791     
   2730558933.3871646     
   2719219452.1588116     
   2716968700.7545419     
   2723788104.0112648     
   2782939996.1022086     
   2747483092.0282087     
   2727374073.6964412     
   2722595541.6757665     
   2733131668.3199201     
   2871479625.7749825     
   2814791696.3689413     
   2779745078.8583016     
   2766447026.0418873     
   2775001033.8563485     
   2819192777.8525972     
   2758060452.9586487     
   2717355229.6583543     
   2697568318.1710668     
   2699280362.0575461     
   2751436269.3322678     
   2712377451.5280619     
   2690302307.8094244     
   2685364962.8803220     
   2697761771.6288199     
   2723788104.0112648     
   2700024359.8127728     
   2689589362.4371877     
   2692493599.5823317     
   2708766077.7681408     
   2733131668.3199201     
   2719247086.8262286     
   2714881146.8021922     
   2720012555.8496318     
   2734625726.0809703     
   2775001033.8563485     
   2767273474.7898459     
   2765129836.0610604     
   2768557711.0471730     
   2777544948.5628185     
   2699280362.0575461     
   2680351919.4885097     
   2663726648.8919711     
   2649419431.8601298     
   2637445148.0630927     
   2697761771.6288199     
   2676998816.7604194     
   2660925513.8396192     
   2649597194.0909319     
   2643063576.0899587     
   2708766077.7681408     
   2686436327.4559970     
   2671230505.2510552     
   2663202972.0872107     
   2662400379.0594640     
   2734625726.0809703     
   2710094329.2693892     
   2695160150.8077102     
   2689848280.2401757     
   2694177869.3671989     
   2777544948.5628185     
   2749232822.8161554     
   2733047186.8927250     
   2728979756.5476289     
   2737020951.3713646     
   2637445148.0630927     
   2612854502.9115939     
   2602281964.4084740     
   2605958954.5065479     
   2624095120.7937965     
   2643063576.0899587     
   2628942411.9616752     
   2627543760.1436424     
   2638966047.9120955     
   2663298193.9572549     
   2662400379.0594640     
   2655572860.8911247     
   2660304007.3830934     
   2676621823.7701921     
   2704552088.7967038     
   2694177869.3671989     
   2691766123.4847507     
   2699887339.3097782     
   2718542744.1379700     
   2747733662.0658922     
   2737020951.3713646     
   2736503809.8385558     
   2745616349.3599367     
   2764362001.5065122     
   2792743192.0926652     
   2624095120.7937965     
   2610786521.1046925     
   2607815795.1676784     
   2615237639.1262579     
   2633136979.7201662     
   2663298193.9572549     
   2649255109.7427106     
   2645516096.7065969     
   2652119130.3493013     
   2669116581.3066487     
   2704552088.7967038     
   2689855145.0371456     
   2685603389.8075147     
   2691817550.8549428     
   2708522934.9407277     
   2747733662.0658922     
   2732435378.1442285     
   2727904172.4451590     
   2734146437.5988297     
   2751168787.4292026     
   2792743192.0926652     
   2776857513.3983188     
   2772251645.1781449     
   2778923630.3098145     
   2796871934.4663243     
   2633136979.7201662     
   2592600598.0349798     
   2558529683.4854226     
   2531498233.8463564     
   2512305785.2630796     
   2669116581.3066487     
   2622446244.6704535     
   2581759348.0756402     
   2547379815.8185706     
   2519760880.8897538     
   2708522934.9407277     
   2657801531.1650648     
   2612734157.3263717     
   2573463381.1786795     
   2540188518.0157986     
   2751168787.4292026     
   2698517592.4201293     
   2651338072.7717328     
   2609664663.0503707     
   2573544796.8170071     
   2796871934.4663243     
   2744441846.8187265     
   2697442966.0891757     
   2655875193.6217008     
   2619738517.5881162     
   2512305785.2630796     
   2360628607.0660720     
   2216837740.6562209     
   2085825416.0992751     
   1974368204.2954645     
   2519760880.8897538     
   2350731641.5831490     
   2185093151.3151116     
   2025856896.2665443     
   1877465468.2607980     
   2540188518.0157986     
   2358937388.2715445     
   2177389809.7247396     
   1996945453.4039969     
   1819770456.4313924     
   2573544796.8170071     
   2385352832.8898001     
   2194191020.5625501     
   2000397644.2433953     
   1804510515.9497914     
   2619738517.5881162     
   2429949040.6606712     
   2235633118.6390352     
   2036791937.2117774     
   1833427637.9682193     
   4011919540.0698638     
   3514920101.6936994     
   3168065207.9785295     
   2957720468.1595998     
   2871479625.7749825     
   2968554935.4286132     
   2767388154.8223758     
   2646349592.6875377     
   2600467222.4256854     
   2628022631.4892111     
   2376542368.3696451     
   2328329490.5909343     
   2317804496.4260726     
   2349958741.9753256     
   2428820482.0117378     
   2127398958.1031785     
   2069874422.5262728     
   2079207852.4789135     
   2142893125.3332329     
   2246728954.8733535     
   2049198362.7916777     
   1854218314.4692144     
   1833147217.0253105     
   1922696786.9155545     
   2057235586.2572386     
   2871479625.7749825     
   2814791696.3689413     
   2779745078.8583016     
   2766447026.0418873     
   2775001033.8563485     
   2628022631.4892111     
   2611304705.0649323     
   2603493147.9820142     
   2604542758.3204513     
   2614463426.0739908     
   2428820482.0117378     
   2448831037.6309409     
   2465875357.6083183     
   2479128618.8711624     
   2488023402.4451938     
   2246728954.8733535     
   2306979262.7658696     
   2353334602.4944768     
   2383575997.6411471     
   2396200818.5352359     
   2057235586.2572386     
   2166706935.1227174     
   2252344032.6153269     
   2310289876.1554723     
   2338291984.1902990     
   2775001033.8563485     
   2767273474.7898459     
   2765129836.0610604     
   2768557711.0471730     
   2777544948.5628185     
   2614463426.0739908     
   2613498098.3097243     
   2619208843.0918002     
   2631616565.3654413     
   2650737706.0405459     
   2488023402.4451938     
   2490455895.3604321     
   2500742645.3725748     
   2518961606.6575050     
   2545179665.9796476     
   2396200818.5352359     
   2397872693.0262389     
   2408694047.8686934     
   2428843488.8375053     
   2458477808.7148123     
   2338291984.1902990     
   2334495175.9680133     
   2341260789.1964736     
   2358938260.8025861     
   2387839111.1334691     
   2777544948.5628185     
   2749232822.8161554     
   2733047186.8927250     
   2728979756.5476289     
   2737020951.3713646     
   2650737706.0405459     
   2635613797.2097616     
   2631673933.5309744     
   2638913025.6806202     
   2657331158.7392755     
   2545179665.9796476     
   2540888269.6521225     
   2546990145.2486024     
   2563524228.7012696     
   2590536979.7020092     
   2458477808.7148123     
   2462700901.3332949     
   2476752419.4211116     
   2500743016.8547010     
   2534787263.2002854     
   2387839111.1334691     
   2398392162.2101355     
   2418497729.3407626     
   2448350424.5593891     
   2488138837.7962680     
   2737020951.3713646     
   2736503809.8385558     
   2745616349.3599367     
   2764362001.5065122     
   2792743192.0926652     
   2657331158.7392755     
   2662691524.8324509     
   2676563108.3751912     
   2698962694.7480083     
   2729909041.2514658     
   2590536979.7020092     
   2599076002.8117805     
   2615086172.8455911     
   2638593553.7156129     
   2669637472.1897149     
   2534787263.2002854     
   2544217537.7495341     
   2560120219.2141595     
   2582520733.0111613     
   2611479385.6215563     
   2488138837.7962680     
   2496620943.7581248     
   2510572100.8772850     
   2530003551.7523561     
   2554994942.0164518     
   2792743192.0926652     
   2776857513.3983188     
   2772251645.1781449     
   2778923630.3098145     
   2796871934.4663243     
   2729909041.2514658     
   2718040159.2392282     
   2716478588.1134758     
   2725225464.0564904     
   2744285729.7252645     
   2669637472.1897149     
   2661820687.2398553     
   2663501915.2146955     
   2674691787.8148336     
   2695412391.9951749     
   2611479385.6215563     
   2607921272.8569293     
   2613194061.0551639     
   2627316619.7495356     
   2650332899.5394692     
   2554994942.0164518     
   2556062874.5531383     
   2565420478.1351376     
   2583085886.0797524     
   2609123422.6813965     
   2796871934.4663243     
   2744441846.8187265     
   2697442966.0891757     
   2655875193.6217008     
   2619738517.5881162     
   2744285729.7252645     
   2692844710.3106623     
   2646705487.3831902     
   2605905837.1401696     
   2570499190.9325781     
   2695412391.9951749     
   2646957075.0796566     
   2603811365.4640450     
   2566124165.6226964     
   2534102367.5844955     
   2650332899.5394692     
   2606858054.0103478     
   2568840067.8727231     
   2536611004.7312698     
   2510627990.6484556     
   2609123422.6813965     
   2572616408.2453403     
   2541854852.6112809     
   2517420818.7680840     
   2500108394.7987871     
   2619738517.5881162     
   2429949040.6606712     
   2235633118.6390352     
   2036791937.2117774     
   1833427637.9682193     
   2570499190.9325781     
   2383349084.4352770     
   2193302079.5279737     
   2000777066.4928632     
   1806444744.5946734     
   2534102367.5844955     
   2354866171.4562769     
   2175464190.0335698     
   1997437707.6381516     
   1823172732.1665590     
   2510627990.6484556     
   2344515686.5670376     
   2181961331.3925333     
   2026149808.1575778     
   1881766652.7989168     
   2500108394.7987871     
   2352179615.6546435     
   2212316577.4467239     
   2085585633.4660378     
   1978972961.4356949     
   2049198362.7916777     
   1854218314.4692144     
   1833147217.0253105     
   1922696786.9155545     
   2057235586.2572386     
   2056165441.5387676     
   2091598186.9446597     
   2152518714.0793843     
   2229185887.3155565     
   2314161340.8999305     
   2923684279.5819616     
   2799810979.3657517     
   2708777251.2463512     
   2652420547.8901114     
   2633344228.6372600     
   4105002968.4899487     
   3709366239.5852551     
   3394926164.5398817     
   3160356358.4272609     
   3008133565.1912699     
   5466543231.1602259     
   4772058628.0614109     
   4204763537.3707347     
   3760447084.5264239     
   3443739003.4038625     
   2057235586.2572386     
   2166706935.1227174     
   2252344032.6153269     
   2310289876.1554723     
   2338291984.1902990     
   2314161340.8999305     
   2385445013.3581386     
   2440343768.6440482     
   2478548055.4571004     
   2500034861.0804448     
   2633344228.6372600     
   2649407247.9435377     
   2663488960.7308469     
   2675686216.5133538     
   2686110296.1984258     
   3008133565.1912699     
   2960352452.2551045     
   2926132680.0310483     
   2904867212.2002954     
   2895971790.1088743     
   3443739003.4038625     
   3325089129.8766398     
   3234083581.6488314     
   3169160825.1198397     
   3128987011.2655759     
   2338291984.1902990     
   2334495175.9680133     
   2341260789.1964736     
   2358938260.8025861     
   2387839111.1334691     
   2500034861.0804448     
   2472384863.5117822     
   2454042486.4895945     
   2445465173.4039679     
   2447094951.9157786     
   2686110296.1984258     
   2634804473.0291142     
   2591394578.8124990     
   2556380917.1701531     
   2530278797.9775610     
   2895971790.1088743     
   2822046418.3479276     
   2754524968.0050941     
   2693877214.0843759     
   2640612417.9579282     
   3128987011.2655759     
   3034103971.9788332     
   2944161798.2330580     
   2859541538.6412792     
   2780672992.4287806     
   2387839111.1334691     
   2398392162.2101355     
   2418497729.3407626     
   2448350424.5593891     
   2488138837.7962680     
   2447094951.9157786     
   2435670064.6472712     
   2434317346.0462704     
   2443316857.7856369     
   2462923792.1440411     
   2530278797.9775610     
   2493317584.5384684     
   2466518536.5786195     
   2450342942.3843656     
   2445243703.1326919     
   2640612417.9579282     
   2575275300.9669328     
   2519659354.6454325     
   2474442154.2575216     
   2440360014.8689413     
   2780672992.4287806     
   2685023784.5159698     
   2598119573.4239483     
   2520809159.7005258     
   2454114665.8742309     
   2488138837.7962680     
   2496620943.7581248     
   2510572100.8772850     
   2530003551.7523561     
   2554994942.0164518     
   2462923792.1440411     
   2448157482.5500913     
   2439917785.4105043     
   2438380451.0313339     
   2443727495.1250629     
   2445243703.1326919     
   2407829696.1946783     
   2378157317.8436575     
   2356499959.7301202     
   2343115647.3556304     
   2440360014.8689413     
   2380698293.7494855     
   2330064871.6323895     
   2288774658.6642127     
   2257145973.6140118     
   2454114665.8742309     
   2372451355.0727415     
   2301077011.4747190     
   2240295791.2882152     
   2190475537.9627838     
   2554994942.0164518     
   2556062874.5531383     
   2565420478.1351376     
   2583085886.0797524     
   2609123422.6813965     
   2443727495.1250629     
   2435279082.8713861     
   2436932616.3142323     
   2448763623.7246213     
   2470863042.5227699     
   2343115647.3556304     
   2322345630.5040660     
   2313603419.3744469     
   2317097600.0602698     
   2333010644.4109874     
   2257145973.6140118     
   2220657596.3541689     
   2198177365.7126398     
   2190169184.8788738     
   2197021437.9907455     
   2190475537.9627838     
   2134341240.4434178     
   2094108497.3175309     
   2070674655.5501399     
   2064821966.9568045     
   2609123422.6813965     
   2572616408.2453403     
   2541854852.6112809     
   2517420818.7680840     
   2500108394.7987871     
   2470863042.5227699     
   2439696269.0899472     
   2416939535.9070134     
   2403550002.2533474     
   2400901716.6711955     
   2333010644.4109874     
   2309756440.5458708     
   2297867446.4839487     
   2298773091.5961123     
   2314576271.4384398     
   2197021437.9907455     
   2183582356.3227253     
   2184933754.1946096     
   2203081888.1623354     
   2240984232.6201777     
   2064821966.9568045     
   2062158238.4113169     
   2078472238.6496689     
   2116446787.5864961     
   2179961576.4097691     
   2500108394.7987871     
   2352179615.6546435     
   2212316577.4467239     
   2085585633.4660378     
   1978972961.4356949     
   2400901716.6711955     
   2278044388.8691773     
   2165663366.3663535     
   2070544610.5705156     
   2001489920.5059888     
   2314576271.4384398     
   2220163156.4048929     
   2139112774.0563936     
   2079781451.3304267     
   2052287211.4641001     
   2240984232.6201777     
   2178332362.7177153     
   2132198493.5136442     
   2112178842.2279663     
   2129072251.0265181     
   2179961576.4097691     
   2152263868.4250369     
   2144281909.5081251     
   2166408407.1351194     
   2229511878.7358994     
   5466543231.1602259     
   4772058628.0614109     
   4204763537.3707347     
   3760447084.5264239     
   3443739003.4038625     
   5488214001.7860889     
   4913312985.3742619     
   4387993356.8880224     
   3920149190.2790027     
   3525670133.8876557     
   5632030401.1512499     
   5107583011.2260036     
   4599172848.4158030     
   4113639070.6271238     
   3661270256.1930342     
   5667560288.2290688     
   5192418691.9046259     
   4733116790.3271542     
   4281609615.9924488     
   3830895328.0747366     
   5465175956.9282017     
   5076513251.9494724     
   4729087577.4858913     
   4386410011.1948786     
   4018329442.9738879     
   3443739003.4038625     
   3325089129.8766398     
   3234083581.6488314     
   3169160825.1198397     
   3128987011.2655759     
   3525670133.8876557     
   3416161440.5119324     
   3325142442.2895904     
   3251669627.8198557     
   3195078400.0129862     
   3661270256.1930342     
   3555266474.5360827     
   3460974862.2614131     
   3377910456.7992949     
   3305817129.4893527     
   3830895328.0747366     
   3726827184.1541972     
   3629844396.8395247     
   3539681153.6607184     
   3456229687.5475240     
   4018329442.9738879     
   3917704256.6127152     
   3821398183.4909968     
   3729136383.3512793     
   3640756232.8578959     
   3128987011.2655759     
   3034103971.9788332     
   2944161798.2330580     
   2859541538.6412792     
   2780672992.4287806     
   3195078400.0129862     
   3087522297.7693644     
   2985150887.7103162     
   2888457490.0768762     
   2798033124.8609772     
   3305817129.4893527     
   3183071472.7190194     
   3065312378.0431499     
   2953110546.0612340     
   2847199666.6501865     
   3456229687.5475240     
   3315895974.0358753     
   3179957559.2295675     
   3049005867.7992301     
   2923868411.4025226     
   3640756232.8578959     
   3480594147.6918621     
   3323923893.4491534     
   3171286657.4709220     
   3023529423.5967617     
   2780672992.4287806     
   2685023784.5159698     
   2598119573.4239483     
   2520809159.7005258     
   2454114665.8742309     
   2798033124.8609772     
   2688997645.4438429     
   2586242519.4797559     
   2490497831.8578858     
   2402645740.1239777     
   2847199666.6501865     
   2727335390.3687224     
   2611596817.8915505     
   2500512188.5425005     
   2394719863.4533434     
   2923868411.4025226     
   2796548769.7739277     
   2671672681.8062458     
   2549536755.1903648     
   2430497186.7465453     
   3023529423.5967617     
   2892517497.9143472     
   2762842378.7150607     
   2634588446.7284026     
   2507862295.9293532     
   2454114665.8742309     
   2372451355.0727415     
   2301077011.4747190     
   2240295791.2882152     
   2190475537.9627838     
   2402645740.1239777     
   2308304465.3369603     
   2223262029.0023074     
   2148074422.8305831     
   2083390112.5037000     
   2394719863.4533434     
   2285904214.9689636     
   2184974929.5183444     
   2092647735.0313411     
   2009782549.0894699     
   2430497186.7465453     
   2306654043.0628886     
   2188956555.1773295     
   2078134501.8309839     
   1975107801.8125477     
   2507862295.9293532     
   2369611726.8003521     
   2235643366.7059588     
   2106554240.7956080     
   1983140342.9839597     
   2190475537.9627838     
   2134341240.4434178     
   2094108497.3175309     
   2070674655.5501399     
   2064821966.9568045     
   2083390112.5037000     
   2006668463.3175929     
   1942886735.1808937     
   1893246652.2075429     
   1858896204.1365249     
   2009782549.0894699     
   1911372642.9552324     
   1821971187.6204615     
   1742863399.8120384     
   1675442043.9657493     
   1975107801.8125477     
   1857024164.2895274     
   1743259362.3009512     
   1634755207.3467901     
   1532677476.1073813     
   1983140342.9839597     
   1850982505.8902566     
   1718635139.3703206     
   1586415174.3946483     
   1454792275.5997887     
   2064821966.9568045     
   2062158238.4113169     
   2078472238.6496689     
   2116446787.5864961     
   2179961576.4097691     
   1858896204.1365249     
   1849138458.1541104     
   1862169995.5274687     
   1900230102.2920790     
   1966403798.6450849     
   1675442043.9657493     
   1647610084.0058317     
   1647402957.2977765     
   1677198602.4230645     
   1739645247.0253773     
   1532677476.1073813     
   1472311673.1964641     
   1444649002.5535011     
   1453653403.4403472     
   1502648023.1517234     
   1454792275.5997887     
   1345950187.7134519     
   1272208070.8534877     
   1241716852.9060450     
   1261565656.3282828     
   2179961576.4097691     
   2152263868.4250369     
   2144281909.5081251     
   2166408407.1351194     
   2229511878.7358994     
   1966403798.6450849     
   1965854619.2024584     
   2001965574.1953895     
   2093274266.3753066     
   2258207186.1802344     
   1739645247.0253773     
   1785437877.1812947     
   1883469048.2370043     
   2060509372.6714246     
   2341553048.2590265     
   1502648023.1517234     
   1611728698.1934156     
   1788060376.9407980     
   2066259456.4777429     
   2476320673.1599517     
   1261565656.3282828     
   1445767833.6300759     
   1715185200.5843892     
   2110280018.8173919     
   2663325121.4202514     
   5465175956.9282017     
   5076513251.9494724     
   4729087577.4858913     
   4386410011.1948786     
   4018329442.9738879     
   5316842284.9808569     
   5055769073.9643393     
   4796565987.4987040     
   4527745243.1347189     
   4240280108.9668961     
   5509578501.8425789     
   5258927326.4562330     
   5005929746.2094870     
   4750089006.1439934     
   4490961220.6921968     
   6009193740.3564959     
   5678208933.2834435     
   5361590296.3267775     
   5056892553.5226927     
   4763165318.2007217     
   6795105684.5284071     
   6314040311.7335262     
   5869584224.9039412     
   5450336344.9551725     
   5050979479.3330965     
   4018329442.9738879     
   3917704256.6127152     
   3821398183.4909968     
   3729136383.3512793     
   3640756232.8578959     
   4240280108.9668961     
   4139928077.6186485     
   4041966060.4723387     
   3946337430.4670033     
   3853013634.4874363     
   4490961220.6921968     
   4389878326.0008297     
   4289278282.2417297     
   4189218822.7905927     
   4089765428.8048959     
   4763165318.2007217     
   4661268248.2059078     
   4558010603.0078726     
   4453476424.7930708     
   4347791219.0727005     
   5050979479.3330965     
   4948884850.7897682     
   4843691704.3411760     
   4735441797.2371826     
   4624297719.3469458     
   3640756232.8578959     
   3480594147.6918621     
   3323923893.4491534     
   3171286657.4709220     
   3023529423.5967617     
   3853013634.4874363     
   3671145488.4797273     
   3491658045.9721761     
   3314880180.2628808     
   3141359594.0571790     
   4089765428.8048959     
   3889089936.6977773     
   3690085987.4174609     
   3492911146.1896806     
   3297869268.2648492     
   4347791219.0727005     
   4130870482.6694326     
   3915278629.6711435     
   3701054819.4530568     
   3488336894.2122831     
   4624297719.3469458     
   4393300123.0091248     
   4163592842.7856264     
   3935143944.5682402     
   3707998842.3078303     
   3023529423.5967617     
   2892517497.9143472     
   2762842378.7150607     
   2634588446.7284026     
   2507862295.9293532     
   3141359594.0571790     
   3004877867.6968050     
   2869725884.4555340     
   2736008282.9731379     
   2603856749.0874443     
   3297869268.2648492     
   3155188220.6143818     
   3013605837.0615749     
   2873216024.5974264     
   2734146937.9769764     
   3488336894.2122831     
   3338402792.5127707     
   3189134422.1672244     
   3040584625.5478497     
   2892848421.2329907     
   3707998842.3078303     
   3549503375.9425521     
   3391078697.1326675     
   3232709710.3101172     
   3074430812.1329708     
   2507862295.9293532     
   2369611726.8003521     
   2235643366.7059588     
   2106554240.7956080     
   1983140342.9839597     
   2603856749.0874443     
   2453882281.3527117     
   2306359546.0098252     
   2161664547.4093990     
   2020322588.2430422     
   2734146937.9769764     
   2574859570.0002341     
   2416599372.0022244     
   2259536038.1528502     
   2103921672.1141002     
   2892848421.2329907     
   2726885248.9714932     
   2560992228.7758293     
   2395203304.5073123     
   2229583273.2576618     
   3074430812.1329708     
   2904387163.7365170     
   2733893735.7591801     
   2562933089.7850709     
   2391496270.0586267     
   1983140342.9839597     
   1850982505.8902566     
   1718635139.3703206     
   1586415174.3946483     
   1454792275.5997887     
   2020322588.2430422     
   1882497367.3415966     
   1744895093.4470038     
   1607620833.0963979     
   1470820927.4210989     
   2103921672.1141002     
   1963040813.4294219     
   1823139210.8550987     
   1684234086.7238424     
   1546370742.0651009     
   2229583273.2576618     
   2086433546.9697175     
   1945045640.3550622     
   1805411679.2625246     
   1667608659.5163262     
   2391496270.0586267     
   2245156564.8127971     
   2101160636.4115105     
   1959502287.9409661     
   1820361285.7629044     
   1454792275.5997887     
   1345950187.7134519     
   1272208070.8534877     
   1241716852.9060450     
   1261565656.3282828     
   1470820927.4210989     
   1326737634.2642760     
   1197196449.2939317     
   1086728943.0216486     
   1001297429.9954420     
   1546370742.0651009     
   1396623052.2856412     
   1243332293.4503043     
   1084245019.8347735     
   917343988.96610355     
   1667608659.5163262     
   1552370569.7177260     
   1427960272.5756254     
   1294726306.0848846     
   1158788650.9745514     
   1820361285.7629044     
   1780029353.6112037     
   1736042566.0106428     
   1697051753.0535049     
   1681631613.9340930     
   1261565656.3282828     
   1445767833.6300759     
   1715185200.5843892     
   2110280018.8173919     
   2663325121.4202514     
   1001297429.9954420     
   1164152613.1923239     
   1425027265.3943546     
   1808472895.7091861     
   2334511301.8185239     
   917343988.96610355     
   962789219.54281127     
   1144629227.7989719     
   1476246136.9524848     
   1957342268.5148680     
   1158788650.9745514     
   1008298619.5442115     
   985045572.07840574     
   1161390336.2403121     
   1544326662.4583423     
   1681631613.9340930     
   1383920717.0771806     
   1129483450.9282434     
   1010188111.4026151     
   1153638510.6899858     
 </DataArray>
 <DataArray  type="Float64" Name="strain" NumberOfComponents="3" format="ascii">
  0.10492605486876472       -2.9551655487742301E-002   1.4803724977838773E-003
   9.9867493889305714E-002  -2.9071943661998834E-002   1.0340933694517052E-003
   9.4808932909846710E-002  -2.8405785555542906E-002   6.4569922562029980E-004
   8.9750371930387818E-002  -2.7553181168374283E-002   3.1519006628916157E-004
   8.4691810950928814E-002  -2.6514130500493116E-002   4.2565891458345995E-005
   9.8850428663850742E-002  -2.7941274912768432E-002   8.2705177230858462E-003
   9.3909270971155534E-002  -2.7280704351073715E-002   7.8238765311960945E-003
   8.8968113278460104E-002  -2.6524308532470231E-002   7.5541569283333887E-003
   8.4026955585764840E-002  -2.5672087456957454E-002   7.4613589144974790E-003
   7.9085797893069465E-002  -2.4724041124535800E-002   7.5454824896887263E-003
   9.2573786324304963E-002  -2.6330894337794675E-002   1.5286832196240885E-002
   8.7869068522899940E-002  -2.5489465040148762E-002   1.4749207916989582E-002
   8.3164350721494862E-002  -2.4642831509397528E-002   1.4507541831292242E-002
   7.8459632920089895E-002  -2.3790993745540633E-002   1.4561833939148172E-002
   7.3754915118684844E-002  -2.2933951748578429E-002   1.4912084240557899E-002
   8.6096127850127102E-002  -2.4720513762820806E-002   2.2529315917248896E-002
   8.1746886544539030E-002  -2.3698225729223726E-002   2.1810087526832722E-002
   7.7397645238950985E-002  -2.2761354486324784E-002   2.1505853934496950E-002
   7.3048403933362871E-002  -2.1909900034123974E-002   2.1616615140241314E-002
   6.8699162627774812E-002  -2.1143862372620975E-002   2.2142371144066045E-002
   7.9417453241317271E-002  -2.3110133187846993E-002   2.9997968886109672E-002
   7.5542725036072844E-002  -2.1906986418298802E-002   2.9006515360725071E-002
   7.1667996830828334E-002  -2.0879877463252192E-002   2.8549093237947548E-002
   6.7793268625583838E-002  -2.0028806322707104E-002   2.8625702517776977E-002
   6.3918540420339315E-002  -1.9353772996663632E-002   2.9236343200213066E-002
   8.4691810950928814E-002  -2.6514130500493116E-002   4.2565891458345995E-005
   8.2703018548865970E-002  -2.5425290872061079E-002  -3.2611314487068777E-004
   8.0714226146803236E-002  -2.4423319603240123E-002  -3.4392624133161576E-004
   7.8725433744740475E-002  -2.3508216694029513E-002  -1.0873397925076356E-005
   7.6736641342677658E-002  -2.2679982144430233E-002   6.7304538534906921E-004
   7.9085797893069465E-002  -2.4724041124535800E-002   7.5454824896887263E-003
   7.7382106578112148E-002  -2.3756447596617380E-002   7.3143692713090736E-003
   7.5678415263154830E-002  -2.2845584934614097E-002   7.3025922872727300E-003
   7.3974723948197485E-002  -2.1991453138526160E-002   7.5101515375793487E-003
   7.2271032633240084E-002  -2.1194052208353686E-002   7.9370470222293044E-003
   7.3754915118684844E-002  -2.2933951748578429E-002   1.4912084240557899E-002
   7.2204795185308368E-002  -2.2087604321173265E-002   1.4848674333823017E-002
   7.0654675251931962E-002  -2.1267850265988070E-002   1.4873070955907022E-002
   6.9104555318555555E-002  -2.0474689583022475E-002   1.4985274106809318E-002
   6.7554435385179051E-002  -1.9708122272277084E-002   1.5185283786530362E-002
   6.8699162627774812E-002  -2.1143862372620975E-002   2.2142371144066045E-002
   6.7171084370454687E-002  -2.0418761045729247E-002   2.2276802042671403E-002
   6.5643006113134575E-002  -1.9690115597361932E-002   2.2367509764570970E-002
   6.4114927855814435E-002  -1.8957926027518900E-002   2.2414494309764495E-002
   6.2586849598494337E-002  -1.8222192336200288E-002   2.2417755678252292E-002
   6.3918540420339315E-002  -1.9353772996663632E-002   2.9236343200213066E-002
   6.2280974133551020E-002  -1.8749917770285479E-002   2.9598752397854255E-002
   6.0643407846762740E-002  -1.8112380928735877E-002   2.9785908713264864E-002
   5.9005841559974452E-002  -1.7441162472015402E-002   2.9797812146445016E-002
   5.7368275273186220E-002  -1.6736262400123714E-002   2.9634462697394892E-002
   7.6736641342677658E-002  -2.2679982144430233E-002   6.7304538534906921E-004
   7.3034313886213287E-002  -2.1859232122434014E-002   5.3039641485275180E-004
   6.9331986429748915E-002  -2.0966582796033167E-002   4.7020202143693846E-004
   6.5629658973284599E-002  -2.0002034165227979E-002   4.9246220510162919E-004
   6.1927331516820172E-002  -1.8965586230017539E-002   5.9717696584649094E-004
   7.2271032633240084E-002  -2.1194052208353686E-002   7.9370470222293044E-003
   6.8692528350902060E-002  -2.0399646459797138E-002   7.6460980136991430E-003
   6.5114024068563980E-002  -1.9554500208557535E-002   7.5203407763410335E-003
   6.1535519786225984E-002  -1.8658613454634765E-002   7.5597753101550591E-003
   5.7957015503887876E-002  -1.7711986198029050E-002   7.7644016151411366E-003
   6.7554435385179051E-002  -1.9708122272277084E-002   1.5185283786530362E-002
   6.4182491471058922E-002  -1.8940060797160485E-002   1.4724875938244786E-002
   6.0810547556938849E-002  -1.8142417621082221E-002   1.4512397055223211E-002
   5.7438603642818761E-002  -1.7315192744042324E-002   1.4547847137465215E-002
   5.4066659728698646E-002  -1.6458386166040562E-002   1.4831226184971069E-002
   6.2586849598494337E-002  -1.8222192336200288E-002   2.2417755678252292E-002
   5.9504203246683894E-002  -1.7480475134523721E-002   2.1766730188489986E-002
   5.6421556894873423E-002  -1.6730335033606748E-002   2.1446370858083163E-002
   5.3338910543062952E-002  -1.5971772033449495E-002   2.1456677687031828E-002
   5.0256264191252516E-002  -1.5204786134051851E-002   2.1797650675336289E-002
   5.7368275273186220E-002  -1.6736262400123714E-002   2.9634462697394892E-002
   5.4657663677776996E-002  -1.6020889471886957E-002   2.8771660764434492E-002
   5.1947052082367773E-002  -1.5318252446131303E-002   2.8322262184921426E-002
   4.9236440486958549E-002  -1.4628351322856843E-002   2.8286266958855194E-002
   4.6525828891549326E-002  -1.3951186102063362E-002   2.8663675086236129E-002
   6.1927331516820172E-002  -1.8965586230017539E-002   5.9717696584649094E-004
   5.9238046175195680E-002  -1.7938319718792783E-002   2.7150920340546225E-004
   5.6548760833571243E-002  -1.7001315359942537E-002   1.8454542790102835E-004
   5.3859475491946779E-002  -1.6154573153467383E-002   3.3628563933313371E-004
   5.1170190150322314E-002  -1.5398093099366461E-002   7.2672983770094568E-004
   5.7957015503887876E-002  -1.7711986198029050E-002   7.7644016151411366E-003
   5.5478592144566075E-002  -1.6769690082909405E-002   7.4160196167940562E-003
   5.3000168785244384E-002  -1.5886796753446036E-002   7.2506575961159836E-003
   5.0521745425922665E-002  -1.5063306209638992E-002   7.2683155531070021E-003
   4.8043322066600891E-002  -1.4299218451487961E-002   7.4689934877664177E-003
   5.4066659728698646E-002  -1.6458386166040562E-002   1.4831226184971069E-002
   5.1743414342412114E-002  -1.5601060447026693E-002   1.4490989317436281E-002
   4.9420168956125707E-002  -1.4772278146949869E-002   1.4278088418303636E-002
   4.7096923569839265E-002  -1.3972039265810823E-002   1.4192523487572328E-002
   4.4773678183552768E-002  -1.3200343803609127E-002   1.4234294525242497E-002
   5.0256264191252516E-002  -1.5204786134051851E-002   2.1797650675336289E-002
   4.8032512768733875E-002  -1.4432430811143537E-002   2.1496418305332866E-002
   4.5808761346215213E-002  -1.3657759540453868E-002   2.1266837894463743E-002
   4.3585009923696551E-002  -1.2880772321982543E-002   2.1108909442728689E-002
   4.1361258501177903E-002  -1.2101469155730349E-002   2.1022632950127990E-002
   4.6525828891549326E-002  -1.3951186102063362E-002   2.8663675086236129E-002
   4.4345887423531072E-002  -1.3263801175260326E-002   2.8432306580482958E-002
   4.2165945955512846E-002  -1.2543240933957478E-002   2.8216906024596256E-002
   3.9986004487494647E-002  -1.1789505378154333E-002   2.8017473418576716E-002
   3.7806063019476366E-002  -1.1002594507851460E-002   2.7834008762423368E-002
   5.1170190150322314E-002  -1.5398093099366461E-002   7.2672983770094568E-004
   4.8359562529427746E-002  -1.4653851884071201E-002   5.1184478277666035E-004
   4.5548934908533179E-002  -1.3843826194009812E-002   3.1602045638945420E-004
   4.2738307287638555E-002  -1.2968016029182877E-002   1.3925685853993786E-004
   3.9927679666744043E-002  -1.2026421389590203E-002  -1.8446010772832366E-005
   4.8043322066600891E-002  -1.4299218451487961E-002   7.4689934877664177E-003
   4.5271376289011733E-002  -1.3544268038150786E-002   7.1844100336799777E-003
   4.2499430511422659E-002  -1.2748189528787729E-002   6.9581295376661134E-003
   3.9727484733833571E-002  -1.1910982923397311E-002   6.7901519997259907E-003
   3.6955538956244482E-002  -1.1032648221979580E-002   6.6804774198594430E-003
   4.4773678183552768E-002  -1.3200343803609127E-002   1.4234294525242497E-002
   4.2079656478805183E-002  -1.2434684192231760E-002   1.3855356293254406E-002
   3.9385634774057626E-002  -1.1652552863566090E-002   1.3573963248875748E-002
   3.6691613069310028E-002  -1.0853949817611522E-002   1.3390115392106966E-002
   3.3997591364562429E-002  -1.0038875054368623E-002   1.3303812722947728E-002
   4.1361258501177903E-002  -1.2101469155730349E-002   2.1022632950127990E-002
   3.8784403098807915E-002  -1.1325100346312261E-002   2.0524683561500438E-002
   3.6207547696437928E-002  -1.0556916198344007E-002   2.0163521590018413E-002
   3.3630692294067996E-002  -9.7969167118260661E-003   1.9939147035682524E-002
   3.1053836891698008E-002  -9.0451018867577226E-003   1.9851559898491619E-002
   3.7806063019476366E-002  -1.1002594507851460E-002   2.7834008762423368E-002
   3.5385616149020027E-002  -1.0215516500392652E-002   2.7192391838417818E-002
   3.2965169278563716E-002  -9.4612795331221466E-003   2.6726804561094386E-002
   3.0544722408107391E-002  -8.7398836060404994E-003   2.6437246930452546E-002
   2.8124275537651067E-002  -8.0513287191469329E-003   2.6323718946492103E-002
   3.9927679666744043E-002  -1.2026421389590203E-002  -1.8446010772832366E-005
   3.7512665207605100E-002  -1.1143826794421607E-002  -3.0884444887857576E-004
   3.5097650748466103E-002  -1.0445016762866077E-002  -4.9907971594786993E-004
   3.2682636289327105E-002  -9.9299912949226826E-003  -5.8915181198265776E-004
   3.0267621830188163E-002  -9.5987503905925475E-003  -5.7906073698110738E-004
   3.6955538956244482E-002  -1.1032648221979580E-002   6.6804774198594430E-003
   3.4619825884747102E-002  -1.0194390238362883E-002   6.2308772695562897E-003
   3.2284112813249777E-002  -9.4774137863758434E-003   5.8397167235008651E-003
   2.9948399741752368E-002  -8.8817188660177543E-003   5.5069957816920312E-003
   2.7612686670254960E-002  -8.4073054772886291E-003   5.2327144441317586E-003
   3.3997591364562429E-002  -1.0038875054368623E-002   1.3303812722947728E-002
   3.1699456113918417E-002  -9.2449536823041023E-003   1.2757513892430628E-002
   2.9401320863274405E-002  -8.5098108098855818E-003   1.2227931099372841E-002
   2.7103185612630365E-002  -7.8334464371121529E-003   1.1715064343774312E-002
   2.4805050361986297E-002  -7.2158605639843776E-003   1.1218913625634541E-002
   3.1053836891698008E-002  -9.0451018867577226E-003   1.9851559898491619E-002
   2.8751555895119081E-002  -8.2955171262454608E-003   1.9271065419744285E-002
   2.6449274898540154E-002  -7.5422078333953341E-003   1.8665563411668272E-002
   2.4146993901961275E-002  -6.7851740082068880E-003   1.8035053874262966E-002
   2.1844712905382410E-002  -6.0244156506804036E-003   1.7379536807528767E-002
   2.8124275537651067E-002  -8.0513287191469329E-003   2.6323718946492103E-002
   2.5776125228349045E-002  -7.3460805701866527E-003   2.5771531851498053E-002
   2.3427974919047051E-002  -6.5746048569050586E-003   2.5152613660386847E-002
   2.1079824609745057E-002  -5.7369015793015052E-003   2.4466964373158429E-002
   1.8731674300443035E-002  -4.8329707373762076E-003   2.3714583989812965E-002
   3.0267621830188163E-002  -9.5987503905925475E-003  -5.7906073698110738E-004
   2.9647301612263810E-002  -9.1504289256929550E-003  -3.4114037645105455E-004
   2.9026981394339235E-002  -8.2841617760430752E-003  -1.7865752177488314E-003
   2.8406661176414771E-002  -6.9999489416417149E-003  -4.9153652608766585E-003
   2.7786340958490308E-002  -5.2977904224886796E-003  -9.7275105058327593E-003
   2.7612686670254960E-002  -8.4073054772886291E-003   5.2327144441317586E-003
   2.5579000900475435E-002  -7.8847377790299822E-003   5.9056912240195159E-003
   2.3545315130695965E-002  -7.1445799300847712E-003   5.4352921020263678E-003
   2.1511629360916412E-002  -6.1868319304509145E-003   3.8215170781521479E-003
   1.9477943591136970E-002  -5.0114937801299941E-003   1.0643661523961345E-003
   2.4805050361986297E-002  -7.2158605639843776E-003   1.1218913625634541E-002
   2.1897978340299440E-002  -6.6190466323671204E-003   1.2126591290816779E-002
   1.8990906318612499E-002  -6.0049980841264117E-003   1.2430872354065786E-002
   1.6083834296925587E-002  -5.3737149192609884E-003   1.2131756815380534E-002
   1.3176762275238646E-002  -4.7251971377723079E-003   1.1229244674761885E-002
   2.1844712905382410E-002  -6.0244156506804036E-003   1.7379536807528767E-002
   1.8604233931735603E-002  -5.3533554857042032E-003   1.8321559823941236E-002
   1.5363754958088956E-002  -4.8654162381683019E-003   1.9200165538368508E-002
   1.2123275984442176E-002  -4.5605979080715134E-003   2.0015353950809271E-002
   8.8827970107955082E-003  -4.4389004954141220E-003   2.0767125061264338E-002
   1.8731674300443035E-002  -4.8329707373762076E-003   2.3714583989812965E-002
   1.5697767674784147E-002  -4.0876643390415079E-003   2.4490596823392941E-002
   1.2663861049125175E-002  -3.7258343922100812E-003   2.5743171654934283E-002
   9.6299544234662859E-003  -3.7474808968813444E-003   2.7472308484437657E-002
   6.5960477978073140E-003  -4.1526038530561582E-003   2.9678007311902510E-002
   2.7786340958490308E-002  -5.2977904224886796E-003  -9.7275105058327593E-003
   2.3357030810262303E-002  -4.2044118700899080E-003  -4.1962214593982416E-003
   1.8927720662034242E-002  -4.7465389359487298E-003   2.5995411953614322E-003
   1.4498410513806098E-002  -6.9241716200662135E-003   1.0659777458446873E-002
   1.0069100365578176E-002  -1.0737309922441263E-002   1.9984487329856471E-002
   1.9477943591136970E-002  -5.0114937801299941E-003   1.0643661523961345E-003
   1.6240538434107832E-002  -4.6869100591113710E-003   6.7530003193847499E-003
   1.3003133277078749E-002  -6.2814253473839066E-003   1.3560970860445276E-002
   9.7657281200496660E-003  -9.7950396449476423E-003   2.1488277775578546E-002
   6.5283229630204165E-003  -1.5227752951802564E-002   3.0534921064785170E-002
   1.3176762275238646E-002  -4.7251971377723079E-003   1.1229244674761885E-002
   1.0986124875155628E-002  -5.1694082481336112E-003   1.6791630571271254E-002
   8.7954874750726525E-003  -7.8163117588190556E-003   2.3328215607600206E-002
   6.6048500749895447E-003  -1.2665907669829175E-002   3.0838999783749141E-002
   4.4142126749066035E-003  -1.9718195981162978E-002   3.9323983099716964E-002
   8.8827970107955082E-003  -4.4389004954141220E-003   2.0767125061264338E-002
   7.5937901334056992E-003  -5.6519064371559069E-003   2.5919669296261091E-002
   6.3047832560158869E-003  -9.3511981702544406E-003   3.1901275436824604E-002
   5.0157763786262636E-003  -1.5536775694710212E-002   3.8711943482955563E-002
   3.7267695012362656E-003  -2.4208639010523836E-002   4.6351673434652740E-002
   6.5960477978073140E-003  -4.1526038530561582E-003   2.9678007311902510E-002
   6.0635342088579125E-003  -6.1344046261775365E-003   3.4137116494354247E-002
   5.5310206199085665E-003  -1.0886084581689603E-002   3.9280150348120157E-002
   4.9985070309592067E-003  -1.8407643719591749E-002   4.5107108873199353E-002
   4.4659934420098191E-003  -2.8699082039884694E-002   5.1617992069593388E-002
   7.9417453241317271E-002  -2.3110133187846993E-002   2.9997968886109672E-002
   7.5542725036072844E-002  -2.1906986418298802E-002   2.9006515360725071E-002
   7.1667996830828334E-002  -2.0879877463252192E-002   2.8549093237947548E-002
   6.7793268625583838E-002  -2.0028806322707104E-002   2.8625702517776977E-002
   6.3918540420339315E-002  -1.9353772996663632E-002   2.9236343200213066E-002
   7.2729491243709143E-002  -2.0956867413184976E-002   3.5709328747260904E-002
   6.9319271868992532E-002  -2.0039653792951390E-002   3.4689522334550971E-002
   6.5909052494275810E-002  -1.9228945702779138E-002   3.4064702180289924E-002
   6.2498833119559061E-002  -1.8524743142667964E-002   3.3834868284477695E-002
   5.9088613744842394E-002  -1.7927046112618278E-002   3.4000020647114049E-002
   6.6223970603136131E-002  -1.8803601638522960E-002   4.1099989316877347E-002
   6.3139214914789160E-002  -1.8172321167604033E-002   4.0121362301282576E-002
   6.0054459226442168E-002  -1.7578013942305980E-002   3.9398676399978301E-002
   5.6969703538095134E-002  -1.7020679962628966E-002   3.8931931612964515E-002
   5.3884947849748142E-002  -1.6500319228572868E-002   3.8721127940241615E-002
   5.9900891319598179E-002  -1.6650335863860929E-002   4.6169950594959153E-002
   5.7002554173462783E-002  -1.6304988542256621E-002   4.5302035260919533E-002
   5.4104217027327282E-002  -1.5927082181832874E-002   4.4551015897012290E-002
   5.1205879881191831E-002  -1.5516616782589952E-002   4.3916892503237714E-002
   4.8307542735056372E-002  -1.5073592344527487E-002   4.3399665079595473E-002
   5.3760253393095370E-002  -1.4497070089198927E-002   5.0919212581506001E-002
   5.0909289645013400E-002  -1.4437655916909320E-002   5.0231541213462017E-002
   4.8058325896931348E-002  -1.4276150421359796E-002   4.9521720671392322E-002
   4.5207362148849309E-002  -1.4012553602550860E-002   4.8789750955296918E-002
   4.2356398400767298E-002  -1.3646865460482105E-002   4.8035632065175804E-002
   6.3918540420339315E-002  -1.9353772996663632E-002   2.9236343200213066E-002
   6.2280974133551020E-002  -1.8749917770285479E-002   2.9598752397854255E-002
   6.0643407846762740E-002  -1.8112380928735877E-002   2.9785908713264864E-002
   5.9005841559974452E-002  -1.7441162472015402E-002   2.9797812146445016E-002
   5.7368275273186220E-002  -1.6736262400123714E-002   2.9634462697394892E-002
   5.9088613744842394E-002  -1.7927046112618278E-002   3.4000020647114049E-002
   5.7365341646460968E-002  -1.7363693024354795E-002   3.4113987326624975E-002
   5.5642069548079542E-002  -1.6762522289602851E-002   3.4231795265179984E-002
   5.3918797449698082E-002  -1.6123533908362214E-002   3.4353444462778930E-002
   5.2195525351316691E-002  -1.5446727880633004E-002   3.4478934919422111E-002
   5.3884947849748142E-002  -1.6500319228572868E-002   3.8721127940241615E-002
   5.2255064081048068E-002  -1.5977468278424237E-002   3.8590788132939598E-002
   5.0625180312348000E-002  -1.5412663650469713E-002   3.8643383725956285E-002
   4.8995296543647926E-002  -1.4805905344708919E-002   3.8878914719291627E-002
   4.7365412774947852E-002  -1.4157193361142351E-002   3.9297381112945534E-002
   4.8307542735056372E-002  -1.5073592344527487E-002   4.3399665079595473E-002
   4.6950141437312284E-002  -1.4591243532493615E-002   4.3029154816798192E-002
   4.5592740139568162E-002  -1.4062805011336575E-002   4.3020674095593861E-002
   4.4235338841824019E-002  -1.3488276781055747E-002   4.3374222915982918E-002
   4.2877937544079890E-002  -1.2867658841651669E-002   4.4089801277965211E-002
   4.2356398400767298E-002  -1.3646865460482105E-002   4.8035632065175804E-002
   4.1450573715253652E-002  -1.3205018786563050E-002   4.7429087378200563E-002
   4.0544749029739993E-002  -1.2712946372203326E-002   4.7363666374092755E-002
   3.9638924344226327E-002  -1.2170648217402491E-002   4.7839369052852992E-002
   3.8733099658712689E-002  -1.1578124322160988E-002   4.8856195414480941E-002
   5.7368275273186220E-002  -1.6736262400123714E-002   2.9634462697394892E-002
   5.4657663677776996E-002  -1.6020889471886957E-002   2.8771660764434492E-002
   5.1947052082367773E-002  -1.5318252446131303E-002   2.8322262184921426E-002
   4.9236440486958549E-002  -1.4628351322856843E-002   2.8286266958855194E-002
   4.6525828891549326E-002  -1.3951186102063362E-002   2.8663675086236129E-002
   5.2195525351316691E-002  -1.5446727880633004E-002   3.4478934919422111E-002
   4.9839119269095553E-002  -1.4756434569893701E-002   3.3887783000229071E-002
   4.7482713186874442E-002  -1.4076984339622317E-002   3.3591638753965064E-002
   4.5126307104653346E-002  -1.3408377189819291E-002   3.3590502180630116E-002
   4.2769901022432194E-002  -1.2750613120484477E-002   3.3884373280224367E-002
   4.7365412774947852E-002  -1.4157193361142351E-002   3.9297381112945534E-002
   4.5244816525396962E-002  -1.3491979667900389E-002   3.8979772029532511E-002
   4.3124220275845990E-002  -1.2835716233113539E-002   3.8838774938530635E-002
   4.1003624026295045E-002  -1.2188403056781903E-002   3.8874389839940009E-002
   3.8883027776744142E-002  -1.1550040138905482E-002   3.9086616733760848E-002
   4.2877937544079890E-002  -1.2867658841651669E-002   4.4089801277965211E-002
   4.0874755446681205E-002  -1.2227524765906939E-002   4.4047627852345249E-002
   3.8871573349282484E-002  -1.1594448126604519E-002   4.4063670738618430E-002
   3.6868391251883806E-002  -1.0968428923744460E-002   4.4137929936785052E-002
   3.4865209154485086E-002  -1.0349467157326597E-002   4.4270405446845115E-002
   3.8733099658712689E-002  -1.1578124322160988E-002   4.8856195414480941E-002
   3.6728936032948273E-002  -1.0963069863913794E-002   4.9091350468667083E-002
   3.4724772407183899E-002  -1.0353180020095804E-002   4.9266326154228324E-002
   3.2720608781419490E-002  -9.7484547907069966E-003   4.9381122471165217E-002
   3.0716445155655109E-002  -9.1488941757476017E-003   4.9435739419477320E-002
   4.6525828891549326E-002  -1.3951186102063362E-002   2.8663675086236129E-002
   4.4345887423531072E-002  -1.3263801175260326E-002   2.8432306580482958E-002
   4.2165945955512846E-002  -1.2543240933957478E-002   2.8216906024596256E-002
   3.9986004487494647E-002  -1.1789505378154333E-002   2.8017473418576716E-002
   3.7806063019476366E-002  -1.1002594507851460E-002   2.7834008762423368E-002
   4.2769901022432194E-002  -1.2750613120484477E-002   3.3884373280224367E-002
   4.0640531760195608E-002  -1.2085825628314312E-002   3.3585696274134574E-002
   3.8511162497959037E-002  -1.1396148210005327E-002   3.3372195729741205E-002
   3.6381793235722430E-002  -1.0681580865557868E-002   3.3243871647044634E-002
   3.4252423973485796E-002  -9.9421235949717079E-003   3.3200724026044681E-002
   3.8883027776744142E-002  -1.1550040138905482E-002   3.9086616733760848E-002
   3.6873439232119110E-002  -1.0907850081367937E-002   3.8712345838972831E-002
   3.4863850687494091E-002  -1.0249055486053288E-002   3.8492459917711580E-002
   3.2854262142869066E-002  -9.5736563529611809E-003   3.8426958969976888E-002
   3.0844673598244096E-002  -8.8816526820920116E-003   3.8515842995768573E-002
   3.4865209154485086E-002  -1.0349467157326597E-002   4.4270405446845115E-002
   3.3044609839301568E-002  -9.7298745344217424E-003   4.3812255274997824E-002
   3.1224010524118051E-002  -9.1019627621011373E-003   4.3577698588507095E-002
   2.9403411208934534E-002  -8.4657318403647715E-003   4.3566735387372699E-002
   2.7582811893751013E-002  -7.8211817692121766E-003   4.3779365671594836E-002
   3.0716445155655109E-002  -9.1488941757476017E-003   4.9435739419477320E-002
   2.9154043581743005E-002  -8.5518989874754925E-003   4.8885424582209347E-002
   2.7591642007830874E-002  -7.9548700381489312E-003   4.8627911742127605E-002
   2.6029240433918799E-002  -7.3578073277679595E-003   4.8663200899232428E-002
   2.4466838860006668E-002  -6.7607108563325635E-003   4.8991292053523372E-002
   3.7806063019476366E-002  -1.1002594507851460E-002   2.7834008762423368E-002
   3.5385616149020027E-002  -1.0215516500392652E-002   2.7192391838417818E-002
   3.2965169278563716E-002  -9.4612795331221466E-003   2.6726804561094386E-002
   3.0544722408107391E-002  -8.7398836060404994E-003   2.6437246930452546E-002
   2.8124275537651067E-002  -8.0513287191469329E-003   2.6323718946492103E-002
   3.4252423973485796E-002  -9.9421235949717079E-003   3.3200724026044681E-002
   3.2000420697949838E-002  -9.2013974871488768E-003   3.2669813075099807E-002
   2.9748417422413853E-002  -8.4830236309917373E-003   3.2299759667313910E-002
   2.7496414146877854E-002  -7.7870020265003170E-003   3.2090563802686933E-002
   2.5244410871341855E-002  -7.1133326736743108E-003   3.2042225481218989E-002
   3.0844673598244096E-002  -8.8816526820920116E-003   3.8515842995768573E-002
   2.8745941814105683E-002  -8.1872784739053794E-003   3.8106126806406682E-002
   2.6647210029967332E-002  -7.5047677288614389E-003   3.7842096056681346E-002
   2.4548478245828977E-002  -6.8341204469601347E-003   3.7723750746592177E-002
   2.2449746461690623E-002  -6.1753366282017441E-003   3.7751090876139398E-002
   2.7582811893751013E-002  -7.8211817692121766E-003   4.3779365671594836E-002
   2.5622179497487546E-002  -7.1731594606616877E-003   4.3501333032339287E-002
   2.3661547101224173E-002  -6.5265118267309741E-003   4.3353813729197319E-002
   2.1700914704960755E-002  -5.8812388674200078E-003   4.3336807762168854E-002
   1.9740282308697385E-002  -5.2373405827289277E-003   4.3450315131254115E-002
   2.4466838860006668E-002  -6.7607108563325635E-003   4.8991292053523372E-002
   2.2629133748095526E-002  -6.1590404474180516E-003   4.8855431752897083E-002
   2.0791428636184356E-002  -5.5482559246005647E-003   4.8834912684861231E-002
   1.8953723524273200E-002  -4.9283572878798393E-003   4.8929734849416623E-002
   1.7116018412362044E-002  -4.2993445372565553E-003   4.9139898246562730E-002
   2.8124275537651067E-002  -8.0513287191469329E-003   2.6323718946492103E-002
   2.5776125228349045E-002  -7.3460805701866527E-003   2.5771531851498053E-002
   2.3427974919047051E-002  -6.5746048569050586E-003   2.5152613660386847E-002
   2.1079824609745057E-002  -5.7369015793015052E-003   2.4466964373158429E-002
   1.8731674300443035E-002  -4.8329707373762076E-003   2.3714583989812965E-002
   2.5244410871341855E-002  -7.1133326736743108E-003   3.2042225481218989E-002
   2.2871222738515995E-002  -6.4408071413594725E-003   3.1660078002958669E-002
   2.0498034605690232E-002  -5.7482169984009734E-003   3.1294585973768219E-002
   1.8124846472864380E-002  -5.0355622447990286E-003   3.0945749393647234E-002
   1.5751658340038610E-002  -4.3028428805537144E-003   3.0613568262595869E-002
   2.2449746461690623E-002  -6.1753366282017441E-003   3.7751090876139398E-002
   2.0134907050527742E-002  -5.5355337125319315E-003   3.7492820060934989E-002
   1.7820067639364917E-002  -4.9218291398969022E-003   3.7334591239987017E-002
   1.5505228228202106E-002  -4.3342229102967776E-003   3.7276404413295321E-002
   1.3190388817039225E-002  -3.7727150237314433E-003   3.7318259580859992E-002
   1.9740282308697385E-002  -5.2373405827289277E-003   4.3450315131254115E-002
   1.7567178164384238E-002  -4.6302602837045709E-003   4.3269758025427381E-002
   1.5394074020071140E-002  -4.0954412813927685E-003   4.3272629459043199E-002
   1.3220969875758035E-002  -3.6328835757944693E-003   4.3458929432102618E-002
   1.1047865731444950E-002  -3.2425871669091721E-003   4.3828657944605082E-002
   1.7116018412362044E-002  -4.2993445372565553E-003   4.9139898246562730E-002
   1.5168036080085462E-002  -3.7249868548770992E-003   4.8990891896434796E-002
   1.3220053747808908E-002  -3.2690534228886348E-003   4.9108700630936919E-002
   1.1272071415532339E-002  -2.9315442412921333E-003   4.9493324450068849E-002
   9.3240890832557155E-003  -2.7124593100866790E-003   5.0144763353830779E-002
   1.8731674300443035E-002  -4.8329707373762076E-003   2.3714583989812965E-002
   1.5697767674784147E-002  -4.0876643390415079E-003   2.4490596823392941E-002
   1.2663861049125175E-002  -3.7258343922100812E-003   2.5743171654934283E-002
   9.6299544234662859E-003  -3.7474808968813444E-003   2.7472308484437657E-002
   6.5960477978073140E-003  -4.1526038530561582E-003   2.9678007311902510E-002
   1.5751658340038610E-002  -4.3028428805537144E-003   3.0613568262595869E-002
   1.3175278509990535E-002  -3.7794428296819005E-003   3.1378202486783802E-002
   1.0598898679942487E-002  -3.6947460162012613E-003   3.2581328304231216E-002
   8.0225188498944527E-003  -4.0487524401103051E-003   3.4222945714939224E-002
   5.4461390198463633E-003  -4.8414621014103432E-003   3.6303054718907268E-002
   1.3190388817039225E-002  -3.7727150237314433E-003   3.7318259580859992E-002
   1.1033465377900634E-002  -3.4712213203225151E-003   3.8016288409767784E-002
   8.8765419387620351E-003  -3.6636576401916643E-003   3.9114738427234036E-002
   6.7196184996233879E-003  -4.3500239833385995E-003   4.0613609633259329E-002
   4.5626950604847893E-003  -5.5303203497639730E-003   4.2512902027842969E-002
   1.1047865731444950E-002  -3.2425871669091721E-003   4.3828657944605082E-002
   9.2723282785143225E-003  -3.1629998109632407E-003   4.4404854592345090E-002
   7.4967908255837157E-003  -3.6325692641825669E-003   4.5343402023942880E-002
   5.7212533726531418E-003  -4.6512955265675601E-003   4.6644300239397578E-002
   3.9457159197224811E-003  -6.2191785981176584E-003   4.8307549238709599E-002
   9.3240890832557155E-003  -2.7124593100866790E-003   5.0144763353830779E-002
   7.8918672118317157E-003  -2.8547783016035777E-003   5.0543901034516225E-002
   6.4596453404076881E-003  -3.6014808881732474E-003   5.1267319094357500E-002
   5.0274234689836467E-003  -4.9525670697956881E-003   5.2315017533354657E-002
   3.5952015975596052E-003  -6.9080368464715658E-003   5.3686996351507643E-002
   6.5960477978073140E-003  -4.1526038530561582E-003   2.9678007311902510E-002
   6.0635342088579125E-003  -6.1344046261775365E-003   3.4137116494354247E-002
   5.5310206199085665E-003  -1.0886084581689603E-002   3.9280150348120157E-002
   4.9985070309592067E-003  -1.8407643719591749E-002   4.5107108873199353E-002
   4.4659934420098191E-003  -2.8699082039884694E-002   5.1617992069593388E-002
   5.4461390198463633E-003  -4.8414621014103432E-003   3.6303054718907268E-002
   5.4941330722139692E-003  -6.9723164804056381E-003   3.8421478999765613E-002
   5.5421271245814918E-003  -1.1340757057402062E-002   4.1016993891943687E-002
   5.5901211769490283E-003  -1.7946783832398686E-002   4.4089599395441659E-002
   5.6381152293166759E-003  -2.6790396805396188E-002   4.7639295510260249E-002
   4.5626950604847893E-003  -5.5303203497639730E-003   4.2512902027842969E-002
   4.9843626941751124E-003  -7.8102283346334067E-003   4.2822934391497841E-002
   5.4060303278654492E-003  -1.1795429533114077E-002   4.3403223306478611E-002
   5.8276979615558937E-003  -1.7485923945205456E-002   4.4253768772785348E-002
   6.2493655952461091E-003  -2.4881711570907905E-002   4.5374570790417068E-002
   3.9457159197224811E-003  -6.2191785981176584E-003   4.8307549238709599E-002
   4.5342230747416022E-003  -8.6481401888614529E-003   4.7341482669550766E-002
   5.1227302297606730E-003  -1.2250102008826202E-002   4.6438838591723611E-002
   5.7112373847796978E-003  -1.7025064058012199E-002   4.5599617005228361E-002
   6.2997445397988058E-003  -2.2973026336419622E-002   4.4823817910064040E-002
   3.5952015975596052E-003  -6.9080368464715658E-003   5.3686996351507643E-002
   4.1437142139132410E-003  -9.4860520430888329E-003   5.1977123833924721E-002
   4.6922268302669323E-003  -1.2704774484538439E-002   5.0123839747679533E-002
   5.2407394466206098E-003  -1.6564204170819080E-002   4.8127144092771412E-002
   5.7892520629742039E-003  -2.1064341101931117E-002   4.5987036869201248E-002
   5.3760253393095370E-002  -1.4497070089198927E-002   5.0919212581506001E-002
   5.0909289645013400E-002  -1.4437655916909320E-002   5.0231541213462017E-002
   4.8058325896931348E-002  -1.4276150421359796E-002   4.9521720671392322E-002
   4.5207362148849309E-002  -1.4012553602550860E-002   4.8789750955296918E-002
   4.2356398400767298E-002  -1.3646865460482105E-002   4.8035632065175804E-002
   4.8241575910788564E-002  -1.3481905248203474E-002   5.2839059462163052E-002
   4.5258646791760351E-002  -1.2783710947932292E-002   5.3093689439569214E-002
   4.2275717672732138E-002  -1.2206331948893034E-002   5.3106537849108765E-002
   3.9292788553703897E-002  -1.1749768251085438E-002   5.2877604690781274E-002
   3.6309859434675670E-002  -1.1414019854509849E-002   5.2406889964587144E-002
   4.3784377959838638E-002  -1.2466740407207966E-002   5.5509139783047168E-002
   4.0449851076023113E-002  -1.1129765978955403E-002   5.6483164481412190E-002
   3.7115324192207581E-002  -1.0136513476426093E-002   5.6995775218069186E-002
   3.3780797308392022E-002  -9.4869828996202062E-003   5.7046971993018329E-002
   3.0446270424576490E-002  -9.1811742485375381E-003   5.6636754806259570E-002
   4.0388659540245661E-002  -1.1451575566212513E-002   5.8929453544158607E-002
   3.6482902497801631E-002  -9.4758210099784718E-003   6.0399966338990738E-002
   3.2577145455357677E-002  -8.0666950039591859E-003   6.1189432778273947E-002
   2.8671388412913695E-002  -7.2241975481548790E-003   6.1297852862008124E-002
   2.4765631370469728E-002  -6.9483286425652824E-003   6.0725226590193360E-002
   3.8054420652009480E-002  -1.0436410725217005E-002   6.3100000745497098E-002
   3.3357801057095959E-002  -7.8218760410015409E-003   6.4844095012305092E-002
   2.8661181462182439E-002  -5.9968765314923483E-003   6.5687510529722853E-002
   2.3964561867268891E-002  -4.9614121966895831E-003   6.5630247297750535E-002
   1.9267942272355371E-002  -4.7154830365929712E-003   6.4672305316388068E-002
   4.2356398400767298E-002  -1.3646865460482105E-002   4.8035632065175804E-002
   4.1450573715253652E-002  -1.3205018786563050E-002   4.7429087378200563E-002
   4.0544749029739993E-002  -1.2712946372203326E-002   4.7363666374092755E-002
   3.9638924344226327E-002  -1.2170648217402491E-002   4.7839369052852992E-002
   3.8733099658712689E-002  -1.1578124322160988E-002   4.8856195414480941E-002
   3.6309859434675670E-002  -1.1414019854509849E-002   5.2406889964587144E-002
   3.5869177391543938E-002  -1.1114003493805161E-002   5.1957102678083775E-002
   3.5428495348412241E-002  -1.0764635903610653E-002   5.1896476993476465E-002
   3.4987813305280530E-002  -1.0365917083926271E-002   5.2225012910765131E-002
   3.4547131262148784E-002  -9.9178470347520142E-003   5.2942710429950052E-002
   3.0446270424576490E-002  -9.1811742485375381E-003   5.6636754806259570E-002
   3.0318768942855040E-002  -9.0229882010472162E-003   5.6342850409277168E-002
   3.0191267461133573E-002  -8.8163254350179798E-003   5.6286145533219104E-002
   3.0063765979412120E-002  -8.5611859504498844E-003   5.6466640178085559E-002
   2.9936264497690677E-002  -8.2575697473428744E-003   5.6884334343876436E-002
   2.4765631370469728E-002  -6.9483286425652824E-003   6.0725226590193360E-002
   2.4799348369186878E-002  -6.9319729082892440E-003   6.0586330571780700E-002
   2.4833065367904045E-002  -6.8680149664251955E-003   6.0532671993321005E-002
   2.4866782366621223E-002  -6.7564548169735256E-003   6.0564250854814011E-002
   2.4900499365338363E-002  -6.5972924599338456E-003   6.0681067156259892E-002
   1.9267942272355371E-002  -4.7154830365929712E-003   6.4672305316388068E-002
   1.9310915670539497E-002  -4.8409576155313827E-003   6.4687543165594552E-002
   1.9353889068723616E-002  -4.9197044978327026E-003   6.4636056373782169E-002
   1.9396862466907725E-002  -4.9517236834972396E-003   6.4517844940950766E-002
   1.9439835865091848E-002  -4.9370151725247058E-003   6.4332908867100691E-002
   3.8733099658712689E-002  -1.1578124322160988E-002   4.8856195414480941E-002
   3.6728936032948273E-002  -1.0963069863913794E-002   4.9091350468667083E-002
   3.4724772407183899E-002  -1.0353180020095804E-002   4.9266326154228324E-002
   3.2720608781419490E-002  -9.7484547907069966E-003   4.9381122471165217E-002
   3.0716445155655109E-002  -9.1488941757476017E-003   4.9435739419477320E-002
   3.4547131262148784E-002  -9.9178470347520142E-003   5.2942710429950052E-002
   3.2558689788990028E-002  -9.4374443640483086E-003   5.2833943337041944E-002
   3.0570248315831286E-002  -8.9417276797763012E-003   5.2816799917969878E-002
   2.8581806842672558E-002  -8.4306969819354094E-003   5.2891280172733708E-002
   2.6593365369513802E-002  -7.9043522705256608E-003   5.3057384101333482E-002
   2.9936264497690677E-002  -8.2575697473428744E-003   5.6884334343876436E-002
   2.8115348219598220E-002  -7.9118188641831705E-003   5.6452123731872195E-002
   2.6294431941505773E-002  -7.5302753394567296E-003   5.6263339836164508E-002
   2.4473515663413326E-002  -7.1129391731637077E-003   5.6317982656753314E-002
   2.2652599385320868E-002  -6.6598103653038310E-003   5.6616052193639022E-002
   2.4900499365338363E-002  -6.5972924599338456E-003   6.0681067156259892E-002
   2.3398911324772870E-002  -6.3861933643178589E-003   5.9945891653157529E-002
   2.1897323284207335E-002  -6.1188229991371926E-003   5.9605945908812352E-002
   2.0395735243641817E-002  -5.7951813643919523E-003   5.9661229923224209E-002
   1.8894147203076306E-002  -5.4152684600820011E-003   6.0111743696393646E-002
   1.9439835865091848E-002  -4.9370151725247058E-003   6.4332908867100691E-002
   1.8409379104513929E-002  -4.8605678644526029E-003   6.3315247100898031E-002
   1.7378922343935982E-002  -4.7073706588178083E-003   6.2844618135913299E-002
   1.6348465583358049E-002  -4.4774235556204016E-003   6.2921021972146399E-002
   1.5318008822780116E-002  -4.1707265548600603E-003   6.3544458609597343E-002
   3.0716445155655109E-002  -9.1488941757476017E-003   4.9435739419477320E-002
   2.9154043581743005E-002  -8.5518989874754925E-003   4.8885424582209347E-002
   2.7591642007830874E-002  -7.9548700381489312E-003   4.8627911742127605E-002
   2.6029240433918799E-002  -7.3578073277679595E-003   4.8663200899232428E-002
   2.4466838860006668E-002  -6.7607108563325635E-003   4.8991292053523372E-002
   2.6593365369513802E-002  -7.9043522705256608E-003   5.3057384101333482E-002
   2.5290977578420165E-002  -7.3743731352098330E-003   5.2652589149295104E-002
   2.3988589787326577E-002  -6.8524391656503841E-003   5.2475019765707148E-002
   2.2686201996232957E-002  -6.3385503618471374E-003   5.2524675950569935E-002
   2.1383814205139351E-002  -5.8327067238004848E-003   5.2801557703883339E-002
   2.2652599385320868E-002  -6.6598103653038310E-003   5.6616052193639022E-002
   2.1544648948309979E-002  -6.1968472829443122E-003   5.6348698200019323E-002
   2.0436698511299055E-002  -5.7500082931518925E-003   5.6242993346114489E-002
   1.9328748074288145E-002  -5.3192933959265928E-003   5.6298937631924326E-002
   1.8220797637277242E-002  -4.9047025912684061E-003   5.6516531057449221E-002
   1.8894147203076306E-002  -5.4152684600820011E-003   6.0111743696393646E-002
   1.7915057691412311E-002  -5.0193214306786665E-003   5.9973751734381783E-002
   1.6935968179748309E-002  -4.6475774206532622E-003   5.9931832483349011E-002
   1.5956878668084314E-002  -4.3000364300058540E-003   5.9985985943295267E-002
   1.4977789156420319E-002  -3.9766984587363274E-003   6.0136212114220600E-002
   1.5318008822780116E-002  -4.1707265548600603E-003   6.3544458609597343E-002
   1.4402203807727249E-002  -3.8417955784131319E-003   6.3527749752382678E-002
   1.3486398792674367E-002  -3.5451465481546873E-003   6.3541537177411234E-002
   1.2570593777621493E-002  -3.2807794640851290E-003   6.3585820884683120E-002
   1.1654788762568646E-002  -3.0486943262043598E-003   6.3660600874198225E-002
   2.4466838860006668E-002  -6.7607108563325635E-003   4.8991292053523372E-002
   2.2629133748095526E-002  -6.1590404474180516E-003   4.8855431752897083E-002
   2.0791428636184356E-002  -5.5482559246005647E-003   4.8834912684861231E-002
   1.8953723524273200E-002  -4.9283572878798393E-003   4.8929734849416623E-002
   1.7116018412362044E-002  -4.2993445372565553E-003   4.9139898246562730E-002
   2.1383814205139351E-002  -5.8327067238004848E-003   5.2801557703883339E-002
   1.9689025937130150E-002  -5.3239966659667237E-003   5.2624727161189266E-002
   1.7994237669120935E-002  -4.8015086028041359E-003   5.2618389073708277E-002
   1.6299449401111707E-002  -4.2652425343118715E-003   5.2782543441440191E-002
   1.4604661133102492E-002  -3.7151984604900656E-003   5.3117190264385328E-002
   1.8220797637277242E-002  -4.9047025912684061E-003   5.6516531057449221E-002
   1.6724077435792087E-002  -4.4889528845158677E-003   5.6303394164113965E-002
   1.5227357234306918E-002  -4.0547612810074851E-003   5.6315900948613828E-002
   1.3730637032821739E-002  -3.6021277807434596E-003   5.6554051410948963E-002
   1.2233916831336594E-002  -3.1310523837235760E-003   5.7017845551119078E-002
   1.4977789156420319E-002  -3.9766984587363274E-003   6.0136212114220600E-002
   1.3734288244081350E-002  -3.6539091030646648E-003   5.9891432761670652E-002
   1.2490787331742347E-002  -3.3080139592112229E-003   5.9927448309577865E-002
   1.1247286419403365E-002  -2.9390130271753807E-003   6.0244258757942523E-002
   1.0003785507064371E-002  -2.5469063069571418E-003   6.0841864106764357E-002
   1.1654788762568646E-002  -3.0486943262043598E-003   6.3660600874198225E-002
   1.0719658361997911E-002  -2.8188653216136839E-003   6.3388842953859825E-002
   9.7845279614271891E-003  -2.5612666374145165E-003   6.3453031156600836E-002
   8.8493975608564673E-003  -2.2758982736071076E-003   6.3853165482421148E-002
   7.9142671602857595E-003  -1.9627602301907077E-003   6.4589245931320760E-002
   1.7116018412362044E-002  -4.2993445372565553E-003   4.9139898246562730E-002
   1.5168036080085462E-002  -3.7249868548770992E-003   4.8990891896434796E-002
   1.3220053747808908E-002  -3.2690534228886348E-003   4.9108700630936919E-002
   1.1272071415532339E-002  -2.9315442412921333E-003   4.9493324450068849E-002
   9.3240890832557155E-003  -2.7124593100866790E-003   5.0144763353830779E-002
   1.4604661133102492E-002  -3.7151984604900656E-003   5.3117190264385328E-002
   1.2918412217500827E-002  -3.2182005848830353E-003   5.2984567897720714E-002
   1.1232163301899079E-002  -2.8410731110352361E-003   5.3108597279775793E-002
   9.5459143862973300E-003  -2.5838160389466472E-003   5.3489278410550845E-002
   7.8596654706956648E-003  -2.4464293686171645E-003   5.4126611290045645E-002
   1.2233916831336594E-002  -3.1310523837235760E-003   5.7017845551119078E-002
   1.0799237996499608E-002  -2.7114143148893599E-003   5.6900161016550016E-002
   9.3645591616625945E-003  -2.4130927991818374E-003   5.7028964894790729E-002
   7.9298803268256050E-003  -2.2360878366010500E-003   5.7404257185841176E-002
   6.4952014919885948E-003  -2.1803994271473170E-003   5.8026037889700954E-002
   1.0003785507064371E-002  -2.5469063069571418E-003   6.0841864106764357E-002
   8.8105134170819513E-003  -2.2046280448954902E-003   6.0737671252923252E-002
   7.6172413270994832E-003  -1.9851124873281056E-003   6.0869803475981643E-002
   6.4239692371170195E-003  -1.8883596342555639E-003   6.1238260775939433E-002
   5.2306971471345956E-003  -1.9143694856774696E-003   6.1843043152796831E-002
   7.9142671602857595E-003  -1.9627602301907077E-003   6.4589245931320760E-002
   6.9522384792477243E-003  -1.6978417749016761E-003   6.4497098606839720E-002
   5.9902097982097030E-003  -1.5571321754747347E-003   6.4631113023348230E-002
   5.0281811171716678E-003  -1.5406314319097239E-003   6.4991289180845790E-002
   4.0661524361336465E-003  -1.6483395442078441E-003   6.5577627079332790E-002
   9.3240890832557155E-003  -2.7124593100866790E-003   5.0144763353830779E-002
   7.8918672118317157E-003  -2.8547783016035777E-003   5.0543901034516225E-002
   6.4596453404076881E-003  -3.6014808881732474E-003   5.1267319094357500E-002
   5.0274234689836467E-003  -4.9525670697956881E-003   5.2315017533354657E-002
   3.5952015975596052E-003  -6.9080368464715658E-003   5.3686996351507643E-002
   7.8596654706956648E-003  -2.4464293686171645E-003   5.4126611290045645E-002
   6.7280144772021017E-003  -2.6247274178043400E-003   5.4044057787195288E-002
   5.5963634837085524E-003  -3.3145245042651150E-003   5.4238365661050197E-002
   4.4647124902150101E-003  -4.5158206280009744E-003   5.4709534911610000E-002
   3.3330614967214400E-003  -6.2286157890104610E-003   5.5457565538875153E-002
   6.4952014919885948E-003  -2.1803994271473170E-003   5.8026037889700954E-002
   5.6167023739748662E-003  -2.3946765340047416E-003   5.7554677761093576E-002
   4.7382032559611098E-003  -3.0275681203574267E-003   5.7312760006740543E-002
   3.8597041379473777E-003  -4.0790741862057056E-003   5.7300284626642189E-002
   2.9812050199336526E-003  -5.5491947315494672E-003   5.7517251620798016E-002
   5.2306971471345956E-003  -1.9143694856774696E-003   6.1843043152796831E-002
   4.5579309021499537E-003  -2.1646256502051570E-003   6.1075760956211186E-002
   3.8851646571653013E-003  -2.7406117364494609E-003   6.0490502131428744E-002
   3.2123984121806897E-003  -3.6423277444106034E-003   6.0087266678450532E-002
   2.5396321671960070E-003  -4.8697736740885289E-003   5.9866054597275856E-002
   4.0661524361336465E-003  -1.6483395442078441E-003   6.5577627079332790E-002
   3.5517000617274197E-003  -1.9345747664057944E-003   6.4607307372547162E-002
   3.0372476873211929E-003  -2.4536553525414950E-003   6.3771592035114844E-002
   2.5227953129149661E-003  -3.2055813026155844E-003   6.3070481067035500E-002
   2.0083429385087392E-003  -4.1903526166274796E-003   6.2503974468309020E-002
   3.5952015975596052E-003  -6.9080368464715658E-003   5.3686996351507643E-002
   4.1437142139132410E-003  -9.4860520430888329E-003   5.1977123833924721E-002
   4.6922268302669323E-003  -1.2704774484538439E-002   5.0123839747679533E-002
   5.2407394466206098E-003  -1.6564204170819080E-002   4.8127144092771412E-002
   5.7892520629742039E-003  -2.1064341101931117E-002   4.5987036869201248E-002
   3.3330614967214400E-003  -6.2286157890104610E-003   5.5457565538875153E-002
   3.7551095847236649E-003  -8.4858043525374294E-003   5.3065926179357514E-002
   4.1771576727258203E-003  -1.1320280683825151E-002   5.0564769331798876E-002
   4.5992057607280173E-003  -1.4732044782873564E-002   4.7954094996200236E-002
   5.0212538487302005E-003  -1.8721096649682911E-002   4.5233903172561041E-002
   2.9812050199336526E-003  -5.5491947315494672E-003   5.7517251620798016E-002
   3.3106826602062323E-003  -7.4855566619855818E-003   5.4507264896415886E-002
   3.6401603004788397E-003  -9.9357868831119744E-003   5.1421654764615354E-002
   3.9696379407514575E-003  -1.2899885394928215E-002   4.8260421225396158E-002
   4.2991155810240267E-003  -1.6377852197434706E-002   4.5023564278758532E-002
   2.5396321671960070E-003  -4.8697736740885289E-003   5.9866054597275856E-002
   2.8104334403610126E-003  -6.4853089714341783E-003   5.6301139985100772E-002
   3.0812347135259627E-003  -8.5512930823990752E-003   5.2694496046128803E-002
   3.3520359866909049E-003  -1.1067726006983226E-002   4.9046122780360128E-002
   3.6228372598559461E-003  -1.4034607745186500E-002   4.5356020187795221E-002
   2.0083429385087392E-003  -4.1903526166274796E-003   6.2503974468309020E-002
   2.2543619251879643E-003  -5.4850612808824417E-003   5.8447551445411361E-002
   2.5003809118672171E-003  -7.1667992816857040E-003   5.4383293176338887E-002
   2.7463998985464769E-003  -9.2355666190372873E-003   5.0311199661091460E-002
   2.9924188852256672E-003  -1.1691363292938295E-002   4.6231270899669497E-002
   3.8054420652009480E-002  -1.0436410725217005E-002   6.3100000745497098E-002
   3.3357801057095959E-002  -7.8218760410015409E-003   6.4844095012305092E-002
   2.8661181462182439E-002  -5.9968765314923483E-003   6.5687510529722853E-002
   2.3964561867268891E-002  -4.9614121966895831E-003   6.5630247297750535E-002
   1.9267942272355371E-002  -4.7154830365929712E-003   6.4672305316388068E-002
   3.4176184343426536E-002  -3.7848609626963126E-003   7.5567149371672193E-002
   2.9050198471295183E-002  -3.4133165905905205E-003   7.3173733747604192E-002
   2.3924212599163788E-002  -3.1709330257741336E-003   7.0822264318490286E-002
   1.8798226727032415E-002  -3.0577102682469263E-003   6.8512741084331086E-002
   1.3672240854901027E-002  -3.0736483180089369E-003   6.6245164045126148E-002
   2.6148473662793159E-002   2.8666887998244073E-003   8.5461120502028906E-002
   2.1535746457788427E-002   9.9524285982036109E-004   7.9590569354501886E-002
   1.6923019252783701E-002  -3.4498952005588418E-004   7.4704589346273803E-002
   1.2310292047778972E-002  -1.1540083398042401E-003   7.0803180477344574E-002
   7.6975648427742467E-003  -1.4318135994247916E-003   6.7886342747714309E-002
   1.3971288610109267E-002   9.5182385623451132E-003   9.2781914136567278E-002
   1.0814445016575712E-002   5.4038023102312566E-003   8.4094601832998425E-002
   7.6576014230421499E-003   2.4809539856623479E-003   7.7334485613073045E-002
   4.5007578295085948E-003   7.4969358863840371E-004   7.2501565476790902E-002
   1.3439142359750337E-003   2.1002111915932598E-004   6.9595841424152288E-002
  -2.3553708146250782E-003   1.6169788324865819E-002   9.7529530275287435E-002
  -3.1137058523429614E-003   9.8123617606421798E-003   8.6685831183093809E-002
  -3.8720408900608447E-003   5.3068974913805522E-003   7.8711953118888012E-002
  -4.6303759277787262E-003   2.6533955170810267E-003   7.3607896082670293E-002
  -5.3887109654966112E-003   1.8518558377434435E-003   7.1373660074440404E-002
   1.9267942272355371E-002  -4.7154830365929712E-003   6.4672305316388068E-002
   1.9310915670539497E-002  -4.8409576155313827E-003   6.4687543165594552E-002
   1.9353889068723616E-002  -4.9197044978327026E-003   6.4636056373782169E-002
   1.9396862466907725E-002  -4.9517236834972396E-003   6.4517844940950766E-002
   1.9439835865091848E-002  -4.9370151725247058E-003   6.4332908867100691E-002
   1.3672240854901027E-002  -3.0736483180089369E-003   6.6245164045126148E-002
   1.3722318434521416E-002  -3.1478410757755509E-003   6.5984945666073810E-002
   1.3772396014141812E-002  -3.2093824422619321E-003   6.5805660290912865E-002
   1.3822473593762208E-002  -3.2582724174682609E-003   6.5707307919643534E-002
   1.3872551173382590E-002  -3.2945110013943846E-003   6.5689888552265374E-002
   7.6975648427742467E-003  -1.4318135994247916E-003   6.7886342747714309E-002
   7.9024042487411995E-003  -1.4547245360197469E-003   6.7316591835046402E-002
   8.1072436547081472E-003  -1.4990603866911548E-003   6.6975431571180299E-002
   8.3120830606750948E-003  -1.5648211514393360E-003   6.6862861956115807E-002
   8.5169224666420545E-003  -1.6520068302639801E-003   6.6978882989853120E-002
   1.3439142359750337E-003   2.1002111915932598E-004   6.9595841424152288E-002
   1.8511731131988307E-003   2.3839200373607095E-004   6.8682481672512216E-002
   2.3584319904226265E-003   2.1126166887945261E-004   6.8145370214584236E-002
   2.8656908676464189E-003   1.2863011458953254E-004   6.7984507050368140E-002
   3.3729497448702194E-003  -9.5026591336727639E-006   6.8199892179863913E-002
  -5.3887109654966112E-003   1.8518558377434435E-003   7.1373660074440404E-002
  -4.4313749721056860E-003   1.9315085434918611E-003   7.0082615178471475E-002
  -3.4740389787147573E-003   1.9215837244502404E-003   6.9315476221124689E-002
  -2.5167029853238321E-003   1.8220813806185017E-003   6.9072243202400255E-002
  -1.5593669919329034E-003   1.6330015119968011E-003   6.9352916122298047E-002
   1.9439835865091848E-002  -4.9370151725247058E-003   6.4332908867100691E-002
   1.8409379104513929E-002  -4.8605678644526029E-003   6.3315247100898031E-002
   1.7378922343935982E-002  -4.7073706588178083E-003   6.2844618135913299E-002
   1.6348465583358049E-002  -4.4774235556204016E-003   6.2921021972146399E-002
   1.5318008822780116E-002  -4.1707265548600603E-003   6.3544458609597343E-002
   1.3872551173382590E-002  -3.2945110013943846E-003   6.5689888552265374E-002
   1.3337535984013119E-002  -3.2923035430829917E-003   6.4902786836400689E-002
   1.2802520794643651E-002  -3.2258553915764376E-003   6.4559535461735262E-002
   1.2267505605274188E-002  -3.0951665468750417E-003   6.4660134428268748E-002
   1.1732490415904712E-002  -2.9002370089784013E-003   6.5204583736001187E-002
   8.5169224666420545E-003  -1.6520068302639801E-003   6.6978882989853120E-002
   8.3741663884621675E-003  -1.7240392217132972E-003   6.6409832119959072E-002
   8.2314103102822840E-003  -1.7443401243351850E-003   6.6181449131245157E-002
   8.0886542321023970E-003  -1.7129095381297390E-003   6.6293734023711290E-002
   7.9458981539225135E-003  -1.6297474630968534E-003   6.6746686797357624E-002
   3.3729497448702194E-003  -9.5026591336727639E-006   6.8199892179863913E-002
   3.5192703178610393E-003  -1.5577490034364427E-004   6.7836382951572682E-002
   3.6655908908518591E-003  -2.6282485709395662E-004   6.7710359144442803E-002
   3.8119114638426833E-003  -3.3065252938435218E-004   6.7821820758474066E-002
   3.9582320368334988E-003  -3.5925791721519440E-004   6.8170767793666612E-002
  -1.5593669919329034E-003   1.6330015119968011E-003   6.9352916122298047E-002
  -1.2271522277902507E-003   1.4124894210260086E-003   6.9182439331241907E-002
  -8.9493746364760138E-004   1.2186904101473828E-003   6.9146265501328186E-002
  -5.6272269950495210E-004   1.0516044793608265E-003   6.9244394632556910E-002
  -2.3050793536229935E-004   9.1123162866640905E-004   6.9476826724927998E-002
   1.5318008822780116E-002  -4.1707265548600603E-003   6.3544458609597343E-002
   1.4402203807727249E-002  -3.8417955784131319E-003   6.3527749752382678E-002
   1.3486398792674367E-002  -3.5451465481546873E-003   6.3541537177411234E-002
   1.2570593777621493E-002  -3.2807794640851290E-003   6.3585820884683120E-002
   1.1654788762568646E-002  -3.0486943262043598E-003   6.3660600874198225E-002
   1.1732490415904712E-002  -2.9002370089784013E-003   6.5204583736001187E-002
   1.0880924643698733E-002  -2.6826192137065497E-003   6.4994970921966766E-002
   1.0029358871492755E-002  -2.4838655968790063E-003   6.4883340311383125E-002
   9.1777930992867837E-003  -2.3039761584956291E-003   6.4869691904249877E-002
   8.3262273270807985E-003  -2.1429508985568724E-003   6.4954025700567242E-002
   7.9458981539225135E-003  -1.6297474630968534E-003   6.6746686797357624E-002
   7.2260575457707525E-003  -1.5234428490003005E-003   6.6357587794248121E-002
   6.5062169376189811E-003  -1.4225846456034363E-003   6.6133956915796488E-002
   5.7863763294672219E-003  -1.3271728529064622E-003   6.6075794162002613E-002
   5.0665357213154488E-003  -1.2372074709093295E-003   6.6183099532866857E-002
   3.9582320368334988E-003  -3.5925791721519440E-004   6.8170767793666612E-002
   3.4376025139432886E-003  -3.6426648429377373E-004   6.7615600369226384E-002
   2.9169729910530654E-003  -3.6130369432775533E-004   6.7293386990651294E-002
   2.3963434681628514E-003  -3.5036954731701778E-004   6.7204127657941537E-002
   1.8757139452726321E-003  -3.3146404326170331E-004   6.7347822371096780E-002
  -2.3050793536229935E-004   9.1123162866640905E-004   6.9476826724927998E-002
  -4.8444045178364786E-004   7.9490988041247546E-004   6.8769008646901497E-002
  -7.3837296820499290E-004   6.9997725694793955E-004   6.8361630535947598E-002
  -9.9230548462634488E-004   6.2643375827231909E-004   6.8254692392066066E-002
  -1.2462380010476865E-003   5.7427938438570081E-004   6.8448194215257274E-002
   1.1654788762568646E-002  -3.0486943262043598E-003   6.3660600874198225E-002
   1.0719658361997911E-002  -2.8188653216136839E-003   6.3388842953859825E-002
   9.7845279614271891E-003  -2.5612666374145165E-003   6.3453031156600836E-002
   8.8493975608564673E-003  -2.2758982736071076E-003   6.3853165482421148E-002
   7.9142671602857595E-003  -1.9627602301907077E-003   6.4589245931320760E-002
   8.3262273270807985E-003  -2.1429508985568724E-003   6.4954025700567242E-002
   7.7149982052787877E-003  -1.9819372794327994E-003   6.4762398053852199E-002
   7.1037690834767978E-003  -1.8020827634943337E-003   6.4882626841595348E-002
   6.4925399616748078E-003  -1.6033873507420790E-003   6.5314712063796659E-002
   5.8813108398727970E-003  -1.3858510411749458E-003   6.6058653720455940E-002
   5.0665357213154488E-003  -1.2372074709093295E-003   6.6183099532866857E-002
   4.7551181896609805E-003  -1.1450092372519149E-003   6.6062673376980879E-002
   4.4437006580065122E-003  -1.0428988895743729E-003   6.6230013966932122E-002
   4.1322831263520439E-003  -9.3087642787682834E-004   6.6685121302720016E-002
   3.8208655946975756E-003  -8.0894185215901748E-004   6.7427995384345019E-002
   1.8757139452726321E-003  -3.3146404326170331E-004   6.7347822371096780E-002
   1.8400183151444692E-003  -3.0808119507119702E-004   6.7289668923246088E-002
   1.8043226850163203E-003  -2.8371501565452317E-004   6.7495192532610895E-002
   1.7686270548881713E-003  -2.5836550501191075E-004   6.7964393199191397E-002
   1.7329314247600085E-003  -2.3203266314300586E-004   6.8697270922987691E-002
  -1.2462380010476865E-003   5.7427938438570081E-004   6.8448194215257274E-002
  -1.0303014182707210E-003   5.2884684710974295E-004   6.8443384692647158E-002
  -8.1436483549376590E-004   4.7546885826560414E-004   6.8678162538631626E-002
  -5.9842825271680389E-004   4.1414541785346481E-004   6.9152527753210596E-002
  -3.8249166993984535E-004   3.4487652587278372E-004   6.9866480336384096E-002
   7.9142671602857595E-003  -1.9627602301907077E-003   6.4589245931320760E-002
   6.9522384792477243E-003  -1.6978417749016761E-003   6.4497098606839720E-002
   5.9902097982097030E-003  -1.5571321754747347E-003   6.4631113023348230E-002
   5.0281811171716678E-003  -1.5406314319097239E-003   6.4991289180845790E-002
   4.0661524361336465E-003  -1.6483395442078441E-003   6.5577627079332790E-002
   5.8813108398727970E-003  -1.3858510411749458E-003   6.6058653720455940E-002
   5.1524148069101577E-003  -1.2038269697350334E-003   6.5838951263833267E-002
   4.4235187739475185E-003  -1.1116682713640524E-003   6.5859352362371809E-002
   3.6946227409848931E-003  -1.1093749460621000E-003   6.6119857016071579E-002
   2.9657267080222399E-003  -1.1969469938286625E-003   6.6620465224933034E-002
   3.8208655946975756E-003  -8.0894185215901748E-004   6.7427995384345019E-002
   3.3390440239823814E-003  -7.0981216456869611E-004   6.7115081278373900E-002
   2.8572224532671976E-003  -6.6620436725368937E-004   6.7056212541736174E-002
   2.3754008825520138E-003  -6.7811846021402847E-004   6.7251389174432130E-002
   1.8935793118368335E-003  -7.4555444344953647E-004   6.7700611176461367E-002
   1.7329314247600085E-003  -2.3203266314300586E-004   6.8697270922987691E-002
   1.5121261304643632E-003  -2.1579735940253919E-004   6.8325488650461702E-002
   1.2913208361687170E-003  -2.2074046314344425E-004   6.8221693561441421E-002
   1.0705155418730709E-003  -2.4686197436595871E-004   6.8385885655926584E-002
   8.4971024757741175E-004  -2.9416189307043816E-004   6.8818064933917455E-002
  -3.8249166993984535E-004   3.4487652587278372E-004   6.9866480336384096E-002
  -3.2833887364387693E-004   2.7821744576422835E-004   6.9470173380096756E-002
  -2.7418607734791198E-004   2.2472344096730046E-004   6.9355795421487565E-002
  -2.2003328105194356E-004   1.8439451148193065E-004   6.9523346460555496E-002
  -1.6588048475597861E-004   1.5723065730877117E-004   6.9972826497301410E-002
   4.0661524361336465E-003  -1.6483395442078441E-003   6.5577627079332790E-002
   3.5517000617274197E-003  -1.9345747664057944E-003   6.4607307372547162E-002
   3.0372476873211929E-003  -2.4536553525414950E-003   6.3771592035114844E-002
   2.5227953129149661E-003  -3.2055813026155844E-003   6.3070481067035500E-002
   2.0083429385087392E-003  -4.1903526166274796E-003   6.2503974468309020E-002
   2.9657267080222399E-003  -1.1969469938286625E-003   6.6620465224933034E-002
   2.5860329404973487E-003  -1.4160976108604784E-003   6.5475509522902209E-002
   2.2063391729724713E-003  -1.8085399933543134E-003   6.4465466665280691E-002
   1.8266454054475800E-003  -2.3742741413095916E-003   6.3590336652068730E-002
   1.4469516379227026E-003  -3.1133000547268752E-003   6.2850119483266353E-002
   1.8935793118368335E-003  -7.4555444344953647E-004   6.7700611176461367E-002
   1.6489526262498527E-003  -8.9762045531543988E-004   6.6440573077661019E-002
   1.4043259406628823E-003  -1.1634246341669097E-003   6.5315756298326755E-002
   1.1596992550759119E-003  -1.5429669800039320E-003   6.4326160838458796E-002
   9.1507256948894500E-004  -2.0362474928262153E-003   6.3471786698056837E-002
   8.4971024757741175E-004  -2.9416189307043816E-004   6.8818064933917455E-002
   7.4045911898491974E-004  -3.7914329977037364E-004   6.7502498036823927E-002
   6.3120799039244075E-004  -5.1830927497967250E-004   6.6322460934253133E-002
   5.2195686179995222E-004  -7.1165981869788369E-004   6.5277953626205254E-002
   4.1270573320745588E-004  -9.5919493092558317E-004   6.4368976112680110E-002
  -1.6588048475597861E-004   1.5723065730877117E-004   6.9972826497301410E-002
  -1.3944758129742080E-004   1.3933385577485913E-004   6.8661284400390987E-002
  -1.1301467783886646E-004   1.2680608420753692E-004   6.7485580573060089E-002
  -8.6581774380308646E-005   1.1964734260751925E-004   6.6445715015308465E-002
  -6.0148870921754305E-005   1.1785763097493795E-004   6.5541687727136311E-002
   2.0083429385087392E-003  -4.1903526166274796E-003   6.2503974468309020E-002
   2.2543619251879643E-003  -5.4850612808824417E-003   5.8447551445411361E-002
   2.5003809118672171E-003  -7.1667992816857040E-003   5.4383293176338887E-002
   2.7463998985464769E-003  -9.2355666190372873E-003   5.0311199661091460E-002
   2.9924188852256672E-003  -1.1691363292938295E-002   4.6231270899669497E-002
   1.4469516379227026E-003  -3.1133000547268752E-003   6.2850119483266353E-002
   1.6719529062933641E-003  -4.0830530495209461E-003   5.8472430353466720E-002
   1.8969541746640395E-003  -5.3409684416086123E-003   5.4060541033224108E-002
   2.1219554430347114E-003  -6.8870462309884098E-003   4.9614451522539349E-002
   2.3469567114053902E-003  -8.7212864176613447E-003   4.5134161821412278E-002
   9.1507256948894500E-004  -2.0362474928262153E-003   6.3471786698056837E-002
   1.0926911752834403E-003  -2.6810448181600610E-003   5.8871698400610434E-002
   1.2703097810779357E-003  -3.5151376015310903E-003   5.4211044968453956E-002
   1.4479283868724189E-003  -4.5385258429390916E-003   4.9489826401587493E-002
   1.6255469926669402E-003  -5.7512095423846166E-003   4.4708042700011053E-002
   4.1270573320745588E-004  -9.5919493092558317E-004   6.4368976112680110E-002
   5.1657673215816692E-004  -1.2790365867988707E-003   5.9645355586842745E-002
   6.2044773110887103E-004  -1.6893067614535615E-003   5.4834804982027530E-002
   7.2431873005958250E-004  -2.1900054548899938E-003   4.9937324298234817E-002
   8.2818972901027230E-004  -2.7811326671077774E-003   4.4952913535464545E-002
  -6.0148870921754305E-005   1.1785763097493795E-004   6.5541687727136311E-002
  -5.6390423082447461E-005   1.2297164456243070E-004   6.0793401912163314E-002
  -5.2631975243130208E-005   1.3652407862371763E-004   5.5931821073945509E-002
  -4.8873527403814690E-005   1.5851493315954118E-004   5.0956945212482146E-002
  -4.5115079564506111E-005   1.8894420816906177E-004   4.5868774327773920E-002
  -2.3553708146250782E-003   1.6169788324865819E-002   9.7529530275287435E-002
  -3.1137058523429614E-003   9.8123617606421798E-003   8.6685831183093809E-002
  -3.8720408900608447E-003   5.3068974913805522E-003   7.8711953118888012E-002
  -4.6303759277787262E-003   2.6533955170810267E-003   7.3607896082670293E-002
  -5.3887109654966112E-003   1.8518558377434435E-003   7.1373660074440404E-002
  -1.7817590655939627E-002   7.7439830593111769E-003   6.8889765690245824E-002
  -1.6237786330181005E-002   4.4952848802710665E-003   6.4847758343398482E-002
  -1.4657982004422389E-002   2.3046641482042940E-003   6.2612208695516300E-002
  -1.3078177678663764E-002   1.1721208631106789E-003   6.2183116746599092E-002
  -1.1498373352905152E-002   1.0976550249905404E-003   6.3560482496646975E-002
  -2.7401456958364073E-002  -6.8182220624349310E-004   4.3755671914382177E-002
  -2.4546876598151822E-002  -8.2179200010012998E-004   4.5721471464892360E-002
  -2.1692296237939557E-002  -6.9756919497211689E-004   4.8430365385344815E-002
  -1.8837715877727298E-002  -3.0915379085964464E-004   5.1882353675739519E-002
  -1.5983135517515037E-002   3.4345421223755390E-004   5.6077436336076369E-002
  -3.1106969721898459E-002  -9.1076274717981354E-003   2.2127248947696208E-002
  -2.8040976656255406E-002  -6.1388688804712849E-003   2.9306970547575313E-002
  -2.4974983590612367E-002  -3.6998025381485347E-003   3.6166423188373834E-002
  -2.1908990524969325E-002  -1.7904284448299248E-003   4.2705606870091672E-002
  -1.8842997459326279E-002  -4.1074660051533540E-004   4.8924521592728906E-002
  -2.8934128946542736E-002  -1.7533432737352805E-002   4.0044967901881057E-003
  -2.6720086504491796E-002  -1.1455945760842440E-002   1.5604255591447402E-002
  -2.4506044062440800E-002  -6.7020358813248415E-003   2.5820382104603246E-002
  -2.2292001620389839E-002  -3.2717030988003021E-003   3.4652876329655607E-002
  -2.0077959178338871E-002  -1.1649474132683357E-003   4.2101738266604405E-002
  -5.3887109654966112E-003   1.8518558377434435E-003   7.1373660074440404E-002
  -4.4313749721056860E-003   1.9315085434918611E-003   7.0082615178471475E-002
  -3.4740389787147573E-003   1.9215837244502404E-003   6.9315476221124689E-002
  -2.5167029853238321E-003   1.8220813806185017E-003   6.9072243202400255E-002
  -1.5593669919329034E-003   1.6330015119968011E-003   6.9352916122298047E-002
  -1.1498373352905152E-002   1.0976550249905404E-003   6.3560482496646975E-002
  -1.0193351210073521E-002   1.4760284800489076E-003   6.3597129841591910E-002
  -8.8883290672418895E-003   1.7020030744911152E-003   6.3805243546796050E-002
  -7.5833069244102581E-003   1.7755788083171978E-003   6.4184823612259134E-002
  -6.2782847815786268E-003   1.6967556815271623E-003   6.4735870037981647E-002
  -1.5983135517515037E-002   3.4345421223755390E-004   5.6077436336076369E-002
  -1.4682866803605853E-002   1.0205484166059126E-003   5.7378954586109282E-002
  -1.3382598089696662E-002   1.4824224245320386E-003   5.8499499618038138E-002
  -1.2082329375787482E-002   1.7290762360159476E-003   5.9439071431862958E-002
  -1.0782060661878288E-002   1.7605098510576067E-003   6.0197670027583861E-002
  -1.8842997459326279E-002  -4.1074660051533540E-004   4.8924521592728906E-002
  -1.7899921752702688E-002   5.6506835316288279E-004   5.1428089412023668E-002
  -1.6956846046079072E-002   1.2628417745729099E-003   5.3398244434851146E-002
  -1.6013770339455474E-002   1.6825736637146706E-003   5.4834986661211511E-002
  -1.5070694632831866E-002   1.8242640205880928E-003   5.5738316091104703E-002
  -2.0077959178338871E-002  -1.1649474132683357E-003   4.2101738266604405E-002
  -1.9844516057364016E-002   1.0958828971993628E-004   4.5744534319334812E-002
  -1.9611072936389137E-002   1.0432611246139895E-003   4.8501477997234976E-002
  -1.9377629815414271E-002   1.6360710914134040E-003   5.0372569300304801E-002
  -1.9144186694439402E-002   1.8880181901184678E-003   5.1357808228544355E-002
  -1.5593669919329034E-003   1.6330015119968011E-003   6.9352916122298047E-002
  -1.2271522277902507E-003   1.4124894210260086E-003   6.9182439331241907E-002
  -8.9493746364760138E-004   1.2186904101473828E-003   6.9146265501328186E-002
  -5.6272269950495210E-004   1.0516044793608265E-003   6.9244394632556910E-002
  -2.3050793536229935E-004   9.1123162866640905E-004   6.9476826724927998E-002
  -6.2782847815786268E-003   1.6967556815271623E-003   6.4735870037981647E-002
  -5.7990112943179864E-003   1.5468037765146714E-003   6.4811718110378697E-002
  -5.3197378070573391E-003   1.4069931756728743E-003   6.5047380667869442E-002
  -4.8404643197966927E-003   1.2773238790022394E-003   6.5442857710453717E-002
  -4.3611908325360514E-003   1.1577958865027771E-003   6.5998149238131854E-002
  -1.0782060661878288E-002   1.7605098510576067E-003   6.0197670027583861E-002
  -1.0130216927548438E-002   1.6811181320031121E-003   6.0503271187513044E-002
  -9.4783731932185835E-003   1.5952959411986434E-003   6.0994198356487103E-002
  -8.8265294588887287E-003   1.5030432786438744E-003   6.1670451534505996E-002
  -8.1746857245588722E-003   1.4043601443391174E-003   6.2532030721569612E-002
  -1.5070694632831866E-002   1.8242640205880928E-003   5.5738316091104703E-002
  -1.4220769127481599E-002   1.8154324874916361E-003   5.6257098562645033E-002
  -1.3370843622131319E-002   1.7835987067241071E-003   5.6986718567181259E-002
  -1.2520918116781044E-002   1.7287626782853983E-003   5.7927176104713568E-002
  -1.1670992611430770E-002   1.6509244021753605E-003   5.9078471175241898E-002
  -1.9144186694439402E-002   1.8880181901184678E-003   5.1357808228544355E-002
  -1.8070667894117480E-002   1.9497468429802156E-003   5.2073200235774442E-002
  -1.6997149093795572E-002   1.9719014722498068E-003   5.3024941299951833E-002
  -1.5923630293473656E-002   1.9544820779267870E-003   5.4213031421076488E-002
  -1.4850111493151734E-002   1.8974886600118257E-003   5.5637470599148475E-002
  -2.3050793536229935E-004   9.1123162866640905E-004   6.9476826724927998E-002
  -4.8444045178364786E-004   7.9490988041247546E-004   6.8769008646901497E-002
  -7.3837296820499290E-004   6.9997725694793955E-004   6.8361630535947598E-002
  -9.9230548462634488E-004   6.2643375827231909E-004   6.8254692392066066E-002
  -1.2462380010476865E-003   5.7427938438570081E-004   6.8448194215257274E-002
  -4.3611908325360514E-003   1.1577958865027771E-003   6.5998149238131854E-002
  -4.3248696130932379E-003   1.0608786233959056E-003   6.5625567573749682E-002
  -4.2885483936504331E-003   9.9904151490361193E-004   6.5533053414023296E-002
  -4.2522271742076213E-003   9.7228456102605235E-004   6.5720606758952652E-002
  -4.2159059547648217E-003   9.8060776176306375E-004   6.6188227608537875E-002
  -8.1746857245588722E-003   1.4043601443391174E-003   6.2532030721569612E-002
  -7.8684832316686763E-003   1.3268473663793079E-003   6.2508376500657450E-002
  -7.5622807387784822E-003   1.2981057728595549E-003   6.2744417321984269E-002
  -7.2560782458882880E-003   1.3181353637799504E-003   6.3240153185550124E-002
  -6.9498757529980783E-003   1.3869361391403157E-003   6.3995584091354862E-002
  -1.1670992611430770E-002   1.6509244021753605E-003   5.9078471175241898E-002
  -1.1115281307509956E-002   1.5928161093626131E-003   5.9417435427625037E-002
  -1.0559570003589130E-002   1.5971700308154181E-003   5.9995722259830436E-002
  -1.0003858699668302E-002   1.6639861665338216E-003   6.0813331671858151E-002
  -9.4481473957474804E-003   1.7932645165175121E-003   6.1870263663708042E-002
  -1.4850111493151734E-002   1.8974886600118257E-003   5.5637470599148475E-002
  -1.4065263840617053E-002   1.8587848523461403E-003   5.6352744354652484E-002
  -1.3280416188082379E-002   1.8962342887711148E-003   5.7286968227561963E-002
  -1.2495568535547716E-002   2.0098369692874568E-003   5.8440142217876828E-002
  -1.1710720883013032E-002   2.1995928938948195E-003   5.9812266325597330E-002
  -1.2462380010476865E-003   5.7427938438570081E-004   6.8448194215257274E-002
  -1.0303014182707210E-003   5.2884684710974295E-004   6.8443384692647158E-002
  -8.1436483549376590E-004   4.7546885826560414E-004   6.8678162538631626E-002
  -5.9842825271680389E-004   4.1414541785346481E-004   6.9152527753210596E-002
  -3.8249166993984535E-004   3.4487652587278372E-004   6.9866480336384096E-002
  -4.2159059547648217E-003   9.8060776176306375E-004   6.6188227608537875E-002
  -3.7761833349205434E-003   9.8589273418597800E-004   6.6378763878479075E-002
  -3.3364607150762771E-003   9.5002109536605761E-004   6.6777284853960311E-002
  -2.8967380952320100E-003   8.7299284530335461E-004   6.7383790534981503E-002
  -2.4570154753877325E-003   7.5480798399785165E-004   6.8198280921543175E-002
  -6.9498757529980783E-003   1.3869361391403157E-003   6.3995584091354862E-002
  -6.3179697591409095E-003   1.4429386212620465E-003   6.4348254994172668E-002
  -5.6860637652837338E-003   1.4245733324664001E-003   6.4877307939475937E-002
  -5.0541577714265581E-003   1.3318402727534664E-003   6.5582742927265042E-002
  -4.4222517775693755E-003   1.1647394421229751E-003   6.6464559957539943E-002
  -9.4481473957474804E-003   1.7932645165175121E-003   6.1870263663708042E-002
  -8.6556606909318073E-003   1.8999845083382538E-003   6.2351858039727634E-002
  -7.8631739861161377E-003   1.8991255695667425E-003   6.2978231795178558E-002
  -7.0706872813004725E-003   1.7906877002033007E-003   6.3749384930060660E-002
  -6.2782005764847925E-003   1.5746709002481818E-003   6.4665317444374260E-002
  -1.1710720883013032E-002   2.1995928938948195E-003   5.9812266325597330E-002
  -1.0789256130293259E-002   2.3570303954144056E-003   6.0389573015144249E-002
  -9.8677913775734975E-003   2.3736778066671960E-003   6.1080056421068174E-002
  -8.9463266248537305E-003   2.2495351276535236E-003   6.1883716543368827E-002
  -8.0248618721339635E-003   1.9846023583731665E-003   6.2800553382046598E-002
  -3.8249166993984535E-004   3.4487652587278372E-004   6.9866480336384096E-002
  -3.2833887364387693E-004   2.7821744576422835E-004   6.9470173380096756E-002
  -2.7418607734791198E-004   2.2472344096730046E-004   6.9355795421487565E-002
  -2.2003328105194356E-004   1.8439451148193065E-004   6.9523346460555496E-002
  -1.6588048475597861E-004   1.5723065730877117E-004   6.9972826497301410E-002
  -2.4570154753877325E-003   7.5480798399785165E-004   6.8198280921543175E-002
  -2.1348264413159380E-003   6.3790078482073298E-004   6.7925807214026135E-002
  -1.8126374072441383E-003   5.6470552114329386E-004   6.7907476984383125E-002
  -1.4904483731723343E-003   5.3522219296539553E-004   6.8143290232614048E-002
  -1.1682593391005441E-003   5.4945080028712123E-004   6.8633246958719030E-002
  -4.4222517775693755E-003   1.1647394421229751E-003   6.6464559957539943E-002
  -3.8598120255253932E-003   9.9758412387748741E-004   6.6346466358980727E-002
  -3.2973722734814118E-003   9.0468760131953707E-004   6.6454730718491895E-002
  -2.7349325214374226E-003   8.8604987444864530E-004   6.6789353036073515E-002
  -2.1724927693934342E-003   9.4167094326558232E-004   6.7350333311725491E-002
  -6.2782005764847925E-003   1.5746709002481818E-003   6.4665317444374260E-002
  -5.5032956262722615E-003   1.3572674629340614E-003   6.4732150814960962E-002
  -4.7283906760597384E-003   1.2446696814955999E-003   6.4997556623814179E-002
  -3.9534857258472049E-003   1.2368775559320026E-003   6.5461534870934313E-002
  -3.1785807756346848E-003   1.3338910862440434E-003   6.6124085556321155E-002
  -8.0248618721339635E-003   1.9846023583731665E-003   6.2800553382046598E-002
  -7.0652772435565239E-003   1.7169508019908020E-003   6.3082860581966771E-002
  -6.1056926149790983E-003   1.5846517616718570E-003   6.3535954700349839E-002
  -5.1461079864016639E-003   1.5877052374154918E-003   6.4159835737196136E-002
  -4.1865233578242331E-003   1.7261112292225045E-003   6.4954503692505550E-002
  -1.6588048475597861E-004   1.5723065730877117E-004   6.9972826497301410E-002
  -1.3944758129742080E-004   1.3933385577485913E-004   6.8661284400390987E-002
  -1.1301467783886646E-004   1.2680608420753692E-004   6.7485580573060089E-002
  -8.6581774380308646E-005   1.1964734260751925E-004   6.6445715015308465E-002
  -6.0148870921754305E-005   1.1785763097493795E-004   6.5541687727136311E-002
  -1.1682593391005441E-003   5.4945080028712123E-004   6.8633246958719030E-002
  -1.0086439743170750E-003   6.1572032414486388E-004   6.7350063941375660E-002
  -8.4902860953360235E-004   7.4235974557473883E-004   6.6197407577102768E-002
  -6.8941324475012625E-004   9.2936906457720403E-004   6.5175277865900230E-002
  -5.2979787996664668E-004   1.1767482811519958E-003   6.4283674807768421E-002
  -2.1724927693934342E-003   9.4167094326558232E-004   6.7350333311725491E-002
  -1.8850065597938838E-003   1.0921067925148964E-003   6.6150510241554439E-002
  -1.5975203501943404E-003   1.3579134069418436E-003   6.5075902207944972E-002
  -1.3100341405947969E-003   1.7390907865463372E-003   6.4126509210897187E-002
  -1.0225479309952466E-003   2.2356389313286651E-003   6.3302331250411265E-002
  -3.1785807756346848E-003   1.3338910862440434E-003   6.6124085556321155E-002
  -2.7685353377278786E-003   1.5684932608849150E-003   6.5062623300927477E-002
  -2.3584898998210728E-003   1.9734670683088859E-003   6.4121064465586783E-002
  -1.9484444619142633E-003   2.5488125085156351E-003   6.3299409050299030E-002
  -1.5383990240074607E-003   3.2945295815054176E-003   6.2597657055063705E-002
  -4.1865233578242331E-003   1.7261112292225045E-003   6.4954503692505550E-002
  -3.6592303081190228E-003   2.0448797292549892E-003   6.4086403119494872E-002
  -3.1319372584138090E-003   2.5890207296762335E-003   6.3332894350028146E-002
  -2.6046442087085987E-003   3.3585342304850649E-003   6.2693977384105565E-002
  -2.0773511590033850E-003   4.3534202316823922E-003   6.2169652221726768E-002
  -6.0148870921754305E-005   1.1785763097493795E-004   6.5541687727136311E-002
  -5.6390423082447461E-005   1.2297164456243070E-004   6.0793401912163314E-002
  -5.2631975243130208E-005   1.3652407862371763E-004   5.5931821073945509E-002
  -4.8873527403814690E-005   1.5851493315954118E-004   5.0956945212482146E-002
  -4.5115079564506111E-005   1.8894420816906177E-004   4.5868774327773920E-002
  -5.2979787996664668E-004   1.1767482811519958E-003   6.4283674807768421E-002
  -6.2668703754141519E-004   1.5073240986375191E-003   5.9582166231004763E-002
  -7.2357619511618024E-004   1.9439232203719292E-003   5.4792657466657901E-002
  -8.2046535269093140E-004   2.4865456463564681E-003   4.9915148514728364E-002
  -9.1735451026569992E-004   3.1351913765897965E-003   4.4949639375215789E-002
  -1.0225479309952466E-003   2.2356389313286651E-003   6.3302331250411265E-002
  -1.1947898583218094E-003   2.8916765527121080E-003   5.8745184795631622E-002
  -1.3670317856483713E-003   3.7513223621200437E-003   5.4125332988931754E-002
  -1.5392737129749597E-003   4.8145763595530654E-003   4.9442775830311654E-002
  -1.7115156403015239E-003   6.0814385450105313E-003   4.4697513319769788E-002
  -1.5383990240074607E-003   3.2945295815054176E-003   6.2597657055063705E-002
  -1.7606988854236053E-003   4.2760290067869466E-003   5.8282457606044343E-002
  -1.9829987468397148E-003   5.5587215038679846E-003   5.3929847640766776E-002
  -2.2052986082558451E-003   7.1426070727499385E-003   4.9539827159230332E-002
  -2.4275984696719832E-003   9.0276857134312660E-003   4.5112396161435586E-002
  -2.0773511590033850E-003   4.3534202316823922E-003   6.2169652221726768E-002
  -2.3244141188468112E-003   5.6603814608617853E-003   5.8193984662242570E-002
  -2.5714770786902305E-003   7.3661206456162032E-003   5.4206201422161926E-002
  -2.8185400385336654E-003   9.4706377859465479E-003   5.0206302501485889E-002
  -3.0656029983770761E-003   1.1973932881852001E-002   4.6194287900212849E-002
  -2.8934128946542736E-002  -1.7533432737352805E-002   4.0044967901881057E-003
  -2.6720086504491796E-002  -1.1455945760842440E-002   1.5604255591447402E-002
  -2.4506044062440800E-002  -6.7020358813248415E-003   2.5820382104603246E-002
  -2.2292001620389839E-002  -3.2717030988003021E-003   3.4652876329655607E-002
  -2.0077959178338871E-002  -1.1649474132683357E-003   4.2101738266604405E-002
  -2.7160753282668287E-002  -4.1255152514954596E-003   3.1469912653507626E-002
  -2.5736681826198080E-002  -1.4313367752402939E-003   3.6041294671593199E-002
  -2.4312610369727813E-002   6.9691015032007086E-004   4.0416367006620879E-002
  -2.2888538913257567E-002   2.2592255251854924E-003   4.4595129658590651E-002
  -2.1464467456787342E-002   3.2556093493562033E-003   4.8577582627502475E-002
  -3.2064661380646675E-002   9.2824022343618862E-003   5.5173197243422928E-002
  -3.0243238304711494E-002   8.5932722103617687E-003   5.3473848024632828E-002
  -2.8421815228776362E-002   8.0958561819649277E-003   5.2765511727830366E-002
  -2.6600392152841268E-002   7.7901541491712870E-003   5.3048188353015530E-002
  -2.4778969076906111E-002   7.6761661119807423E-003   5.4321877900188484E-002
  -4.3645853240477567E-002   2.2690319720219204E-002   7.5114350559934137E-002
  -4.0239755940032013E-002   1.8617881195963970E-002   6.7901915650566164E-002
  -3.6833658639586417E-002   1.5494802213609868E-002   6.2867816268231569E-002
  -3.3427561339140828E-002   1.3321082773156998E-002   6.0012052412930283E-002
  -3.0021464038695274E-002   1.2096722874605281E-002   5.9334624084662183E-002
  -6.1904328862161295E-002   3.6098237206076578E-002   9.1293372603040879E-002
  -5.5726234732159707E-002   2.8642490181565977E-002   7.9325497549393331E-002
  -4.9548140602158008E-002   2.2893748245254794E-002   7.0723280627824597E-002
  -4.3370046472156365E-002   1.8852011397142831E-002   6.5486721838334774E-002
  -3.7191952342154722E-002   1.6517279637229820E-002   6.3615821180923737E-002
  -2.0077959178338871E-002  -1.1649474132683357E-003   4.2101738266604405E-002
  -1.9844516057364016E-002   1.0958828971993628E-004   4.5744534319334812E-002
  -1.9611072936389137E-002   1.0432611246139895E-003   4.8501477997234976E-002
  -1.9377629815414271E-002   1.6360710914134040E-003   5.0372569300304801E-002
  -1.9144186694439402E-002   1.8880181901184678E-003   5.1357808228544355E-002
  -2.1464467456787342E-002   3.2556093493562033E-003   4.8577582627502475E-002
  -2.1912181076715317E-002   3.8696722908537901E-003   5.0227294431117162E-002
  -2.2359894696643304E-002   4.2850250177000893E-003   5.1400545127756450E-002
  -2.2807608316571290E-002   4.5016675298951772E-003   5.2097334717420278E-002
  -2.3255321936499262E-002   4.5195998274387694E-003   5.2317663200108722E-002
  -2.4778969076906111E-002   7.6761661119807423E-003   5.4321877900188484E-002
  -2.5498448169882053E-002   7.6297562919876855E-003   5.4120658108130507E-002
  -2.6217927262858015E-002   7.5267889107864736E-003   5.3852368476951996E-002
  -2.6937406355833960E-002   7.3672639683768967E-003   5.3517009006652905E-002
  -2.7656885448809919E-002   7.1511814647591543E-003   5.3114579697233336E-002
  -3.0021464038695274E-002   1.2096722874605281E-002   5.9334624084662183E-002
  -3.0603317336864281E-002   1.1389840293121477E-002   5.7424625350374535E-002
  -3.1185170635033285E-002   1.0768552803872605E-002   5.5856948044821310E-002
  -3.1767023933202299E-002   1.0232860406858644E-002   5.4631592168002459E-002
  -3.2348877231371330E-002   9.7827631020794420E-003   5.3748557719918016E-002
  -3.7191952342154722E-002   1.6517279637229820E-002   6.3615821180923737E-002
  -3.7226788577661915E-002   1.5149924294255490E-002   6.0139196157849573E-002
  -3.7261624813169122E-002   1.4010316696959013E-002   5.7414283831364710E-002
  -3.7296461048676330E-002   1.3098456845340431E-002   5.5441084201469162E-002
  -3.7331297284183509E-002   1.2414344739399841E-002   5.4219597268162778E-002
  -1.9144186694439402E-002   1.8880181901184678E-003   5.1357808228544355E-002
  -1.8070667894117480E-002   1.9497468429802156E-003   5.2073200235774442E-002
  -1.6997149093795572E-002   1.9719014722498068E-003   5.3024941299951833E-002
  -1.5923630293473656E-002   1.9544820779267870E-003   5.4213031421076488E-002
  -1.4850111493151734E-002   1.8974886600118257E-003   5.5637470599148475E-002
  -2.3255321936499262E-002   4.5195998274387694E-003   5.2317663200108722E-002
  -2.1958232882723153E-002   4.4218669429986757E-003   5.2693751047140774E-002
  -2.0661143828947022E-002   4.2915139092420257E-003   5.3280630344133967E-002
  -1.9364054775170905E-002   4.1285407261690658E-003   5.4078301091088285E-002
  -1.8066965721394754E-002   3.9329473937795290E-003   5.5086763288003715E-002
  -2.7656885448809919E-002   7.1511814647591543E-003   5.3114579697233336E-002
  -2.6161783748565662E-002   6.8939870430169692E-003   5.3158317258343191E-002
  -2.4666682048321426E-002   6.6111263462342931E-003   5.3387288662427847E-002
  -2.3171580348077196E-002   6.3025993744111764E-003   5.3801493909487796E-002
  -2.1676478647832936E-002   5.9684061275474543E-003   5.4400932999522728E-002
  -3.2348877231371330E-002   9.7827631020794420E-003   5.3748557719918016E-002
  -3.0681320491645053E-002   9.3661071430352905E-003   5.3466898869381330E-002
  -2.9013763751918737E-002   8.9307387832264808E-003   5.3344916254833771E-002
  -2.7346207012192463E-002   8.4766580226532037E-003   5.3382609876275217E-002
  -2.5678650272466148E-002   8.0038648613154351E-003   5.3579979733705471E-002
  -3.7331297284183509E-002   1.2414344739399841E-002   5.4219597268162778E-002
  -3.5516843111961280E-002   1.1838227243053806E-002   5.3619495880255719E-002
  -3.3702388939739002E-002   1.1250351220218752E-002   5.3153513121351498E-002
  -3.1887934767516751E-002   1.0650716670895587E-002   5.2821648991450282E-002
  -3.0073480595294494E-002   1.0039323595083194E-002   5.2623903490551904E-002
  -1.4850111493151734E-002   1.8974886600118257E-003   5.5637470599148475E-002
  -1.4065263840617053E-002   1.8587848523461403E-003   5.6352744354652484E-002
  -1.3280416188082379E-002   1.8962342887711148E-003   5.7286968227561963E-002
  -1.2495568535547716E-002   2.0098369692874568E-003   5.8440142217876828E-002
  -1.1710720883013032E-002   2.1995928938948195E-003   5.9812266325597330E-002
  -1.8066965721394754E-002   3.9329473937795290E-003   5.5086763288003715E-002
  -1.7057728406474258E-002   3.7377106607319466E-003   5.5469561186338584E-002
  -1.6048491091553742E-002   3.5758072756842535E-003   5.6082188292039536E-002
  -1.5039253776633232E-002   3.4472372386364809E-003   5.6924644605106739E-002
  -1.4030016461712702E-002   3.3520005495887295E-003   5.7996930125540247E-002
  -2.1676478647832936E-002   5.9684061275474543E-003   5.4400932999522728E-002
  -2.0431972580565831E-002   5.6166364691180304E-003   5.4408435144597159E-002
  -1.9187466513298723E-002   5.2553802625973922E-003   5.4656645586998606E-002
  -1.7942960446031594E-002   4.8846375079855606E-003   5.5145564326727098E-002
  -1.6698454378764507E-002   4.5044082052826950E-003   5.5875191363782328E-002
  -2.5678650272466148E-002   8.0038648613154351E-003   5.3579979733705471E-002
  -2.4187996362891737E-002   7.4955622775041419E-003   5.3169366229428541E-002
  -2.2697342453317289E-002   6.9349532495105309E-003   5.3010340112439332E-002
  -2.1206688543742875E-002   6.3220377773347235E-003   5.3102901382737822E-002
  -1.9716034634168430E-002   5.6568158609767438E-003   5.3447050040323893E-002
  -3.0073480595294494E-002   1.0039323595083194E-002   5.2623903490551904E-002
  -2.8325799753451966E-002   9.3744880858901425E-003   5.1752354440832482E-002
  -2.6578118911609480E-002   8.6145262364236419E-003   5.1143271868361484E-002
  -2.4830438069766994E-002   7.7594380466837407E-003   5.0796655773138882E-002
  -2.3082757227924466E-002   6.8092235166705706E-003   5.0712506155164871E-002
  -1.1710720883013032E-002   2.1995928938948195E-003   5.9812266325597330E-002
  -1.0789256130293259E-002   2.3570303954144056E-003   6.0389573015144249E-002
  -9.8677913775734975E-003   2.3736778066671960E-003   6.1080056421068174E-002
  -8.9463266248537305E-003   2.2495351276535236E-003   6.1883716543368827E-002
  -8.0248618721339635E-003   1.9846023583731665E-003   6.2800553382046598E-002
  -1.4030016461712702E-002   3.3520005495887295E-003   5.7996930125540247E-002
  -1.2982740780125023E-002   3.2369640661815136E-003   5.8130867175732959E-002
  -1.1935465098537396E-002   3.0489946460541817E-003   5.8403249367284721E-002
  -1.0888189416949728E-002   2.7880922892079968E-003   5.8814076700195297E-002
  -9.8409137353620661E-003   2.4542569956422788E-003   5.9363349174464786E-002
  -1.6698454378764507E-002   4.5044082052826950E-003   5.5875191363782328E-002
  -1.5500099343326929E-002   4.1168977369482607E-003   5.5633615928168206E-002
  -1.4301744307889382E-002   3.7243114854412784E-003   5.5555754058895068E-002
  -1.3103389272451792E-002   3.3266494507623590E-003   5.5641605755962845E-002
  -1.1905034237014228E-002   2.9239116329111692E-003   5.5891171019371355E-002
  -1.9716034634168430E-002   5.6568158609767438E-003   5.3447050040323893E-002
  -1.8341331819898943E-002   4.9968314077151327E-003   5.2897819272450033E-002
  -1.6966629005629480E-002   4.3996283248283752E-003   5.2537570495899161E-002
  -1.5591926191360002E-002   3.8652066123167211E-003   5.2366303710671122E-002
  -1.4217223377090528E-002   3.3935662701801150E-003   5.2384018916766077E-002
  -2.3082757227924466E-002   6.8092235166705706E-003   5.0712506155164871E-002
  -2.1506438209841078E-002   5.8767650784821712E-003   4.9923477208578426E-002
  -1.9930119191757689E-002   5.0749451642156385E-003   4.9348698678297054E-002
  -1.8353800173674287E-002   4.4037637738713747E-003   4.8988170564320477E-002
  -1.6777481155590912E-002   3.8632209074491719E-003   4.8841892866648751E-002
  -8.0248618721339635E-003   1.9846023583731665E-003   6.2800553382046598E-002
  -7.0652772435565239E-003   1.7169508019908020E-003   6.3082860581966771E-002
  -6.1056926149790983E-003   1.5846517616718570E-003   6.3535954700349839E-002
  -5.1461079864016639E-003   1.5877052374154918E-003   6.4159835737196136E-002
  -4.1865233578242331E-003   1.7261112292225045E-003   6.4954503692505550E-002
  -9.8409137353620661E-003   2.4542569956422788E-003   5.9363349174464786E-002
  -8.6947602018099049E-003   2.1452050145953638E-003   5.9542295761382535E-002
  -7.5486066682577836E-003   1.9586525953050882E-003   5.9923593239786549E-002
  -6.4024531347056492E-003   1.8945997377723817E-003   6.0507241609676896E-002
  -5.2562996011534732E-003   1.9530464419963423E-003   6.1293240871053534E-002
  -1.1905034237014228E-002   2.9239116329111692E-003   5.5891171019371355E-002
  -1.0540747825464148E-002   2.5734592271993428E-003   5.5953904038980512E-002
  -9.1764614139140527E-003   2.3326534289386663E-003   5.6250551923099482E-002
  -7.8121750023639556E-003   2.2014942381289419E-003   5.6781114671727854E-002
  -6.4478885908138758E-003   2.1799816547702355E-003   5.7545592284865971E-002
  -1.4217223377090528E-002   3.3935662701801150E-003   5.2384018916766077E-002
  -1.2603240114519219E-002   3.0017134398036133E-003   5.2317685414760895E-002
  -1.0989256851947909E-002   2.7066542625719600E-003   5.2516830750288720E-002
  -9.3752735893766152E-003   2.5083887384857780E-003   5.2981454923349026E-002
  -7.7612903268052934E-003   2.4069168675441566E-003   5.3711557933942826E-002
  -1.6777481155590912E-002   3.8632209074491719E-003   4.8841892866648751E-002
  -1.4882237068975124E-002   3.4299676524078837E-003   4.8633639888723490E-002
  -1.2986992982359363E-002   3.0806550962057533E-003   4.8722429721353933E-002
  -1.1091748895743596E-002   2.8152832388422949E-003   4.9108262364540578E-002
  -9.1965048091278145E-003   2.6338520803179666E-003   4.9791137818283149E-002
  -4.1865233578242331E-003   1.7261112292225045E-003   6.4954503692505550E-002
  -3.6592303081190228E-003   2.0448797292549892E-003   6.4086403119494872E-002
  -3.1319372584138090E-003   2.5890207296762335E-003   6.3332894350028146E-002
  -2.6046442087085987E-003   3.3585342304850649E-003   6.2693977384105565E-002
  -2.0773511590033850E-003   4.3534202316823922E-003   6.2169652221726768E-002
  -5.2562996011534732E-003   1.9530464419963423E-003   6.1293240871053534E-002
  -4.5884529328273152E-003   2.2333366725324488E-003   6.0602569362416425E-002
  -3.9206062645011225E-003   2.8348143939349035E-003   6.0078413287476956E-002
  -3.2527595961749593E-003   3.7574796062035259E-003   5.9720772646235362E-002
  -2.5849129278487717E-003   5.0013323093396345E-003   5.9529647438691935E-002
  -6.4478885908138758E-003   2.1799816547702355E-003   5.7545592284865971E-002
  -5.5875646737127450E-003   2.4217936158094366E-003   5.7128164831080186E-002
  -4.7272407566116038E-003   3.0806080581938095E-003   5.6929176441146354E-002
  -3.8669168395104704E-003   4.1564249819227676E-003   5.6948627115064564E-002
  -3.0065929224093353E-003   5.6492443869966547E-003   5.7186516852834435E-002
  -7.7612903268052934E-003   2.4069168675441566E-003   5.3711557933942826E-002
  -6.6565655307752550E-003   2.6102505590864383E-003   5.3663189525486668E-002
  -5.5518407347452435E-003   3.3264017224529860E-003   5.3885183811036783E-002
  -4.4471159387152329E-003   4.5553703576417300E-003   5.4377540790592586E-002
  -3.3423911426851941E-003   6.2971564646538969E-003   5.5140260464154545E-002
  -9.1965048091278145E-003   2.6338520803179666E-003   4.9791137818283149E-002
  -7.7954555040149615E-003   2.7987075023637731E-003   5.0207643445635664E-002
  -6.3944061989020529E-003   3.5721953867117184E-003   5.0946435397147827E-002
  -4.9933568937891581E-003   4.9543157333606092E-003   5.2007513672820027E-002
  -3.5923075886762912E-003   6.9450685423109171E-003   5.3390878272651765E-002
  -2.0773511590033850E-003   4.3534202316823922E-003   6.2169652221726768E-002
  -2.3244141188468112E-003   5.6603814608617853E-003   5.8193984662242570E-002
  -2.5714770786902305E-003   7.3661206456162032E-003   5.4206201422161926E-002
  -2.8185400385336654E-003   9.4706377859465479E-003   5.0206302501485889E-002
  -3.0656029983770761E-003   1.1973932881852001E-002   4.6194287900212849E-002
  -2.5849129278487717E-003   5.0013323093396345E-003   5.9529647438691935E-002
  -2.8605513211403498E-003   6.6340114823398855E-003   5.6051023602859851E-002
  -3.1361897144319383E-003   8.7231561042044881E-003   5.2527364580727876E-002
  -3.4118281077235475E-003   1.1268766174931943E-002   4.8958670372295093E-002
  -3.6874665010151117E-003   1.4270841694523417E-002   4.5344940977563031E-002
  -3.0065929224093353E-003   5.6492443869966547E-003   5.7186516852834435E-002
  -3.3437262548531316E-003   7.6076415038186518E-003   5.4262624233942958E-002
  -3.6808595872969566E-003   1.0080191562792523E-002   5.1260776923046814E-002
  -4.0179929197407902E-003   1.3066894563917610E-002   4.8180974920147002E-002
  -4.3551262521845727E-003   1.6567750507194612E-002   4.5023218225242578E-002
  -3.3423911426851941E-003   6.2971564646538969E-003   5.5140260464154545E-002
  -3.7739389199852253E-003   8.5812715252974181E-003   5.2828786555491225E-002
  -4.2054866972852413E-003   1.1437227021380461E-002   5.0406438449119358E-002
  -4.6370344745852443E-003   1.4865022952903584E-002   4.7873216145039643E-002
  -5.0685822518852881E-003   1.8864659319865806E-002   4.5229119643251686E-002
  -3.5923075886762912E-003   6.9450685423109171E-003   5.3390878272651765E-002
  -4.1511893165365327E-003   9.5549015467757403E-003   5.1749510567504986E-002
  -4.7100710443968019E-003   1.2794262479968732E-002   4.9964349158945653E-002
  -5.2689527722570850E-003   1.6663151341888865E-002   4.8035394046974156E-002
  -5.8278345001173126E-003   2.1161568132537223E-002   4.5962645231590660E-002
  -6.1904328862161295E-002   3.6098237206076578E-002   9.1293372603040879E-002
  -5.5726234732159707E-002   2.8642490181565977E-002   7.9325497549393331E-002
  -4.9548140602158008E-002   2.2893748245254794E-002   7.0723280627824597E-002
  -4.3370046472156365E-002   1.8852011397142831E-002   6.5486721838334774E-002
  -3.7191952342154722E-002   1.6517279637229820E-002   6.3615821180923737E-002
  -8.0069334545926574E-002   2.9728366581706189E-002   6.2323183620435402E-002
  -7.1291162599353183E-002   2.5521532654740359E-002   5.7699063700576092E-002
  -6.2512990652779862E-002   2.2097917262787009E-002   5.4909441281781338E-002
  -5.3734818706206507E-002   1.9457520405846189E-002   5.3954316364051187E-002
  -4.4956646759633137E-002   1.7600342083917642E-002   5.4833688947385661E-002
  -9.1370116592002434E-002   2.3358495957335856E-002   3.7063801011968170E-002
  -8.1523027459871666E-002   2.2400575127914671E-002   3.8859649672710231E-002
  -7.1675938327740718E-002   2.1302086280319259E-002   4.0958835203502707E-002
  -6.1828849195609881E-002   2.0063029414549606E-002   4.3361357604345507E-002
  -5.1981760063478974E-002   1.8683404530605630E-002   4.6067216875238737E-002
  -9.5806675000388891E-002   1.6988625332965510E-002   1.5515224777638750E-002
  -8.6421829313714740E-002   1.9279617601089018E-002   2.2807255465795477E-002
  -7.7036983627040645E-002   2.0506255297851463E-002   2.8871462392988476E-002
  -6.7652137940366466E-002   2.0668538423253020E-002   3.3707845559217645E-002
  -5.8267292253692343E-002   1.9766466977293562E-002   3.7316404964483033E-002
  -9.3379009771085875E-002   1.0618754708595135E-002  -2.3225450825526406E-003
  -8.5987568160882710E-002   1.6158660074263309E-002   9.5418810798322262E-003
  -7.8596126550679490E-002   1.9710424315383696E-002   1.8647322850238957E-002
  -7.1204684940476326E-002   2.1274047431956412E-002   2.4993780228667634E-002
  -6.3813243330273134E-002   2.0849529423981439E-002   2.8581253215118285E-002
  -3.7191952342154722E-002   1.6517279637229820E-002   6.3615821180923737E-002
  -3.7226788577661915E-002   1.5149924294255490E-002   6.0139196157849573E-002
  -3.7261624813169122E-002   1.4010316696959013E-002   5.7414283831364710E-002
  -3.7296461048676330E-002   1.3098456845340431E-002   5.5441084201469162E-002
  -3.7331297284183509E-002   1.2414344739399841E-002   5.4219597268162778E-002
  -4.4956646759633137E-002   1.7600342083917642E-002   5.4833688947385661E-002
  -4.4327865809535683E-002   1.6249079575899494E-002   5.2236729946202265E-002
  -4.3699084859438235E-002   1.5126430160689111E-002   5.0215292619638974E-002
  -4.3070303909340787E-002   1.4232393838286648E-002   4.8769376967695482E-002
  -4.2441522959243277E-002   1.3566970608691942E-002   4.7898982990372291E-002
  -5.1981760063478974E-002   1.8683404530605630E-002   4.6067216875238737E-002
  -5.0865552949746151E-002   1.7348234857543582E-002   4.4350789243076130E-002
  -4.9749345836013377E-002   1.6242543624419264E-002   4.3033692263564211E-002
  -4.8633138722280547E-002   1.5366330831232865E-002   4.2115925936703040E-002
  -4.7516931608547766E-002   1.4719596477984265E-002   4.1597490262492681E-002
  -5.8267292253692343E-002   1.9766466977293562E-002   3.7316404964483033E-002
  -5.6839849998293418E-002   1.8447390139187572E-002   3.6481374048471099E-002
  -5.5412407742894486E-002   1.7358657088149418E-002   3.5869482763140649E-002
  -5.3984965487495561E-002   1.6500267824178998E-002   3.5480731108491606E-002
  -5.2557523232096573E-002   1.5872222347276560E-002   3.5315119084524248E-002
  -6.3813243330273134E-002   2.0849529423981439E-002   2.8581253215118285E-002
  -6.2250756955177358E-002   1.9546545420831674E-002   2.8628484362387019E-002
  -6.0688270580081610E-002   1.8474770551879557E-002   2.8722664118368074E-002
  -5.9125784204985862E-002   1.7634204817125337E-002   2.8863792483061285E-002
  -5.7563297829890087E-002   1.7024848216568744E-002   2.9051869456466650E-002
  -3.7331297284183509E-002   1.2414344739399841E-002   5.4219597268162778E-002
  -3.5516843111961280E-002   1.1838227243053806E-002   5.3619495880255719E-002
  -3.3702388939739002E-002   1.1250351220218752E-002   5.3153513121351498E-002
  -3.1887934767516751E-002   1.0650716670895587E-002   5.2821648991450282E-002
  -3.0073480595294494E-002   1.0039323595083194E-002   5.2623903490551904E-002
  -4.2441522959243277E-002   1.3566970608691942E-002   4.7898982990372291E-002
  -4.0468244424508963E-002   1.2998452748245237E-002   4.7335123921229294E-002
  -3.8494965889774635E-002   1.2395132533286002E-002   4.6954794948107517E-002
  -3.6521687355040286E-002   1.1757009963814610E-002   4.6757996071007175E-002
  -3.4548408820305992E-002   1.1084085039830771E-002   4.6744727289927901E-002
  -4.7516931608547766E-002   1.4719596477984265E-002   4.1597490262492681E-002
  -4.5335417244282958E-002   1.4158678253436627E-002   4.1046829684090305E-002
  -4.3153902880018150E-002   1.3539913846353044E-002   4.0729110668727489E-002
  -4.0972388515753362E-002   1.2863303256733693E-002   4.0644333216404267E-002
  -3.8790874151488533E-002   1.2128846484578404E-002   4.0792497327120758E-002
  -5.2557523232096573E-002   1.5872222347276560E-002   3.5315119084524248E-002
  -5.0118361571283042E-002   1.5318903758628065E-002   3.4754613168838620E-002
  -4.7679199910469490E-002   1.4684695159420356E-002   3.4476460283211080E-002
  -4.5240038249655910E-002   1.3969596549652913E-002   3.4480660427641578E-002
  -4.2800876588842338E-002   1.3173607929326009E-002   3.4767213602129858E-002
  -5.7563297829890087E-002   1.7024848216568744E-002   2.9051869456466650E-002
  -5.4817077405509396E-002   1.6479129263819475E-002   2.8458474375474552E-002
  -5.2070856981128677E-002   1.5829476472487294E-002   2.8196843791558707E-002
  -4.9324636556747986E-002   1.5075889842571900E-002   2.8266977704719101E-002
  -4.6578416132367267E-002   1.4218369374073503E-002   2.8668876114955943E-002
  -3.0073480595294494E-002   1.0039323595083194E-002   5.2623903490551904E-002
  -2.8325799753451966E-002   9.3744880858901425E-003   5.1752354440832482E-002
  -2.6578118911609480E-002   8.6145262364236419E-003   5.1143271868361484E-002
  -2.4830438069766994E-002   7.7594380466837407E-003   5.0796655773138882E-002
  -2.3082757227924466E-002   6.8092235166705706E-003   5.0712506155164871E-002
  -3.4548408820305992E-002   1.1084085039830771E-002   4.6744727289927901E-002
  -3.2571162335674496E-002   1.0363346397673862E-002   4.5994764588524223E-002
  -3.0593915851043083E-002   9.5817826736829259E-003   4.5441466695449823E-002
  -2.8616669366411628E-002   8.7393938678575478E-003   4.5084833610704894E-002
  -2.6639422881780173E-002   7.8361799801984211E-003   4.4924865334289577E-002
  -3.8790874151488533E-002   1.2128846484578404E-002   4.0792497327120758E-002
  -3.6649863692987131E-002   1.1352204709457747E-002   4.0198422232471748E-002
  -3.4508853234485791E-002   1.0549039110942057E-002   3.9735210277233160E-002
  -3.2367842775984423E-002   9.7193496890315804E-003   3.9402861461404974E-002
  -3.0226832317483049E-002   8.8631364437262716E-003   3.9201375784987336E-002
  -4.2800876588842338E-002   1.3173607929326009E-002   3.4767213602129858E-002
  -4.0561903825390030E-002   1.2341063021241494E-002   3.4363327372675050E-002
  -3.8322931061937730E-002   1.1516295548201320E-002   3.4024502613711580E-002
  -3.6083958298485402E-002   1.0699305510205667E-002   3.3750739325239601E-002
  -3.3844985535033061E-002   9.8900929072539001E-003   3.3542037507259023E-002
  -4.6578416132367267E-002   1.4218369374073503E-002   2.8668876114955943E-002
  -4.4307282732882980E-002   1.3329921333025241E-002   2.8489480009134316E-002
  -4.2036149333398762E-002   1.2483551985460584E-002   2.8309343704885026E-002
  -3.9765015933914537E-002   1.1679261331379392E-002   2.8128467202208240E-002
  -3.7493882534430312E-002   1.0917049370781862E-002   2.7946850501104015E-002
  -2.3082757227924466E-002   6.8092235166705706E-003   5.0712506155164871E-002
  -2.1506438209841078E-002   5.8767650784821712E-003   4.9923477208578426E-002
  -1.9930119191757689E-002   5.0749451642156385E-003   4.9348698678297054E-002
  -1.8353800173674287E-002   4.4037637738713747E-003   4.8988170564320477E-002
  -1.6777481155590912E-002   3.8632209074491719E-003   4.8841892866648751E-002
  -2.6639422881780173E-002   7.8361799801984211E-003   4.4924865334289577E-002
  -2.4853450872091780E-002   6.9529360142321917E-003   4.4216196905726923E-002
  -2.3067478862403352E-002   6.1704569734857134E-003   4.3712584044069663E-002
  -2.1281506852714946E-002   5.4887428579592466E-003   4.3414026749317505E-002
  -1.9495534843026532E-002   4.9077936676525935E-003   4.3320525021470324E-002
  -3.0226832317483049E-002   8.8631364437262716E-003   3.9201375784987336E-002
  -2.8240402165589408E-002   8.0291069499824064E-003   3.8543194275746748E-002
  -2.6253972013695857E-002   7.2659687827557884E-003   3.8080873484011304E-002
  -2.4267541861802265E-002   6.5737219420472850E-003   3.7814413409781131E-002
  -2.2281111709908659E-002   5.9523664278560151E-003   3.7743814053056379E-002
  -3.3844985535033061E-002   9.8900929072539001E-003   3.3542037507259023E-002
  -3.1667292090334115E-002   9.1052778857326350E-003   3.2904469318637677E-002
  -2.9489598645635159E-002   8.3614805920261964E-003   3.2453566998121783E-002
  -2.7311905200936168E-002   7.6587010261351292E-003   3.2189330545711381E-002
  -2.5134211756237257E-002   6.9969391880593812E-003   3.2111759961406264E-002
  -3.7493882534430312E-002   1.0917049370781862E-002   2.7946850501104015E-002
  -3.5134120646325789E-002   1.0181448821482586E-002   2.7300022034399685E-002
  -3.2774358758221295E-002   9.4569924012961326E-003   2.6830664586401098E-002
  -3.0414596870116786E-002   8.7436801102231884E-003   2.6538778157108228E-002
  -2.8054834982012306E-002   8.0415119482628583E-003   2.6424362746520824E-002
  -1.6777481155590912E-002   3.8632209074491719E-003   4.8841892866648751E-002
  -1.4882237068975124E-002   3.4299676524078837E-003   4.8633639888723490E-002
  -1.2986992982359363E-002   3.0806550962057533E-003   4.8722429721353933E-002
  -1.1091748895743596E-002   2.8152832388422949E-003   4.9108262364540578E-002
  -9.1965048091278145E-003   2.6338520803179666E-003   4.9791137818283149E-002
  -1.9495534843026532E-002   4.9077936676525935E-003   4.3320525021470324E-002
  -1.7348428483015779E-002   4.4014447067957652E-003   4.3065756443196601E-002
  -1.5201322123005012E-002   3.9435312796191613E-003   4.3017669601156966E-002
  -1.3054215762994280E-002   3.5340533861223239E-003   4.3176264495351085E-002
  -1.0907109402983492E-002   3.1730110263050726E-003   4.3541541125779126E-002
  -2.2281111709908659E-002   5.9523664278560151E-003   3.7743814053056379E-002
  -1.9972504150825084E-002   5.3729217611840907E-003   3.7407024709275455E-002
  -1.7663896591741512E-002   4.8064074630326525E-003   3.7186556027406115E-002
  -1.5355289032657980E-002   4.2528235334020129E-003   3.7082408007448622E-002
  -1.3046681473574365E-002   3.7121699722919566E-003   3.7094580649402631E-002
  -2.5134211756237257E-002   6.9969391880593812E-003   3.2111759961406264E-002
  -2.2754464072403058E-002   6.3443988155722497E-003   3.1657444686958872E-002
  -2.0374716388568834E-002   5.6692836464464352E-003   3.1229089000100956E-002
  -1.7994968704734649E-002   4.9715936806818163E-003   3.0826692900832595E-002
  -1.5615221020900464E-002   4.2513289182789515E-003   3.0450256389153649E-002
  -2.8054834982012306E-002   8.0415119482628583E-003   2.6424362746520824E-002
  -2.5694308247749681E-002   7.3158758699604087E-003   2.5817016376247781E-002
  -2.3333781513487015E-002   6.5321598298598849E-003   2.5145268519241926E-002
  -2.0973254779224369E-002   5.6903638279618141E-003   2.4409119175503313E-002
  -1.8612728044961724E-002   4.7904878642659465E-003   2.3608568345032221E-002
  -9.1965048091278145E-003   2.6338520803179666E-003   4.9791137818283149E-002
  -7.7954555040149615E-003   2.7987075023637731E-003   5.0207643445635664E-002
  -6.3944061989020529E-003   3.5721953867117184E-003   5.0946435397147827E-002
  -4.9933568937891581E-003   4.9543157333606092E-003   5.2007513672820027E-002
  -3.5923075886762912E-003   6.9450685423109171E-003   5.3390878272651765E-002
  -1.0907109402983492E-002   3.1730110263050726E-003   4.3541541125779126E-002
  -9.1637988246675711E-003   3.1125167773194962E-003   4.4129700800581817E-002
  -7.4204882463516503E-003   3.6046832163167675E-003   4.5080096697630856E-002
  -5.6771776680357398E-003   4.6495103432974624E-003   4.6392728816925938E-002
  -3.9338670897198086E-003   6.2469981582609080E-003   4.8067597158467312E-002
  -1.3046681473574365E-002   3.7121699722919566E-003   3.7094580649402631E-002
  -1.0921159723969013E-002   3.4263260522746086E-003   3.7798422597337372E-002
  -8.7956379743636889E-003   3.6371710459219275E-003   3.8904450665604523E-002
  -6.6701162247583372E-003   4.3447049532344267E-003   4.0412664854204278E-002
  -4.5445944751530132E-003   5.5489277742108989E-003   4.2323065163136608E-002
  -1.5615221020900464E-002   4.2513289182789515E-003   3.0450256389153649E-002
  -1.3067538201919304E-002   3.7401353272300264E-003   3.1213808835901836E-002
  -1.0519855382938146E-002   3.6696588755270321E-003   3.2419497301069036E-002
  -7.9721725639570022E-003   4.0398995631707804E-003   3.4067321784655234E-002
  -5.4244897449758842E-003   4.8508573901611118E-003   3.6157282286660514E-002
  -1.8612728044961724E-002   4.7904878642659465E-003   2.3608568345032221E-002
  -1.5602934258518442E-002   4.0539446021854442E-003   2.4375859516275411E-002
  -1.2593140472075021E-002   3.7021467051325252E-003   2.5625236604024271E-002
  -9.5833466856316135E-003   3.7350941731083415E-003   2.7356699608278329E-002
  -6.5735528991883174E-003   4.1527870061108807E-003   2.9570248529037890E-002
  -3.5923075886762912E-003   6.9450685423109171E-003   5.3390878272651765E-002
  -4.1511893165365327E-003   9.5549015467757403E-003   5.1749510567504986E-002
  -4.7100710443968019E-003   1.2794262479968732E-002   4.9964349158945653E-002
  -5.2689527722570850E-003   1.6663151341888865E-002   4.8035394046974156E-002
  -5.8278345001173126E-003   2.1161568132537223E-002   4.5962645231590660E-002
  -3.9338670897198086E-003   6.2469981582609080E-003   4.8067597158467312E-002
  -4.5328837896027457E-003   8.7023622798065303E-003   4.7157030227274910E-002
  -5.1319004894857315E-003   1.2320818326534339E-002   4.6309987055449309E-002
  -5.7309171893686339E-003   1.7102366298442508E-002   4.5526467642990259E-002
  -6.3299338892516543E-003   2.3047006195533015E-002   4.4806471989899066E-002
  -4.5445944751530132E-003   5.5489277742108989E-003   4.2323065163136608E-002
  -4.9764286842795338E-003   7.8498230128377644E-003   4.2676863002352350E-002
  -5.4082628934060892E-003   1.1847374173099501E-002   4.3301502063713970E-002
  -5.8400971025325196E-003   1.7541581254996705E-002   4.4196982347222080E-002
  -6.2719313116591652E-003   2.4932444258528808E-002   4.5363303852875347E-002
  -5.4244897449758842E-003   4.8508573901611118E-003   3.6157282286660514E-002
  -5.4818240005667599E-003   6.9972837458687764E-003   3.8309008892737924E-002
  -5.5391582561577484E-003   1.1373930019665218E-002   4.0938894183740568E-002
  -5.5964925117487092E-003   1.7980796211550625E-002   4.4046938159668571E-002
  -5.6538267673396127E-003   2.6817882321524600E-002   4.7633140820521336E-002
  -6.5735528991883174E-003   4.1527870061108807E-003   2.9570248529037890E-002
  -6.0490697384645575E-003   6.1447444788997885E-003   3.4053467898430889E-002
  -5.5245865777408809E-003   1.0900485866230047E-002   3.9222163415528422E-002
  -5.0001034170172043E-003   1.8420011168104267E-002   4.5076335080329766E-002
  -4.4756202562934444E-003   2.8703320384520392E-002   5.1615982892835977E-002
  -9.3379009771085875E-002   1.0618754708595135E-002  -2.3225450825526406E-003
  -8.5987568160882710E-002   1.6158660074263309E-002   9.5418810798322262E-003
  -7.8596126550679490E-002   1.9710424315383696E-002   1.8647322850238957E-002
  -7.1204684940476326E-002   2.1274047431956412E-002   2.4993780228667634E-002
  -6.3813243330273134E-002   2.0849529423981439E-002   2.8581253215118285E-002
  -9.0129501442138521E-002   1.7509847359716058E-002   6.7149315584899560E-003
  -8.4838414662863765E-002   2.0319726664759452E-002   1.2461496962560215E-002
  -7.9547327883589064E-002   2.2005841332424003E-002   1.6766337096751793E-002
  -7.4256241104314349E-002   2.2568191362709517E-002   1.9629451961064415E-002
  -6.8965154325039565E-002   2.2006776755616131E-002   2.1050841555498134E-002
  -9.2100530551591980E-002   2.4400940010836980E-002   1.2590193895323398E-002
  -8.7592539481146495E-002   2.4480793255255900E-002   1.3083275028247951E-002
  -8.3084548410700954E-002   2.4301258349464352E-002   1.3451890013392795E-002
  -7.8576557340255523E-002   2.3862335293462617E-002   1.3696038850758180E-002
  -7.4068566269809955E-002   2.3164024087250712E-002   1.3815721540343967E-002
  -9.9292097099446155E-002   3.1292032661957930E-002   1.5303241927947922E-002
  -9.4249942615730692E-002   2.8641859845752168E-002   1.1407215276895602E-002
  -8.9207788132015159E-002   2.6596675366504709E-002   8.7039816001624644E-003
  -8.4165633648299695E-002   2.5156479224215718E-002   7.1935408977491736E-003
  -7.9123479164584135E-002   2.4321271418885237E-002   6.8758931696554990E-003
 -0.11170420108570123        3.8183125313078770E-002   1.4854075656363541E-002
 -0.10481062406661645        3.2802926436248381E-002   7.4333177085025848E-003
  -9.7917047047531680E-002   2.8892092383545037E-002   2.5226118570604306E-003
  -9.1023470028447018E-002   2.6450623154968898E-002   1.2195810203720348E-004
  -8.4129893009362244E-002   2.5478518750519874E-002   2.3135644343291739E-004
  -6.3813243330273134E-002   2.0849529423981439E-002   2.8581253215118285E-002
  -6.2250756955177358E-002   1.9546545420831674E-002   2.8628484362387019E-002
  -6.0688270580081610E-002   1.8474770551879557E-002   2.8722664118368074E-002
  -5.9125784204985862E-002   1.7634204817125337E-002   2.8863792483061285E-002
  -5.7563297829890087E-002   1.7024848216568744E-002   2.9051869456466650E-002
  -6.8965154325039565E-002   2.2006776755616131E-002   2.1050841555498134E-002
  -6.7356393246634769E-002   2.0941023295022301E-002   2.1319045879648044E-002
  -6.5747632168229986E-002   1.9990356764806927E-002   2.1632851001703729E-002
  -6.4138871089825203E-002   1.9154777164969772E-002   2.1992256921665364E-002
  -6.2530110011420392E-002   1.8434284495511211E-002   2.2397263639532899E-002
  -7.4068566269809955E-002   2.3164024087250712E-002   1.3815721540343967E-002
  -7.2414878298902419E-002   2.2335501169213068E-002   1.4188776837555359E-002
  -7.0761190327994855E-002   2.1505942977734192E-002   1.4606085121866383E-002
  -6.9107502357087305E-002   2.0675349512814488E-002   1.5067646393276814E-002
  -6.7453814386179797E-002   1.9843720774453538E-002   1.5573460651787052E-002
  -7.9123479164584135E-002   2.4321271418885237E-002   6.8758931696554990E-003
  -7.7426212111980197E-002   2.3729979043403820E-002   7.2376772361091718E-003
  -7.5728945059376288E-002   2.3021529190661593E-002   7.6423664788560653E-003
  -7.4031678006772322E-002   2.2195921860659145E-002   8.0899608978960008E-003
  -7.2334410954168413E-002   2.1253157053396046E-002   8.5804604932294519E-003
  -8.4129893009362244E-002   2.5478518750519874E-002   2.3135644343291739E-004
  -8.2390394685868173E-002   2.5124456917594407E-002   4.6574707530938619E-004
  -8.0650896362374158E-002   2.4537115403588911E-002   7.4169507267231316E-004
  -7.8911398038880060E-002   2.3716494208503629E-002   1.0592004355223263E-003
  -7.7171899715386072E-002   2.2662593332338332E-002   1.4182631638597343E-003
  -5.7563297829890087E-002   1.7024848216568744E-002   2.9051869456466650E-002
  -5.4817077405509396E-002   1.6479129263819475E-002   2.8458474375474552E-002
  -5.2070856981128677E-002   1.5829476472487294E-002   2.8196843791558707E-002
  -4.9324636556747986E-002   1.5075889842571900E-002   2.8266977704719101E-002
  -4.6578416132367267E-002   1.4218369374073503E-002   2.8668876114955943E-002
  -6.2530110011420392E-002   1.8434284495511211E-002   2.2397263639532899E-002
  -5.9465867918177998E-002   1.7743712574475157E-002   2.1753643901038899E-002
  -5.6401625824935589E-002   1.6997895219906328E-002   2.1414303003192262E-002
  -5.3337383731693118E-002   1.6196832431804441E-002   2.1379240945992604E-002
  -5.0273141638450730E-002   1.5340524210169626E-002   2.1648457729439907E-002
  -6.7453814386179797E-002   1.9843720774453538E-002   1.5573460651787052E-002
  -6.4099036280504867E-002   1.9008295885130658E-002   1.4928304660841621E-002
  -6.0744258174829917E-002   1.8166313967325133E-002   1.4559941854114064E-002
  -5.7389480069155022E-002   1.7317775021036867E-002   1.4468372231604482E-002
  -5.4034701963480029E-002   1.6462679046265805E-002   1.4653595793312768E-002
  -7.2334410954168413E-002   2.1253157053396046E-002   8.5804604932294519E-003
  -6.8716582492490116E-002   2.0272879195786193E-002   7.9824566548825082E-003
  -6.5098754030811848E-002   1.9334732714744274E-002   7.6337603443242721E-003
  -6.1480925569133565E-002   1.8438717610269242E-002   7.5343715615549577E-003
  -5.7863097107455290E-002   1.7584833882361733E-002   7.6842903065741791E-003
  -7.7171899715386072E-002   2.2662593332338332E-002   1.4182631638597343E-003
  -7.3318506554133689E-002   2.1537462506441951E-002   9.1609988316171398E-004
  -6.9465113392881250E-002   2.0503151462162861E-002   6.3575847382324469E-004
  -6.5611720231628812E-002   1.9559660199501866E-002   5.7723893584399333E-004
  -6.1758327070376429E-002   1.8706988718458106E-002   7.4054126922462604E-004
  -4.6578416132367267E-002   1.4218369374073503E-002   2.8668876114955943E-002
  -4.4307282732882980E-002   1.3329921333025241E-002   2.8489480009134316E-002
  -4.2036149333398762E-002   1.2483551985460584E-002   2.8309343704885026E-002
  -3.9765015933914537E-002   1.1679261331379392E-002   2.8128467202208240E-002
  -3.7493882534430312E-002   1.0917049370781862E-002   2.7946850501104015E-002
  -5.0273141638450730E-002   1.5340524210169626E-002   2.1648457729439907E-002
  -4.7979695156344357E-002   1.4472537816877545E-002   2.1462263977573087E-002
  -4.5686248674237984E-002   1.3636440513803999E-002   2.1321436589378046E-002
  -4.3392802192131645E-002   1.2832232300948744E-002   2.1225975564854976E-002
  -4.1099355710025182E-002   1.2059913178311898E-002   2.1175880904003463E-002
  -5.4034701963480029E-002   1.6462679046265805E-002   1.4653595793312768E-002
  -5.1672835836652234E-002   1.5615154300729739E-002   1.4450414792135574E-002
  -4.9310969709824307E-002   1.4789329042147303E-002   1.4338706716729613E-002
  -4.6949103582996456E-002   1.3985203270518207E-002   1.4318471567094863E-002
  -4.4587237456168577E-002   1.3202776985842102E-002   1.4389709343231277E-002
  -5.7863097107455290E-002   1.7584833882361733E-002   7.6842903065741791E-003
  -5.5386704773806548E-002   1.6757770784581932E-002   7.4539324528216967E-003
  -5.2910312440157724E-002   1.5942217570490441E-002   7.3611540869396655E-003
  -5.0433920106509003E-002   1.5138174240087392E-002   7.4059552089282398E-003
  -4.7957527772860171E-002   1.4345640793372166E-002   7.5883358187872618E-003
  -6.1758327070376429E-002   1.8706988718458106E-002   7.4054126922462604E-004
  -5.9121301967807405E-002   1.7900387268434015E-002   4.7281695963163894E-004
  -5.6484276865238325E-002   1.7095106098833801E-002   3.8877870000819659E-004
  -5.3847251762669246E-002   1.6291145209656632E-002   4.8842649035493735E-004
  -5.1210226660100222E-002   1.5488504600902342E-002   7.7176033067150041E-004
  -3.7493882534430312E-002   1.0917049370781862E-002   2.7946850501104015E-002
  -3.5134120646325789E-002   1.0181448821482586E-002   2.7300022034399685E-002
  -3.2774358758221295E-002   9.4569924012961326E-003   2.6830664586401098E-002
  -3.0414596870116786E-002   8.7436801102231884E-003   2.6538778157108228E-002
  -2.8054834982012306E-002   8.0415119482628583E-003   2.6424362746520824E-002
  -4.1099355710025182E-002   1.2059913178311898E-002   2.1175880904003463E-002
  -3.8576504344531234E-002   1.1303080908239671E-002   2.0637376697446475E-002
  -3.6053652979037176E-002   1.0545333253078021E-002   2.0247580426963174E-002
  -3.3530801613543215E-002   9.7866702128266356E-003   2.0006492092552994E-002
  -3.1007950248049171E-002   9.0270917874858414E-003   1.9914111694216419E-002
  -4.4587237456168577E-002   1.3202776985842102E-002   1.4389709343231277E-002
  -4.1930059695917239E-002   1.2424712994996673E-002   1.3947469882619162E-002
  -3.9272881935665929E-002   1.1633674104859590E-002   1.3625175275448376E-002
  -3.6615704175414578E-002   1.0829660315430197E-002   1.3422825521718883E-002
  -3.3958526415163261E-002   1.0012671626708824E-002   1.3340420621430205E-002
  -4.7957527772860171E-002   1.4345640793372166E-002   7.5883358187872618E-003
  -4.5194786700483727E-002   1.3546345081754049E-002   7.2303015899174081E-003
  -4.2432045628107373E-002   1.2722014956641318E-002   6.9634491318569559E-003
  -3.9669304555731005E-002   1.1872650418033535E-002   6.7877784446048039E-003
  -3.6906563483354568E-002   1.0998251465931974E-002   6.7032895281621610E-003
  -5.1210226660100222E-002   1.5488504600902342E-002   7.7176033067150041E-004
  -4.8370685358230969E-002   1.4667977168510982E-002   4.8587181934167667E-004
  -4.5531144056361605E-002   1.3810355808422825E-002   2.6240199618846050E-004
  -4.2691602754492325E-002   1.2915640520637151E-002   1.0135086121191433E-004
  -3.9852061452622989E-002   1.1983831305154791E-002   2.7184144123504339E-006
  -2.8054834982012306E-002   8.0415119482628583E-003   2.6424362746520824E-002
  -2.5694308247749681E-002   7.3158758699604087E-003   2.5817016376247781E-002
  -2.3333781513487015E-002   6.5321598298598849E-003   2.5145268519241926E-002
  -2.0973254779224369E-002   5.6903638279618141E-003   2.4409119175503313E-002
  -1.8612728044961724E-002   4.7904878642659465E-003   2.3608568345032221E-002
  -3.1007950248049171E-002   9.0270917874858414E-003   1.9914111694216419E-002
  -2.8692697665768152E-002   8.2673324352295907E-003   1.9299668542347326E-002
  -2.6377445083487244E-002   7.5081266142320857E-003   1.8659078573247667E-002
  -2.4062192501206343E-002   6.7494743244929725E-003   1.7992341786917151E-002
  -2.1746939918925373E-002   5.9913755660121470E-003   1.7299458183355987E-002
  -3.3958526415163261E-002   1.0012671626708824E-002   1.3340420621430205E-002
  -3.1650293315362045E-002   9.2187890004989392E-003   1.2777514181021771E-002
  -2.9342060215560833E-002   8.4840933986041756E-003   1.2226715592884296E-002
  -2.7033827115759697E-002   7.8085848210236869E-003   1.1688024857018031E-002
  -2.4725594015958460E-002   7.1922632677584586E-003   1.1161441973423142E-002
  -3.6906563483354568E-002   1.0998251465931974E-002   6.7032895281621610E-003
  -3.4567095196531172E-002   1.0170245565768649E-002   6.2505532922703458E-003
  -3.2227626909707804E-002   9.4600601829760433E-003   5.8481795781513829E-003
  -2.9888158622884457E-002   8.8676953175548454E-003   5.4961683858060773E-003
  -2.7548690336061037E-002   8.3931509695047146E-003   5.1945197152334921E-003
  -3.9852061452622989E-002   1.1983831305154791E-002   2.7184144123504339E-006
  -3.7443103309275583E-002   1.1121702131037692E-002  -2.8121412390630374E-004
  -3.5034145165928066E-002   1.0436026967348355E-002  -4.7652947095033760E-004
  -3.2625187022580632E-002   9.9268058140858095E-003  -5.8322762671875195E-004
  -3.0216228879233142E-002   9.5940386712509707E-003  -6.0130859121232394E-004
  -1.8612728044961724E-002   4.7904878642659465E-003   2.3608568345032221E-002
  -1.5602934258518442E-002   4.0539446021854442E-003   2.4375859516275411E-002
  -1.2593140472075021E-002   3.7021467051325252E-003   2.5625236604024271E-002
  -9.5833466856316135E-003   3.7350941731083415E-003   2.7356699608278329E-002
  -6.5735528991883174E-003   4.1527870061108807E-003   2.9570248529037890E-002
  -2.1746939918925373E-002   5.9913755660121470E-003   1.7299458183355987E-002
  -1.8525691081838977E-002   5.3259075563364955E-003   1.8236402931356976E-002
  -1.5304442244752761E-002   4.8451475130109611E-003   1.9114171864138163E-002
  -1.2083193407666434E-002   4.5490954360374453E-003   1.9932764981700102E-002
  -8.8619445705801492E-003   4.4377513254142409E-003   2.0692182284042460E-002
  -2.4725594015958460E-002   7.1922632677584586E-003   1.1161441973423142E-002
  -2.1834151859954076E-002   6.5978705104876578E-003   1.2068002899504521E-002
  -1.8942709703949734E-002   5.9881483208900910E-003   1.2374126278641345E-002
  -1.6051267547945312E-002   5.3630966989666670E-003   1.2079812110833948E-002
  -1.3159825391941007E-002   4.7227156447176011E-003   1.1185060396082025E-002
  -2.7548690336061037E-002   8.3931509695047146E-003   5.1945197152334921E-003
  -2.5528316592863462E-002   7.8698334646389312E-003   5.8706594207181689E-003
  -2.3507942849665911E-002   7.1311491287686518E-003   5.4050998475335885E-003
  -2.1487569106468360E-002   6.1770979618962739E-003   3.7978409956800768E-003
  -1.9467195363270788E-002   5.0076799640202951E-003   1.0488828651569609E-003
  -3.0216228879233142E-002   9.5940386712509707E-003  -6.0130859121232394E-004
  -2.9608185280567190E-002   9.1417964187896494E-003  -3.5562750500151008E-004
  -2.9000141681901348E-002   8.2741499366481008E-003  -1.7929074291848368E-003
  -2.8392098083235423E-002   6.9910992248254367E-003  -4.9131483637619225E-003
  -2.7784054484569554E-002   5.2926442833238774E-003  -9.7163503087334124E-003
  -6.5735528991883174E-003   4.1527870061108807E-003   2.9570248529037890E-002
  -6.0490697384645575E-003   6.1447444788997885E-003   3.4053467898430889E-002
  -5.5245865777408809E-003   1.0900485866230047E-002   3.9222163415528422E-002
  -5.0001034170172043E-003   1.8420011168104267E-002   4.5076335080329766E-002
  -4.4756202562934444E-003   2.8703320384520392E-002   5.1615982892835977E-002
  -8.8619445705801492E-003   4.4377513254142409E-003   2.0692182284042460E-002
  -7.5793960851990166E-003   5.6592660911930492E-003   2.5860898530917942E-002
  -6.2968475998179119E-003   9.3617906434259601E-003   3.1860269279403997E-002
  -5.0142991144367863E-003   1.5545324982112127E-002   3.8690294529500319E-002
  -3.7317506290558966E-003   2.4209869107252535E-002   4.6350974281207602E-002
  -1.3159825391941007E-002   4.7227156447176011E-003   1.1185060396082025E-002
  -1.0974033227995984E-002   5.1737877034869761E-003   1.6756499392350577E-002
  -8.7882410640511902E-003   7.8230954206216508E-003   2.3303771244136351E-002
  -6.6024489001062572E-003   1.2670638796120265E-002   3.0826875951438945E-002
  -4.4166567361612619E-003   1.9716417829984456E-002   3.9325813514258456E-002
  -1.9467195363270788E-002   5.0076799640202951E-003   1.0488828651569609E-003
  -1.6232981166855766E-002   4.6883093157807920E-003   6.7402704827299459E-003
  -1.2998766970440837E-002   6.2844001978172304E-003   1.3552669309726394E-002
  -9.7645527740258756E-003   9.7959526101289301E-003   2.1486079346145916E-002
  -6.5303385776108863E-003   1.5222966552716710E-002   3.0540500591988706E-002
  -2.7784054484569554E-002   5.2926442833238774E-003  -9.7163503087334124E-003
  -2.3356239901778153E-002   4.2028309280741638E-003  -4.1877881979447973E-003
  -1.8928425318986752E-002   4.7457049750123659E-003   2.6069634761736182E-003
  -1.4500610736195324E-002   6.9212664241363742E-003   1.0667904713621390E-002
  -1.0072796153403951E-002   1.0729515275448520E-002   1.9995035514398740E-002
 </DataArray>
 </PointData>
 </Piece>
 </UnstructuredGrid>
 </VTKFile>
