 <VTKFile type="UnstructuredGrid"  version="0.1"   >
 <UnstructuredGrid>
 <Piece  NumberOfPoints="          1600 "  NumberOfCells="         1024 ">
 <Points>
 <DataArray  type="Float64" NumberOfComponents="3"  format="ascii" >
   0.0000000000000000        0.0000000000000000        0.0000000000000000     
   3.1250000000000000E-002   0.0000000000000000        0.0000000000000000     
   6.2500000000000000E-002   0.0000000000000000        0.0000000000000000     
   9.3750000000000000E-002   0.0000000000000000        0.0000000000000000     
  0.12500000000000000        0.0000000000000000        0.0000000000000000     
   0.0000000000000000        3.1250000000000000E-002   0.0000000000000000     
   3.1250000000000000E-002   3.1250000000000000E-002   0.0000000000000000     
   6.2500000000000000E-002   3.1250000000000000E-002   0.0000000000000000     
   9.3750000000000000E-002   3.1250000000000000E-002   0.0000000000000000     
  0.12500000000000000        3.1250000000000000E-002   0.0000000000000000     
   0.0000000000000000        6.2500000000000000E-002   0.0000000000000000     
   3.1250000000000000E-002   6.2500000000000000E-002   0.0000000000000000     
   6.2500000000000000E-002   6.2500000000000000E-002   0.0000000000000000     
   9.3750000000000000E-002   6.2500000000000000E-002   0.0000000000000000     
  0.12500000000000000        6.2500000000000000E-002   0.0000000000000000     
   0.0000000000000000        9.3750000000000000E-002   0.0000000000000000     
   3.1250000000000000E-002   9.3750000000000000E-002   0.0000000000000000     
   6.2500000000000000E-002   9.3750000000000000E-002   0.0000000000000000     
   9.3750000000000000E-002   9.3750000000000000E-002   0.0000000000000000     
  0.12500000000000000        9.3750000000000000E-002   0.0000000000000000     
   0.0000000000000000       0.12500000000000000        0.0000000000000000     
   3.1250000000000000E-002  0.12500000000000000        0.0000000000000000     
   6.2500000000000000E-002  0.12500000000000000        0.0000000000000000     
   9.3750000000000000E-002  0.12500000000000000        0.0000000000000000     
  0.12500000000000000       0.12500000000000000        0.0000000000000000     
  0.12500000000000000        0.0000000000000000        0.0000000000000000     
  0.15625000000000000        0.0000000000000000        0.0000000000000000     
  0.18750000000000000        0.0000000000000000        0.0000000000000000     
  0.21875000000000000        0.0000000000000000        0.0000000000000000     
  0.25000000000000000        0.0000000000000000        0.0000000000000000     
  0.12500000000000000        3.1250000000000000E-002   0.0000000000000000     
  0.15625000000000000        3.1250000000000000E-002   0.0000000000000000     
  0.18750000000000000        3.1250000000000000E-002   0.0000000000000000     
  0.21875000000000000        3.1250000000000000E-002   0.0000000000000000     
  0.25000000000000000        3.1250000000000000E-002   0.0000000000000000     
  0.12500000000000000        6.2500000000000000E-002   0.0000000000000000     
  0.15625000000000000        6.2500000000000000E-002   0.0000000000000000     
  0.18750000000000000        6.2500000000000000E-002   0.0000000000000000     
  0.21875000000000000        6.2500000000000000E-002   0.0000000000000000     
  0.25000000000000000        6.2500000000000000E-002   0.0000000000000000     
  0.12500000000000000        9.3750000000000000E-002   0.0000000000000000     
  0.15625000000000000        9.3750000000000000E-002   0.0000000000000000     
  0.18750000000000000        9.3750000000000000E-002   0.0000000000000000     
  0.21875000000000000        9.3750000000000000E-002   0.0000000000000000     
  0.25000000000000000        9.3750000000000000E-002   0.0000000000000000     
  0.12500000000000000       0.12500000000000000        0.0000000000000000     
  0.15625000000000000       0.12500000000000000        0.0000000000000000     
  0.18750000000000000       0.12500000000000000        0.0000000000000000     
  0.21875000000000000       0.12500000000000000        0.0000000000000000     
  0.25000000000000000       0.12500000000000000        0.0000000000000000     
  0.25000000000000000        0.0000000000000000        0.0000000000000000     
  0.28125000000000000        0.0000000000000000        0.0000000000000000     
  0.31250000000000000        0.0000000000000000        0.0000000000000000     
  0.34375000000000000        0.0000000000000000        0.0000000000000000     
  0.37500000000000000        0.0000000000000000        0.0000000000000000     
  0.25000000000000000        3.1250000000000000E-002   0.0000000000000000     
  0.28125000000000000        3.1250000000000000E-002   0.0000000000000000     
  0.31250000000000000        3.1250000000000000E-002   0.0000000000000000     
  0.34375000000000000        3.1250000000000000E-002   0.0000000000000000     
  0.37500000000000000        3.1250000000000000E-002   0.0000000000000000     
  0.25000000000000000        6.2500000000000000E-002   0.0000000000000000     
  0.28125000000000000        6.2500000000000000E-002   0.0000000000000000     
  0.31250000000000000        6.2500000000000000E-002   0.0000000000000000     
  0.34375000000000000        6.2500000000000000E-002   0.0000000000000000     
  0.37500000000000000        6.2500000000000000E-002   0.0000000000000000     
  0.25000000000000000        9.3750000000000000E-002   0.0000000000000000     
  0.28125000000000000        9.3750000000000000E-002   0.0000000000000000     
  0.31250000000000000        9.3750000000000000E-002   0.0000000000000000     
  0.34375000000000000        9.3750000000000000E-002   0.0000000000000000     
  0.37500000000000000        9.3750000000000000E-002   0.0000000000000000     
  0.25000000000000000       0.12500000000000000        0.0000000000000000     
  0.28125000000000000       0.12500000000000000        0.0000000000000000     
  0.31250000000000000       0.12500000000000000        0.0000000000000000     
  0.34375000000000000       0.12500000000000000        0.0000000000000000     
  0.37500000000000000       0.12500000000000000        0.0000000000000000     
  0.37500000000000000        0.0000000000000000        0.0000000000000000     
  0.40625000000000000        0.0000000000000000        0.0000000000000000     
  0.43750000000000000        0.0000000000000000        0.0000000000000000     
  0.46875000000000000        0.0000000000000000        0.0000000000000000     
  0.50000000000000000        0.0000000000000000        0.0000000000000000     
  0.37500000000000000        3.1250000000000000E-002   0.0000000000000000     
  0.40625000000000000        3.1250000000000000E-002   0.0000000000000000     
  0.43750000000000000        3.1250000000000000E-002   0.0000000000000000     
  0.46875000000000000        3.1250000000000000E-002   0.0000000000000000     
  0.50000000000000000        3.1250000000000000E-002   0.0000000000000000     
  0.37500000000000000        6.2500000000000000E-002   0.0000000000000000     
  0.40625000000000000        6.2500000000000000E-002   0.0000000000000000     
  0.43750000000000000        6.2500000000000000E-002   0.0000000000000000     
  0.46875000000000000        6.2500000000000000E-002   0.0000000000000000     
  0.50000000000000000        6.2500000000000000E-002   0.0000000000000000     
  0.37500000000000000        9.3750000000000000E-002   0.0000000000000000     
  0.40625000000000000        9.3750000000000000E-002   0.0000000000000000     
  0.43750000000000000        9.3750000000000000E-002   0.0000000000000000     
  0.46875000000000000        9.3750000000000000E-002   0.0000000000000000     
  0.50000000000000000        9.3750000000000000E-002   0.0000000000000000     
  0.37500000000000000       0.12500000000000000        0.0000000000000000     
  0.40625000000000000       0.12500000000000000        0.0000000000000000     
  0.43750000000000000       0.12500000000000000        0.0000000000000000     
  0.46875000000000000       0.12500000000000000        0.0000000000000000     
  0.50000000000000000       0.12500000000000000        0.0000000000000000     
  0.50000000000000000        0.0000000000000000        0.0000000000000000     
  0.53125000000000000        0.0000000000000000        0.0000000000000000     
  0.56250000000000000        0.0000000000000000        0.0000000000000000     
  0.59375000000000000        0.0000000000000000        0.0000000000000000     
  0.62500000000000000        0.0000000000000000        0.0000000000000000     
  0.50000000000000000        3.1250000000000000E-002   0.0000000000000000     
  0.53125000000000000        3.1250000000000000E-002   0.0000000000000000     
  0.56250000000000000        3.1250000000000000E-002   0.0000000000000000     
  0.59375000000000000        3.1250000000000000E-002   0.0000000000000000     
  0.62500000000000000        3.1250000000000000E-002   0.0000000000000000     
  0.50000000000000000        6.2500000000000000E-002   0.0000000000000000     
  0.53125000000000000        6.2500000000000000E-002   0.0000000000000000     
  0.56250000000000000        6.2500000000000000E-002   0.0000000000000000     
  0.59375000000000000        6.2500000000000000E-002   0.0000000000000000     
  0.62500000000000000        6.2500000000000000E-002   0.0000000000000000     
  0.50000000000000000        9.3750000000000000E-002   0.0000000000000000     
  0.53125000000000000        9.3750000000000000E-002   0.0000000000000000     
  0.56250000000000000        9.3750000000000000E-002   0.0000000000000000     
  0.59375000000000000        9.3750000000000000E-002   0.0000000000000000     
  0.62500000000000000        9.3750000000000000E-002   0.0000000000000000     
  0.50000000000000000       0.12500000000000000        0.0000000000000000     
  0.53125000000000000       0.12500000000000000        0.0000000000000000     
  0.56250000000000000       0.12500000000000000        0.0000000000000000     
  0.59375000000000000       0.12500000000000000        0.0000000000000000     
  0.62500000000000000       0.12500000000000000        0.0000000000000000     
  0.62500000000000000        0.0000000000000000        0.0000000000000000     
  0.65625000000000000        0.0000000000000000        0.0000000000000000     
  0.68750000000000000        0.0000000000000000        0.0000000000000000     
  0.71875000000000000        0.0000000000000000        0.0000000000000000     
  0.75000000000000000        0.0000000000000000        0.0000000000000000     
  0.62500000000000000        3.1250000000000000E-002   0.0000000000000000     
  0.65625000000000000        3.1250000000000000E-002   0.0000000000000000     
  0.68750000000000000        3.1250000000000000E-002   0.0000000000000000     
  0.71875000000000000        3.1250000000000000E-002   0.0000000000000000     
  0.75000000000000000        3.1250000000000000E-002   0.0000000000000000     
  0.62500000000000000        6.2500000000000000E-002   0.0000000000000000     
  0.65625000000000000        6.2500000000000000E-002   0.0000000000000000     
  0.68750000000000000        6.2500000000000000E-002   0.0000000000000000     
  0.71875000000000000        6.2500000000000000E-002   0.0000000000000000     
  0.75000000000000000        6.2500000000000000E-002   0.0000000000000000     
  0.62500000000000000        9.3750000000000000E-002   0.0000000000000000     
  0.65625000000000000        9.3750000000000000E-002   0.0000000000000000     
  0.68750000000000000        9.3750000000000000E-002   0.0000000000000000     
  0.71875000000000000        9.3750000000000000E-002   0.0000000000000000     
  0.75000000000000000        9.3750000000000000E-002   0.0000000000000000     
  0.62500000000000000       0.12500000000000000        0.0000000000000000     
  0.65625000000000000       0.12500000000000000        0.0000000000000000     
  0.68750000000000000       0.12500000000000000        0.0000000000000000     
  0.71875000000000000       0.12500000000000000        0.0000000000000000     
  0.75000000000000000       0.12500000000000000        0.0000000000000000     
  0.75000000000000000        0.0000000000000000        0.0000000000000000     
  0.78125000000000000        0.0000000000000000        0.0000000000000000     
  0.81250000000000000        0.0000000000000000        0.0000000000000000     
  0.84375000000000000        0.0000000000000000        0.0000000000000000     
  0.87500000000000000        0.0000000000000000        0.0000000000000000     
  0.75000000000000000        3.1250000000000000E-002   0.0000000000000000     
  0.78125000000000000        3.1250000000000000E-002   0.0000000000000000     
  0.81250000000000000        3.1250000000000000E-002   0.0000000000000000     
  0.84375000000000000        3.1250000000000000E-002   0.0000000000000000     
  0.87500000000000000        3.1250000000000000E-002   0.0000000000000000     
  0.75000000000000000        6.2500000000000000E-002   0.0000000000000000     
  0.78125000000000000        6.2500000000000000E-002   0.0000000000000000     
  0.81250000000000000        6.2500000000000000E-002   0.0000000000000000     
  0.84375000000000000        6.2500000000000000E-002   0.0000000000000000     
  0.87500000000000000        6.2500000000000000E-002   0.0000000000000000     
  0.75000000000000000        9.3750000000000000E-002   0.0000000000000000     
  0.78125000000000000        9.3750000000000000E-002   0.0000000000000000     
  0.81250000000000000        9.3750000000000000E-002   0.0000000000000000     
  0.84375000000000000        9.3750000000000000E-002   0.0000000000000000     
  0.87500000000000000        9.3750000000000000E-002   0.0000000000000000     
  0.75000000000000000       0.12500000000000000        0.0000000000000000     
  0.78125000000000000       0.12500000000000000        0.0000000000000000     
  0.81250000000000000       0.12500000000000000        0.0000000000000000     
  0.84375000000000000       0.12500000000000000        0.0000000000000000     
  0.87500000000000000       0.12500000000000000        0.0000000000000000     
  0.87500000000000000        0.0000000000000000        0.0000000000000000     
  0.90625000000000000        0.0000000000000000        0.0000000000000000     
  0.93750000000000000        0.0000000000000000        0.0000000000000000     
  0.96875000000000000        0.0000000000000000        0.0000000000000000     
   1.0000000000000000        0.0000000000000000        0.0000000000000000     
  0.87500000000000000        3.1250000000000000E-002   0.0000000000000000     
  0.90625000000000000        3.1250000000000000E-002   0.0000000000000000     
  0.93750000000000000        3.1250000000000000E-002   0.0000000000000000     
  0.96875000000000000        3.1250000000000000E-002   0.0000000000000000     
   1.0000000000000000        3.1250000000000000E-002   0.0000000000000000     
  0.87500000000000000        6.2500000000000000E-002   0.0000000000000000     
  0.90625000000000000        6.2500000000000000E-002   0.0000000000000000     
  0.93750000000000000        6.2500000000000000E-002   0.0000000000000000     
  0.96875000000000000        6.2500000000000000E-002   0.0000000000000000     
   1.0000000000000000        6.2500000000000000E-002   0.0000000000000000     
  0.87500000000000000        9.3750000000000000E-002   0.0000000000000000     
  0.90625000000000000        9.3750000000000000E-002   0.0000000000000000     
  0.93750000000000000        9.3750000000000000E-002   0.0000000000000000     
  0.96875000000000000        9.3750000000000000E-002   0.0000000000000000     
   1.0000000000000000        9.3750000000000000E-002   0.0000000000000000     
  0.87500000000000000       0.12500000000000000        0.0000000000000000     
  0.90625000000000000       0.12500000000000000        0.0000000000000000     
  0.93750000000000000       0.12500000000000000        0.0000000000000000     
  0.96875000000000000       0.12500000000000000        0.0000000000000000     
   1.0000000000000000       0.12500000000000000        0.0000000000000000     
   0.0000000000000000       0.12500000000000000        0.0000000000000000     
   3.1250000000000000E-002  0.12500000000000000        0.0000000000000000     
   6.2500000000000000E-002  0.12500000000000000        0.0000000000000000     
   9.3750000000000000E-002  0.12500000000000000        0.0000000000000000     
  0.12500000000000000       0.12500000000000000        0.0000000000000000     
   0.0000000000000000       0.15625000000000000        0.0000000000000000     
   3.1250000000000000E-002  0.15625000000000000        0.0000000000000000     
   6.2500000000000000E-002  0.15625000000000000        0.0000000000000000     
   9.3750000000000000E-002  0.15625000000000000        0.0000000000000000     
  0.12500000000000000       0.15625000000000000        0.0000000000000000     
   0.0000000000000000       0.18750000000000000        0.0000000000000000     
   3.1250000000000000E-002  0.18750000000000000        0.0000000000000000     
   6.2500000000000000E-002  0.18750000000000000        0.0000000000000000     
   9.3750000000000000E-002  0.18750000000000000        0.0000000000000000     
  0.12500000000000000       0.18750000000000000        0.0000000000000000     
   0.0000000000000000       0.21875000000000000        0.0000000000000000     
   3.1250000000000000E-002  0.21875000000000000        0.0000000000000000     
   6.2500000000000000E-002  0.21875000000000000        0.0000000000000000     
   9.3750000000000000E-002  0.21875000000000000        0.0000000000000000     
  0.12500000000000000       0.21875000000000000        0.0000000000000000     
   0.0000000000000000       0.25000000000000000        0.0000000000000000     
   3.1250000000000000E-002  0.25000000000000000        0.0000000000000000     
   6.2500000000000000E-002  0.25000000000000000        0.0000000000000000     
   9.3750000000000000E-002  0.25000000000000000        0.0000000000000000     
  0.12500000000000000       0.25000000000000000        0.0000000000000000     
  0.12500000000000000       0.12500000000000000        0.0000000000000000     
  0.15625000000000000       0.12500000000000000        0.0000000000000000     
  0.18750000000000000       0.12500000000000000        0.0000000000000000     
  0.21875000000000000       0.12500000000000000        0.0000000000000000     
  0.25000000000000000       0.12500000000000000        0.0000000000000000     
  0.12500000000000000       0.15625000000000000        0.0000000000000000     
  0.15625000000000000       0.15625000000000000        0.0000000000000000     
  0.18750000000000000       0.15625000000000000        0.0000000000000000     
  0.21875000000000000       0.15625000000000000        0.0000000000000000     
  0.25000000000000000       0.15625000000000000        0.0000000000000000     
  0.12500000000000000       0.18750000000000000        0.0000000000000000     
  0.15625000000000000       0.18750000000000000        0.0000000000000000     
  0.18750000000000000       0.18750000000000000        0.0000000000000000     
  0.21875000000000000       0.18750000000000000        0.0000000000000000     
  0.25000000000000000       0.18750000000000000        0.0000000000000000     
  0.12500000000000000       0.21875000000000000        0.0000000000000000     
  0.15625000000000000       0.21875000000000000        0.0000000000000000     
  0.18750000000000000       0.21875000000000000        0.0000000000000000     
  0.21875000000000000       0.21875000000000000        0.0000000000000000     
  0.25000000000000000       0.21875000000000000        0.0000000000000000     
  0.12500000000000000       0.25000000000000000        0.0000000000000000     
  0.15625000000000000       0.25000000000000000        0.0000000000000000     
  0.18750000000000000       0.25000000000000000        0.0000000000000000     
  0.21875000000000000       0.25000000000000000        0.0000000000000000     
  0.25000000000000000       0.25000000000000000        0.0000000000000000     
  0.25000000000000000       0.12500000000000000        0.0000000000000000     
  0.28125000000000000       0.12500000000000000        0.0000000000000000     
  0.31250000000000000       0.12500000000000000        0.0000000000000000     
  0.34375000000000000       0.12500000000000000        0.0000000000000000     
  0.37500000000000000       0.12500000000000000        0.0000000000000000     
  0.25000000000000000       0.15625000000000000        0.0000000000000000     
  0.28125000000000000       0.15625000000000000        0.0000000000000000     
  0.31250000000000000       0.15625000000000000        0.0000000000000000     
  0.34375000000000000       0.15625000000000000        0.0000000000000000     
  0.37500000000000000       0.15625000000000000        0.0000000000000000     
  0.25000000000000000       0.18750000000000000        0.0000000000000000     
  0.28125000000000000       0.18750000000000000        0.0000000000000000     
  0.31250000000000000       0.18750000000000000        0.0000000000000000     
  0.34375000000000000       0.18750000000000000        0.0000000000000000     
  0.37500000000000000       0.18750000000000000        0.0000000000000000     
  0.25000000000000000       0.21875000000000000        0.0000000000000000     
  0.28125000000000000       0.21875000000000000        0.0000000000000000     
  0.31250000000000000       0.21875000000000000        0.0000000000000000     
  0.34375000000000000       0.21875000000000000        0.0000000000000000     
  0.37500000000000000       0.21875000000000000        0.0000000000000000     
  0.25000000000000000       0.25000000000000000        0.0000000000000000     
  0.28125000000000000       0.25000000000000000        0.0000000000000000     
  0.31250000000000000       0.25000000000000000        0.0000000000000000     
  0.34375000000000000       0.25000000000000000        0.0000000000000000     
  0.37500000000000000       0.25000000000000000        0.0000000000000000     
  0.37500000000000000       0.12500000000000000        0.0000000000000000     
  0.40625000000000000       0.12500000000000000        0.0000000000000000     
  0.43750000000000000       0.12500000000000000        0.0000000000000000     
  0.46875000000000000       0.12500000000000000        0.0000000000000000     
  0.50000000000000000       0.12500000000000000        0.0000000000000000     
  0.37500000000000000       0.15625000000000000        0.0000000000000000     
  0.40625000000000000       0.15625000000000000        0.0000000000000000     
  0.43750000000000000       0.15625000000000000        0.0000000000000000     
  0.46875000000000000       0.15625000000000000        0.0000000000000000     
  0.50000000000000000       0.15625000000000000        0.0000000000000000     
  0.37500000000000000       0.18750000000000000        0.0000000000000000     
  0.40625000000000000       0.18750000000000000        0.0000000000000000     
  0.43750000000000000       0.18750000000000000        0.0000000000000000     
  0.46875000000000000       0.18750000000000000        0.0000000000000000     
  0.50000000000000000       0.18750000000000000        0.0000000000000000     
  0.37500000000000000       0.21875000000000000        0.0000000000000000     
  0.40625000000000000       0.21875000000000000        0.0000000000000000     
  0.43750000000000000       0.21875000000000000        0.0000000000000000     
  0.46875000000000000       0.21875000000000000        0.0000000000000000     
  0.50000000000000000       0.21875000000000000        0.0000000000000000     
  0.37500000000000000       0.25000000000000000        0.0000000000000000     
  0.40625000000000000       0.25000000000000000        0.0000000000000000     
  0.43750000000000000       0.25000000000000000        0.0000000000000000     
  0.46875000000000000       0.25000000000000000        0.0000000000000000     
  0.50000000000000000       0.25000000000000000        0.0000000000000000     
  0.50000000000000000       0.12500000000000000        0.0000000000000000     
  0.53125000000000000       0.12500000000000000        0.0000000000000000     
  0.56250000000000000       0.12500000000000000        0.0000000000000000     
  0.59375000000000000       0.12500000000000000        0.0000000000000000     
  0.62500000000000000       0.12500000000000000        0.0000000000000000     
  0.50000000000000000       0.15625000000000000        0.0000000000000000     
  0.53125000000000000       0.15625000000000000        0.0000000000000000     
  0.56250000000000000       0.15625000000000000        0.0000000000000000     
  0.59375000000000000       0.15625000000000000        0.0000000000000000     
  0.62500000000000000       0.15625000000000000        0.0000000000000000     
  0.50000000000000000       0.18750000000000000        0.0000000000000000     
  0.53125000000000000       0.18750000000000000        0.0000000000000000     
  0.56250000000000000       0.18750000000000000        0.0000000000000000     
  0.59375000000000000       0.18750000000000000        0.0000000000000000     
  0.62500000000000000       0.18750000000000000        0.0000000000000000     
  0.50000000000000000       0.21875000000000000        0.0000000000000000     
  0.53125000000000000       0.21875000000000000        0.0000000000000000     
  0.56250000000000000       0.21875000000000000        0.0000000000000000     
  0.59375000000000000       0.21875000000000000        0.0000000000000000     
  0.62500000000000000       0.21875000000000000        0.0000000000000000     
  0.50000000000000000       0.25000000000000000        0.0000000000000000     
  0.53125000000000000       0.25000000000000000        0.0000000000000000     
  0.56250000000000000       0.25000000000000000        0.0000000000000000     
  0.59375000000000000       0.25000000000000000        0.0000000000000000     
  0.62500000000000000       0.25000000000000000        0.0000000000000000     
  0.62500000000000000       0.12500000000000000        0.0000000000000000     
  0.65625000000000000       0.12500000000000000        0.0000000000000000     
  0.68750000000000000       0.12500000000000000        0.0000000000000000     
  0.71875000000000000       0.12500000000000000        0.0000000000000000     
  0.75000000000000000       0.12500000000000000        0.0000000000000000     
  0.62500000000000000       0.15625000000000000        0.0000000000000000     
  0.65625000000000000       0.15625000000000000        0.0000000000000000     
  0.68750000000000000       0.15625000000000000        0.0000000000000000     
  0.71875000000000000       0.15625000000000000        0.0000000000000000     
  0.75000000000000000       0.15625000000000000        0.0000000000000000     
  0.62500000000000000       0.18750000000000000        0.0000000000000000     
  0.65625000000000000       0.18750000000000000        0.0000000000000000     
  0.68750000000000000       0.18750000000000000        0.0000000000000000     
  0.71875000000000000       0.18750000000000000        0.0000000000000000     
  0.75000000000000000       0.18750000000000000        0.0000000000000000     
  0.62500000000000000       0.21875000000000000        0.0000000000000000     
  0.65625000000000000       0.21875000000000000        0.0000000000000000     
  0.68750000000000000       0.21875000000000000        0.0000000000000000     
  0.71875000000000000       0.21875000000000000        0.0000000000000000     
  0.75000000000000000       0.21875000000000000        0.0000000000000000     
  0.62500000000000000       0.25000000000000000        0.0000000000000000     
  0.65625000000000000       0.25000000000000000        0.0000000000000000     
  0.68750000000000000       0.25000000000000000        0.0000000000000000     
  0.71875000000000000       0.25000000000000000        0.0000000000000000     
  0.75000000000000000       0.25000000000000000        0.0000000000000000     
  0.75000000000000000       0.12500000000000000        0.0000000000000000     
  0.78125000000000000       0.12500000000000000        0.0000000000000000     
  0.81250000000000000       0.12500000000000000        0.0000000000000000     
  0.84375000000000000       0.12500000000000000        0.0000000000000000     
  0.87500000000000000       0.12500000000000000        0.0000000000000000     
  0.75000000000000000       0.15625000000000000        0.0000000000000000     
  0.78125000000000000       0.15625000000000000        0.0000000000000000     
  0.81250000000000000       0.15625000000000000        0.0000000000000000     
  0.84375000000000000       0.15625000000000000        0.0000000000000000     
  0.87500000000000000       0.15625000000000000        0.0000000000000000     
  0.75000000000000000       0.18750000000000000        0.0000000000000000     
  0.78125000000000000       0.18750000000000000        0.0000000000000000     
  0.81250000000000000       0.18750000000000000        0.0000000000000000     
  0.84375000000000000       0.18750000000000000        0.0000000000000000     
  0.87500000000000000       0.18750000000000000        0.0000000000000000     
  0.75000000000000000       0.21875000000000000        0.0000000000000000     
  0.78125000000000000       0.21875000000000000        0.0000000000000000     
  0.81250000000000000       0.21875000000000000        0.0000000000000000     
  0.84375000000000000       0.21875000000000000        0.0000000000000000     
  0.87500000000000000       0.21875000000000000        0.0000000000000000     
  0.75000000000000000       0.25000000000000000        0.0000000000000000     
  0.78125000000000000       0.25000000000000000        0.0000000000000000     
  0.81250000000000000       0.25000000000000000        0.0000000000000000     
  0.84375000000000000       0.25000000000000000        0.0000000000000000     
  0.87500000000000000       0.25000000000000000        0.0000000000000000     
  0.87500000000000000       0.12500000000000000        0.0000000000000000     
  0.90625000000000000       0.12500000000000000        0.0000000000000000     
  0.93750000000000000       0.12500000000000000        0.0000000000000000     
  0.96875000000000000       0.12500000000000000        0.0000000000000000     
   1.0000000000000000       0.12500000000000000        0.0000000000000000     
  0.87500000000000000       0.15625000000000000        0.0000000000000000     
  0.90625000000000000       0.15625000000000000        0.0000000000000000     
  0.93750000000000000       0.15625000000000000        0.0000000000000000     
  0.96875000000000000       0.15625000000000000        0.0000000000000000     
   1.0000000000000000       0.15625000000000000        0.0000000000000000     
  0.87500000000000000       0.18750000000000000        0.0000000000000000     
  0.90625000000000000       0.18750000000000000        0.0000000000000000     
  0.93750000000000000       0.18750000000000000        0.0000000000000000     
  0.96875000000000000       0.18750000000000000        0.0000000000000000     
   1.0000000000000000       0.18750000000000000        0.0000000000000000     
  0.87500000000000000       0.21875000000000000        0.0000000000000000     
  0.90625000000000000       0.21875000000000000        0.0000000000000000     
  0.93750000000000000       0.21875000000000000        0.0000000000000000     
  0.96875000000000000       0.21875000000000000        0.0000000000000000     
   1.0000000000000000       0.21875000000000000        0.0000000000000000     
  0.87500000000000000       0.25000000000000000        0.0000000000000000     
  0.90625000000000000       0.25000000000000000        0.0000000000000000     
  0.93750000000000000       0.25000000000000000        0.0000000000000000     
  0.96875000000000000       0.25000000000000000        0.0000000000000000     
   1.0000000000000000       0.25000000000000000        0.0000000000000000     
   0.0000000000000000       0.25000000000000000        0.0000000000000000     
   3.1250000000000000E-002  0.25000000000000000        0.0000000000000000     
   6.2500000000000000E-002  0.25000000000000000        0.0000000000000000     
   9.3750000000000000E-002  0.25000000000000000        0.0000000000000000     
  0.12500000000000000       0.25000000000000000        0.0000000000000000     
   0.0000000000000000       0.28125000000000000        0.0000000000000000     
   3.1250000000000000E-002  0.28125000000000000        0.0000000000000000     
   6.2500000000000000E-002  0.28125000000000000        0.0000000000000000     
   9.3750000000000000E-002  0.28125000000000000        0.0000000000000000     
  0.12500000000000000       0.28125000000000000        0.0000000000000000     
   0.0000000000000000       0.31250000000000000        0.0000000000000000     
   3.1250000000000000E-002  0.31250000000000000        0.0000000000000000     
   6.2500000000000000E-002  0.31250000000000000        0.0000000000000000     
   9.3750000000000000E-002  0.31250000000000000        0.0000000000000000     
  0.12500000000000000       0.31250000000000000        0.0000000000000000     
   0.0000000000000000       0.34375000000000000        0.0000000000000000     
   3.1250000000000000E-002  0.34375000000000000        0.0000000000000000     
   6.2500000000000000E-002  0.34375000000000000        0.0000000000000000     
   9.3750000000000000E-002  0.34375000000000000        0.0000000000000000     
  0.12500000000000000       0.34375000000000000        0.0000000000000000     
   0.0000000000000000       0.37500000000000000        0.0000000000000000     
   3.1250000000000000E-002  0.37500000000000000        0.0000000000000000     
   6.2500000000000000E-002  0.37500000000000000        0.0000000000000000     
   9.3750000000000000E-002  0.37500000000000000        0.0000000000000000     
  0.12500000000000000       0.37500000000000000        0.0000000000000000     
  0.12500000000000000       0.25000000000000000        0.0000000000000000     
  0.15625000000000000       0.25000000000000000        0.0000000000000000     
  0.18750000000000000       0.25000000000000000        0.0000000000000000     
  0.21875000000000000       0.25000000000000000        0.0000000000000000     
  0.25000000000000000       0.25000000000000000        0.0000000000000000     
  0.12500000000000000       0.28125000000000000        0.0000000000000000     
  0.15625000000000000       0.28125000000000000        0.0000000000000000     
  0.18750000000000000       0.28125000000000000        0.0000000000000000     
  0.21875000000000000       0.28125000000000000        0.0000000000000000     
  0.25000000000000000       0.28125000000000000        0.0000000000000000     
  0.12500000000000000       0.31250000000000000        0.0000000000000000     
  0.15625000000000000       0.31250000000000000        0.0000000000000000     
  0.18750000000000000       0.31250000000000000        0.0000000000000000     
  0.21875000000000000       0.31250000000000000        0.0000000000000000     
  0.25000000000000000       0.31250000000000000        0.0000000000000000     
  0.12500000000000000       0.34375000000000000        0.0000000000000000     
  0.15625000000000000       0.34375000000000000        0.0000000000000000     
  0.18750000000000000       0.34375000000000000        0.0000000000000000     
  0.21875000000000000       0.34375000000000000        0.0000000000000000     
  0.25000000000000000       0.34375000000000000        0.0000000000000000     
  0.12500000000000000       0.37500000000000000        0.0000000000000000     
  0.15625000000000000       0.37500000000000000        0.0000000000000000     
  0.18750000000000000       0.37500000000000000        0.0000000000000000     
  0.21875000000000000       0.37500000000000000        0.0000000000000000     
  0.25000000000000000       0.37500000000000000        0.0000000000000000     
  0.25000000000000000       0.25000000000000000        0.0000000000000000     
  0.28125000000000000       0.25000000000000000        0.0000000000000000     
  0.31250000000000000       0.25000000000000000        0.0000000000000000     
  0.34375000000000000       0.25000000000000000        0.0000000000000000     
  0.37500000000000000       0.25000000000000000        0.0000000000000000     
  0.25000000000000000       0.28125000000000000        0.0000000000000000     
  0.28125000000000000       0.28125000000000000        0.0000000000000000     
  0.31250000000000000       0.28125000000000000        0.0000000000000000     
  0.34375000000000000       0.28125000000000000        0.0000000000000000     
  0.37500000000000000       0.28125000000000000        0.0000000000000000     
  0.25000000000000000       0.31250000000000000        0.0000000000000000     
  0.28125000000000000       0.31250000000000000        0.0000000000000000     
  0.31250000000000000       0.31250000000000000        0.0000000000000000     
  0.34375000000000000       0.31250000000000000        0.0000000000000000     
  0.37500000000000000       0.31250000000000000        0.0000000000000000     
  0.25000000000000000       0.34375000000000000        0.0000000000000000     
  0.28125000000000000       0.34375000000000000        0.0000000000000000     
  0.31250000000000000       0.34375000000000000        0.0000000000000000     
  0.34375000000000000       0.34375000000000000        0.0000000000000000     
  0.37500000000000000       0.34375000000000000        0.0000000000000000     
  0.25000000000000000       0.37500000000000000        0.0000000000000000     
  0.28125000000000000       0.37500000000000000        0.0000000000000000     
  0.31250000000000000       0.37500000000000000        0.0000000000000000     
  0.34375000000000000       0.37500000000000000        0.0000000000000000     
  0.37500000000000000       0.37500000000000000        0.0000000000000000     
  0.37500000000000000       0.25000000000000000        0.0000000000000000     
  0.40625000000000000       0.25000000000000000        0.0000000000000000     
  0.43750000000000000       0.25000000000000000        0.0000000000000000     
  0.46875000000000000       0.25000000000000000        0.0000000000000000     
  0.50000000000000000       0.25000000000000000        0.0000000000000000     
  0.37500000000000000       0.28125000000000000        0.0000000000000000     
  0.40625000000000000       0.28125000000000000        0.0000000000000000     
  0.43750000000000000       0.28125000000000000        0.0000000000000000     
  0.46875000000000000       0.28125000000000000        0.0000000000000000     
  0.50000000000000000       0.28125000000000000        0.0000000000000000     
  0.37500000000000000       0.31250000000000000        0.0000000000000000     
  0.40625000000000000       0.31250000000000000        0.0000000000000000     
  0.43750000000000000       0.31250000000000000        0.0000000000000000     
  0.46875000000000000       0.31250000000000000        0.0000000000000000     
  0.50000000000000000       0.31250000000000000        0.0000000000000000     
  0.37500000000000000       0.34375000000000000        0.0000000000000000     
  0.40625000000000000       0.34375000000000000        0.0000000000000000     
  0.43750000000000000       0.34375000000000000        0.0000000000000000     
  0.46875000000000000       0.34375000000000000        0.0000000000000000     
  0.50000000000000000       0.34375000000000000        0.0000000000000000     
  0.37500000000000000       0.37500000000000000        0.0000000000000000     
  0.40625000000000000       0.37500000000000000        0.0000000000000000     
  0.43750000000000000       0.37500000000000000        0.0000000000000000     
  0.46875000000000000       0.37500000000000000        0.0000000000000000     
  0.50000000000000000       0.37500000000000000        0.0000000000000000     
  0.50000000000000000       0.25000000000000000        0.0000000000000000     
  0.53125000000000000       0.25000000000000000        0.0000000000000000     
  0.56250000000000000       0.25000000000000000        0.0000000000000000     
  0.59375000000000000       0.25000000000000000        0.0000000000000000     
  0.62500000000000000       0.25000000000000000        0.0000000000000000     
  0.50000000000000000       0.28125000000000000        0.0000000000000000     
  0.53125000000000000       0.28125000000000000        0.0000000000000000     
  0.56250000000000000       0.28125000000000000        0.0000000000000000     
  0.59375000000000000       0.28125000000000000        0.0000000000000000     
  0.62500000000000000       0.28125000000000000        0.0000000000000000     
  0.50000000000000000       0.31250000000000000        0.0000000000000000     
  0.53125000000000000       0.31250000000000000        0.0000000000000000     
  0.56250000000000000       0.31250000000000000        0.0000000000000000     
  0.59375000000000000       0.31250000000000000        0.0000000000000000     
  0.62500000000000000       0.31250000000000000        0.0000000000000000     
  0.50000000000000000       0.34375000000000000        0.0000000000000000     
  0.53125000000000000       0.34375000000000000        0.0000000000000000     
  0.56250000000000000       0.34375000000000000        0.0000000000000000     
  0.59375000000000000       0.34375000000000000        0.0000000000000000     
  0.62500000000000000       0.34375000000000000        0.0000000000000000     
  0.50000000000000000       0.37500000000000000        0.0000000000000000     
  0.53125000000000000       0.37500000000000000        0.0000000000000000     
  0.56250000000000000       0.37500000000000000        0.0000000000000000     
  0.59375000000000000       0.37500000000000000        0.0000000000000000     
  0.62500000000000000       0.37500000000000000        0.0000000000000000     
  0.62500000000000000       0.25000000000000000        0.0000000000000000     
  0.65625000000000000       0.25000000000000000        0.0000000000000000     
  0.68750000000000000       0.25000000000000000        0.0000000000000000     
  0.71875000000000000       0.25000000000000000        0.0000000000000000     
  0.75000000000000000       0.25000000000000000        0.0000000000000000     
  0.62500000000000000       0.28125000000000000        0.0000000000000000     
  0.65625000000000000       0.28125000000000000        0.0000000000000000     
  0.68750000000000000       0.28125000000000000        0.0000000000000000     
  0.71875000000000000       0.28125000000000000        0.0000000000000000     
  0.75000000000000000       0.28125000000000000        0.0000000000000000     
  0.62500000000000000       0.31250000000000000        0.0000000000000000     
  0.65625000000000000       0.31250000000000000        0.0000000000000000     
  0.68750000000000000       0.31250000000000000        0.0000000000000000     
  0.71875000000000000       0.31250000000000000        0.0000000000000000     
  0.75000000000000000       0.31250000000000000        0.0000000000000000     
  0.62500000000000000       0.34375000000000000        0.0000000000000000     
  0.65625000000000000       0.34375000000000000        0.0000000000000000     
  0.68750000000000000       0.34375000000000000        0.0000000000000000     
  0.71875000000000000       0.34375000000000000        0.0000000000000000     
  0.75000000000000000       0.34375000000000000        0.0000000000000000     
  0.62500000000000000       0.37500000000000000        0.0000000000000000     
  0.65625000000000000       0.37500000000000000        0.0000000000000000     
  0.68750000000000000       0.37500000000000000        0.0000000000000000     
  0.71875000000000000       0.37500000000000000        0.0000000000000000     
  0.75000000000000000       0.37500000000000000        0.0000000000000000     
  0.75000000000000000       0.25000000000000000        0.0000000000000000     
  0.78125000000000000       0.25000000000000000        0.0000000000000000     
  0.81250000000000000       0.25000000000000000        0.0000000000000000     
  0.84375000000000000       0.25000000000000000        0.0000000000000000     
  0.87500000000000000       0.25000000000000000        0.0000000000000000     
  0.75000000000000000       0.28125000000000000        0.0000000000000000     
  0.78125000000000000       0.28125000000000000        0.0000000000000000     
  0.81250000000000000       0.28125000000000000        0.0000000000000000     
  0.84375000000000000       0.28125000000000000        0.0000000000000000     
  0.87500000000000000       0.28125000000000000        0.0000000000000000     
  0.75000000000000000       0.31250000000000000        0.0000000000000000     
  0.78125000000000000       0.31250000000000000        0.0000000000000000     
  0.81250000000000000       0.31250000000000000        0.0000000000000000     
  0.84375000000000000       0.31250000000000000        0.0000000000000000     
  0.87500000000000000       0.31250000000000000        0.0000000000000000     
  0.75000000000000000       0.34375000000000000        0.0000000000000000     
  0.78125000000000000       0.34375000000000000        0.0000000000000000     
  0.81250000000000000       0.34375000000000000        0.0000000000000000     
  0.84375000000000000       0.34375000000000000        0.0000000000000000     
  0.87500000000000000       0.34375000000000000        0.0000000000000000     
  0.75000000000000000       0.37500000000000000        0.0000000000000000     
  0.78125000000000000       0.37500000000000000        0.0000000000000000     
  0.81250000000000000       0.37500000000000000        0.0000000000000000     
  0.84375000000000000       0.37500000000000000        0.0000000000000000     
  0.87500000000000000       0.37500000000000000        0.0000000000000000     
  0.87500000000000000       0.25000000000000000        0.0000000000000000     
  0.90625000000000000       0.25000000000000000        0.0000000000000000     
  0.93750000000000000       0.25000000000000000        0.0000000000000000     
  0.96875000000000000       0.25000000000000000        0.0000000000000000     
   1.0000000000000000       0.25000000000000000        0.0000000000000000     
  0.87500000000000000       0.28125000000000000        0.0000000000000000     
  0.90625000000000000       0.28125000000000000        0.0000000000000000     
  0.93750000000000000       0.28125000000000000        0.0000000000000000     
  0.96875000000000000       0.28125000000000000        0.0000000000000000     
   1.0000000000000000       0.28125000000000000        0.0000000000000000     
  0.87500000000000000       0.31250000000000000        0.0000000000000000     
  0.90625000000000000       0.31250000000000000        0.0000000000000000     
  0.93750000000000000       0.31250000000000000        0.0000000000000000     
  0.96875000000000000       0.31250000000000000        0.0000000000000000     
   1.0000000000000000       0.31250000000000000        0.0000000000000000     
  0.87500000000000000       0.34375000000000000        0.0000000000000000     
  0.90625000000000000       0.34375000000000000        0.0000000000000000     
  0.93750000000000000       0.34375000000000000        0.0000000000000000     
  0.96875000000000000       0.34375000000000000        0.0000000000000000     
   1.0000000000000000       0.34375000000000000        0.0000000000000000     
  0.87500000000000000       0.37500000000000000        0.0000000000000000     
  0.90625000000000000       0.37500000000000000        0.0000000000000000     
  0.93750000000000000       0.37500000000000000        0.0000000000000000     
  0.96875000000000000       0.37500000000000000        0.0000000000000000     
   1.0000000000000000       0.37500000000000000        0.0000000000000000     
   0.0000000000000000       0.37500000000000000        0.0000000000000000     
   3.1250000000000000E-002  0.37500000000000000        0.0000000000000000     
   6.2500000000000000E-002  0.37500000000000000        0.0000000000000000     
   9.3750000000000000E-002  0.37500000000000000        0.0000000000000000     
  0.12500000000000000       0.37500000000000000        0.0000000000000000     
   0.0000000000000000       0.40625000000000000        0.0000000000000000     
   3.1250000000000000E-002  0.40625000000000000        0.0000000000000000     
   6.2500000000000000E-002  0.40625000000000000        0.0000000000000000     
   9.3750000000000000E-002  0.40625000000000000        0.0000000000000000     
  0.12500000000000000       0.40625000000000000        0.0000000000000000     
   0.0000000000000000       0.43750000000000000        0.0000000000000000     
   3.1250000000000000E-002  0.43750000000000000        0.0000000000000000     
   6.2500000000000000E-002  0.43750000000000000        0.0000000000000000     
   9.3750000000000000E-002  0.43750000000000000        0.0000000000000000     
  0.12500000000000000       0.43750000000000000        0.0000000000000000     
   0.0000000000000000       0.46875000000000000        0.0000000000000000     
   3.1250000000000000E-002  0.46875000000000000        0.0000000000000000     
   6.2500000000000000E-002  0.46875000000000000        0.0000000000000000     
   9.3750000000000000E-002  0.46875000000000000        0.0000000000000000     
  0.12500000000000000       0.46875000000000000        0.0000000000000000     
   0.0000000000000000       0.50000000000000000        0.0000000000000000     
   3.1250000000000000E-002  0.50000000000000000        0.0000000000000000     
   6.2500000000000000E-002  0.50000000000000000        0.0000000000000000     
   9.3750000000000000E-002  0.50000000000000000        0.0000000000000000     
  0.12500000000000000       0.50000000000000000        0.0000000000000000     
  0.12500000000000000       0.37500000000000000        0.0000000000000000     
  0.15625000000000000       0.37500000000000000        0.0000000000000000     
  0.18750000000000000       0.37500000000000000        0.0000000000000000     
  0.21875000000000000       0.37500000000000000        0.0000000000000000     
  0.25000000000000000       0.37500000000000000        0.0000000000000000     
  0.12500000000000000       0.40625000000000000        0.0000000000000000     
  0.15625000000000000       0.40625000000000000        0.0000000000000000     
  0.18750000000000000       0.40625000000000000        0.0000000000000000     
  0.21875000000000000       0.40625000000000000        0.0000000000000000     
  0.25000000000000000       0.40625000000000000        0.0000000000000000     
  0.12500000000000000       0.43750000000000000        0.0000000000000000     
  0.15625000000000000       0.43750000000000000        0.0000000000000000     
  0.18750000000000000       0.43750000000000000        0.0000000000000000     
  0.21875000000000000       0.43750000000000000        0.0000000000000000     
  0.25000000000000000       0.43750000000000000        0.0000000000000000     
  0.12500000000000000       0.46875000000000000        0.0000000000000000     
  0.15625000000000000       0.46875000000000000        0.0000000000000000     
  0.18750000000000000       0.46875000000000000        0.0000000000000000     
  0.21875000000000000       0.46875000000000000        0.0000000000000000     
  0.25000000000000000       0.46875000000000000        0.0000000000000000     
  0.12500000000000000       0.50000000000000000        0.0000000000000000     
  0.15625000000000000       0.50000000000000000        0.0000000000000000     
  0.18750000000000000       0.50000000000000000        0.0000000000000000     
  0.21875000000000000       0.50000000000000000        0.0000000000000000     
  0.25000000000000000       0.50000000000000000        0.0000000000000000     
  0.25000000000000000       0.37500000000000000        0.0000000000000000     
  0.28125000000000000       0.37500000000000000        0.0000000000000000     
  0.31250000000000000       0.37500000000000000        0.0000000000000000     
  0.34375000000000000       0.37500000000000000        0.0000000000000000     
  0.37500000000000000       0.37500000000000000        0.0000000000000000     
  0.25000000000000000       0.40625000000000000        0.0000000000000000     
  0.28125000000000000       0.40625000000000000        0.0000000000000000     
  0.31250000000000000       0.40625000000000000        0.0000000000000000     
  0.34375000000000000       0.40625000000000000        0.0000000000000000     
  0.37500000000000000       0.40625000000000000        0.0000000000000000     
  0.25000000000000000       0.43750000000000000        0.0000000000000000     
  0.28125000000000000       0.43750000000000000        0.0000000000000000     
  0.31250000000000000       0.43750000000000000        0.0000000000000000     
  0.34375000000000000       0.43750000000000000        0.0000000000000000     
  0.37500000000000000       0.43750000000000000        0.0000000000000000     
  0.25000000000000000       0.46875000000000000        0.0000000000000000     
  0.28125000000000000       0.46875000000000000        0.0000000000000000     
  0.31250000000000000       0.46875000000000000        0.0000000000000000     
  0.34375000000000000       0.46875000000000000        0.0000000000000000     
  0.37500000000000000       0.46875000000000000        0.0000000000000000     
  0.25000000000000000       0.50000000000000000        0.0000000000000000     
  0.28125000000000000       0.50000000000000000        0.0000000000000000     
  0.31250000000000000       0.50000000000000000        0.0000000000000000     
  0.34375000000000000       0.50000000000000000        0.0000000000000000     
  0.37500000000000000       0.50000000000000000        0.0000000000000000     
  0.37500000000000000       0.37500000000000000        0.0000000000000000     
  0.40625000000000000       0.37500000000000000        0.0000000000000000     
  0.43750000000000000       0.37500000000000000        0.0000000000000000     
  0.46875000000000000       0.37500000000000000        0.0000000000000000     
  0.50000000000000000       0.37500000000000000        0.0000000000000000     
  0.37500000000000000       0.40625000000000000        0.0000000000000000     
  0.40625000000000000       0.40625000000000000        0.0000000000000000     
  0.43750000000000000       0.40625000000000000        0.0000000000000000     
  0.46875000000000000       0.40625000000000000        0.0000000000000000     
  0.50000000000000000       0.40625000000000000        0.0000000000000000     
  0.37500000000000000       0.43750000000000000        0.0000000000000000     
  0.40625000000000000       0.43750000000000000        0.0000000000000000     
  0.43750000000000000       0.43750000000000000        0.0000000000000000     
  0.46875000000000000       0.43750000000000000        0.0000000000000000     
  0.50000000000000000       0.43750000000000000        0.0000000000000000     
  0.37500000000000000       0.46875000000000000        0.0000000000000000     
  0.40625000000000000       0.46875000000000000        0.0000000000000000     
  0.43750000000000000       0.46875000000000000        0.0000000000000000     
  0.46875000000000000       0.46875000000000000        0.0000000000000000     
  0.50000000000000000       0.46875000000000000        0.0000000000000000     
  0.37500000000000000       0.50000000000000000        0.0000000000000000     
  0.40625000000000000       0.50000000000000000        0.0000000000000000     
  0.43750000000000000       0.50000000000000000        0.0000000000000000     
  0.46875000000000000       0.50000000000000000        0.0000000000000000     
  0.50000000000000000       0.50000000000000000        0.0000000000000000     
  0.50000000000000000       0.37500000000000000        0.0000000000000000     
  0.53125000000000000       0.37500000000000000        0.0000000000000000     
  0.56250000000000000       0.37500000000000000        0.0000000000000000     
  0.59375000000000000       0.37500000000000000        0.0000000000000000     
  0.62500000000000000       0.37500000000000000        0.0000000000000000     
  0.50000000000000000       0.40625000000000000        0.0000000000000000     
  0.53125000000000000       0.40625000000000000        0.0000000000000000     
  0.56250000000000000       0.40625000000000000        0.0000000000000000     
  0.59375000000000000       0.40625000000000000        0.0000000000000000     
  0.62500000000000000       0.40625000000000000        0.0000000000000000     
  0.50000000000000000       0.43750000000000000        0.0000000000000000     
  0.53125000000000000       0.43750000000000000        0.0000000000000000     
  0.56250000000000000       0.43750000000000000        0.0000000000000000     
  0.59375000000000000       0.43750000000000000        0.0000000000000000     
  0.62500000000000000       0.43750000000000000        0.0000000000000000     
  0.50000000000000000       0.46875000000000000        0.0000000000000000     
  0.53125000000000000       0.46875000000000000        0.0000000000000000     
  0.56250000000000000       0.46875000000000000        0.0000000000000000     
  0.59375000000000000       0.46875000000000000        0.0000000000000000     
  0.62500000000000000       0.46875000000000000        0.0000000000000000     
  0.50000000000000000       0.50000000000000000        0.0000000000000000     
  0.53125000000000000       0.50000000000000000        0.0000000000000000     
  0.56250000000000000       0.50000000000000000        0.0000000000000000     
  0.59375000000000000       0.50000000000000000        0.0000000000000000     
  0.62500000000000000       0.50000000000000000        0.0000000000000000     
  0.62500000000000000       0.37500000000000000        0.0000000000000000     
  0.65625000000000000       0.37500000000000000        0.0000000000000000     
  0.68750000000000000       0.37500000000000000        0.0000000000000000     
  0.71875000000000000       0.37500000000000000        0.0000000000000000     
  0.75000000000000000       0.37500000000000000        0.0000000000000000     
  0.62500000000000000       0.40625000000000000        0.0000000000000000     
  0.65625000000000000       0.40625000000000000        0.0000000000000000     
  0.68750000000000000       0.40625000000000000        0.0000000000000000     
  0.71875000000000000       0.40625000000000000        0.0000000000000000     
  0.75000000000000000       0.40625000000000000        0.0000000000000000     
  0.62500000000000000       0.43750000000000000        0.0000000000000000     
  0.65625000000000000       0.43750000000000000        0.0000000000000000     
  0.68750000000000000       0.43750000000000000        0.0000000000000000     
  0.71875000000000000       0.43750000000000000        0.0000000000000000     
  0.75000000000000000       0.43750000000000000        0.0000000000000000     
  0.62500000000000000       0.46875000000000000        0.0000000000000000     
  0.65625000000000000       0.46875000000000000        0.0000000000000000     
  0.68750000000000000       0.46875000000000000        0.0000000000000000     
  0.71875000000000000       0.46875000000000000        0.0000000000000000     
  0.75000000000000000       0.46875000000000000        0.0000000000000000     
  0.62500000000000000       0.50000000000000000        0.0000000000000000     
  0.65625000000000000       0.50000000000000000        0.0000000000000000     
  0.68750000000000000       0.50000000000000000        0.0000000000000000     
  0.71875000000000000       0.50000000000000000        0.0000000000000000     
  0.75000000000000000       0.50000000000000000        0.0000000000000000     
  0.75000000000000000       0.37500000000000000        0.0000000000000000     
  0.78125000000000000       0.37500000000000000        0.0000000000000000     
  0.81250000000000000       0.37500000000000000        0.0000000000000000     
  0.84375000000000000       0.37500000000000000        0.0000000000000000     
  0.87500000000000000       0.37500000000000000        0.0000000000000000     
  0.75000000000000000       0.40625000000000000        0.0000000000000000     
  0.78125000000000000       0.40625000000000000        0.0000000000000000     
  0.81250000000000000       0.40625000000000000        0.0000000000000000     
  0.84375000000000000       0.40625000000000000        0.0000000000000000     
  0.87500000000000000       0.40625000000000000        0.0000000000000000     
  0.75000000000000000       0.43750000000000000        0.0000000000000000     
  0.78125000000000000       0.43750000000000000        0.0000000000000000     
  0.81250000000000000       0.43750000000000000        0.0000000000000000     
  0.84375000000000000       0.43750000000000000        0.0000000000000000     
  0.87500000000000000       0.43750000000000000        0.0000000000000000     
  0.75000000000000000       0.46875000000000000        0.0000000000000000     
  0.78125000000000000       0.46875000000000000        0.0000000000000000     
  0.81250000000000000       0.46875000000000000        0.0000000000000000     
  0.84375000000000000       0.46875000000000000        0.0000000000000000     
  0.87500000000000000       0.46875000000000000        0.0000000000000000     
  0.75000000000000000       0.50000000000000000        0.0000000000000000     
  0.78125000000000000       0.50000000000000000        0.0000000000000000     
  0.81250000000000000       0.50000000000000000        0.0000000000000000     
  0.84375000000000000       0.50000000000000000        0.0000000000000000     
  0.87500000000000000       0.50000000000000000        0.0000000000000000     
  0.87500000000000000       0.37500000000000000        0.0000000000000000     
  0.90625000000000000       0.37500000000000000        0.0000000000000000     
  0.93750000000000000       0.37500000000000000        0.0000000000000000     
  0.96875000000000000       0.37500000000000000        0.0000000000000000     
   1.0000000000000000       0.37500000000000000        0.0000000000000000     
  0.87500000000000000       0.40625000000000000        0.0000000000000000     
  0.90625000000000000       0.40625000000000000        0.0000000000000000     
  0.93750000000000000       0.40625000000000000        0.0000000000000000     
  0.96875000000000000       0.40625000000000000        0.0000000000000000     
   1.0000000000000000       0.40625000000000000        0.0000000000000000     
  0.87500000000000000       0.43750000000000000        0.0000000000000000     
  0.90625000000000000       0.43750000000000000        0.0000000000000000     
  0.93750000000000000       0.43750000000000000        0.0000000000000000     
  0.96875000000000000       0.43750000000000000        0.0000000000000000     
   1.0000000000000000       0.43750000000000000        0.0000000000000000     
  0.87500000000000000       0.46875000000000000        0.0000000000000000     
  0.90625000000000000       0.46875000000000000        0.0000000000000000     
  0.93750000000000000       0.46875000000000000        0.0000000000000000     
  0.96875000000000000       0.46875000000000000        0.0000000000000000     
   1.0000000000000000       0.46875000000000000        0.0000000000000000     
  0.87500000000000000       0.50000000000000000        0.0000000000000000     
  0.90625000000000000       0.50000000000000000        0.0000000000000000     
  0.93750000000000000       0.50000000000000000        0.0000000000000000     
  0.96875000000000000       0.50000000000000000        0.0000000000000000     
   1.0000000000000000       0.50000000000000000        0.0000000000000000     
   0.0000000000000000       0.50000000000000000        0.0000000000000000     
   3.1250000000000000E-002  0.50000000000000000        0.0000000000000000     
   6.2500000000000000E-002  0.50000000000000000        0.0000000000000000     
   9.3750000000000000E-002  0.50000000000000000        0.0000000000000000     
  0.12500000000000000       0.50000000000000000        0.0000000000000000     
   0.0000000000000000       0.53125000000000000        0.0000000000000000     
   3.1250000000000000E-002  0.53125000000000000        0.0000000000000000     
   6.2500000000000000E-002  0.53125000000000000        0.0000000000000000     
   9.3750000000000000E-002  0.53125000000000000        0.0000000000000000     
  0.12500000000000000       0.53125000000000000        0.0000000000000000     
   0.0000000000000000       0.56250000000000000        0.0000000000000000     
   3.1250000000000000E-002  0.56250000000000000        0.0000000000000000     
   6.2500000000000000E-002  0.56250000000000000        0.0000000000000000     
   9.3750000000000000E-002  0.56250000000000000        0.0000000000000000     
  0.12500000000000000       0.56250000000000000        0.0000000000000000     
   0.0000000000000000       0.59375000000000000        0.0000000000000000     
   3.1250000000000000E-002  0.59375000000000000        0.0000000000000000     
   6.2500000000000000E-002  0.59375000000000000        0.0000000000000000     
   9.3750000000000000E-002  0.59375000000000000        0.0000000000000000     
  0.12500000000000000       0.59375000000000000        0.0000000000000000     
   0.0000000000000000       0.62500000000000000        0.0000000000000000     
   3.1250000000000000E-002  0.62500000000000000        0.0000000000000000     
   6.2500000000000000E-002  0.62500000000000000        0.0000000000000000     
   9.3750000000000000E-002  0.62500000000000000        0.0000000000000000     
  0.12500000000000000       0.62500000000000000        0.0000000000000000     
  0.12500000000000000       0.50000000000000000        0.0000000000000000     
  0.15625000000000000       0.50000000000000000        0.0000000000000000     
  0.18750000000000000       0.50000000000000000        0.0000000000000000     
  0.21875000000000000       0.50000000000000000        0.0000000000000000     
  0.25000000000000000       0.50000000000000000        0.0000000000000000     
  0.12500000000000000       0.53125000000000000        0.0000000000000000     
  0.15625000000000000       0.53125000000000000        0.0000000000000000     
  0.18750000000000000       0.53125000000000000        0.0000000000000000     
  0.21875000000000000       0.53125000000000000        0.0000000000000000     
  0.25000000000000000       0.53125000000000000        0.0000000000000000     
  0.12500000000000000       0.56250000000000000        0.0000000000000000     
  0.15625000000000000       0.56250000000000000        0.0000000000000000     
  0.18750000000000000       0.56250000000000000        0.0000000000000000     
  0.21875000000000000       0.56250000000000000        0.0000000000000000     
  0.25000000000000000       0.56250000000000000        0.0000000000000000     
  0.12500000000000000       0.59375000000000000        0.0000000000000000     
  0.15625000000000000       0.59375000000000000        0.0000000000000000     
  0.18750000000000000       0.59375000000000000        0.0000000000000000     
  0.21875000000000000       0.59375000000000000        0.0000000000000000     
  0.25000000000000000       0.59375000000000000        0.0000000000000000     
  0.12500000000000000       0.62500000000000000        0.0000000000000000     
  0.15625000000000000       0.62500000000000000        0.0000000000000000     
  0.18750000000000000       0.62500000000000000        0.0000000000000000     
  0.21875000000000000       0.62500000000000000        0.0000000000000000     
  0.25000000000000000       0.62500000000000000        0.0000000000000000     
  0.25000000000000000       0.50000000000000000        0.0000000000000000     
  0.28125000000000000       0.50000000000000000        0.0000000000000000     
  0.31250000000000000       0.50000000000000000        0.0000000000000000     
  0.34375000000000000       0.50000000000000000        0.0000000000000000     
  0.37500000000000000       0.50000000000000000        0.0000000000000000     
  0.25000000000000000       0.53125000000000000        0.0000000000000000     
  0.28125000000000000       0.53125000000000000        0.0000000000000000     
  0.31250000000000000       0.53125000000000000        0.0000000000000000     
  0.34375000000000000       0.53125000000000000        0.0000000000000000     
  0.37500000000000000       0.53125000000000000        0.0000000000000000     
  0.25000000000000000       0.56250000000000000        0.0000000000000000     
  0.28125000000000000       0.56250000000000000        0.0000000000000000     
  0.31250000000000000       0.56250000000000000        0.0000000000000000     
  0.34375000000000000       0.56250000000000000        0.0000000000000000     
  0.37500000000000000       0.56250000000000000        0.0000000000000000     
  0.25000000000000000       0.59375000000000000        0.0000000000000000     
  0.28125000000000000       0.59375000000000000        0.0000000000000000     
  0.31250000000000000       0.59375000000000000        0.0000000000000000     
  0.34375000000000000       0.59375000000000000        0.0000000000000000     
  0.37500000000000000       0.59375000000000000        0.0000000000000000     
  0.25000000000000000       0.62500000000000000        0.0000000000000000     
  0.28125000000000000       0.62500000000000000        0.0000000000000000     
  0.31250000000000000       0.62500000000000000        0.0000000000000000     
  0.34375000000000000       0.62500000000000000        0.0000000000000000     
  0.37500000000000000       0.62500000000000000        0.0000000000000000     
  0.37500000000000000       0.50000000000000000        0.0000000000000000     
  0.40625000000000000       0.50000000000000000        0.0000000000000000     
  0.43750000000000000       0.50000000000000000        0.0000000000000000     
  0.46875000000000000       0.50000000000000000        0.0000000000000000     
  0.50000000000000000       0.50000000000000000        0.0000000000000000     
  0.37500000000000000       0.53125000000000000        0.0000000000000000     
  0.40625000000000000       0.53125000000000000        0.0000000000000000     
  0.43750000000000000       0.53125000000000000        0.0000000000000000     
  0.46875000000000000       0.53125000000000000        0.0000000000000000     
  0.50000000000000000       0.53125000000000000        0.0000000000000000     
  0.37500000000000000       0.56250000000000000        0.0000000000000000     
  0.40625000000000000       0.56250000000000000        0.0000000000000000     
  0.43750000000000000       0.56250000000000000        0.0000000000000000     
  0.46875000000000000       0.56250000000000000        0.0000000000000000     
  0.50000000000000000       0.56250000000000000        0.0000000000000000     
  0.37500000000000000       0.59375000000000000        0.0000000000000000     
  0.40625000000000000       0.59375000000000000        0.0000000000000000     
  0.43750000000000000       0.59375000000000000        0.0000000000000000     
  0.46875000000000000       0.59375000000000000        0.0000000000000000     
  0.50000000000000000       0.59375000000000000        0.0000000000000000     
  0.37500000000000000       0.62500000000000000        0.0000000000000000     
  0.40625000000000000       0.62500000000000000        0.0000000000000000     
  0.43750000000000000       0.62500000000000000        0.0000000000000000     
  0.46875000000000000       0.62500000000000000        0.0000000000000000     
  0.50000000000000000       0.62500000000000000        0.0000000000000000     
  0.50000000000000000       0.50000000000000000        0.0000000000000000     
  0.53125000000000000       0.50000000000000000        0.0000000000000000     
  0.56250000000000000       0.50000000000000000        0.0000000000000000     
  0.59375000000000000       0.50000000000000000        0.0000000000000000     
  0.62500000000000000       0.50000000000000000        0.0000000000000000     
  0.50000000000000000       0.53125000000000000        0.0000000000000000     
  0.53125000000000000       0.53125000000000000        0.0000000000000000     
  0.56250000000000000       0.53125000000000000        0.0000000000000000     
  0.59375000000000000       0.53125000000000000        0.0000000000000000     
  0.62500000000000000       0.53125000000000000        0.0000000000000000     
  0.50000000000000000       0.56250000000000000        0.0000000000000000     
  0.53125000000000000       0.56250000000000000        0.0000000000000000     
  0.56250000000000000       0.56250000000000000        0.0000000000000000     
  0.59375000000000000       0.56250000000000000        0.0000000000000000     
  0.62500000000000000       0.56250000000000000        0.0000000000000000     
  0.50000000000000000       0.59375000000000000        0.0000000000000000     
  0.53125000000000000       0.59375000000000000        0.0000000000000000     
  0.56250000000000000       0.59375000000000000        0.0000000000000000     
  0.59375000000000000       0.59375000000000000        0.0000000000000000     
  0.62500000000000000       0.59375000000000000        0.0000000000000000     
  0.50000000000000000       0.62500000000000000        0.0000000000000000     
  0.53125000000000000       0.62500000000000000        0.0000000000000000     
  0.56250000000000000       0.62500000000000000        0.0000000000000000     
  0.59375000000000000       0.62500000000000000        0.0000000000000000     
  0.62500000000000000       0.62500000000000000        0.0000000000000000     
  0.62500000000000000       0.50000000000000000        0.0000000000000000     
  0.65625000000000000       0.50000000000000000        0.0000000000000000     
  0.68750000000000000       0.50000000000000000        0.0000000000000000     
  0.71875000000000000       0.50000000000000000        0.0000000000000000     
  0.75000000000000000       0.50000000000000000        0.0000000000000000     
  0.62500000000000000       0.53125000000000000        0.0000000000000000     
  0.65625000000000000       0.53125000000000000        0.0000000000000000     
  0.68750000000000000       0.53125000000000000        0.0000000000000000     
  0.71875000000000000       0.53125000000000000        0.0000000000000000     
  0.75000000000000000       0.53125000000000000        0.0000000000000000     
  0.62500000000000000       0.56250000000000000        0.0000000000000000     
  0.65625000000000000       0.56250000000000000        0.0000000000000000     
  0.68750000000000000       0.56250000000000000        0.0000000000000000     
  0.71875000000000000       0.56250000000000000        0.0000000000000000     
  0.75000000000000000       0.56250000000000000        0.0000000000000000     
  0.62500000000000000       0.59375000000000000        0.0000000000000000     
  0.65625000000000000       0.59375000000000000        0.0000000000000000     
  0.68750000000000000       0.59375000000000000        0.0000000000000000     
  0.71875000000000000       0.59375000000000000        0.0000000000000000     
  0.75000000000000000       0.59375000000000000        0.0000000000000000     
  0.62500000000000000       0.62500000000000000        0.0000000000000000     
  0.65625000000000000       0.62500000000000000        0.0000000000000000     
  0.68750000000000000       0.62500000000000000        0.0000000000000000     
  0.71875000000000000       0.62500000000000000        0.0000000000000000     
  0.75000000000000000       0.62500000000000000        0.0000000000000000     
  0.75000000000000000       0.50000000000000000        0.0000000000000000     
  0.78125000000000000       0.50000000000000000        0.0000000000000000     
  0.81250000000000000       0.50000000000000000        0.0000000000000000     
  0.84375000000000000       0.50000000000000000        0.0000000000000000     
  0.87500000000000000       0.50000000000000000        0.0000000000000000     
  0.75000000000000000       0.53125000000000000        0.0000000000000000     
  0.78125000000000000       0.53125000000000000        0.0000000000000000     
  0.81250000000000000       0.53125000000000000        0.0000000000000000     
  0.84375000000000000       0.53125000000000000        0.0000000000000000     
  0.87500000000000000       0.53125000000000000        0.0000000000000000     
  0.75000000000000000       0.56250000000000000        0.0000000000000000     
  0.78125000000000000       0.56250000000000000        0.0000000000000000     
  0.81250000000000000       0.56250000000000000        0.0000000000000000     
  0.84375000000000000       0.56250000000000000        0.0000000000000000     
  0.87500000000000000       0.56250000000000000        0.0000000000000000     
  0.75000000000000000       0.59375000000000000        0.0000000000000000     
  0.78125000000000000       0.59375000000000000        0.0000000000000000     
  0.81250000000000000       0.59375000000000000        0.0000000000000000     
  0.84375000000000000       0.59375000000000000        0.0000000000000000     
  0.87500000000000000       0.59375000000000000        0.0000000000000000     
  0.75000000000000000       0.62500000000000000        0.0000000000000000     
  0.78125000000000000       0.62500000000000000        0.0000000000000000     
  0.81250000000000000       0.62500000000000000        0.0000000000000000     
  0.84375000000000000       0.62500000000000000        0.0000000000000000     
  0.87500000000000000       0.62500000000000000        0.0000000000000000     
  0.87500000000000000       0.50000000000000000        0.0000000000000000     
  0.90625000000000000       0.50000000000000000        0.0000000000000000     
  0.93750000000000000       0.50000000000000000        0.0000000000000000     
  0.96875000000000000       0.50000000000000000        0.0000000000000000     
   1.0000000000000000       0.50000000000000000        0.0000000000000000     
  0.87500000000000000       0.53125000000000000        0.0000000000000000     
  0.90625000000000000       0.53125000000000000        0.0000000000000000     
  0.93750000000000000       0.53125000000000000        0.0000000000000000     
  0.96875000000000000       0.53125000000000000        0.0000000000000000     
   1.0000000000000000       0.53125000000000000        0.0000000000000000     
  0.87500000000000000       0.56250000000000000        0.0000000000000000     
  0.90625000000000000       0.56250000000000000        0.0000000000000000     
  0.93750000000000000       0.56250000000000000        0.0000000000000000     
  0.96875000000000000       0.56250000000000000        0.0000000000000000     
   1.0000000000000000       0.56250000000000000        0.0000000000000000     
  0.87500000000000000       0.59375000000000000        0.0000000000000000     
  0.90625000000000000       0.59375000000000000        0.0000000000000000     
  0.93750000000000000       0.59375000000000000        0.0000000000000000     
  0.96875000000000000       0.59375000000000000        0.0000000000000000     
   1.0000000000000000       0.59375000000000000        0.0000000000000000     
  0.87500000000000000       0.62500000000000000        0.0000000000000000     
  0.90625000000000000       0.62500000000000000        0.0000000000000000     
  0.93750000000000000       0.62500000000000000        0.0000000000000000     
  0.96875000000000000       0.62500000000000000        0.0000000000000000     
   1.0000000000000000       0.62500000000000000        0.0000000000000000     
   0.0000000000000000       0.62500000000000000        0.0000000000000000     
   3.1250000000000000E-002  0.62500000000000000        0.0000000000000000     
   6.2500000000000000E-002  0.62500000000000000        0.0000000000000000     
   9.3750000000000000E-002  0.62500000000000000        0.0000000000000000     
  0.12500000000000000       0.62500000000000000        0.0000000000000000     
   0.0000000000000000       0.65625000000000000        0.0000000000000000     
   3.1250000000000000E-002  0.65625000000000000        0.0000000000000000     
   6.2500000000000000E-002  0.65625000000000000        0.0000000000000000     
   9.3750000000000000E-002  0.65625000000000000        0.0000000000000000     
  0.12500000000000000       0.65625000000000000        0.0000000000000000     
   0.0000000000000000       0.68750000000000000        0.0000000000000000     
   3.1250000000000000E-002  0.68750000000000000        0.0000000000000000     
   6.2500000000000000E-002  0.68750000000000000        0.0000000000000000     
   9.3750000000000000E-002  0.68750000000000000        0.0000000000000000     
  0.12500000000000000       0.68750000000000000        0.0000000000000000     
   0.0000000000000000       0.71875000000000000        0.0000000000000000     
   3.1250000000000000E-002  0.71875000000000000        0.0000000000000000     
   6.2500000000000000E-002  0.71875000000000000        0.0000000000000000     
   9.3750000000000000E-002  0.71875000000000000        0.0000000000000000     
  0.12500000000000000       0.71875000000000000        0.0000000000000000     
   0.0000000000000000       0.75000000000000000        0.0000000000000000     
   3.1250000000000000E-002  0.75000000000000000        0.0000000000000000     
   6.2500000000000000E-002  0.75000000000000000        0.0000000000000000     
   9.3750000000000000E-002  0.75000000000000000        0.0000000000000000     
  0.12500000000000000       0.75000000000000000        0.0000000000000000     
  0.12500000000000000       0.62500000000000000        0.0000000000000000     
  0.15625000000000000       0.62500000000000000        0.0000000000000000     
  0.18750000000000000       0.62500000000000000        0.0000000000000000     
  0.21875000000000000       0.62500000000000000        0.0000000000000000     
  0.25000000000000000       0.62500000000000000        0.0000000000000000     
  0.12500000000000000       0.65625000000000000        0.0000000000000000     
  0.15625000000000000       0.65625000000000000        0.0000000000000000     
  0.18750000000000000       0.65625000000000000        0.0000000000000000     
  0.21875000000000000       0.65625000000000000        0.0000000000000000     
  0.25000000000000000       0.65625000000000000        0.0000000000000000     
  0.12500000000000000       0.68750000000000000        0.0000000000000000     
  0.15625000000000000       0.68750000000000000        0.0000000000000000     
  0.18750000000000000       0.68750000000000000        0.0000000000000000     
  0.21875000000000000       0.68750000000000000        0.0000000000000000     
  0.25000000000000000       0.68750000000000000        0.0000000000000000     
  0.12500000000000000       0.71875000000000000        0.0000000000000000     
  0.15625000000000000       0.71875000000000000        0.0000000000000000     
  0.18750000000000000       0.71875000000000000        0.0000000000000000     
  0.21875000000000000       0.71875000000000000        0.0000000000000000     
  0.25000000000000000       0.71875000000000000        0.0000000000000000     
  0.12500000000000000       0.75000000000000000        0.0000000000000000     
  0.15625000000000000       0.75000000000000000        0.0000000000000000     
  0.18750000000000000       0.75000000000000000        0.0000000000000000     
  0.21875000000000000       0.75000000000000000        0.0000000000000000     
  0.25000000000000000       0.75000000000000000        0.0000000000000000     
  0.25000000000000000       0.62500000000000000        0.0000000000000000     
  0.28125000000000000       0.62500000000000000        0.0000000000000000     
  0.31250000000000000       0.62500000000000000        0.0000000000000000     
  0.34375000000000000       0.62500000000000000        0.0000000000000000     
  0.37500000000000000       0.62500000000000000        0.0000000000000000     
  0.25000000000000000       0.65625000000000000        0.0000000000000000     
  0.28125000000000000       0.65625000000000000        0.0000000000000000     
  0.31250000000000000       0.65625000000000000        0.0000000000000000     
  0.34375000000000000       0.65625000000000000        0.0000000000000000     
  0.37500000000000000       0.65625000000000000        0.0000000000000000     
  0.25000000000000000       0.68750000000000000        0.0000000000000000     
  0.28125000000000000       0.68750000000000000        0.0000000000000000     
  0.31250000000000000       0.68750000000000000        0.0000000000000000     
  0.34375000000000000       0.68750000000000000        0.0000000000000000     
  0.37500000000000000       0.68750000000000000        0.0000000000000000     
  0.25000000000000000       0.71875000000000000        0.0000000000000000     
  0.28125000000000000       0.71875000000000000        0.0000000000000000     
  0.31250000000000000       0.71875000000000000        0.0000000000000000     
  0.34375000000000000       0.71875000000000000        0.0000000000000000     
  0.37500000000000000       0.71875000000000000        0.0000000000000000     
  0.25000000000000000       0.75000000000000000        0.0000000000000000     
  0.28125000000000000       0.75000000000000000        0.0000000000000000     
  0.31250000000000000       0.75000000000000000        0.0000000000000000     
  0.34375000000000000       0.75000000000000000        0.0000000000000000     
  0.37500000000000000       0.75000000000000000        0.0000000000000000     
  0.37500000000000000       0.62500000000000000        0.0000000000000000     
  0.40625000000000000       0.62500000000000000        0.0000000000000000     
  0.43750000000000000       0.62500000000000000        0.0000000000000000     
  0.46875000000000000       0.62500000000000000        0.0000000000000000     
  0.50000000000000000       0.62500000000000000        0.0000000000000000     
  0.37500000000000000       0.65625000000000000        0.0000000000000000     
  0.40625000000000000       0.65625000000000000        0.0000000000000000     
  0.43750000000000000       0.65625000000000000        0.0000000000000000     
  0.46875000000000000       0.65625000000000000        0.0000000000000000     
  0.50000000000000000       0.65625000000000000        0.0000000000000000     
  0.37500000000000000       0.68750000000000000        0.0000000000000000     
  0.40625000000000000       0.68750000000000000        0.0000000000000000     
  0.43750000000000000       0.68750000000000000        0.0000000000000000     
  0.46875000000000000       0.68750000000000000        0.0000000000000000     
  0.50000000000000000       0.68750000000000000        0.0000000000000000     
  0.37500000000000000       0.71875000000000000        0.0000000000000000     
  0.40625000000000000       0.71875000000000000        0.0000000000000000     
  0.43750000000000000       0.71875000000000000        0.0000000000000000     
  0.46875000000000000       0.71875000000000000        0.0000000000000000     
  0.50000000000000000       0.71875000000000000        0.0000000000000000     
  0.37500000000000000       0.75000000000000000        0.0000000000000000     
  0.40625000000000000       0.75000000000000000        0.0000000000000000     
  0.43750000000000000       0.75000000000000000        0.0000000000000000     
  0.46875000000000000       0.75000000000000000        0.0000000000000000     
  0.50000000000000000       0.75000000000000000        0.0000000000000000     
  0.50000000000000000       0.62500000000000000        0.0000000000000000     
  0.53125000000000000       0.62500000000000000        0.0000000000000000     
  0.56250000000000000       0.62500000000000000        0.0000000000000000     
  0.59375000000000000       0.62500000000000000        0.0000000000000000     
  0.62500000000000000       0.62500000000000000        0.0000000000000000     
  0.50000000000000000       0.65625000000000000        0.0000000000000000     
  0.53125000000000000       0.65625000000000000        0.0000000000000000     
  0.56250000000000000       0.65625000000000000        0.0000000000000000     
  0.59375000000000000       0.65625000000000000        0.0000000000000000     
  0.62500000000000000       0.65625000000000000        0.0000000000000000     
  0.50000000000000000       0.68750000000000000        0.0000000000000000     
  0.53125000000000000       0.68750000000000000        0.0000000000000000     
  0.56250000000000000       0.68750000000000000        0.0000000000000000     
  0.59375000000000000       0.68750000000000000        0.0000000000000000     
  0.62500000000000000       0.68750000000000000        0.0000000000000000     
  0.50000000000000000       0.71875000000000000        0.0000000000000000     
  0.53125000000000000       0.71875000000000000        0.0000000000000000     
  0.56250000000000000       0.71875000000000000        0.0000000000000000     
  0.59375000000000000       0.71875000000000000        0.0000000000000000     
  0.62500000000000000       0.71875000000000000        0.0000000000000000     
  0.50000000000000000       0.75000000000000000        0.0000000000000000     
  0.53125000000000000       0.75000000000000000        0.0000000000000000     
  0.56250000000000000       0.75000000000000000        0.0000000000000000     
  0.59375000000000000       0.75000000000000000        0.0000000000000000     
  0.62500000000000000       0.75000000000000000        0.0000000000000000     
  0.62500000000000000       0.62500000000000000        0.0000000000000000     
  0.65625000000000000       0.62500000000000000        0.0000000000000000     
  0.68750000000000000       0.62500000000000000        0.0000000000000000     
  0.71875000000000000       0.62500000000000000        0.0000000000000000     
  0.75000000000000000       0.62500000000000000        0.0000000000000000     
  0.62500000000000000       0.65625000000000000        0.0000000000000000     
  0.65625000000000000       0.65625000000000000        0.0000000000000000     
  0.68750000000000000       0.65625000000000000        0.0000000000000000     
  0.71875000000000000       0.65625000000000000        0.0000000000000000     
  0.75000000000000000       0.65625000000000000        0.0000000000000000     
  0.62500000000000000       0.68750000000000000        0.0000000000000000     
  0.65625000000000000       0.68750000000000000        0.0000000000000000     
  0.68750000000000000       0.68750000000000000        0.0000000000000000     
  0.71875000000000000       0.68750000000000000        0.0000000000000000     
  0.75000000000000000       0.68750000000000000        0.0000000000000000     
  0.62500000000000000       0.71875000000000000        0.0000000000000000     
  0.65625000000000000       0.71875000000000000        0.0000000000000000     
  0.68750000000000000       0.71875000000000000        0.0000000000000000     
  0.71875000000000000       0.71875000000000000        0.0000000000000000     
  0.75000000000000000       0.71875000000000000        0.0000000000000000     
  0.62500000000000000       0.75000000000000000        0.0000000000000000     
  0.65625000000000000       0.75000000000000000        0.0000000000000000     
  0.68750000000000000       0.75000000000000000        0.0000000000000000     
  0.71875000000000000       0.75000000000000000        0.0000000000000000     
  0.75000000000000000       0.75000000000000000        0.0000000000000000     
  0.75000000000000000       0.62500000000000000        0.0000000000000000     
  0.78125000000000000       0.62500000000000000        0.0000000000000000     
  0.81250000000000000       0.62500000000000000        0.0000000000000000     
  0.84375000000000000       0.62500000000000000        0.0000000000000000     
  0.87500000000000000       0.62500000000000000        0.0000000000000000     
  0.75000000000000000       0.65625000000000000        0.0000000000000000     
  0.78125000000000000       0.65625000000000000        0.0000000000000000     
  0.81250000000000000       0.65625000000000000        0.0000000000000000     
  0.84375000000000000       0.65625000000000000        0.0000000000000000     
  0.87500000000000000       0.65625000000000000        0.0000000000000000     
  0.75000000000000000       0.68750000000000000        0.0000000000000000     
  0.78125000000000000       0.68750000000000000        0.0000000000000000     
  0.81250000000000000       0.68750000000000000        0.0000000000000000     
  0.84375000000000000       0.68750000000000000        0.0000000000000000     
  0.87500000000000000       0.68750000000000000        0.0000000000000000     
  0.75000000000000000       0.71875000000000000        0.0000000000000000     
  0.78125000000000000       0.71875000000000000        0.0000000000000000     
  0.81250000000000000       0.71875000000000000        0.0000000000000000     
  0.84375000000000000       0.71875000000000000        0.0000000000000000     
  0.87500000000000000       0.71875000000000000        0.0000000000000000     
  0.75000000000000000       0.75000000000000000        0.0000000000000000     
  0.78125000000000000       0.75000000000000000        0.0000000000000000     
  0.81250000000000000       0.75000000000000000        0.0000000000000000     
  0.84375000000000000       0.75000000000000000        0.0000000000000000     
  0.87500000000000000       0.75000000000000000        0.0000000000000000     
  0.87500000000000000       0.62500000000000000        0.0000000000000000     
  0.90625000000000000       0.62500000000000000        0.0000000000000000     
  0.93750000000000000       0.62500000000000000        0.0000000000000000     
  0.96875000000000000       0.62500000000000000        0.0000000000000000     
   1.0000000000000000       0.62500000000000000        0.0000000000000000     
  0.87500000000000000       0.65625000000000000        0.0000000000000000     
  0.90625000000000000       0.65625000000000000        0.0000000000000000     
  0.93750000000000000       0.65625000000000000        0.0000000000000000     
  0.96875000000000000       0.65625000000000000        0.0000000000000000     
   1.0000000000000000       0.65625000000000000        0.0000000000000000     
  0.87500000000000000       0.68750000000000000        0.0000000000000000     
  0.90625000000000000       0.68750000000000000        0.0000000000000000     
  0.93750000000000000       0.68750000000000000        0.0000000000000000     
  0.96875000000000000       0.68750000000000000        0.0000000000000000     
   1.0000000000000000       0.68750000000000000        0.0000000000000000     
  0.87500000000000000       0.71875000000000000        0.0000000000000000     
  0.90625000000000000       0.71875000000000000        0.0000000000000000     
  0.93750000000000000       0.71875000000000000        0.0000000000000000     
  0.96875000000000000       0.71875000000000000        0.0000000000000000     
   1.0000000000000000       0.71875000000000000        0.0000000000000000     
  0.87500000000000000       0.75000000000000000        0.0000000000000000     
  0.90625000000000000       0.75000000000000000        0.0000000000000000     
  0.93750000000000000       0.75000000000000000        0.0000000000000000     
  0.96875000000000000       0.75000000000000000        0.0000000000000000     
   1.0000000000000000       0.75000000000000000        0.0000000000000000     
   0.0000000000000000       0.75000000000000000        0.0000000000000000     
   3.1250000000000000E-002  0.75000000000000000        0.0000000000000000     
   6.2500000000000000E-002  0.75000000000000000        0.0000000000000000     
   9.3750000000000000E-002  0.75000000000000000        0.0000000000000000     
  0.12500000000000000       0.75000000000000000        0.0000000000000000     
   0.0000000000000000       0.78125000000000000        0.0000000000000000     
   3.1250000000000000E-002  0.78125000000000000        0.0000000000000000     
   6.2500000000000000E-002  0.78125000000000000        0.0000000000000000     
   9.3750000000000000E-002  0.78125000000000000        0.0000000000000000     
  0.12500000000000000       0.78125000000000000        0.0000000000000000     
   0.0000000000000000       0.81250000000000000        0.0000000000000000     
   3.1250000000000000E-002  0.81250000000000000        0.0000000000000000     
   6.2500000000000000E-002  0.81250000000000000        0.0000000000000000     
   9.3750000000000000E-002  0.81250000000000000        0.0000000000000000     
  0.12500000000000000       0.81250000000000000        0.0000000000000000     
   0.0000000000000000       0.84375000000000000        0.0000000000000000     
   3.1250000000000000E-002  0.84375000000000000        0.0000000000000000     
   6.2500000000000000E-002  0.84375000000000000        0.0000000000000000     
   9.3750000000000000E-002  0.84375000000000000        0.0000000000000000     
  0.12500000000000000       0.84375000000000000        0.0000000000000000     
   0.0000000000000000       0.87500000000000000        0.0000000000000000     
   3.1250000000000000E-002  0.87500000000000000        0.0000000000000000     
   6.2500000000000000E-002  0.87500000000000000        0.0000000000000000     
   9.3750000000000000E-002  0.87500000000000000        0.0000000000000000     
  0.12500000000000000       0.87500000000000000        0.0000000000000000     
  0.12500000000000000       0.75000000000000000        0.0000000000000000     
  0.15625000000000000       0.75000000000000000        0.0000000000000000     
  0.18750000000000000       0.75000000000000000        0.0000000000000000     
  0.21875000000000000       0.75000000000000000        0.0000000000000000     
  0.25000000000000000       0.75000000000000000        0.0000000000000000     
  0.12500000000000000       0.78125000000000000        0.0000000000000000     
  0.15625000000000000       0.78125000000000000        0.0000000000000000     
  0.18750000000000000       0.78125000000000000        0.0000000000000000     
  0.21875000000000000       0.78125000000000000        0.0000000000000000     
  0.25000000000000000       0.78125000000000000        0.0000000000000000     
  0.12500000000000000       0.81250000000000000        0.0000000000000000     
  0.15625000000000000       0.81250000000000000        0.0000000000000000     
  0.18750000000000000       0.81250000000000000        0.0000000000000000     
  0.21875000000000000       0.81250000000000000        0.0000000000000000     
  0.25000000000000000       0.81250000000000000        0.0000000000000000     
  0.12500000000000000       0.84375000000000000        0.0000000000000000     
  0.15625000000000000       0.84375000000000000        0.0000000000000000     
  0.18750000000000000       0.84375000000000000        0.0000000000000000     
  0.21875000000000000       0.84375000000000000        0.0000000000000000     
  0.25000000000000000       0.84375000000000000        0.0000000000000000     
  0.12500000000000000       0.87500000000000000        0.0000000000000000     
  0.15625000000000000       0.87500000000000000        0.0000000000000000     
  0.18750000000000000       0.87500000000000000        0.0000000000000000     
  0.21875000000000000       0.87500000000000000        0.0000000000000000     
  0.25000000000000000       0.87500000000000000        0.0000000000000000     
  0.25000000000000000       0.75000000000000000        0.0000000000000000     
  0.28125000000000000       0.75000000000000000        0.0000000000000000     
  0.31250000000000000       0.75000000000000000        0.0000000000000000     
  0.34375000000000000       0.75000000000000000        0.0000000000000000     
  0.37500000000000000       0.75000000000000000        0.0000000000000000     
  0.25000000000000000       0.78125000000000000        0.0000000000000000     
  0.28125000000000000       0.78125000000000000        0.0000000000000000     
  0.31250000000000000       0.78125000000000000        0.0000000000000000     
  0.34375000000000000       0.78125000000000000        0.0000000000000000     
  0.37500000000000000       0.78125000000000000        0.0000000000000000     
  0.25000000000000000       0.81250000000000000        0.0000000000000000     
  0.28125000000000000       0.81250000000000000        0.0000000000000000     
  0.31250000000000000       0.81250000000000000        0.0000000000000000     
  0.34375000000000000       0.81250000000000000        0.0000000000000000     
  0.37500000000000000       0.81250000000000000        0.0000000000000000     
  0.25000000000000000       0.84375000000000000        0.0000000000000000     
  0.28125000000000000       0.84375000000000000        0.0000000000000000     
  0.31250000000000000       0.84375000000000000        0.0000000000000000     
  0.34375000000000000       0.84375000000000000        0.0000000000000000     
  0.37500000000000000       0.84375000000000000        0.0000000000000000     
  0.25000000000000000       0.87500000000000000        0.0000000000000000     
  0.28125000000000000       0.87500000000000000        0.0000000000000000     
  0.31250000000000000       0.87500000000000000        0.0000000000000000     
  0.34375000000000000       0.87500000000000000        0.0000000000000000     
  0.37500000000000000       0.87500000000000000        0.0000000000000000     
  0.37500000000000000       0.75000000000000000        0.0000000000000000     
  0.40625000000000000       0.75000000000000000        0.0000000000000000     
  0.43750000000000000       0.75000000000000000        0.0000000000000000     
  0.46875000000000000       0.75000000000000000        0.0000000000000000     
  0.50000000000000000       0.75000000000000000        0.0000000000000000     
  0.37500000000000000       0.78125000000000000        0.0000000000000000     
  0.40625000000000000       0.78125000000000000        0.0000000000000000     
  0.43750000000000000       0.78125000000000000        0.0000000000000000     
  0.46875000000000000       0.78125000000000000        0.0000000000000000     
  0.50000000000000000       0.78125000000000000        0.0000000000000000     
  0.37500000000000000       0.81250000000000000        0.0000000000000000     
  0.40625000000000000       0.81250000000000000        0.0000000000000000     
  0.43750000000000000       0.81250000000000000        0.0000000000000000     
  0.46875000000000000       0.81250000000000000        0.0000000000000000     
  0.50000000000000000       0.81250000000000000        0.0000000000000000     
  0.37500000000000000       0.84375000000000000        0.0000000000000000     
  0.40625000000000000       0.84375000000000000        0.0000000000000000     
  0.43750000000000000       0.84375000000000000        0.0000000000000000     
  0.46875000000000000       0.84375000000000000        0.0000000000000000     
  0.50000000000000000       0.84375000000000000        0.0000000000000000     
  0.37500000000000000       0.87500000000000000        0.0000000000000000     
  0.40625000000000000       0.87500000000000000        0.0000000000000000     
  0.43750000000000000       0.87500000000000000        0.0000000000000000     
  0.46875000000000000       0.87500000000000000        0.0000000000000000     
  0.50000000000000000       0.87500000000000000        0.0000000000000000     
  0.50000000000000000       0.75000000000000000        0.0000000000000000     
  0.53125000000000000       0.75000000000000000        0.0000000000000000     
  0.56250000000000000       0.75000000000000000        0.0000000000000000     
  0.59375000000000000       0.75000000000000000        0.0000000000000000     
  0.62500000000000000       0.75000000000000000        0.0000000000000000     
  0.50000000000000000       0.78125000000000000        0.0000000000000000     
  0.53125000000000000       0.78125000000000000        0.0000000000000000     
  0.56250000000000000       0.78125000000000000        0.0000000000000000     
  0.59375000000000000       0.78125000000000000        0.0000000000000000     
  0.62500000000000000       0.78125000000000000        0.0000000000000000     
  0.50000000000000000       0.81250000000000000        0.0000000000000000     
  0.53125000000000000       0.81250000000000000        0.0000000000000000     
  0.56250000000000000       0.81250000000000000        0.0000000000000000     
  0.59375000000000000       0.81250000000000000        0.0000000000000000     
  0.62500000000000000       0.81250000000000000        0.0000000000000000     
  0.50000000000000000       0.84375000000000000        0.0000000000000000     
  0.53125000000000000       0.84375000000000000        0.0000000000000000     
  0.56250000000000000       0.84375000000000000        0.0000000000000000     
  0.59375000000000000       0.84375000000000000        0.0000000000000000     
  0.62500000000000000       0.84375000000000000        0.0000000000000000     
  0.50000000000000000       0.87500000000000000        0.0000000000000000     
  0.53125000000000000       0.87500000000000000        0.0000000000000000     
  0.56250000000000000       0.87500000000000000        0.0000000000000000     
  0.59375000000000000       0.87500000000000000        0.0000000000000000     
  0.62500000000000000       0.87500000000000000        0.0000000000000000     
  0.62500000000000000       0.75000000000000000        0.0000000000000000     
  0.65625000000000000       0.75000000000000000        0.0000000000000000     
  0.68750000000000000       0.75000000000000000        0.0000000000000000     
  0.71875000000000000       0.75000000000000000        0.0000000000000000     
  0.75000000000000000       0.75000000000000000        0.0000000000000000     
  0.62500000000000000       0.78125000000000000        0.0000000000000000     
  0.65625000000000000       0.78125000000000000        0.0000000000000000     
  0.68750000000000000       0.78125000000000000        0.0000000000000000     
  0.71875000000000000       0.78125000000000000        0.0000000000000000     
  0.75000000000000000       0.78125000000000000        0.0000000000000000     
  0.62500000000000000       0.81250000000000000        0.0000000000000000     
  0.65625000000000000       0.81250000000000000        0.0000000000000000     
  0.68750000000000000       0.81250000000000000        0.0000000000000000     
  0.71875000000000000       0.81250000000000000        0.0000000000000000     
  0.75000000000000000       0.81250000000000000        0.0000000000000000     
  0.62500000000000000       0.84375000000000000        0.0000000000000000     
  0.65625000000000000       0.84375000000000000        0.0000000000000000     
  0.68750000000000000       0.84375000000000000        0.0000000000000000     
  0.71875000000000000       0.84375000000000000        0.0000000000000000     
  0.75000000000000000       0.84375000000000000        0.0000000000000000     
  0.62500000000000000       0.87500000000000000        0.0000000000000000     
  0.65625000000000000       0.87500000000000000        0.0000000000000000     
  0.68750000000000000       0.87500000000000000        0.0000000000000000     
  0.71875000000000000       0.87500000000000000        0.0000000000000000     
  0.75000000000000000       0.87500000000000000        0.0000000000000000     
  0.75000000000000000       0.75000000000000000        0.0000000000000000     
  0.78125000000000000       0.75000000000000000        0.0000000000000000     
  0.81250000000000000       0.75000000000000000        0.0000000000000000     
  0.84375000000000000       0.75000000000000000        0.0000000000000000     
  0.87500000000000000       0.75000000000000000        0.0000000000000000     
  0.75000000000000000       0.78125000000000000        0.0000000000000000     
  0.78125000000000000       0.78125000000000000        0.0000000000000000     
  0.81250000000000000       0.78125000000000000        0.0000000000000000     
  0.84375000000000000       0.78125000000000000        0.0000000000000000     
  0.87500000000000000       0.78125000000000000        0.0000000000000000     
  0.75000000000000000       0.81250000000000000        0.0000000000000000     
  0.78125000000000000       0.81250000000000000        0.0000000000000000     
  0.81250000000000000       0.81250000000000000        0.0000000000000000     
  0.84375000000000000       0.81250000000000000        0.0000000000000000     
  0.87500000000000000       0.81250000000000000        0.0000000000000000     
  0.75000000000000000       0.84375000000000000        0.0000000000000000     
  0.78125000000000000       0.84375000000000000        0.0000000000000000     
  0.81250000000000000       0.84375000000000000        0.0000000000000000     
  0.84375000000000000       0.84375000000000000        0.0000000000000000     
  0.87500000000000000       0.84375000000000000        0.0000000000000000     
  0.75000000000000000       0.87500000000000000        0.0000000000000000     
  0.78125000000000000       0.87500000000000000        0.0000000000000000     
  0.81250000000000000       0.87500000000000000        0.0000000000000000     
  0.84375000000000000       0.87500000000000000        0.0000000000000000     
  0.87500000000000000       0.87500000000000000        0.0000000000000000     
  0.87500000000000000       0.75000000000000000        0.0000000000000000     
  0.90625000000000000       0.75000000000000000        0.0000000000000000     
  0.93750000000000000       0.75000000000000000        0.0000000000000000     
  0.96875000000000000       0.75000000000000000        0.0000000000000000     
   1.0000000000000000       0.75000000000000000        0.0000000000000000     
  0.87500000000000000       0.78125000000000000        0.0000000000000000     
  0.90625000000000000       0.78125000000000000        0.0000000000000000     
  0.93750000000000000       0.78125000000000000        0.0000000000000000     
  0.96875000000000000       0.78125000000000000        0.0000000000000000     
   1.0000000000000000       0.78125000000000000        0.0000000000000000     
  0.87500000000000000       0.81250000000000000        0.0000000000000000     
  0.90625000000000000       0.81250000000000000        0.0000000000000000     
  0.93750000000000000       0.81250000000000000        0.0000000000000000     
  0.96875000000000000       0.81250000000000000        0.0000000000000000     
   1.0000000000000000       0.81250000000000000        0.0000000000000000     
  0.87500000000000000       0.84375000000000000        0.0000000000000000     
  0.90625000000000000       0.84375000000000000        0.0000000000000000     
  0.93750000000000000       0.84375000000000000        0.0000000000000000     
  0.96875000000000000       0.84375000000000000        0.0000000000000000     
   1.0000000000000000       0.84375000000000000        0.0000000000000000     
  0.87500000000000000       0.87500000000000000        0.0000000000000000     
  0.90625000000000000       0.87500000000000000        0.0000000000000000     
  0.93750000000000000       0.87500000000000000        0.0000000000000000     
  0.96875000000000000       0.87500000000000000        0.0000000000000000     
   1.0000000000000000       0.87500000000000000        0.0000000000000000     
   0.0000000000000000       0.87500000000000000        0.0000000000000000     
   3.1250000000000000E-002  0.87500000000000000        0.0000000000000000     
   6.2500000000000000E-002  0.87500000000000000        0.0000000000000000     
   9.3750000000000000E-002  0.87500000000000000        0.0000000000000000     
  0.12500000000000000       0.87500000000000000        0.0000000000000000     
   0.0000000000000000       0.90625000000000000        0.0000000000000000     
   3.1250000000000000E-002  0.90625000000000000        0.0000000000000000     
   6.2500000000000000E-002  0.90625000000000000        0.0000000000000000     
   9.3750000000000000E-002  0.90625000000000000        0.0000000000000000     
  0.12500000000000000       0.90625000000000000        0.0000000000000000     
   0.0000000000000000       0.93750000000000000        0.0000000000000000     
   3.1250000000000000E-002  0.93750000000000000        0.0000000000000000     
   6.2500000000000000E-002  0.93750000000000000        0.0000000000000000     
   9.3750000000000000E-002  0.93750000000000000        0.0000000000000000     
  0.12500000000000000       0.93750000000000000        0.0000000000000000     
   0.0000000000000000       0.96875000000000000        0.0000000000000000     
   3.1250000000000000E-002  0.96875000000000000        0.0000000000000000     
   6.2500000000000000E-002  0.96875000000000000        0.0000000000000000     
   9.3750000000000000E-002  0.96875000000000000        0.0000000000000000     
  0.12500000000000000       0.96875000000000000        0.0000000000000000     
   0.0000000000000000        1.0000000000000000        0.0000000000000000     
   3.1250000000000000E-002   1.0000000000000000        0.0000000000000000     
   6.2500000000000000E-002   1.0000000000000000        0.0000000000000000     
   9.3750000000000000E-002   1.0000000000000000        0.0000000000000000     
  0.12500000000000000        1.0000000000000000        0.0000000000000000     
  0.12500000000000000       0.87500000000000000        0.0000000000000000     
  0.15625000000000000       0.87500000000000000        0.0000000000000000     
  0.18750000000000000       0.87500000000000000        0.0000000000000000     
  0.21875000000000000       0.87500000000000000        0.0000000000000000     
  0.25000000000000000       0.87500000000000000        0.0000000000000000     
  0.12500000000000000       0.90625000000000000        0.0000000000000000     
  0.15625000000000000       0.90625000000000000        0.0000000000000000     
  0.18750000000000000       0.90625000000000000        0.0000000000000000     
  0.21875000000000000       0.90625000000000000        0.0000000000000000     
  0.25000000000000000       0.90625000000000000        0.0000000000000000     
  0.12500000000000000       0.93750000000000000        0.0000000000000000     
  0.15625000000000000       0.93750000000000000        0.0000000000000000     
  0.18750000000000000       0.93750000000000000        0.0000000000000000     
  0.21875000000000000       0.93750000000000000        0.0000000000000000     
  0.25000000000000000       0.93750000000000000        0.0000000000000000     
  0.12500000000000000       0.96875000000000000        0.0000000000000000     
  0.15625000000000000       0.96875000000000000        0.0000000000000000     
  0.18750000000000000       0.96875000000000000        0.0000000000000000     
  0.21875000000000000       0.96875000000000000        0.0000000000000000     
  0.25000000000000000       0.96875000000000000        0.0000000000000000     
  0.12500000000000000        1.0000000000000000        0.0000000000000000     
  0.15625000000000000        1.0000000000000000        0.0000000000000000     
  0.18750000000000000        1.0000000000000000        0.0000000000000000     
  0.21875000000000000        1.0000000000000000        0.0000000000000000     
  0.25000000000000000        1.0000000000000000        0.0000000000000000     
  0.25000000000000000       0.87500000000000000        0.0000000000000000     
  0.28125000000000000       0.87500000000000000        0.0000000000000000     
  0.31250000000000000       0.87500000000000000        0.0000000000000000     
  0.34375000000000000       0.87500000000000000        0.0000000000000000     
  0.37500000000000000       0.87500000000000000        0.0000000000000000     
  0.25000000000000000       0.90625000000000000        0.0000000000000000     
  0.28125000000000000       0.90625000000000000        0.0000000000000000     
  0.31250000000000000       0.90625000000000000        0.0000000000000000     
  0.34375000000000000       0.90625000000000000        0.0000000000000000     
  0.37500000000000000       0.90625000000000000        0.0000000000000000     
  0.25000000000000000       0.93750000000000000        0.0000000000000000     
  0.28125000000000000       0.93750000000000000        0.0000000000000000     
  0.31250000000000000       0.93750000000000000        0.0000000000000000     
  0.34375000000000000       0.93750000000000000        0.0000000000000000     
  0.37500000000000000       0.93750000000000000        0.0000000000000000     
  0.25000000000000000       0.96875000000000000        0.0000000000000000     
  0.28125000000000000       0.96875000000000000        0.0000000000000000     
  0.31250000000000000       0.96875000000000000        0.0000000000000000     
  0.34375000000000000       0.96875000000000000        0.0000000000000000     
  0.37500000000000000       0.96875000000000000        0.0000000000000000     
  0.25000000000000000        1.0000000000000000        0.0000000000000000     
  0.28125000000000000        1.0000000000000000        0.0000000000000000     
  0.31250000000000000        1.0000000000000000        0.0000000000000000     
  0.34375000000000000        1.0000000000000000        0.0000000000000000     
  0.37500000000000000        1.0000000000000000        0.0000000000000000     
  0.37500000000000000       0.87500000000000000        0.0000000000000000     
  0.40625000000000000       0.87500000000000000        0.0000000000000000     
  0.43750000000000000       0.87500000000000000        0.0000000000000000     
  0.46875000000000000       0.87500000000000000        0.0000000000000000     
  0.50000000000000000       0.87500000000000000        0.0000000000000000     
  0.37500000000000000       0.90625000000000000        0.0000000000000000     
  0.40625000000000000       0.90625000000000000        0.0000000000000000     
  0.43750000000000000       0.90625000000000000        0.0000000000000000     
  0.46875000000000000       0.90625000000000000        0.0000000000000000     
  0.50000000000000000       0.90625000000000000        0.0000000000000000     
  0.37500000000000000       0.93750000000000000        0.0000000000000000     
  0.40625000000000000       0.93750000000000000        0.0000000000000000     
  0.43750000000000000       0.93750000000000000        0.0000000000000000     
  0.46875000000000000       0.93750000000000000        0.0000000000000000     
  0.50000000000000000       0.93750000000000000        0.0000000000000000     
  0.37500000000000000       0.96875000000000000        0.0000000000000000     
  0.40625000000000000       0.96875000000000000        0.0000000000000000     
  0.43750000000000000       0.96875000000000000        0.0000000000000000     
  0.46875000000000000       0.96875000000000000        0.0000000000000000     
  0.50000000000000000       0.96875000000000000        0.0000000000000000     
  0.37500000000000000        1.0000000000000000        0.0000000000000000     
  0.40625000000000000        1.0000000000000000        0.0000000000000000     
  0.43750000000000000        1.0000000000000000        0.0000000000000000     
  0.46875000000000000        1.0000000000000000        0.0000000000000000     
  0.50000000000000000        1.0000000000000000        0.0000000000000000     
  0.50000000000000000       0.87500000000000000        0.0000000000000000     
  0.53125000000000000       0.87500000000000000        0.0000000000000000     
  0.56250000000000000       0.87500000000000000        0.0000000000000000     
  0.59375000000000000       0.87500000000000000        0.0000000000000000     
  0.62500000000000000       0.87500000000000000        0.0000000000000000     
  0.50000000000000000       0.90625000000000000        0.0000000000000000     
  0.53125000000000000       0.90625000000000000        0.0000000000000000     
  0.56250000000000000       0.90625000000000000        0.0000000000000000     
  0.59375000000000000       0.90625000000000000        0.0000000000000000     
  0.62500000000000000       0.90625000000000000        0.0000000000000000     
  0.50000000000000000       0.93750000000000000        0.0000000000000000     
  0.53125000000000000       0.93750000000000000        0.0000000000000000     
  0.56250000000000000       0.93750000000000000        0.0000000000000000     
  0.59375000000000000       0.93750000000000000        0.0000000000000000     
  0.62500000000000000       0.93750000000000000        0.0000000000000000     
  0.50000000000000000       0.96875000000000000        0.0000000000000000     
  0.53125000000000000       0.96875000000000000        0.0000000000000000     
  0.56250000000000000       0.96875000000000000        0.0000000000000000     
  0.59375000000000000       0.96875000000000000        0.0000000000000000     
  0.62500000000000000       0.96875000000000000        0.0000000000000000     
  0.50000000000000000        1.0000000000000000        0.0000000000000000     
  0.53125000000000000        1.0000000000000000        0.0000000000000000     
  0.56250000000000000        1.0000000000000000        0.0000000000000000     
  0.59375000000000000        1.0000000000000000        0.0000000000000000     
  0.62500000000000000        1.0000000000000000        0.0000000000000000     
  0.62500000000000000       0.87500000000000000        0.0000000000000000     
  0.65625000000000000       0.87500000000000000        0.0000000000000000     
  0.68750000000000000       0.87500000000000000        0.0000000000000000     
  0.71875000000000000       0.87500000000000000        0.0000000000000000     
  0.75000000000000000       0.87500000000000000        0.0000000000000000     
  0.62500000000000000       0.90625000000000000        0.0000000000000000     
  0.65625000000000000       0.90625000000000000        0.0000000000000000     
  0.68750000000000000       0.90625000000000000        0.0000000000000000     
  0.71875000000000000       0.90625000000000000        0.0000000000000000     
  0.75000000000000000       0.90625000000000000        0.0000000000000000     
  0.62500000000000000       0.93750000000000000        0.0000000000000000     
  0.65625000000000000       0.93750000000000000        0.0000000000000000     
  0.68750000000000000       0.93750000000000000        0.0000000000000000     
  0.71875000000000000       0.93750000000000000        0.0000000000000000     
  0.75000000000000000       0.93750000000000000        0.0000000000000000     
  0.62500000000000000       0.96875000000000000        0.0000000000000000     
  0.65625000000000000       0.96875000000000000        0.0000000000000000     
  0.68750000000000000       0.96875000000000000        0.0000000000000000     
  0.71875000000000000       0.96875000000000000        0.0000000000000000     
  0.75000000000000000       0.96875000000000000        0.0000000000000000     
  0.62500000000000000        1.0000000000000000        0.0000000000000000     
  0.65625000000000000        1.0000000000000000        0.0000000000000000     
  0.68750000000000000        1.0000000000000000        0.0000000000000000     
  0.71875000000000000        1.0000000000000000        0.0000000000000000     
  0.75000000000000000        1.0000000000000000        0.0000000000000000     
  0.75000000000000000       0.87500000000000000        0.0000000000000000     
  0.78125000000000000       0.87500000000000000        0.0000000000000000     
  0.81250000000000000       0.87500000000000000        0.0000000000000000     
  0.84375000000000000       0.87500000000000000        0.0000000000000000     
  0.87500000000000000       0.87500000000000000        0.0000000000000000     
  0.75000000000000000       0.90625000000000000        0.0000000000000000     
  0.78125000000000000       0.90625000000000000        0.0000000000000000     
  0.81250000000000000       0.90625000000000000        0.0000000000000000     
  0.84375000000000000       0.90625000000000000        0.0000000000000000     
  0.87500000000000000       0.90625000000000000        0.0000000000000000     
  0.75000000000000000       0.93750000000000000        0.0000000000000000     
  0.78125000000000000       0.93750000000000000        0.0000000000000000     
  0.81250000000000000       0.93750000000000000        0.0000000000000000     
  0.84375000000000000       0.93750000000000000        0.0000000000000000     
  0.87500000000000000       0.93750000000000000        0.0000000000000000     
  0.75000000000000000       0.96875000000000000        0.0000000000000000     
  0.78125000000000000       0.96875000000000000        0.0000000000000000     
  0.81250000000000000       0.96875000000000000        0.0000000000000000     
  0.84375000000000000       0.96875000000000000        0.0000000000000000     
  0.87500000000000000       0.96875000000000000        0.0000000000000000     
  0.75000000000000000        1.0000000000000000        0.0000000000000000     
  0.78125000000000000        1.0000000000000000        0.0000000000000000     
  0.81250000000000000        1.0000000000000000        0.0000000000000000     
  0.84375000000000000        1.0000000000000000        0.0000000000000000     
  0.87500000000000000        1.0000000000000000        0.0000000000000000     
  0.87500000000000000       0.87500000000000000        0.0000000000000000     
  0.90625000000000000       0.87500000000000000        0.0000000000000000     
  0.93750000000000000       0.87500000000000000        0.0000000000000000     
  0.96875000000000000       0.87500000000000000        0.0000000000000000     
   1.0000000000000000       0.87500000000000000        0.0000000000000000     
  0.87500000000000000       0.90625000000000000        0.0000000000000000     
  0.90625000000000000       0.90625000000000000        0.0000000000000000     
  0.93750000000000000       0.90625000000000000        0.0000000000000000     
  0.96875000000000000       0.90625000000000000        0.0000000000000000     
   1.0000000000000000       0.90625000000000000        0.0000000000000000     
  0.87500000000000000       0.93750000000000000        0.0000000000000000     
  0.90625000000000000       0.93750000000000000        0.0000000000000000     
  0.93750000000000000       0.93750000000000000        0.0000000000000000     
  0.96875000000000000       0.93750000000000000        0.0000000000000000     
   1.0000000000000000       0.93750000000000000        0.0000000000000000     
  0.87500000000000000       0.96875000000000000        0.0000000000000000     
  0.90625000000000000       0.96875000000000000        0.0000000000000000     
  0.93750000000000000       0.96875000000000000        0.0000000000000000     
  0.96875000000000000       0.96875000000000000        0.0000000000000000     
   1.0000000000000000       0.96875000000000000        0.0000000000000000     
  0.87500000000000000        1.0000000000000000        0.0000000000000000     
  0.90625000000000000        1.0000000000000000        0.0000000000000000     
  0.93750000000000000        1.0000000000000000        0.0000000000000000     
  0.96875000000000000        1.0000000000000000        0.0000000000000000     
   1.0000000000000000        1.0000000000000000        0.0000000000000000     
 </DataArray>
 </Points>
 <Cells>
 <DataArray  type="Int32"  Name="connectivity"  format="ascii">
           0           1           6           5
           1           2           7           6
           2           3           8           7
           3           4           9           8
           5           6          11          10
           6           7          12          11
           7           8          13          12
           8           9          14          13
          10          11          16          15
          11          12          17          16
          12          13          18          17
          13          14          19          18
          15          16          21          20
          16          17          22          21
          17          18          23          22
          18          19          24          23
          25          26          31          30
          26          27          32          31
          27          28          33          32
          28          29          34          33
          30          31          36          35
          31          32          37          36
          32          33          38          37
          33          34          39          38
          35          36          41          40
          36          37          42          41
          37          38          43          42
          38          39          44          43
          40          41          46          45
          41          42          47          46
          42          43          48          47
          43          44          49          48
          50          51          56          55
          51          52          57          56
          52          53          58          57
          53          54          59          58
          55          56          61          60
          56          57          62          61
          57          58          63          62
          58          59          64          63
          60          61          66          65
          61          62          67          66
          62          63          68          67
          63          64          69          68
          65          66          71          70
          66          67          72          71
          67          68          73          72
          68          69          74          73
          75          76          81          80
          76          77          82          81
          77          78          83          82
          78          79          84          83
          80          81          86          85
          81          82          87          86
          82          83          88          87
          83          84          89          88
          85          86          91          90
          86          87          92          91
          87          88          93          92
          88          89          94          93
          90          91          96          95
          91          92          97          96
          92          93          98          97
          93          94          99          98
         100         101         106         105
         101         102         107         106
         102         103         108         107
         103         104         109         108
         105         106         111         110
         106         107         112         111
         107         108         113         112
         108         109         114         113
         110         111         116         115
         111         112         117         116
         112         113         118         117
         113         114         119         118
         115         116         121         120
         116         117         122         121
         117         118         123         122
         118         119         124         123
         125         126         131         130
         126         127         132         131
         127         128         133         132
         128         129         134         133
         130         131         136         135
         131         132         137         136
         132         133         138         137
         133         134         139         138
         135         136         141         140
         136         137         142         141
         137         138         143         142
         138         139         144         143
         140         141         146         145
         141         142         147         146
         142         143         148         147
         143         144         149         148
         150         151         156         155
         151         152         157         156
         152         153         158         157
         153         154         159         158
         155         156         161         160
         156         157         162         161
         157         158         163         162
         158         159         164         163
         160         161         166         165
         161         162         167         166
         162         163         168         167
         163         164         169         168
         165         166         171         170
         166         167         172         171
         167         168         173         172
         168         169         174         173
         175         176         181         180
         176         177         182         181
         177         178         183         182
         178         179         184         183
         180         181         186         185
         181         182         187         186
         182         183         188         187
         183         184         189         188
         185         186         191         190
         186         187         192         191
         187         188         193         192
         188         189         194         193
         190         191         196         195
         191         192         197         196
         192         193         198         197
         193         194         199         198
         200         201         206         205
         201         202         207         206
         202         203         208         207
         203         204         209         208
         205         206         211         210
         206         207         212         211
         207         208         213         212
         208         209         214         213
         210         211         216         215
         211         212         217         216
         212         213         218         217
         213         214         219         218
         215         216         221         220
         216         217         222         221
         217         218         223         222
         218         219         224         223
         225         226         231         230
         226         227         232         231
         227         228         233         232
         228         229         234         233
         230         231         236         235
         231         232         237         236
         232         233         238         237
         233         234         239         238
         235         236         241         240
         236         237         242         241
         237         238         243         242
         238         239         244         243
         240         241         246         245
         241         242         247         246
         242         243         248         247
         243         244         249         248
         250         251         256         255
         251         252         257         256
         252         253         258         257
         253         254         259         258
         255         256         261         260
         256         257         262         261
         257         258         263         262
         258         259         264         263
         260         261         266         265
         261         262         267         266
         262         263         268         267
         263         264         269         268
         265         266         271         270
         266         267         272         271
         267         268         273         272
         268         269         274         273
         275         276         281         280
         276         277         282         281
         277         278         283         282
         278         279         284         283
         280         281         286         285
         281         282         287         286
         282         283         288         287
         283         284         289         288
         285         286         291         290
         286         287         292         291
         287         288         293         292
         288         289         294         293
         290         291         296         295
         291         292         297         296
         292         293         298         297
         293         294         299         298
         300         301         306         305
         301         302         307         306
         302         303         308         307
         303         304         309         308
         305         306         311         310
         306         307         312         311
         307         308         313         312
         308         309         314         313
         310         311         316         315
         311         312         317         316
         312         313         318         317
         313         314         319         318
         315         316         321         320
         316         317         322         321
         317         318         323         322
         318         319         324         323
         325         326         331         330
         326         327         332         331
         327         328         333         332
         328         329         334         333
         330         331         336         335
         331         332         337         336
         332         333         338         337
         333         334         339         338
         335         336         341         340
         336         337         342         341
         337         338         343         342
         338         339         344         343
         340         341         346         345
         341         342         347         346
         342         343         348         347
         343         344         349         348
         350         351         356         355
         351         352         357         356
         352         353         358         357
         353         354         359         358
         355         356         361         360
         356         357         362         361
         357         358         363         362
         358         359         364         363
         360         361         366         365
         361         362         367         366
         362         363         368         367
         363         364         369         368
         365         366         371         370
         366         367         372         371
         367         368         373         372
         368         369         374         373
         375         376         381         380
         376         377         382         381
         377         378         383         382
         378         379         384         383
         380         381         386         385
         381         382         387         386
         382         383         388         387
         383         384         389         388
         385         386         391         390
         386         387         392         391
         387         388         393         392
         388         389         394         393
         390         391         396         395
         391         392         397         396
         392         393         398         397
         393         394         399         398
         400         401         406         405
         401         402         407         406
         402         403         408         407
         403         404         409         408
         405         406         411         410
         406         407         412         411
         407         408         413         412
         408         409         414         413
         410         411         416         415
         411         412         417         416
         412         413         418         417
         413         414         419         418
         415         416         421         420
         416         417         422         421
         417         418         423         422
         418         419         424         423
         425         426         431         430
         426         427         432         431
         427         428         433         432
         428         429         434         433
         430         431         436         435
         431         432         437         436
         432         433         438         437
         433         434         439         438
         435         436         441         440
         436         437         442         441
         437         438         443         442
         438         439         444         443
         440         441         446         445
         441         442         447         446
         442         443         448         447
         443         444         449         448
         450         451         456         455
         451         452         457         456
         452         453         458         457
         453         454         459         458
         455         456         461         460
         456         457         462         461
         457         458         463         462
         458         459         464         463
         460         461         466         465
         461         462         467         466
         462         463         468         467
         463         464         469         468
         465         466         471         470
         466         467         472         471
         467         468         473         472
         468         469         474         473
         475         476         481         480
         476         477         482         481
         477         478         483         482
         478         479         484         483
         480         481         486         485
         481         482         487         486
         482         483         488         487
         483         484         489         488
         485         486         491         490
         486         487         492         491
         487         488         493         492
         488         489         494         493
         490         491         496         495
         491         492         497         496
         492         493         498         497
         493         494         499         498
         500         501         506         505
         501         502         507         506
         502         503         508         507
         503         504         509         508
         505         506         511         510
         506         507         512         511
         507         508         513         512
         508         509         514         513
         510         511         516         515
         511         512         517         516
         512         513         518         517
         513         514         519         518
         515         516         521         520
         516         517         522         521
         517         518         523         522
         518         519         524         523
         525         526         531         530
         526         527         532         531
         527         528         533         532
         528         529         534         533
         530         531         536         535
         531         532         537         536
         532         533         538         537
         533         534         539         538
         535         536         541         540
         536         537         542         541
         537         538         543         542
         538         539         544         543
         540         541         546         545
         541         542         547         546
         542         543         548         547
         543         544         549         548
         550         551         556         555
         551         552         557         556
         552         553         558         557
         553         554         559         558
         555         556         561         560
         556         557         562         561
         557         558         563         562
         558         559         564         563
         560         561         566         565
         561         562         567         566
         562         563         568         567
         563         564         569         568
         565         566         571         570
         566         567         572         571
         567         568         573         572
         568         569         574         573
         575         576         581         580
         576         577         582         581
         577         578         583         582
         578         579         584         583
         580         581         586         585
         581         582         587         586
         582         583         588         587
         583         584         589         588
         585         586         591         590
         586         587         592         591
         587         588         593         592
         588         589         594         593
         590         591         596         595
         591         592         597         596
         592         593         598         597
         593         594         599         598
         600         601         606         605
         601         602         607         606
         602         603         608         607
         603         604         609         608
         605         606         611         610
         606         607         612         611
         607         608         613         612
         608         609         614         613
         610         611         616         615
         611         612         617         616
         612         613         618         617
         613         614         619         618
         615         616         621         620
         616         617         622         621
         617         618         623         622
         618         619         624         623
         625         626         631         630
         626         627         632         631
         627         628         633         632
         628         629         634         633
         630         631         636         635
         631         632         637         636
         632         633         638         637
         633         634         639         638
         635         636         641         640
         636         637         642         641
         637         638         643         642
         638         639         644         643
         640         641         646         645
         641         642         647         646
         642         643         648         647
         643         644         649         648
         650         651         656         655
         651         652         657         656
         652         653         658         657
         653         654         659         658
         655         656         661         660
         656         657         662         661
         657         658         663         662
         658         659         664         663
         660         661         666         665
         661         662         667         666
         662         663         668         667
         663         664         669         668
         665         666         671         670
         666         667         672         671
         667         668         673         672
         668         669         674         673
         675         676         681         680
         676         677         682         681
         677         678         683         682
         678         679         684         683
         680         681         686         685
         681         682         687         686
         682         683         688         687
         683         684         689         688
         685         686         691         690
         686         687         692         691
         687         688         693         692
         688         689         694         693
         690         691         696         695
         691         692         697         696
         692         693         698         697
         693         694         699         698
         700         701         706         705
         701         702         707         706
         702         703         708         707
         703         704         709         708
         705         706         711         710
         706         707         712         711
         707         708         713         712
         708         709         714         713
         710         711         716         715
         711         712         717         716
         712         713         718         717
         713         714         719         718
         715         716         721         720
         716         717         722         721
         717         718         723         722
         718         719         724         723
         725         726         731         730
         726         727         732         731
         727         728         733         732
         728         729         734         733
         730         731         736         735
         731         732         737         736
         732         733         738         737
         733         734         739         738
         735         736         741         740
         736         737         742         741
         737         738         743         742
         738         739         744         743
         740         741         746         745
         741         742         747         746
         742         743         748         747
         743         744         749         748
         750         751         756         755
         751         752         757         756
         752         753         758         757
         753         754         759         758
         755         756         761         760
         756         757         762         761
         757         758         763         762
         758         759         764         763
         760         761         766         765
         761         762         767         766
         762         763         768         767
         763         764         769         768
         765         766         771         770
         766         767         772         771
         767         768         773         772
         768         769         774         773
         775         776         781         780
         776         777         782         781
         777         778         783         782
         778         779         784         783
         780         781         786         785
         781         782         787         786
         782         783         788         787
         783         784         789         788
         785         786         791         790
         786         787         792         791
         787         788         793         792
         788         789         794         793
         790         791         796         795
         791         792         797         796
         792         793         798         797
         793         794         799         798
         800         801         806         805
         801         802         807         806
         802         803         808         807
         803         804         809         808
         805         806         811         810
         806         807         812         811
         807         808         813         812
         808         809         814         813
         810         811         816         815
         811         812         817         816
         812         813         818         817
         813         814         819         818
         815         816         821         820
         816         817         822         821
         817         818         823         822
         818         819         824         823
         825         826         831         830
         826         827         832         831
         827         828         833         832
         828         829         834         833
         830         831         836         835
         831         832         837         836
         832         833         838         837
         833         834         839         838
         835         836         841         840
         836         837         842         841
         837         838         843         842
         838         839         844         843
         840         841         846         845
         841         842         847         846
         842         843         848         847
         843         844         849         848
         850         851         856         855
         851         852         857         856
         852         853         858         857
         853         854         859         858
         855         856         861         860
         856         857         862         861
         857         858         863         862
         858         859         864         863
         860         861         866         865
         861         862         867         866
         862         863         868         867
         863         864         869         868
         865         866         871         870
         866         867         872         871
         867         868         873         872
         868         869         874         873
         875         876         881         880
         876         877         882         881
         877         878         883         882
         878         879         884         883
         880         881         886         885
         881         882         887         886
         882         883         888         887
         883         884         889         888
         885         886         891         890
         886         887         892         891
         887         888         893         892
         888         889         894         893
         890         891         896         895
         891         892         897         896
         892         893         898         897
         893         894         899         898
         900         901         906         905
         901         902         907         906
         902         903         908         907
         903         904         909         908
         905         906         911         910
         906         907         912         911
         907         908         913         912
         908         909         914         913
         910         911         916         915
         911         912         917         916
         912         913         918         917
         913         914         919         918
         915         916         921         920
         916         917         922         921
         917         918         923         922
         918         919         924         923
         925         926         931         930
         926         927         932         931
         927         928         933         932
         928         929         934         933
         930         931         936         935
         931         932         937         936
         932         933         938         937
         933         934         939         938
         935         936         941         940
         936         937         942         941
         937         938         943         942
         938         939         944         943
         940         941         946         945
         941         942         947         946
         942         943         948         947
         943         944         949         948
         950         951         956         955
         951         952         957         956
         952         953         958         957
         953         954         959         958
         955         956         961         960
         956         957         962         961
         957         958         963         962
         958         959         964         963
         960         961         966         965
         961         962         967         966
         962         963         968         967
         963         964         969         968
         965         966         971         970
         966         967         972         971
         967         968         973         972
         968         969         974         973
         975         976         981         980
         976         977         982         981
         977         978         983         982
         978         979         984         983
         980         981         986         985
         981         982         987         986
         982         983         988         987
         983         984         989         988
         985         986         991         990
         986         987         992         991
         987         988         993         992
         988         989         994         993
         990         991         996         995
         991         992         997         996
         992         993         998         997
         993         994         999         998
        1000        1001        1006        1005
        1001        1002        1007        1006
        1002        1003        1008        1007
        1003        1004        1009        1008
        1005        1006        1011        1010
        1006        1007        1012        1011
        1007        1008        1013        1012
        1008        1009        1014        1013
        1010        1011        1016        1015
        1011        1012        1017        1016
        1012        1013        1018        1017
        1013        1014        1019        1018
        1015        1016        1021        1020
        1016        1017        1022        1021
        1017        1018        1023        1022
        1018        1019        1024        1023
        1025        1026        1031        1030
        1026        1027        1032        1031
        1027        1028        1033        1032
        1028        1029        1034        1033
        1030        1031        1036        1035
        1031        1032        1037        1036
        1032        1033        1038        1037
        1033        1034        1039        1038
        1035        1036        1041        1040
        1036        1037        1042        1041
        1037        1038        1043        1042
        1038        1039        1044        1043
        1040        1041        1046        1045
        1041        1042        1047        1046
        1042        1043        1048        1047
        1043        1044        1049        1048
        1050        1051        1056        1055
        1051        1052        1057        1056
        1052        1053        1058        1057
        1053        1054        1059        1058
        1055        1056        1061        1060
        1056        1057        1062        1061
        1057        1058        1063        1062
        1058        1059        1064        1063
        1060        1061        1066        1065
        1061        1062        1067        1066
        1062        1063        1068        1067
        1063        1064        1069        1068
        1065        1066        1071        1070
        1066        1067        1072        1071
        1067        1068        1073        1072
        1068        1069        1074        1073
        1075        1076        1081        1080
        1076        1077        1082        1081
        1077        1078        1083        1082
        1078        1079        1084        1083
        1080        1081        1086        1085
        1081        1082        1087        1086
        1082        1083        1088        1087
        1083        1084        1089        1088
        1085        1086        1091        1090
        1086        1087        1092        1091
        1087        1088        1093        1092
        1088        1089        1094        1093
        1090        1091        1096        1095
        1091        1092        1097        1096
        1092        1093        1098        1097
        1093        1094        1099        1098
        1100        1101        1106        1105
        1101        1102        1107        1106
        1102        1103        1108        1107
        1103        1104        1109        1108
        1105        1106        1111        1110
        1106        1107        1112        1111
        1107        1108        1113        1112
        1108        1109        1114        1113
        1110        1111        1116        1115
        1111        1112        1117        1116
        1112        1113        1118        1117
        1113        1114        1119        1118
        1115        1116        1121        1120
        1116        1117        1122        1121
        1117        1118        1123        1122
        1118        1119        1124        1123
        1125        1126        1131        1130
        1126        1127        1132        1131
        1127        1128        1133        1132
        1128        1129        1134        1133
        1130        1131        1136        1135
        1131        1132        1137        1136
        1132        1133        1138        1137
        1133        1134        1139        1138
        1135        1136        1141        1140
        1136        1137        1142        1141
        1137        1138        1143        1142
        1138        1139        1144        1143
        1140        1141        1146        1145
        1141        1142        1147        1146
        1142        1143        1148        1147
        1143        1144        1149        1148
        1150        1151        1156        1155
        1151        1152        1157        1156
        1152        1153        1158        1157
        1153        1154        1159        1158
        1155        1156        1161        1160
        1156        1157        1162        1161
        1157        1158        1163        1162
        1158        1159        1164        1163
        1160        1161        1166        1165
        1161        1162        1167        1166
        1162        1163        1168        1167
        1163        1164        1169        1168
        1165        1166        1171        1170
        1166        1167        1172        1171
        1167        1168        1173        1172
        1168        1169        1174        1173
        1175        1176        1181        1180
        1176        1177        1182        1181
        1177        1178        1183        1182
        1178        1179        1184        1183
        1180        1181        1186        1185
        1181        1182        1187        1186
        1182        1183        1188        1187
        1183        1184        1189        1188
        1185        1186        1191        1190
        1186        1187        1192        1191
        1187        1188        1193        1192
        1188        1189        1194        1193
        1190        1191        1196        1195
        1191        1192        1197        1196
        1192        1193        1198        1197
        1193        1194        1199        1198
        1200        1201        1206        1205
        1201        1202        1207        1206
        1202        1203        1208        1207
        1203        1204        1209        1208
        1205        1206        1211        1210
        1206        1207        1212        1211
        1207        1208        1213        1212
        1208        1209        1214        1213
        1210        1211        1216        1215
        1211        1212        1217        1216
        1212        1213        1218        1217
        1213        1214        1219        1218
        1215        1216        1221        1220
        1216        1217        1222        1221
        1217        1218        1223        1222
        1218        1219        1224        1223
        1225        1226        1231        1230
        1226        1227        1232        1231
        1227        1228        1233        1232
        1228        1229        1234        1233
        1230        1231        1236        1235
        1231        1232        1237        1236
        1232        1233        1238        1237
        1233        1234        1239        1238
        1235        1236        1241        1240
        1236        1237        1242        1241
        1237        1238        1243        1242
        1238        1239        1244        1243
        1240        1241        1246        1245
        1241        1242        1247        1246
        1242        1243        1248        1247
        1243        1244        1249        1248
        1250        1251        1256        1255
        1251        1252        1257        1256
        1252        1253        1258        1257
        1253        1254        1259        1258
        1255        1256        1261        1260
        1256        1257        1262        1261
        1257        1258        1263        1262
        1258        1259        1264        1263
        1260        1261        1266        1265
        1261        1262        1267        1266
        1262        1263        1268        1267
        1263        1264        1269        1268
        1265        1266        1271        1270
        1266        1267        1272        1271
        1267        1268        1273        1272
        1268        1269        1274        1273
        1275        1276        1281        1280
        1276        1277        1282        1281
        1277        1278        1283        1282
        1278        1279        1284        1283
        1280        1281        1286        1285
        1281        1282        1287        1286
        1282        1283        1288        1287
        1283        1284        1289        1288
        1285        1286        1291        1290
        1286        1287        1292        1291
        1287        1288        1293        1292
        1288        1289        1294        1293
        1290        1291        1296        1295
        1291        1292        1297        1296
        1292        1293        1298        1297
        1293        1294        1299        1298
        1300        1301        1306        1305
        1301        1302        1307        1306
        1302        1303        1308        1307
        1303        1304        1309        1308
        1305        1306        1311        1310
        1306        1307        1312        1311
        1307        1308        1313        1312
        1308        1309        1314        1313
        1310        1311        1316        1315
        1311        1312        1317        1316
        1312        1313        1318        1317
        1313        1314        1319        1318
        1315        1316        1321        1320
        1316        1317        1322        1321
        1317        1318        1323        1322
        1318        1319        1324        1323
        1325        1326        1331        1330
        1326        1327        1332        1331
        1327        1328        1333        1332
        1328        1329        1334        1333
        1330        1331        1336        1335
        1331        1332        1337        1336
        1332        1333        1338        1337
        1333        1334        1339        1338
        1335        1336        1341        1340
        1336        1337        1342        1341
        1337        1338        1343        1342
        1338        1339        1344        1343
        1340        1341        1346        1345
        1341        1342        1347        1346
        1342        1343        1348        1347
        1343        1344        1349        1348
        1350        1351        1356        1355
        1351        1352        1357        1356
        1352        1353        1358        1357
        1353        1354        1359        1358
        1355        1356        1361        1360
        1356        1357        1362        1361
        1357        1358        1363        1362
        1358        1359        1364        1363
        1360        1361        1366        1365
        1361        1362        1367        1366
        1362        1363        1368        1367
        1363        1364        1369        1368
        1365        1366        1371        1370
        1366        1367        1372        1371
        1367        1368        1373        1372
        1368        1369        1374        1373
        1375        1376        1381        1380
        1376        1377        1382        1381
        1377        1378        1383        1382
        1378        1379        1384        1383
        1380        1381        1386        1385
        1381        1382        1387        1386
        1382        1383        1388        1387
        1383        1384        1389        1388
        1385        1386        1391        1390
        1386        1387        1392        1391
        1387        1388        1393        1392
        1388        1389        1394        1393
        1390        1391        1396        1395
        1391        1392        1397        1396
        1392        1393        1398        1397
        1393        1394        1399        1398
        1400        1401        1406        1405
        1401        1402        1407        1406
        1402        1403        1408        1407
        1403        1404        1409        1408
        1405        1406        1411        1410
        1406        1407        1412        1411
        1407        1408        1413        1412
        1408        1409        1414        1413
        1410        1411        1416        1415
        1411        1412        1417        1416
        1412        1413        1418        1417
        1413        1414        1419        1418
        1415        1416        1421        1420
        1416        1417        1422        1421
        1417        1418        1423        1422
        1418        1419        1424        1423
        1425        1426        1431        1430
        1426        1427        1432        1431
        1427        1428        1433        1432
        1428        1429        1434        1433
        1430        1431        1436        1435
        1431        1432        1437        1436
        1432        1433        1438        1437
        1433        1434        1439        1438
        1435        1436        1441        1440
        1436        1437        1442        1441
        1437        1438        1443        1442
        1438        1439        1444        1443
        1440        1441        1446        1445
        1441        1442        1447        1446
        1442        1443        1448        1447
        1443        1444        1449        1448
        1450        1451        1456        1455
        1451        1452        1457        1456
        1452        1453        1458        1457
        1453        1454        1459        1458
        1455        1456        1461        1460
        1456        1457        1462        1461
        1457        1458        1463        1462
        1458        1459        1464        1463
        1460        1461        1466        1465
        1461        1462        1467        1466
        1462        1463        1468        1467
        1463        1464        1469        1468
        1465        1466        1471        1470
        1466        1467        1472        1471
        1467        1468        1473        1472
        1468        1469        1474        1473
        1475        1476        1481        1480
        1476        1477        1482        1481
        1477        1478        1483        1482
        1478        1479        1484        1483
        1480        1481        1486        1485
        1481        1482        1487        1486
        1482        1483        1488        1487
        1483        1484        1489        1488
        1485        1486        1491        1490
        1486        1487        1492        1491
        1487        1488        1493        1492
        1488        1489        1494        1493
        1490        1491        1496        1495
        1491        1492        1497        1496
        1492        1493        1498        1497
        1493        1494        1499        1498
        1500        1501        1506        1505
        1501        1502        1507        1506
        1502        1503        1508        1507
        1503        1504        1509        1508
        1505        1506        1511        1510
        1506        1507        1512        1511
        1507        1508        1513        1512
        1508        1509        1514        1513
        1510        1511        1516        1515
        1511        1512        1517        1516
        1512        1513        1518        1517
        1513        1514        1519        1518
        1515        1516        1521        1520
        1516        1517        1522        1521
        1517        1518        1523        1522
        1518        1519        1524        1523
        1525        1526        1531        1530
        1526        1527        1532        1531
        1527        1528        1533        1532
        1528        1529        1534        1533
        1530        1531        1536        1535
        1531        1532        1537        1536
        1532        1533        1538        1537
        1533        1534        1539        1538
        1535        1536        1541        1540
        1536        1537        1542        1541
        1537        1538        1543        1542
        1538        1539        1544        1543
        1540        1541        1546        1545
        1541        1542        1547        1546
        1542        1543        1548        1547
        1543        1544        1549        1548
        1550        1551        1556        1555
        1551        1552        1557        1556
        1552        1553        1558        1557
        1553        1554        1559        1558
        1555        1556        1561        1560
        1556        1557        1562        1561
        1557        1558        1563        1562
        1558        1559        1564        1563
        1560        1561        1566        1565
        1561        1562        1567        1566
        1562        1563        1568        1567
        1563        1564        1569        1568
        1565        1566        1571        1570
        1566        1567        1572        1571
        1567        1568        1573        1572
        1568        1569        1574        1573
        1575        1576        1581        1580
        1576        1577        1582        1581
        1577        1578        1583        1582
        1578        1579        1584        1583
        1580        1581        1586        1585
        1581        1582        1587        1586
        1582        1583        1588        1587
        1583        1584        1589        1588
        1585        1586        1591        1590
        1586        1587        1592        1591
        1587        1588        1593        1592
        1588        1589        1594        1593
        1590        1591        1596        1595
        1591        1592        1597        1596
        1592        1593        1598        1597
        1593        1594        1599        1598
 </DataArray>
 <DataArray  type="Int32"  Name="offsets"  format="ascii"> 
           4
           8
          12
          16
          20
          24
          28
          32
          36
          40
          44
          48
          52
          56
          60
          64
          68
          72
          76
          80
          84
          88
          92
          96
         100
         104
         108
         112
         116
         120
         124
         128
         132
         136
         140
         144
         148
         152
         156
         160
         164
         168
         172
         176
         180
         184
         188
         192
         196
         200
         204
         208
         212
         216
         220
         224
         228
         232
         236
         240
         244
         248
         252
         256
         260
         264
         268
         272
         276
         280
         284
         288
         292
         296
         300
         304
         308
         312
         316
         320
         324
         328
         332
         336
         340
         344
         348
         352
         356
         360
         364
         368
         372
         376
         380
         384
         388
         392
         396
         400
         404
         408
         412
         416
         420
         424
         428
         432
         436
         440
         444
         448
         452
         456
         460
         464
         468
         472
         476
         480
         484
         488
         492
         496
         500
         504
         508
         512
         516
         520
         524
         528
         532
         536
         540
         544
         548
         552
         556
         560
         564
         568
         572
         576
         580
         584
         588
         592
         596
         600
         604
         608
         612
         616
         620
         624
         628
         632
         636
         640
         644
         648
         652
         656
         660
         664
         668
         672
         676
         680
         684
         688
         692
         696
         700
         704
         708
         712
         716
         720
         724
         728
         732
         736
         740
         744
         748
         752
         756
         760
         764
         768
         772
         776
         780
         784
         788
         792
         796
         800
         804
         808
         812
         816
         820
         824
         828
         832
         836
         840
         844
         848
         852
         856
         860
         864
         868
         872
         876
         880
         884
         888
         892
         896
         900
         904
         908
         912
         916
         920
         924
         928
         932
         936
         940
         944
         948
         952
         956
         960
         964
         968
         972
         976
         980
         984
         988
         992
         996
        1000
        1004
        1008
        1012
        1016
        1020
        1024
        1028
        1032
        1036
        1040
        1044
        1048
        1052
        1056
        1060
        1064
        1068
        1072
        1076
        1080
        1084
        1088
        1092
        1096
        1100
        1104
        1108
        1112
        1116
        1120
        1124
        1128
        1132
        1136
        1140
        1144
        1148
        1152
        1156
        1160
        1164
        1168
        1172
        1176
        1180
        1184
        1188
        1192
        1196
        1200
        1204
        1208
        1212
        1216
        1220
        1224
        1228
        1232
        1236
        1240
        1244
        1248
        1252
        1256
        1260
        1264
        1268
        1272
        1276
        1280
        1284
        1288
        1292
        1296
        1300
        1304
        1308
        1312
        1316
        1320
        1324
        1328
        1332
        1336
        1340
        1344
        1348
        1352
        1356
        1360
        1364
        1368
        1372
        1376
        1380
        1384
        1388
        1392
        1396
        1400
        1404
        1408
        1412
        1416
        1420
        1424
        1428
        1432
        1436
        1440
        1444
        1448
        1452
        1456
        1460
        1464
        1468
        1472
        1476
        1480
        1484
        1488
        1492
        1496
        1500
        1504
        1508
        1512
        1516
        1520
        1524
        1528
        1532
        1536
        1540
        1544
        1548
        1552
        1556
        1560
        1564
        1568
        1572
        1576
        1580
        1584
        1588
        1592
        1596
        1600
        1604
        1608
        1612
        1616
        1620
        1624
        1628
        1632
        1636
        1640
        1644
        1648
        1652
        1656
        1660
        1664
        1668
        1672
        1676
        1680
        1684
        1688
        1692
        1696
        1700
        1704
        1708
        1712
        1716
        1720
        1724
        1728
        1732
        1736
        1740
        1744
        1748
        1752
        1756
        1760
        1764
        1768
        1772
        1776
        1780
        1784
        1788
        1792
        1796
        1800
        1804
        1808
        1812
        1816
        1820
        1824
        1828
        1832
        1836
        1840
        1844
        1848
        1852
        1856
        1860
        1864
        1868
        1872
        1876
        1880
        1884
        1888
        1892
        1896
        1900
        1904
        1908
        1912
        1916
        1920
        1924
        1928
        1932
        1936
        1940
        1944
        1948
        1952
        1956
        1960
        1964
        1968
        1972
        1976
        1980
        1984
        1988
        1992
        1996
        2000
        2004
        2008
        2012
        2016
        2020
        2024
        2028
        2032
        2036
        2040
        2044
        2048
        2052
        2056
        2060
        2064
        2068
        2072
        2076
        2080
        2084
        2088
        2092
        2096
        2100
        2104
        2108
        2112
        2116
        2120
        2124
        2128
        2132
        2136
        2140
        2144
        2148
        2152
        2156
        2160
        2164
        2168
        2172
        2176
        2180
        2184
        2188
        2192
        2196
        2200
        2204
        2208
        2212
        2216
        2220
        2224
        2228
        2232
        2236
        2240
        2244
        2248
        2252
        2256
        2260
        2264
        2268
        2272
        2276
        2280
        2284
        2288
        2292
        2296
        2300
        2304
        2308
        2312
        2316
        2320
        2324
        2328
        2332
        2336
        2340
        2344
        2348
        2352
        2356
        2360
        2364
        2368
        2372
        2376
        2380
        2384
        2388
        2392
        2396
        2400
        2404
        2408
        2412
        2416
        2420
        2424
        2428
        2432
        2436
        2440
        2444
        2448
        2452
        2456
        2460
        2464
        2468
        2472
        2476
        2480
        2484
        2488
        2492
        2496
        2500
        2504
        2508
        2512
        2516
        2520
        2524
        2528
        2532
        2536
        2540
        2544
        2548
        2552
        2556
        2560
        2564
        2568
        2572
        2576
        2580
        2584
        2588
        2592
        2596
        2600
        2604
        2608
        2612
        2616
        2620
        2624
        2628
        2632
        2636
        2640
        2644
        2648
        2652
        2656
        2660
        2664
        2668
        2672
        2676
        2680
        2684
        2688
        2692
        2696
        2700
        2704
        2708
        2712
        2716
        2720
        2724
        2728
        2732
        2736
        2740
        2744
        2748
        2752
        2756
        2760
        2764
        2768
        2772
        2776
        2780
        2784
        2788
        2792
        2796
        2800
        2804
        2808
        2812
        2816
        2820
        2824
        2828
        2832
        2836
        2840
        2844
        2848
        2852
        2856
        2860
        2864
        2868
        2872
        2876
        2880
        2884
        2888
        2892
        2896
        2900
        2904
        2908
        2912
        2916
        2920
        2924
        2928
        2932
        2936
        2940
        2944
        2948
        2952
        2956
        2960
        2964
        2968
        2972
        2976
        2980
        2984
        2988
        2992
        2996
        3000
        3004
        3008
        3012
        3016
        3020
        3024
        3028
        3032
        3036
        3040
        3044
        3048
        3052
        3056
        3060
        3064
        3068
        3072
        3076
        3080
        3084
        3088
        3092
        3096
        3100
        3104
        3108
        3112
        3116
        3120
        3124
        3128
        3132
        3136
        3140
        3144
        3148
        3152
        3156
        3160
        3164
        3168
        3172
        3176
        3180
        3184
        3188
        3192
        3196
        3200
        3204
        3208
        3212
        3216
        3220
        3224
        3228
        3232
        3236
        3240
        3244
        3248
        3252
        3256
        3260
        3264
        3268
        3272
        3276
        3280
        3284
        3288
        3292
        3296
        3300
        3304
        3308
        3312
        3316
        3320
        3324
        3328
        3332
        3336
        3340
        3344
        3348
        3352
        3356
        3360
        3364
        3368
        3372
        3376
        3380
        3384
        3388
        3392
        3396
        3400
        3404
        3408
        3412
        3416
        3420
        3424
        3428
        3432
        3436
        3440
        3444
        3448
        3452
        3456
        3460
        3464
        3468
        3472
        3476
        3480
        3484
        3488
        3492
        3496
        3500
        3504
        3508
        3512
        3516
        3520
        3524
        3528
        3532
        3536
        3540
        3544
        3548
        3552
        3556
        3560
        3564
        3568
        3572
        3576
        3580
        3584
        3588
        3592
        3596
        3600
        3604
        3608
        3612
        3616
        3620
        3624
        3628
        3632
        3636
        3640
        3644
        3648
        3652
        3656
        3660
        3664
        3668
        3672
        3676
        3680
        3684
        3688
        3692
        3696
        3700
        3704
        3708
        3712
        3716
        3720
        3724
        3728
        3732
        3736
        3740
        3744
        3748
        3752
        3756
        3760
        3764
        3768
        3772
        3776
        3780
        3784
        3788
        3792
        3796
        3800
        3804
        3808
        3812
        3816
        3820
        3824
        3828
        3832
        3836
        3840
        3844
        3848
        3852
        3856
        3860
        3864
        3868
        3872
        3876
        3880
        3884
        3888
        3892
        3896
        3900
        3904
        3908
        3912
        3916
        3920
        3924
        3928
        3932
        3936
        3940
        3944
        3948
        3952
        3956
        3960
        3964
        3968
        3972
        3976
        3980
        3984
        3988
        3992
        3996
        4000
        4004
        4008
        4012
        4016
        4020
        4024
        4028
        4032
        4036
        4040
        4044
        4048
        4052
        4056
        4060
        4064
        4068
        4072
        4076
        4080
        4084
        4088
        4092
        4096
 </DataArray>
 <DataArray  type="UInt8"  Name="types"  format="ascii">
 9
 9
 9
 9
 9
 9
 9
 9
 9
 9
 9
 9
 9
 9
 9
 9
 9
 9
 9
 9
 9
 9
 9
 9
 9
 9
 9
 9
 9
 9
 9
 9
 9
 9
 9
 9
 9
 9
 9
 9
 9
 9
 9
 9
 9
 9
 9
 9
 9
 9
 9
 9
 9
 9
 9
 9
 9
 9
 9
 9
 9
 9
 9
 9
 9
 9
 9
 9
 9
 9
 9
 9
 9
 9
 9
 9
 9
 9
 9
 9
 9
 9
 9
 9
 9
 9
 9
 9
 9
 9
 9
 9
 9
 9
 9
 9
 9
 9
 9
 9
 9
 9
 9
 9
 9
 9
 9
 9
 9
 9
 9
 9
 9
 9
 9
 9
 9
 9
 9
 9
 9
 9
 9
 9
 9
 9
 9
 9
 9
 9
 9
 9
 9
 9
 9
 9
 9
 9
 9
 9
 9
 9
 9
 9
 9
 9
 9
 9
 9
 9
 9
 9
 9
 9
 9
 9
 9
 9
 9
 9
 9
 9
 9
 9
 9
 9
 9
 9
 9
 9
 9
 9
 9
 9
 9
 9
 9
 9
 9
 9
 9
 9
 9
 9
 9
 9
 9
 9
 9
 9
 9
 9
 9
 9
 9
 9
 9
 9
 9
 9
 9
 9
 9
 9
 9
 9
 9
 9
 9
 9
 9
 9
 9
 9
 9
 9
 9
 9
 9
 9
 9
 9
 9
 9
 9
 9
 9
 9
 9
 9
 9
 9
 9
 9
 9
 9
 9
 9
 9
 9
 9
 9
 9
 9
 9
 9
 9
 9
 9
 9
 9
 9
 9
 9
 9
 9
 9
 9
 9
 9
 9
 9
 9
 9
 9
 9
 9
 9
 9
 9
 9
 9
 9
 9
 9
 9
 9
 9
 9
 9
 9
 9
 9
 9
 9
 9
 9
 9
 9
 9
 9
 9
 9
 9
 9
 9
 9
 9
 9
 9
 9
 9
 9
 9
 9
 9
 9
 9
 9
 9
 9
 9
 9
 9
 9
 9
 9
 9
 9
 9
 9
 9
 9
 9
 9
 9
 9
 9
 9
 9
 9
 9
 9
 9
 9
 9
 9
 9
 9
 9
 9
 9
 9
 9
 9
 9
 9
 9
 9
 9
 9
 9
 9
 9
 9
 9
 9
 9
 9
 9
 9
 9
 9
 9
 9
 9
 9
 9
 9
 9
 9
 9
 9
 9
 9
 9
 9
 9
 9
 9
 9
 9
 9
 9
 9
 9
 9
 9
 9
 9
 9
 9
 9
 9
 9
 9
 9
 9
 9
 9
 9
 9
 9
 9
 9
 9
 9
 9
 9
 9
 9
 9
 9
 9
 9
 9
 9
 9
 9
 9
 9
 9
 9
 9
 9
 9
 9
 9
 9
 9
 9
 9
 9
 9
 9
 9
 9
 9
 9
 9
 9
 9
 9
 9
 9
 9
 9
 9
 9
 9
 9
 9
 9
 9
 9
 9
 9
 9
 9
 9
 9
 9
 9
 9
 9
 9
 9
 9
 9
 9
 9
 9
 9
 9
 9
 9
 9
 9
 9
 9
 9
 9
 9
 9
 9
 9
 9
 9
 9
 9
 9
 9
 9
 9
 9
 9
 9
 9
 9
 9
 9
 9
 9
 9
 9
 9
 9
 9
 9
 9
 9
 9
 9
 9
 9
 9
 9
 9
 9
 9
 9
 9
 9
 9
 9
 9
 9
 9
 9
 9
 9
 9
 9
 9
 9
 9
 9
 9
 9
 9
 9
 9
 9
 9
 9
 9
 9
 9
 9
 9
 9
 9
 9
 9
 9
 9
 9
 9
 9
 9
 9
 9
 9
 9
 9
 9
 9
 9
 9
 9
 9
 9
 9
 9
 9
 9
 9
 9
 9
 9
 9
 9
 9
 9
 9
 9
 9
 9
 9
 9
 9
 9
 9
 9
 9
 9
 9
 9
 9
 9
 9
 9
 9
 9
 9
 9
 9
 9
 9
 9
 9
 9
 9
 9
 9
 9
 9
 9
 9
 9
 9
 9
 9
 9
 9
 9
 9
 9
 9
 9
 9
 9
 9
 9
 9
 9
 9
 9
 9
 9
 9
 9
 9
 9
 9
 9
 9
 9
 9
 9
 9
 9
 9
 9
 9
 9
 9
 9
 9
 9
 9
 9
 9
 9
 9
 9
 9
 9
 9
 9
 9
 9
 9
 9
 9
 9
 9
 9
 9
 9
 9
 9
 9
 9
 9
 9
 9
 9
 9
 9
 9
 9
 9
 9
 9
 9
 9
 9
 9
 9
 9
 9
 9
 9
 9
 9
 9
 9
 9
 9
 9
 9
 9
 9
 9
 9
 9
 9
 9
 9
 9
 9
 9
 9
 9
 9
 9
 9
 9
 9
 9
 9
 9
 9
 9
 9
 9
 9
 9
 9
 9
 9
 9
 9
 9
 9
 9
 9
 9
 9
 9
 9
 9
 9
 9
 9
 9
 9
 9
 9
 9
 9
 9
 9
 9
 9
 9
 9
 9
 9
 9
 9
 9
 9
 9
 9
 9
 9
 9
 9
 9
 9
 9
 9
 9
 9
 9
 9
 9
 9
 9
 9
 9
 9
 9
 9
 9
 9
 9
 9
 9
 9
 9
 9
 9
 9
 9
 9
 9
 9
 9
 9
 9
 9
 9
 9
 9
 9
 9
 9
 9
 9
 9
 9
 9
 9
 9
 9
 9
 9
 9
 9
 9
 9
 9
 9
 9
 9
 9
 9
 9
 9
 9
 9
 9
 9
 9
 9
 9
 9
 9
 9
 9
 9
 9
 9
 9
 9
 9
 9
 9
 9
 9
 9
 9
 9
 9
 9
 9
 9
 9
 9
 9
 9
 9
 9
 9
 9
 9
 9
 9
 9
 9
 9
 9
 9
 9
 9
 9
 9
 9
 9
 9
 9
 9
 9
 9
 9
 9
 9
 9
 9
 9
 9
 9
 9
 9
 9
 9
 9
 9
 9
 9
 9
 9
 9
 9
 9
 9
 9
 9
 9
 9
 9
 9
 9
 9
 9
 9
 9
 9
 9
 9
 9
 9
 9
 9
 9
 9
 9
 9
 9
 9
 9
 9
 9
 9
 9
 9
 9
 9
 9
 9
 9
 9
 9
 9
 9
 9
 9
 9
 9
 9
 9
 9
 9
 9
 9
 9
 9
 9
 9
 9
 9
 9
 9
 9
 9
 9
 9
 9
 9
 9
 9
 9
 9
 9
 9
 9
 9
 9
 9
 9
 9
 9
 9
 9
 9
 9
 9
 9
 9
 9
 9
 9
 9
 9
 9
 9
 9
 9
 9
 9
 9
 9
 9
 9
 9
 9
 9
 9
 9
 9
 9
 </DataArray>
 </Cells> 
 <PointData>
 <DataArray  type="Float64" Name="disp" NumberOfComponents="3" format="ascii">
   0.0000000000000000        0.0000000000000000        0.0000000000000000     
   6.0959776582788739E-003   3.7906846017777139E-003   0.0000000000000000     
   1.1666034651904125E-002   7.3242504092616897E-003   0.0000000000000000     
   1.6710170980875749E-002   1.0600697422451925E-002   0.0000000000000000     
   2.1228386645193748E-002   1.3620025641348423E-002   0.0000000000000000     
   0.0000000000000000        0.0000000000000000        0.0000000000000000     
   4.8911438323906778E-003   3.0223307197714353E-003   0.0000000000000000     
   9.5736064509150641E-003   6.0608747127885556E-003   0.0000000000000000     
   1.4047387855573159E-002   9.1156319790513599E-003   0.0000000000000000     
   1.8312488046364969E-002   1.2186602518559851E-002   0.0000000000000000     
   0.0000000000000000        0.0000000000000000        0.0000000000000000     
   3.9535425468233583E-003   2.4252589267379069E-003   0.0000000000000000     
   7.9105581217408724E-003   5.0631903890649109E-003   0.0000000000000000     
   1.1871046724752544E-002   7.9137943869810132E-003   0.0000000000000000     
   1.5835008355858372E-002   1.0977070920486214E-002   0.0000000000000000     
   0.0000000000000000        0.0000000000000000        0.0000000000000000     
   3.2831738015769176E-003   1.9994692226771292E-003   0.0000000000000000     
   6.6768896643815490E-003   4.3311974380907574E-003   0.0000000000000000     
   1.0181147588413895E-002   6.9951846462408844E-003   0.0000000000000000     
   1.3795947573673957E-002   9.9914308471275078E-003   0.0000000000000000     
   0.0000000000000000        0.0000000000000000        0.0000000000000000     
   2.8800375966513553E-003   1.7449616075891020E-003   0.0000000000000000     
   5.8726010788370947E-003   3.8648958598660925E-003   0.0000000000000000     
   8.9776904465572183E-003   6.3598027568309724E-003   0.0000000000000000     
   1.2195305699811724E-002   9.2296822984837389E-003   0.0000000000000000     
   2.1228386645193748E-002   1.3620025641348423E-002   0.0000000000000000     
   2.5433460987403147E-002   1.6613049400256041E-002   0.0000000000000000     
   2.9538173350048963E-002   1.9810583033479632E-002   0.0000000000000000     
   3.3542523733131199E-002   2.3212626541019205E-002   0.0000000000000000     
   3.7446512136649859E-002   2.6819179922874747E-002   0.0000000000000000     
   1.8312488046364969E-002   1.2186602518559851E-002   0.0000000000000000     
   2.2407057346151719E-002   1.5342249380059871E-002   0.0000000000000000     
   2.6369246077794634E-002   1.8651035612297261E-002   0.0000000000000000     
   3.0199054241293728E-002   2.2112961215272030E-002   0.0000000000000000     
   3.3896481836648992E-002   2.5728026188984163E-002   0.0000000000000000     
   1.5835008355858372E-002   1.0977070920486214E-002   0.0000000000000000     
   1.9730625611810774E-002   1.4211884996216714E-002   0.0000000000000000     
   2.3486081089362159E-002   1.7577101620808725E-002   0.0000000000000000     
   2.7101374788512544E-002   2.1072720794262246E-002   0.0000000000000000     
   3.0576506709261916E-002   2.4698742516577273E-002   0.0000000000000000     
   1.3795947573673957E-002   9.9914308471275078E-003   0.0000000000000000     
   1.7404165784380310E-002   1.3221956248726576E-002   0.0000000000000000     
   2.0888678384751551E-002   1.6588781059014027E-002   0.0000000000000000     
   2.4249485374787657E-002   2.0091905277989860E-002   0.0000000000000000     
   2.7486586754488646E-002   2.3731328905654075E-002   0.0000000000000000     
   1.2195305699811724E-002   9.2296822984837389E-003   0.0000000000000000     
   1.5427677863860340E-002   1.2372463137589450E-002   0.0000000000000000     
   1.8577037963962786E-002   1.5686073926913159E-002   0.0000000000000000     
   2.1643386000119069E-002   1.9170514666454870E-002   0.0000000000000000     
   2.4626721972329180E-002   2.2825785356214573E-002   0.0000000000000000     
   3.7446512136649859E-002   2.6819179922874747E-002   0.0000000000000000     
   4.1254404938154868E-002   3.0625204431017256E-002   0.0000000000000000     
   4.4970468515196191E-002   3.4625661317417705E-002   0.0000000000000000     
   4.8594702867773801E-002   3.8820550582076098E-002   0.0000000000000000     
   5.2127107995887711E-002   4.3209872224992438E-002   0.0000000000000000     
   3.3896481836648992E-002   2.5728026188984163E-002   0.0000000000000000     
   3.7484726739233941E-002   2.9524903467465717E-002   0.0000000000000000     
   4.0986986824422110E-002   3.3532265984748719E-002   0.0000000000000000     
   4.4403262092213479E-002   3.7750113740833167E-002   0.0000000000000000     
   4.7733552542608082E-002   4.2178446735719063E-002   0.0000000000000000     
   3.0576506709261916E-002   2.4698742516577273E-002   0.0000000000000000     
   3.3941026058373285E-002   2.8499695079286538E-002   0.0000000000000000     
   3.7224482042609648E-002   3.2520106773922766E-002   0.0000000000000000     
   4.0426874661971007E-002   3.6759977600485959E-002   0.0000000000000000     
   4.3548203916457362E-002   4.1219307558976126E-002   0.0000000000000000     
   2.7486586754488646E-002   2.3731328905654075E-002   0.0000000000000000     
   3.0623302895572902E-002   2.7549579266479728E-002   0.0000000000000000     
   3.3682954169758805E-002   3.1589183684939862E-002   0.0000000000000000     
   3.6665540577046372E-002   3.5850142161034479E-002   0.0000000000000000     
   3.9571062117435572E-002   4.0332454694763591E-002   0.0000000000000000     
   2.4626721972329180E-002   2.2825785356214573E-002   0.0000000000000000     
   2.7531557250832801E-002   2.6674556029045282E-002   0.0000000000000000     
   3.0362403205869595E-002   3.0739496717800005E-002   0.0000000000000000     
   3.3119259837439560E-002   3.5020607422478728E-002   0.0000000000000000     
   3.5802127145542713E-002   3.9517888143081464E-002   0.0000000000000000     
   5.2127107995887711E-002   4.3209872224992438E-002   0.0000000000000000     
   5.5562574133791010E-002   4.7798196969639301E-002   0.0000000000000000     
   5.8895991515736754E-002   5.2590095539489262E-002   0.0000000000000000     
   6.2127360141724972E-002   5.7585567934542316E-002   0.0000000000000000     
   6.5256680011755649E-002   6.2784614154798468E-002   0.0000000000000000     
   4.7733552542608082E-002   4.2178446735719063E-002   0.0000000000000000     
   5.0972775061186068E-002   4.6810103326044711E-002   0.0000000000000000     
   5.4115846533527641E-002   5.1637921868448393E-002   0.0000000000000000     
   5.7162766959632794E-002   5.6661902362930103E-002   0.0000000000000000     
   6.0113536339501533E-002   6.1882044809489847E-002   0.0000000000000000     
   4.3548203916457362E-002   4.1219307558976126E-002   0.0000000000000000     
   4.6584164009419511E-002   4.5884592560791630E-002   0.0000000000000000     
   4.9530449144208240E-002   5.0742328517330897E-002   0.0000000000000000     
   5.2387059320823548E-002   5.5792515428593925E-002   0.0000000000000000     
   5.5153994539265450E-002   6.1035153294580688E-002   0.0000000000000000     
   3.9571062117435572E-002   4.0332454694763591E-002   0.0000000000000000     
   4.2396740978491332E-002   4.5021664673880066E-002   0.0000000000000000     
   4.5139799347778557E-002   4.9903315486136787E-002   0.0000000000000000     
   4.7800237225297242E-002   5.4977407131533755E-002   0.0000000000000000     
   5.0378054611047371E-002   6.0243939610070990E-002   0.0000000000000000     
   3.5802127145542713E-002   3.9517888143081464E-002   0.0000000000000000     
   3.8410505968401551E-002   4.4221319665309997E-002   0.0000000000000000     
   4.0943897144238600E-002   4.9120882774866044E-002   0.0000000000000000     
   4.3402300673053860E-002   5.4216577471749634E-002   0.0000000000000000     
   4.5785716554847325E-002   5.9508403755960781E-002   0.0000000000000000     
   6.5256680011755649E-002   6.2784614154798468E-002   0.0000000000000000     
   6.8292926634611076E-002   6.8175221906965247E-002   0.0000000000000000     
   7.1245075519073567E-002   7.3745378897750138E-002   0.0000000000000000     
   7.4113126665143109E-002   7.9495085127153156E-002   0.0000000000000000     
   7.6897080072819729E-002   8.5424340595174314E-002   0.0000000000000000     
   6.0113536339501533E-002   6.1882044809489847E-002   0.0000000000000000     
   6.2975531029353285E-002   6.7291887775887349E-002   0.0000000000000000     
   6.5756127385407467E-002   7.2884969829882351E-002   0.0000000000000000     
   6.8455325407664094E-002   7.8661290971474826E-002   0.0000000000000000     
   7.1073125096123166E-002   8.4620851200664801E-002   0.0000000000000000     
   5.5153994539265450E-002   6.1035153294580688E-002   0.0000000000000000     
   5.7837038711940181E-002   6.6466585464985489E-002   0.0000000000000000     
   6.0441975751254012E-002   7.2083155289502626E-002   0.0000000000000000     
   6.2968805657206972E-002   7.7884862768132099E-002   0.0000000000000000     
   6.5417528429799032E-002   8.3871707900873893E-002   0.0000000000000000     
   5.0378054611047371E-002   6.0243939610070990E-002   0.0000000000000000     
   5.2877449682371763E-002   6.5699314974259682E-002   0.0000000000000000     
   5.5302620616613223E-002   7.1339935276611005E-002   0.0000000000000000     
   5.7653567413771742E-002   7.7165800517124974E-002   0.0000000000000000     
   5.9930290073847314E-002   8.3176910695801617E-002   0.0000000000000000     
   4.5785716554847325E-002   5.9508403755960781E-002   0.0000000000000000     
   4.8096763940648046E-002   6.4990076303709912E-002   0.0000000000000000     
   5.0338061981485070E-002   7.0655309791207474E-002   0.0000000000000000     
   5.2509610677358383E-002   7.6504104218453481E-002   0.0000000000000000     
   5.4611410028268019E-002   8.2536459585447919E-002   0.0000000000000000     
   7.6897080072819729E-002   8.5424340595174314E-002   0.0000000000000000     
   7.9584081136628182E-002   9.1521899928023231E-002   0.0000000000000000     
   8.2161275251093319E-002   9.7776517751909583E-002   0.0000000000000000     
   8.4628662416215097E-002  0.10418819406683334        0.0000000000000000     
   8.6986242631993560E-002  0.11075692887279454        0.0000000000000000     
   7.1073125096123166E-002   8.4620851200664801E-002   0.0000000000000000     
   7.3598643657893439E-002   9.0749722293720622E-002   0.0000000000000000     
   7.6020998300083686E-002   9.7033976026910607E-002   0.0000000000000000     
   7.8340189022693879E-002  0.10347361240023478        0.0000000000000000     
   8.0556215825724059E-002  0.11006863141369315        0.0000000000000000     
   6.5417528429799032E-002   8.3871707900873893E-002   0.0000000000000000     
   6.7779009541272667E-002   9.0028437680642406E-002   0.0000000000000000     
   7.0044114463870322E-002   9.6339799100352036E-002   0.0000000000000000     
   7.2212843197592039E-002  0.10280579216000277        0.0000000000000000     
   7.4285195742437776E-002  0.10942641685959459        0.0000000000000000     
   5.9930290073847314E-002   8.3176910695801617E-002   0.0000000000000000     
   6.2125178786765850E-002   8.9358046088788640E-002   0.0000000000000000     
   6.4230623742453266E-002   9.5693986972233844E-002   0.0000000000000000     
   6.6246624940909549E-002  0.10218473334613723        0.0000000000000000     
   6.8173182382134712E-002  0.10883028521049881        0.0000000000000000     
   5.4611410028268019E-002   8.2536459585447919E-002   0.0000000000000000     
   5.6637151394373017E-002   8.8738547518159280E-002   0.0000000000000000     
   5.8580526135832506E-002   9.5096539642556058E-002   0.0000000000000000     
   6.0441534252646457E-002  0.10161043595863825        0.0000000000000000     
   6.2220175744814879E-002  0.10828023646640585        0.0000000000000000     
   8.6986242631993560E-002  0.11075692887279454        0.0000000000000000     
   8.9247748107206634E-002  0.11747285136603448        0.0000000000000000     
   9.1426911050632276E-002  0.12432609074279459        0.0000000000000000     
   9.3523731462270498E-002  0.13131664700307480        0.0000000000000000     
   9.5538209342121275E-002  0.13844452014687519        0.0000000000000000     
   8.0556215825724059E-002  0.11006863141369315        0.0000000000000000     
   8.2685156993063169E-002  0.11680948712722895        0.0000000000000000     
   8.4743090808600208E-002  0.12368663360078548        0.0000000000000000     
   8.6730017272335175E-002  0.13070007083436275        0.0000000000000000     
   8.8645936384268056E-002  0.13784979882796072        0.0000000000000000     
   7.4285195742437776E-002  0.10942641685959459        0.0000000000000000     
   7.6278128126306022E-002  0.11619204487028824        0.0000000000000000     
   7.8208596377095263E-002  0.12309304786324449        0.0000000000000000     
   8.0076600494805514E-002  0.13012942583846332        0.0000000000000000     
   8.1882140479436732E-002  0.13730117879594472        0.0000000000000000     
   6.8173182382134712E-002  0.10883028521049881        0.0000000000000000     
   7.0026661506935192E-002  0.11562052459521233        0.0000000000000000     
   7.1823427756117469E-002  0.12254533353017157        0.0000000000000000     
   7.3563481129681529E-002  0.12960471201537652        0.0000000000000000     
   7.5246821627627358E-002  0.13679866005082722        0.0000000000000000     
   6.2220175744814879E-002  0.10828023646640585        0.0000000000000000     
   6.3930757134950680E-002  0.11509492630200122        0.0000000000000000     
   6.5587584945666785E-002  0.12204349060156672        0.0000000000000000     
   6.7190659176963194E-002  0.12912592936510234        0.0000000000000000     
   6.8739979828839920E-002  0.13634224259260813        0.0000000000000000     
   9.5538209342121275E-002  0.13844452014687519        0.0000000000000000     
   9.7419921698461615E-002  0.14568348720183869        0.0000000000000000     
   9.9118445539568500E-002  0.15300732519560831        0.0000000000000000     
  0.10063378086544193       0.16041603412818412        0.0000000000000000     
  0.10196592767608190       0.16790961399956603        0.0000000000000000     
   8.8645936384268056E-002  0.13784979882796072        0.0000000000000000     
   9.0453887187354365E-002  0.14511656397457592        0.0000000000000000     
   9.2116908724549654E-002  0.15248111266720493        0.0000000000000000     
   9.3635000995853881E-002  0.15994344490584769        0.0000000000000000     
   9.5008164001267104E-002  0.16750356069050426        0.0000000000000000     
   8.1882140479436732E-002  0.13730117879594472        0.0000000000000000     
   8.3597475060833745E-002  0.14459396542083897        0.0000000000000000     
   8.5194862968841309E-002  0.15199344439829629        0.0000000000000000     
   8.6674304203459465E-002  0.15949961572831670        0.0000000000000000     
   8.8035798764688172E-002  0.16711247941090021        0.0000000000000000     
   7.5246821627627358E-002  0.13679866005082722        0.0000000000000000     
   7.6850685318899770E-002  0.14411569154062775        0.0000000000000000     
   7.8352308272443535E-002  0.15154432038888235        0.0000000000000000     
   7.9751690488258628E-002  0.15908454659559110        0.0000000000000000     
   8.1048831966345089E-002  0.16673637016075393        0.0000000000000000     
   6.8739979828839920E-002  0.13634224259260813        0.0000000000000000     
   7.0213517961552438E-002  0.14368174233394232        0.0000000000000000     
   7.1589244635356264E-002  0.15113374063896326        0.0000000000000000     
   7.2867159850251426E-002  0.15869823750767095        0.0000000000000000     
   7.4047263606237895E-002  0.16637523294006540        0.0000000000000000     
   0.0000000000000000        0.0000000000000000        0.0000000000000000     
   2.8800375966513553E-003   1.7449616075891020E-003   0.0000000000000000     
   5.8726010788370947E-003   3.8648958598660925E-003   0.0000000000000000     
   8.9776904465572183E-003   6.3598027568309724E-003   0.0000000000000000     
   1.2195305699811724E-002   9.2296822984837389E-003   0.0000000000000000     
   0.0000000000000000        0.0000000000000000        0.0000000000000000     
   2.6102925758435627E-003   1.5890551443934046E-003   0.0000000000000000     
   5.2897043540142737E-003   3.5569482955850715E-003   0.0000000000000000     
   8.0382353345121310E-003   5.9036794535750007E-003   0.0000000000000000     
   1.0855885517337138E-002   8.6292486183631931E-003   0.0000000000000000     
   0.0000000000000000        0.0000000000000000        0.0000000000000000     
   2.3400973829504307E-003   1.4590688960096165E-003   0.0000000000000000     
   4.7202114788198512E-003   3.3000173864418483E-003   0.0000000000000000     
   7.1403422876082602E-003   5.5228454712966954E-003   0.0000000000000000     
   9.6004898093156599E-003   8.1275531505741599E-003   0.0000000000000000     
   0.0000000000000000        0.0000000000000000        0.0000000000000000     
   2.0694520179719597E-003   1.3550028624377377E-003   0.0000000000000000     
   4.1641224532538287E-003   3.0941031324364238E-003   0.0000000000000000     
   6.2840113058456057E-003   5.2173008099960574E-003   0.0000000000000000     
   8.4291185757472912E-003   7.7245958951166387E-003   0.0000000000000000     
   0.0000000000000000        0.0000000000000000        0.0000000000000000     
   1.7983564809081500E-003   1.2768570436777686E-003   0.0000000000000000     
   3.6214372773162055E-003   2.9392055335687966E-003   0.0000000000000000     
   5.4692423892241659E-003   4.9870454696730841E-003   0.0000000000000000     
   7.3417718166320315E-003   7.4203768519906302E-003   0.0000000000000000     
   1.2195305699811724E-002   9.2296822984837389E-003   0.0000000000000000     
   1.5427677863860340E-002   1.2372463137589450E-002   0.0000000000000000     
   1.8577037963962786E-002   1.5686073926913159E-002   0.0000000000000000     
   2.1643386000119069E-002   1.9170514666454870E-002   0.0000000000000000     
   2.4626721972329180E-002   2.2825785356214573E-002   0.0000000000000000     
   1.0855885517337138E-002   8.6292486183631931E-003   0.0000000000000000     
   1.3689281027165622E-002   1.1651398763190740E-002   0.0000000000000000     
   1.6485047988673920E-002   1.4887872861298732E-002   0.0000000000000000     
   1.9243186401862029E-002   1.8338670912687170E-002   0.0000000000000000     
   2.1963696266729948E-002   2.2003792917356046E-002   0.0000000000000000     
   9.6004898093156599E-003   8.1275531505741599E-003   0.0000000000000000     
   1.2077094451210937E-002   1.1046756225915838E-002   0.0000000000000000     
   1.4546596620562985E-002   1.4213070498963337E-002   0.0000000000000000     
   1.7008996317371797E-002   1.7626495969716650E-002   0.0000000000000000     
   1.9464293541637374E-002   2.1287032638175784E-002   0.0000000000000000     
   8.4291185757472912E-003   7.7245958951166387E-003   0.0000000000000000     
   1.0591118135996282E-002   1.0558535525764752E-002   0.0000000000000000     
   1.2761683859629978E-002   1.3661666839906978E-002   0.0000000000000000     
   1.4940815746648373E-002   1.7033989837543319E-002   0.0000000000000000     
   1.7128513797051471E-002   2.0675504518673782E-002   0.0000000000000000     
   7.3417718166320315E-003   7.4203768519906302E-003   0.0000000000000000     
   9.2313520815216574E-003   1.0186736662737476E-002   0.0000000000000000     
   1.1130309705874900E-002   1.3233661884129659E-002   0.0000000000000000     
   1.3038644689691757E-002   1.6561152516167181E-002   0.0000000000000000     
   1.4956357032972229E-002   2.0169208558850033E-002   0.0000000000000000     
   2.4626721972329180E-002   2.2825785356214573E-002   0.0000000000000000     
   2.7531557250832801E-002   2.6674556029045282E-002   0.0000000000000000     
   3.0362403205869595E-002   3.0739496717800005E-002   0.0000000000000000     
   3.3119259837439560E-002   3.5020607422478728E-002   0.0000000000000000     
   3.5802127145542713E-002   3.9517888143081464E-002   0.0000000000000000     
   2.1963696266729948E-002   2.2003792917356046E-002   0.0000000000000000     
   2.4630408373131608E-002   2.5881115707405023E-002   0.0000000000000000     
   2.7227153510920948E-002   2.9968516114933730E-002   0.0000000000000000     
   2.9753931680097972E-002   3.4265994139942170E-002   0.0000000000000000     
   3.2210742880662668E-002   3.8773549782430361E-002   0.0000000000000000     
   1.9464293541637374E-002   2.1287032638175784E-002   0.0000000000000000     
   2.1884475511447971E-002   2.5175748641980758E-002   0.0000000000000000     
   2.4241529444891833E-002   2.9273712118771583E-002   0.0000000000000000     
   2.6535455341968953E-002   3.3580923068548277E-002   0.0000000000000000     
   2.8766253202679341E-002   3.8097381491310825E-002   0.0000000000000000     
   1.7128513797051471E-002   2.0675504518673782E-002   0.0000000000000000     
   1.9293758665781886E-002   2.4558454832772487E-002   0.0000000000000000     
   2.1405531007782235E-002   2.8655084729313569E-002   0.0000000000000000     
   2.3463830823052513E-002   3.2965394208297027E-002   0.0000000000000000     
   2.5468658111592726E-002   3.7489383269722856E-002   0.0000000000000000     
   1.4956357032972229E-002   2.0169208558850033E-002   0.0000000000000000     
   1.6858257836133355E-002   2.4029234279780202E-002   0.0000000000000000     
   1.8719158199592162E-002   2.8112633946559672E-002   0.0000000000000000     
   2.0539058123348657E-002   3.2419407559188429E-002   0.0000000000000000     
   2.2317957607402829E-002   3.6949555117666483E-002   0.0000000000000000     
   3.5802127145542713E-002   3.9517888143081464E-002   0.0000000000000000     
   3.8410505968401551E-002   4.4221319665309997E-002   0.0000000000000000     
   4.0943897144238600E-002   4.9120882774866044E-002   0.0000000000000000     
   4.3402300673053860E-002   5.4216577471749634E-002   0.0000000000000000     
   4.5785716554847325E-002   5.9508403755960781E-002   0.0000000000000000     
   3.2210742880662668E-002   3.8773549782430361E-002   0.0000000000000000     
   3.4598882224136776E-002   4.3486600521918009E-002   0.0000000000000000     
   3.6919644822042026E-002   4.8400563837924848E-002   0.0000000000000000     
   3.9173030674378419E-002   5.3515439730450906E-002   0.0000000000000000     
   4.1359039781145947E-002   5.8831228199496148E-002   0.0000000000000000     
   2.8766253202679341E-002   3.8097381491310825E-002   0.0000000000000000     
   3.0935292990683639E-002   4.2820550230540697E-002   0.0000000000000000     
   3.3043944669642500E-002   4.7747892129719388E-002   0.0000000000000000     
   3.5092208239555923E-002   5.2879407188846879E-002   0.0000000000000000     
   3.7080083700423913E-002   5.8215095407923190E-002   0.0000000000000000     
   2.5468658111592726E-002   3.7489383269722856E-002   0.0000000000000000     
   2.7419738268042133E-002   4.2223168791178073E-002   0.0000000000000000     
   2.9316796687040014E-002   4.7162867650249643E-002   0.0000000000000000     
   3.1159833368586364E-002   5.2308479846937608E-002   0.0000000000000000     
   3.2948848312681182E-002   5.7660005381241920E-002   0.0000000000000000     
   2.2317957607402829E-002   3.6949555117666483E-002   0.0000000000000000     
   2.4052218056212278E-002   4.1694456203830124E-002   0.0000000000000000     
   2.5738200874234587E-002   4.6645490399515648E-002   0.0000000000000000     
   2.7375906061469755E-002   5.1802657704723053E-002   0.0000000000000000     
   2.8965333617917789E-002   5.7165958119452333E-002   0.0000000000000000     
   4.5785716554847325E-002   5.9508403755960781E-002   0.0000000000000000     
   4.8096763940648046E-002   6.4990076303709912E-002   0.0000000000000000     
   5.0338061981485070E-002   7.0655309791207474E-002   0.0000000000000000     
   5.2509610677358383E-002   7.6504104218453481E-002   0.0000000000000000     
   5.4611410028268019E-002   8.2536459585447919E-002   0.0000000000000000     
   4.1359039781145947E-002   5.8831228199496148E-002   0.0000000000000000     
   4.3479004732108292E-002   6.4338239517599663E-002   0.0000000000000000     
   4.5534258117029089E-002   7.0026783957300526E-002   0.0000000000000000     
   4.7524799935908350E-002   7.5896861518598743E-002   0.0000000000000000     
   4.9450630188746084E-002   8.1948472201494302E-002   0.0000000000000000     
   3.7080083700423913E-002   5.8215095407923190E-002   0.0000000000000000     
   3.9008195302091764E-002   6.3743174680192402E-002   0.0000000000000000     
   4.0877167294404812E-002   6.9451862898898667E-002   0.0000000000000000     
   4.2686999677363037E-002   7.5341160064041915E-002   0.0000000000000000     
   4.4437692450966446E-002   8.1411066175622229E-002   0.0000000000000000     
   3.2948848312681182E-002   5.7660005381241920E-002   0.0000000000000000     
   3.4684335650598468E-002   6.3204881791488157E-002   0.0000000000000000     
   3.6366789513612219E-002   6.8930546616001870E-002   0.0000000000000000     
   3.7996209901722429E-002   7.4836999854783037E-002   0.0000000000000000     
   3.9572596814929119E-002   8.0924241507831687E-002   0.0000000000000000     
   2.8965333617917789E-002   5.7165958119452333E-002   0.0000000000000000     
   3.0507425777628407E-002   6.2723360851486901E-002   0.0000000000000000     
   3.2003124774651330E-002   6.8462835108610148E-002   0.0000000000000000     
   3.3452430608986561E-002   7.4384380890822083E-002   0.0000000000000000     
   3.4855343280634096E-002   8.0487998198122662E-002   0.0000000000000000     
   5.4611410028268019E-002   8.2536459585447919E-002   0.0000000000000000     
   5.6637151394373017E-002   8.8738547518159280E-002   0.0000000000000000     
   5.8580526135832506E-002   9.5096539642556058E-002   0.0000000000000000     
   6.0441534252646457E-002  0.10161043595863825        0.0000000000000000     
   6.2220175744814879E-002  0.10828023646640585        0.0000000000000000     
   4.9450630188746084E-002   8.1948472201494302E-002   0.0000000000000000     
   5.1306416606330972E-002   8.8169448795504007E-002   0.0000000000000000     
   5.3086826919451754E-002   9.4547624090144694E-002   0.0000000000000000     
   5.4791861128108424E-002  0.10108299808541628        0.0000000000000000     
   5.6421519232300973E-002  0.10777557078131884        0.0000000000000000     
   4.4437692450966446E-002   8.1411066175622229E-002   0.0000000000000000     
   4.6124463664876526E-002   8.7650256747572514E-002   0.0000000000000000     
   4.7742531368754761E-002   9.4047407293825727E-002   0.0000000000000000     
   4.9291895562601169E-002  0.10060251781438188        0.0000000000000000     
   5.0772556246415718E-002  0.10731558830924098        0.0000000000000000     
   3.9572596814929119E-002   8.0924241507831687E-002   0.0000000000000000     
   4.1091292570009680E-002   8.7180971374364744E-002   0.0000000000000000     
   4.2547639483741524E-002   9.3595889253599185E-002   0.0000000000000000     
   4.3941637556124673E-002  0.10016899514553500        0.0000000000000000     
   4.5273286787159112E-002  0.10690028905017222        0.0000000000000000     
   3.4855343280634096E-002   8.0487998198122662E-002   0.0000000000000000     
   3.6206903321730426E-002   8.6761592675880739E-002   0.0000000000000000     
   3.7502151264412045E-002   9.3193069969465109E-002   0.0000000000000000     
   3.8741087108678948E-002   9.9782430078875703E-002   0.0000000000000000     
   3.9923710854531141E-002  0.10652967300411259        0.0000000000000000     
   6.2220175744814879E-002  0.10828023646640585        0.0000000000000000     
   6.3930757134950680E-002  0.11509492630200122        0.0000000000000000     
   6.5587584945666785E-002  0.12204349060156672        0.0000000000000000     
   6.7190659176963194E-002  0.12912592936510234        0.0000000000000000     
   6.8739979828839920E-002  0.13634224259260813        0.0000000000000000     
   5.6421519232300973E-002  0.10777557078131884        0.0000000000000000     
   5.7987636753375732E-002  0.11461346906956542        0.0000000000000000     
   5.9502049212679008E-002  0.12158481984186903        0.0000000000000000     
   6.0964756610210800E-002  0.12868962309822973        0.0000000000000000     
   6.2375758945971117E-002  0.13592787883864751        0.0000000000000000     
   5.0772556246415718E-002  0.10731558830924098        0.0000000000000000     
   5.2194522105233572E-002  0.11417437197681540        0.0000000000000000     
   5.3567801824089843E-002  0.12116662201551763        0.0000000000000000     
   5.4892395402984552E-002  0.12829233842534762        0.0000000000000000     
   5.6168302841917678E-002  0.13555152120630537        0.0000000000000000     
   4.5273286787159112E-002  0.10690028905017222        0.0000000000000000     
   4.6551413190524200E-002  0.11377763502375123        0.0000000000000000     
   4.7784842779899313E-002  0.12078889712251249        0.0000000000000000     
   4.8973575555284449E-002  0.12793407534645598        0.0000000000000000     
   5.0117611516679615E-002  0.13521316969558167        0.0000000000000000     
   3.9923710854531141E-002  0.10652967300411259        0.0000000000000000     
   4.1058310009247624E-002  0.11342325821037286        0.0000000000000000     
   4.2153172080107416E-002  0.12045164516285357        0.0000000000000000     
   4.3208297067110511E-002  0.12761483386155476        0.0000000000000000     
   4.4223684970256902E-002  0.13491282430647644        0.0000000000000000     
   6.8739979828839920E-002  0.13634224259260813        0.0000000000000000     
   7.0213517961552438E-002  0.14368174233394232        0.0000000000000000     
   7.1589244635356264E-002  0.15113374063896326        0.0000000000000000     
   7.2867159850251426E-002  0.15869823750767095        0.0000000000000000     
   7.4047263606237895E-002  0.16637523294006540        0.0000000000000000     
   6.2375758945971117E-002  0.13592787883864751        0.0000000000000000     
   6.3712095993954776E-002  0.14328861190092057        0.0000000000000000     
   6.4950807528156643E-002  0.15076084712284707        0.0000000000000000     
   6.6091893548576711E-002  0.15834458450442704        0.0000000000000000     
   6.7135354055214966E-002  0.16603982404566051        0.0000000000000000     
   5.6168302841917678E-002  0.13555152120630537        0.0000000000000000     
   5.7372542421269879E-002  0.14293279434170036        0.0000000000000000     
   5.8482132421421779E-002  0.15042478181484198        0.0000000000000000     
   5.9497072842373364E-002  0.15802748362573024        0.0000000000000000     
   6.0417363684124668E-002  0.16574089977436521        0.0000000000000000     
   5.0117611516679615E-002  0.13521316969558167        0.0000000000000000     
   5.1194857243497698E-002  0.14261428965628165        0.0000000000000000     
   5.2183219315151623E-002  0.15012554471494793        0.0000000000000000     
   5.3082697731641391E-002  0.15774693487158059        0.0000000000000000     
   5.3893292492967010E-002  0.16547846012617951        0.0000000000000000     
   4.4223684970256902E-002  0.13491282430647644        0.0000000000000000     
   4.5179040460638260E-002  0.14233309784466458        0.0000000000000000     
   4.6054068209346224E-002  0.14986313582316507        0.0000000000000000     
   4.6848768216380801E-002  0.15750293824197806        0.0000000000000000     
   4.7563140481741983E-002  0.16525250510110340        0.0000000000000000     
   0.0000000000000000        0.0000000000000000        0.0000000000000000     
   1.7983564809081500E-003   1.2768570436777686E-003   0.0000000000000000     
   3.6214372773162055E-003   2.9392055335687966E-003   0.0000000000000000     
   5.4692423892241659E-003   4.9870454696730841E-003   0.0000000000000000     
   7.3417718166320315E-003   7.4203768519906302E-003   0.0000000000000000     
   0.0000000000000000        0.0000000000000000        0.0000000000000000     
   1.5350752495705338E-003   1.2175299138891351E-003   0.0000000000000000     
   3.0994986609730523E-003   2.8208309184001999E-003   0.0000000000000000     
   4.6932702342075555E-003   4.8099030135331945E-003   0.0000000000000000     
   6.3163899692740434E-003   7.1847461992881178E-003   0.0000000000000000     
   0.0000000000000000        0.0000000000000000        0.0000000000000000     
   1.2878728017706440E-003   1.1699199472312636E-003   0.0000000000000000     
   2.6056493141904400E-003   2.7244856154918654E-003   0.0000000000000000     
   3.9533295372593874E-003   4.6636970047818048E-003   0.0000000000000000     
   5.3309134709774875E-003   6.9875541151010814E-003   0.0000000000000000     
   0.0000000000000000        0.0000000000000000        0.0000000000000000     
   1.0567491375084804E-003   1.1340271437041548E-003   0.0000000000000000     
   2.1398892369683680E-003   2.6501696248437939E-003   0.0000000000000000     
   3.2494202983796637E-003   4.5484274434189178E-003   0.0000000000000000     
   4.3853423217423667E-003   6.8288005994295237E-003   0.0000000000000000     
   0.0000000000000000        0.0000000000000000        0.0000000000000000     
   8.4170425678404279E-004   1.1098515033078076E-003   0.0000000000000000     
   1.7022184293068367E-003   2.5978829464559840E-003   0.0000000000000000     
   2.5815425175683814E-003   4.4640943294445290E-003   0.0000000000000000     
   3.4796765215686781E-003   6.7084856522734429E-003   0.0000000000000000     
   7.3417718166320315E-003   7.4203768519906302E-003   0.0000000000000000     
   9.2313520815216574E-003   1.0186736662737476E-002   0.0000000000000000     
   1.1130309705874900E-002   1.3233661884129659E-002   0.0000000000000000     
   1.3038644689691757E-002   1.6561152516167181E-002   0.0000000000000000     
   1.4956357032972229E-002   2.0169208558850033E-002   0.0000000000000000     
   6.3163899692740434E-003   7.1847461992881178E-003   0.0000000000000000     
   7.9561688127639148E-003   9.8957278413708428E-003   0.0000000000000000     
   9.5999177112685678E-003   1.2893215305487246E-002   0.0000000000000000     
   1.1247636664788006E-002   1.6177208591637317E-002   0.0000000000000000     
   1.2899325673322228E-002   1.9747707699821072E-002   0.0000000000000000     
   5.3309134709774875E-003   6.9875541151010814E-003   0.0000000000000000     
   6.7239408546999032E-003   9.6498772662016868E-003   0.0000000000000000     
   8.1179514277817996E-003   1.2604486777835612E-002   0.0000000000000000     
   9.5129451902231741E-003   1.5851382650002854E-002   0.0000000000000000     
   1.0908922142024028E-002   1.9390564882703420E-002   0.0000000000000000     
   4.3853423217423667E-003   6.8288005994295237E-003   0.0000000000000000     
   5.5346682073296252E-003   9.4491849372300065E-003   0.0000000000000000     
   6.6844108554145899E-003   1.2367476301174759E-002   0.0000000000000000     
   7.8345702659972597E-003   1.5583674691263779E-002   0.0000000000000000     
   8.9851464390776348E-003   1.9097780107497072E-002   0.0000000000000000     
   3.4796765215686781E-003   6.7084856522734429E-003   0.0000000000000000     
   4.3883508706530801E-003   9.2936508544558018E-003   0.0000000000000000     
   5.2992959941669414E-003   1.2182183875504687E-002   0.0000000000000000     
   6.2125118921102646E-003   1.5374084715420096E-002   0.0000000000000000     
   7.1279985644830480E-003   1.8869353374202029E-002   0.0000000000000000     
   1.4956357032972229E-002   2.0169208558850033E-002   0.0000000000000000     
   1.6858257836133355E-002   2.4029234279780202E-002   0.0000000000000000     
   1.8719158199592162E-002   2.8112633946559672E-002   0.0000000000000000     
   2.0539058123348657E-002   3.2419407559188429E-002   0.0000000000000000     
   2.2317957607402829E-002   3.6949555117666483E-002   0.0000000000000000     
   1.2899325673322228E-002   1.9747707699821072E-002   0.0000000000000000     
   1.4538647360665067E-002   2.3578660713841362E-002   0.0000000000000000     
   1.6149264350610367E-002   2.7644015717501060E-002   0.0000000000000000     
   1.7731176643158129E-002   3.1943772710800150E-002   0.0000000000000000     
   1.9284384238308347E-002   3.6477931693738648E-002   0.0000000000000000     
   1.0908922142024028E-002   1.9390564882703420E-002   0.0000000000000000     
   1.2295601577539721E-002   2.3197307865793396E-002   0.0000000000000000     
   1.3662702791125608E-002   2.7246885989128868E-002   0.0000000000000000     
   1.5010225782781697E-002   3.1539299252709839E-002   0.0000000000000000     
   1.6338170552507983E-002   3.6074547656536310E-002   0.0000000000000000     
   8.9851464390776348E-003   1.9097780107497072E-002   0.0000000000000000     
   1.0129120486757313E-002   2.2885175735636285E-002   0.0000000000000000     
   1.1259473521137885E-002   2.6921244761443096E-002   0.0000000000000000     
   1.2376205542219361E-002   3.1205987184917489E-002   0.0000000000000000     
   1.3479316550001733E-002   3.5739403006059475E-002   0.0000000000000000     
   7.1279985644830480E-003   1.8869353374202029E-002   0.0000000000000000     
   8.0392040883178421E-003   2.2642264323370055E-002   0.0000000000000000     
   8.9395765406472000E-003   2.6667092034443753E-002   0.0000000000000000     
   9.8291159214711210E-003   3.0943836507423116E-002   0.0000000000000000     
   1.0707822230789603E-002   3.5472497742308151E-002   0.0000000000000000     
   2.2317957607402829E-002   3.6949555117666483E-002   0.0000000000000000     
   2.4052218056212278E-002   4.1694456203830124E-002   0.0000000000000000     
   2.5738200874234587E-002   4.6645490399515648E-002   0.0000000000000000     
   2.7375906061469755E-002   5.1802657704723053E-002   0.0000000000000000     
   2.8965333617917789E-002   5.7165958119452333E-002   0.0000000000000000     
   1.9284384238308347E-002   3.6477931693738648E-002   0.0000000000000000     
   2.0801937525362357E-002   4.1232303414840403E-002   0.0000000000000000     
   2.2276886893621495E-002   4.6192698622629286E-002   0.0000000000000000     
   2.3709232343085765E-002   5.1359117317105296E-002   0.0000000000000000     
   2.5098973873755162E-002   5.6731559498268427E-002   0.0000000000000000     
   1.6338170552507983E-002   3.6074547656536310E-002   0.0000000000000000     
   1.7638101845660691E-002   4.0834601370552462E-002   0.0000000000000000     
   1.8901584407596053E-002   4.5801430564702504E-002   0.0000000000000000     
   2.0128618238314074E-002   5.0975035238986416E-002   0.0000000000000000     
   2.1319203337814754E-002   5.6355415393404197E-002   0.0000000000000000     
   1.3479316550001733E-002   3.5739403006059475E-002   0.0000000000000000     
   1.4560711017107278E-002   4.0501350070966322E-002   0.0000000000000000     
   1.5612293416158262E-002   4.5471686225735296E-002   0.0000000000000000     
   1.6634063747154690E-002   5.0650411470366405E-002   0.0000000000000000     
   1.7626022010096568E-002   5.6037525804859635E-002   0.0000000000000000     
   1.0707822230789603E-002   3.5472497742308151E-002   0.0000000000000000     
   1.1569765039702112E-002   4.0232549516081961E-002   0.0000000000000000     
   1.2409013919308116E-002   4.5203465605727668E-002   0.0000000000000000     
   1.3225568869607606E-002   5.0385246011245263E-002   0.0000000000000000     
   1.4019429890600590E-002   5.5777890732634741E-002   0.0000000000000000     
   2.8965333617917789E-002   5.7165958119452333E-002   0.0000000000000000     
   3.0507425777628407E-002   6.2723360851486901E-002   0.0000000000000000     
   3.2003124774651330E-002   6.8462835108610148E-002   0.0000000000000000     
   3.3452430608986561E-002   7.4384380890822083E-002   0.0000000000000000     
   3.4855343280634096E-002   8.0487998198122662E-002   0.0000000000000000     
   2.5098973873755162E-002   5.6731559498268427E-002   0.0000000000000000     
   2.6447548896794945E-002   6.2298854871300220E-002   0.0000000000000000     
   2.7756394823370376E-002   6.8049833141382216E-002   0.0000000000000000     
   2.9025511653481457E-002   7.3984494308514420E-002   0.0000000000000000     
   3.0254899387128185E-002   8.0102838372696814E-002   0.0000000000000000     
   2.1319203337814754E-002   5.6355415393404197E-002   0.0000000000000000     
   2.2474788221711471E-002   6.1931606862039697E-002   0.0000000000000000     
   2.3596821405617620E-002   6.7692645478976798E-002   0.0000000000000000     
   2.4685302889533193E-002   7.3638531244215488E-002   0.0000000000000000     
   2.5740232673458194E-002   7.9769264157755759E-002   0.0000000000000000     
   1.7626022010096568E-002   5.6037525804859635E-002   0.0000000000000000     
   1.8589143752377978E-002   6.1621616823705344E-002   0.0000000000000000     
   1.9524404521393042E-002   6.7391272121393883E-002   0.0000000000000000     
   2.0431804317141762E-002   7.3346491697925245E-002   0.0000000000000000     
   2.1311343139624128E-002   7.9487275553299472E-002   0.0000000000000000     
   1.4019429890600590E-002   5.5777890732634741E-002   0.0000000000000000     
   1.4790615488794474E-002   6.1368884756297142E-002   0.0000000000000000     
   1.5539144170696666E-002   6.7145713068633484E-002   0.0000000000000000     
   1.6265015936307168E-002   7.3108375669643760E-002   0.0000000000000000     
   1.6968230785625982E-002   7.9256872559327979E-002   0.0000000000000000     
   3.4855343280634096E-002   8.0487998198122662E-002   0.0000000000000000     
   3.6206903321730426E-002   8.6761592675880739E-002   0.0000000000000000     
   3.7502151264412045E-002   9.3193069969465109E-002   0.0000000000000000     
   3.8741087108678948E-002   9.9782430078875703E-002   0.0000000000000000     
   3.9923710854531141E-002  0.10652967300411259        0.0000000000000000     
   3.0254899387128185E-002   8.0102838372696814E-002   0.0000000000000000     
   3.1439321887569399E-002   8.6391759248704694E-002   0.0000000000000000     
   3.2573543018063950E-002   9.2838150851313334E-002   0.0000000000000000     
   3.3657562778611844E-002   9.9442013180522704E-002   0.0000000000000000     
   3.4691381169213067E-002  0.10620334623633285        0.0000000000000000     
   2.5740232673458194E-002   7.9769264157755759E-002   0.0000000000000000     
   2.6756574235057229E-002   8.6071109689420777E-002   0.0000000000000000     
   2.7729291051994898E-002   9.2530333309033805E-002   0.0000000000000000     
   2.8658383124271197E-002   9.9146935016594773E-002   0.0000000000000000     
   2.9543850451886136E-002  0.10592091481210369        0.0000000000000000     
   2.1311343139624128E-002   7.9487275553299472E-002   0.0000000000000000     
   2.2158660364193908E-002   8.5799643998029043E-002   0.0000000000000000     
   2.2969395366204872E-002   9.2269617342626509E-002   0.0000000000000000     
   2.3743548145657021E-002   9.8897195587091896E-002   0.0000000000000000     
   2.4481118702550347E-002  0.10568237873142519        0.0000000000000000     
   1.6968230785625982E-002   7.9256872559327979E-002   0.0000000000000000     
   1.7645580274979443E-002   8.5577362174529437E-002   0.0000000000000000     
   1.8293855960693883E-002   9.2056002952091487E-002   0.0000000000000000     
   1.8913057842769303E-002   9.8692794892014102E-002   0.0000000000000000     
   1.9503185921205708E-002  0.10548773799429730        0.0000000000000000     
   3.9923710854531141E-002  0.10652967300411259        0.0000000000000000     
   4.1058310009247624E-002  0.11342325821037286        0.0000000000000000     
   4.2153172080107416E-002  0.12045164516285357        0.0000000000000000     
   4.3208297067110511E-002  0.12761483386155476        0.0000000000000000     
   4.4223684970256902E-002  0.13491282430647644        0.0000000000000000     
   3.4691381169213067E-002  0.10620334623633285        0.0000000000000000     
   3.5682888144503051E-002  0.11311128234654208        0.0000000000000000     
   3.6639973659117232E-002  0.12015495383894879        0.0000000000000000     
   3.7562637713055604E-002  0.12733436071355297        0.0000000000000000     
   3.8450880306318179E-002  0.13464950297035466        0.0000000000000000     
   2.9543850451886136E-002  0.10592091481210369        0.0000000000000000     
   3.0392823179389697E-002  0.11284174824212075        0.0000000000000000     
   3.1212431451331863E-002  0.11989891085320602        0.0000000000000000     
   3.2002675267712659E-002  0.12709240264535954        0.0000000000000000     
   3.2763554628532046E-002  0.13442222361858136        0.0000000000000000     
   2.4481118702550347E-002  0.10568237873142519        0.0000000000000000     
   2.5188115113907554E-002  0.11261465589710881        0.0000000000000000     
   2.5870545456751312E-002  0.11968351620562526        0.0000000000000000     
   2.6528409731081639E-002  0.12688895965697447        0.0000000000000000     
   2.7161707936898521E-002  0.13423098625115648        0.0000000000000000     
   1.9503185921205708E-002  0.10548773799429730        0.0000000000000000     
   2.0068763948056623E-002  0.11243000531150633        0.0000000000000000     
   2.0614315675375576E-002  0.11950876989620648        0.0000000000000000     
   2.1139841103162572E-002  0.12672403174839772        0.0000000000000000     
   2.1645340231417599E-002  0.13407579086808008        0.0000000000000000     
   4.4223684970256902E-002  0.13491282430647644        0.0000000000000000     
   4.5179040460638260E-002  0.14233309784466458        0.0000000000000000     
   4.6054068209346224E-002  0.14986313582316507        0.0000000000000000     
   4.6848768216380801E-002  0.15750293824197806        0.0000000000000000     
   4.7563140481741983E-002  0.16525250510110340        0.0000000000000000     
   3.8450880306318179E-002  0.13464950297035466        0.0000000000000000     
   3.9286732292403356E-002  0.14208734015467778        0.0000000000000000     
   4.0052224524809575E-002  0.14963483181184625        0.0000000000000000     
   4.0747357003536842E-002  0.15729197794186017        0.0000000000000000     
   4.1372129728585144E-002  0.16505877854471951        0.0000000000000000     
   3.2763554628532046E-002  0.13442222361858136        0.0000000000000000     
   3.3479572958504823E-002  0.14187513783415007        0.0000000000000000     
   3.4135233682345743E-002  0.14943790935334456        0.0000000000000000     
   3.4730536800054793E-002  0.15711053817616469        0.0000000000000000     
   3.5265482311632006E-002  0.16489302430261057        0.0000000000000000     
   2.7161707936898521E-002  0.13423098625115648        0.0000000000000000     
   2.7757562458942651E-002  0.14169649088308153        0.0000000000000000     
   2.8303095681954701E-002  0.14927236844765990        0.0000000000000000     
   2.8798307605934676E-002  0.15695861894489158        0.0000000000000000     
   2.9243198230882575E-002  0.16475524237477654        0.0000000000000000     
   2.1645340231417599E-002  0.13407579086808008        0.0000000000000000     
   2.2120700793716842E-002  0.14155139930147209        0.0000000000000000     
   2.2555810523636460E-002  0.14913820909479233        0.0000000000000000     
   2.2950669421176465E-002  0.15683622024804075        0.0000000000000000     
   2.3305277486336849E-002  0.16464543276121746        0.0000000000000000     
   0.0000000000000000        0.0000000000000000        0.0000000000000000     
   8.4170425678404279E-004   1.1098515033078076E-003   0.0000000000000000     
   1.7022184293068367E-003   2.5978829464559840E-003   0.0000000000000000     
   2.5815425175683814E-003   4.4640943294445290E-003   0.0000000000000000     
   3.4796765215686781E-003   6.7084856522734429E-003   0.0000000000000000     
   0.0000000000000000        0.0000000000000000        0.0000000000000000     
   6.3384362401015825E-004   1.0938240768323321E-003   0.0000000000000000     
   1.2781101477977331E-003   2.5617699269845080E-003   0.0000000000000000     
   1.9327995713627247E-003   4.4038375504565274E-003   0.0000000000000000     
   2.5979118947051330E-003   6.6200269472483902E-003   0.0000000000000000     
   0.0000000000000000        0.0000000000000000        0.0000000000000000     
   4.2427270359965294E-004   1.0823759150678370E-003   0.0000000000000000     
   8.5303764903294410E-004   2.5359749130854353E-003   0.0000000000000000     
   1.2862948362998736E-003   4.3607969940527968E-003   0.0000000000000000     
   1.7240442654004413E-003   6.5568421579699178E-003   0.0000000000000000     
   0.0000000000000000        0.0000000000000000        0.0000000000000000     
   2.1299149555252718E-004   1.0755070180143223E-003   0.0000000000000000     
   4.2700093301246999E-004   2.5204979047587671E-003   0.0000000000000000     
   6.4202831237982849E-004   4.3349726602333336E-003   0.0000000000000000     
   8.5807363365460285E-004   6.5189312844380247E-003   0.0000000000000000     
   0.0000000000000000        0.0000000000000000        0.0000000000000000     
  -1.3121936263266187E-013   1.0732173856717881E-003   0.0000000000000000     
  -2.6368956931172027E-013   2.5153389020045025E-003   0.0000000000000000     
  -3.9741062003717520E-013   4.3263645489981430E-003   0.0000000000000000     
  -5.3238254191408096E-013   6.5062943266527102E-003   0.0000000000000000     
   3.4796765215686781E-003   6.7084856522734429E-003   0.0000000000000000     
   4.3883508706530801E-003   9.2936508544558018E-003   0.0000000000000000     
   5.2992959941669414E-003   1.2182183875504687E-002   0.0000000000000000     
   6.2125118921102646E-003   1.5374084715420096E-002   0.0000000000000000     
   7.1279985644830480E-003   1.8869353374202029E-002   0.0000000000000000     
   2.5979118947051330E-003   6.6200269472483902E-003   0.0000000000000000     
   3.2704491801967281E-003   9.1773152647534415E-003   0.0000000000000000     
   3.9474134902092815E-003   1.2042679650365026E-002   0.0000000000000000     
   4.6288048247427934E-003   1.5216120104083141E-002   0.0000000000000000     
   5.3146231837972631E-003   1.8697636625907794E-002   0.0000000000000000     
   1.7240442654004413E-003   6.5568421579699178E-003   0.0000000000000000     
   2.1664234714870337E-003   9.0942184149972929E-003   0.0000000000000000     
   2.6135699897120368E-003   1.1943033775295408E-002   0.0000000000000000     
   3.0654838200754519E-003   1.5103288238864265E-002   0.0000000000000000     
   3.5221649625772778E-003   1.8574981805703859E-002   0.0000000000000000     
   8.5807363365460285E-004   6.5189312844380247E-003   0.0000000000000000     
   1.0762737445239952E-003   9.0443603051873506E-003   0.0000000000000000     
   1.2977654926752073E-003   1.1883246250295831E-002   0.0000000000000000     
   1.5225488781082401E-003   1.5035589119763456E-002   0.0000000000000000     
   1.7506239008230925E-003   1.8501388913590239E-002   0.0000000000000000     
  -5.3238254191408096E-013   6.5062943266527102E-003   0.0000000000000000     
  -6.9238744512117867E-013   9.0277409353236217E-003   0.0000000000000000     
  -9.0120741950841868E-013   1.1863317075366291E-002   0.0000000000000000     
  -1.1588424803223940E-012   1.5013022746780727E-002   0.0000000000000000     
  -1.4652929477415588E-012   1.8476857949566921E-002   0.0000000000000000     
   7.1279985644830480E-003   1.8869353374202029E-002   0.0000000000000000     
   8.0392040883178421E-003   2.2642264323370055E-002   0.0000000000000000     
   8.9395765406472000E-003   2.6667092034443753E-002   0.0000000000000000     
   9.8291159214711210E-003   3.0943836507423116E-002   0.0000000000000000     
   1.0707822230789603E-002   3.5472497742308151E-002   0.0000000000000000     
   5.3146231837972631E-003   1.8697636625907794E-002   0.0000000000000000     
   5.9980282934920517E-003   2.2460000901710395E-002   0.0000000000000000     
   6.6721798799465231E-003   2.6475984617362367E-002   0.0000000000000000     
   7.3370779431606754E-003   3.0745587772863712E-002   0.0000000000000000     
   7.9927224831345088E-003   3.5268810368214429E-002   0.0000000000000000     
   3.5221649625772778E-003   1.8574981805703859E-002   0.0000000000000000     
   3.9777690135506822E-003   2.2329812743372996E-002   0.0000000000000000     
   4.4264515693288303E-003   2.6339479319430474E-002   0.0000000000000000     
   4.8682126299117246E-003   3.0603981533876272E-002   0.0000000000000000     
   5.3030521952993617E-003   3.5123319386710414E-002   0.0000000000000000     
   1.7506239008230925E-003   1.8501388913590239E-002   0.0000000000000000     
   1.9784262484937322E-003   2.2251699848357870E-002   0.0000000000000000     
   2.2023916087941246E-003   2.6257576140648060E-002   0.0000000000000000     
   2.4225199817242693E-003   3.0519017790460803E-002   0.0000000000000000     
   2.6388113672841679E-003   3.5036024797796120E-002   0.0000000000000000     
  -1.4652929477415588E-012   1.8476857949566921E-002   0.0000000000000000     
  -1.6787981595156598E-012   2.2225662216665013E-002   0.0000000000000000     
  -1.6575964776124885E-012   2.6230275081015143E-002   0.0000000000000000     
  -1.4016895012302494E-012   3.0490696542617317E-002   0.0000000000000000     
  -9.1107590222128110E-013   3.5006926601471519E-002   0.0000000000000000     
   1.0707822230789603E-002   3.5472497742308151E-002   0.0000000000000000     
   1.1569765039702112E-002   4.0232549516081961E-002   0.0000000000000000     
   1.2409013919308116E-002   4.5203465605727668E-002   0.0000000000000000     
   1.3225568869607606E-002   5.0385246011245263E-002   0.0000000000000000     
   1.4019429890600590E-002   5.5777890732634741E-002   0.0000000000000000     
   7.9927224831345088E-003   3.5268810368214429E-002   0.0000000000000000     
   8.6358620608047425E-003   4.0025546231364603E-002   0.0000000000000000     
   9.2632452371080986E-003   4.4995689190264331E-002   0.0000000000000000     
   9.8748720120445787E-003   5.0179239244913618E-002   0.0000000000000000     
   1.0470742385614179E-002   5.5576196395312458E-002   0.0000000000000000     
   5.3030521952993617E-003   3.5123319386710414E-002   0.0000000000000000     
   5.7296002277747024E-003   3.9877686742279476E-002   0.0000000000000000     
   6.1464866896207022E-003   4.4847277464930044E-002   0.0000000000000000     
   6.5537115808373611E-003   5.0032091554662129E-002   0.0000000000000000     
   6.9512749014246783E-003   5.5432129011475713E-002   0.0000000000000000     
   2.6388113672841679E-003   3.5036024797796120E-002   0.0000000000000000     
   2.8509795406119940E-003   3.9788971048826574E-002   0.0000000000000000     
   3.0587382768459221E-003   4.4758230429724793E-002   0.0000000000000000     
   3.2620875759859528E-003   4.9943802940490764E-002   0.0000000000000000     
   3.4610274380320856E-003   5.5345688581124500E-002   0.0000000000000000     
  -9.1107590222128110E-013   3.5006926601471519E-002   0.0000000000000000     
  -6.8338379659999005E-013   3.9759399151005896E-002   0.0000000000000000     
  -1.2162403245988274E-012   4.4728548084648573E-002   0.0000000000000000     
  -2.5096454049026301E-012   4.9914373402399549E-002   0.0000000000000000     
  -4.5635979804142801E-012   5.5316875104258832E-002   0.0000000000000000     
   1.4019429890600590E-002   5.5777890732634741E-002   0.0000000000000000     
   1.4790615488794474E-002   6.1368884756297142E-002   0.0000000000000000     
   1.5539144170696666E-002   6.7145713068633484E-002   0.0000000000000000     
   1.6265015936307168E-002   7.3108375669643760E-002   0.0000000000000000     
   1.6968230785625982E-002   7.9256872559327979E-002   0.0000000000000000     
   1.0470742385614179E-002   5.5576196395312458E-002   0.0000000000000000     
   1.1049974399718956E-002   6.1172794559435820E-002   0.0000000000000000     
   1.1611686096260964E-002   6.6955267655258652E-002   0.0000000000000000     
   1.2155877475240204E-002   7.2923615682780982E-002   0.0000000000000000     
   1.2682548536656672E-002   7.9077838642002782E-002   0.0000000000000000     
   6.9512749014246783E-003   5.5432129011475713E-002   0.0000000000000000     
   7.3379914539094416E-003   6.1032730132742082E-002   0.0000000000000000     
   7.7126760408184327E-003   6.6819235215832481E-002   0.0000000000000000     
   8.0753286621516561E-003   7.2791644260746927E-002   0.0000000000000000     
   8.4259493179091090E-003   7.8949957267485410E-002   0.0000000000000000     
   3.4610274380320856E-003   5.5345688581124500E-002   0.0000000000000000     
   3.6546666513659243E-003   6.0948691476215927E-002   0.0000000000000000     
   3.8421140043690708E-003   6.6737615750354959E-002   0.0000000000000000     
   4.0233694970415266E-003   7.2712461403541595E-002   0.0000000000000000     
   4.1984331293832902E-003   7.8873228435775850E-002   0.0000000000000000     
  -4.5635979804142801E-012   5.5316875104258832E-002   0.0000000000000000     
  -7.9115927134262853E-012   6.0920678589857363E-002   0.0000000000000000     
  -1.3087121338885288E-011   6.6710409258826098E-002   0.0000000000000000     
  -2.0090183558635691E-011   7.2686067111164987E-002   0.0000000000000000     
  -2.8920780917665589E-011   7.8847652146874087E-002   0.0000000000000000     
   1.6968230785625982E-002   7.9256872559327979E-002   0.0000000000000000     
   1.7645580274979443E-002   8.5577362174529437E-002   0.0000000000000000     
   1.8293855960693883E-002   9.2056002952091487E-002   0.0000000000000000     
   1.8913057842769303E-002   9.8692794892014102E-002   0.0000000000000000     
   1.9503185921205708E-002  0.10548773799429730        0.0000000000000000     
   1.2682548536656672E-002   7.9077838642002782E-002   0.0000000000000000     
   1.3189734106697435E-002   8.5404383517980617E-002   0.0000000000000000     
   1.3675469011549554E-002   9.1889697295771067E-002   0.0000000000000000     
   1.4139753251213026E-002   9.8533779975374103E-002   0.0000000000000000     
   1.4582586825687856E-002  0.10533663155678975        0.0000000000000000     
   8.4259493179091090E-003   7.8949957267485410E-002   0.0000000000000000     
   8.7635219986314898E-003   8.5280827327441217E-002   0.0000000000000000     
   9.0870306948595062E-003   9.1770907532007617E-002   0.0000000000000000     
   9.3964754065931511E-003   9.8420197881184612E-002   0.0000000000000000     
   9.6918561338324299E-003  0.10522869837497224        0.0000000000000000     
   4.1984331293832902E-003   7.8873228435775850E-002   0.0000000000000000     
   4.3669439507816130E-003   8.5206693602911179E-002   0.0000000000000000     
   4.5285410106237437E-003   9.1699633660801125E-002   0.0000000000000000     
   4.6832243089096831E-003   9.8352048609445644E-002   0.0000000000000000     
   4.8309938456394313E-003  0.10516393844884478        0.0000000000000000     
  -2.8920780917665589E-011   7.8847652146874087E-002   0.0000000000000000     
  -3.6852201628842507E-011   8.5181982344390561E-002   0.0000000000000000     
  -4.1157734501345161E-011   9.1675875682151617E-002   0.0000000000000000     
  -4.1837380172142329E-011   9.8329332160157198E-002   0.0000000000000000     
  -3.8891137272428766E-011  0.10514235177840735        0.0000000000000000     
   1.9503185921205708E-002  0.10548773799429730        0.0000000000000000     
   2.0068763948056623E-002  0.11243000531150633        0.0000000000000000     
   2.0614315675375576E-002  0.11950876989620648        0.0000000000000000     
   2.1139841103162572E-002  0.12672403174839772        0.0000000000000000     
   2.1645340231417599E-002  0.13407579086808008        0.0000000000000000     
   1.4582586825687856E-002  0.10533663155678975        0.0000000000000000     
   1.5006961662084803E-002  0.11228700431334937        0.0000000000000000     
   1.5415869687514632E-002  0.11937365051838439        0.0000000000000000     
   1.5809310901977340E-002  0.12659657017189482        0.0000000000000000     
   1.6187285305472934E-002  0.13395576327388065        0.0000000000000000     
   9.6918561338324299E-003  0.10522869837497224        0.0000000000000000     
   9.9749002362399843E-003  0.11218486073067407        0.0000000000000000     
   1.0247335073478459E-002  0.11927713666559374        0.0000000000000000     
   1.0509160645547857E-002  0.12650552617973124        0.0000000000000000     
   1.0760376952448174E-002  0.13387002927308658        0.0000000000000000     
   4.8309938456394313E-003  0.10516393844884478        0.0000000000000000     
   4.9725796705221651E-003  0.11212357456348040        0.0000000000000000     
   5.1087118332670588E-003  0.11921922833783449        0.0000000000000000     
   5.2393903338741133E-003  0.12645089977190704        0.0000000000000000     
   5.3646151723433276E-003  0.13381858886569803        0.0000000000000000     
  -3.8891137272428766E-011  0.10514235177840735        0.0000000000000000     
  -3.5068652192229988E-011  0.11210314581176839        0.0000000000000000     
  -3.3119569912108682E-011  0.11919992553510665        0.0000000000000000     
  -3.3043888344975667E-011  0.12643269094842216        0.0000000000000000     
  -3.4841610065811102E-011  0.13380144205171490        0.0000000000000000     
   2.1645340231417599E-002  0.13407579086808008        0.0000000000000000     
   2.2120700793716842E-002  0.14155139930147209        0.0000000000000000     
   2.2555810523636460E-002  0.14913820909479233        0.0000000000000000     
   2.2950669421176465E-002  0.15683622024804075        0.0000000000000000     
   2.3305277486336849E-002  0.16464543276121746        0.0000000000000000     
   1.6187285305472934E-002  0.13395576327388065        0.0000000000000000     
   1.6542441554729247E-002  0.14143912464298111        0.0000000000000000     
   1.6867428306474121E-002  0.14903454909783553        0.0000000000000000     
   1.7162245560707553E-002  0.15674203663844391        0.0000000000000000     
   1.7426893317429550E-002  0.16456158726480624        0.0000000000000000     
   1.0760376952448174E-002  0.13387002927308658        0.0000000000000000     
   1.0996238333881711E-002  0.14135892846126791        0.0000000000000000     
   1.1211999129550761E-002  0.14896050625988316        0.0000000000000000     
   1.1407659339455324E-002  0.15667476266893252        0.0000000000000000     
   1.1583218963595401E-002  0.16450169768841585        0.0000000000000000     
   5.3646151723433276E-003  0.13381858886569803        0.0000000000000000     
   5.4820911311742413E-003  0.14131081075633248        0.0000000000000000     
   5.5895229928663876E-003  0.14891608058093533        0.0000000000000000     
   5.6869107574197726E-003  0.15663439833950657        0.0000000000000000     
   5.7742544248343911E-003  0.16446576403204627        0.0000000000000000     
  -3.4841610065811102E-011  0.13380144205171490        0.0000000000000000     
  -5.3393167274637388E-011  0.14129477152817482        0.0000000000000000     
  -1.0357899715880692E-010  0.14890127206099191        0.0000000000000000     
  -1.8539909738728502E-010  0.15662094365016613        0.0000000000000000     
  -2.9885347061636702E-010  0.16445378629569754        0.0000000000000000     
   0.0000000000000000        0.0000000000000000        0.0000000000000000     
  -1.3121936263266187E-013   1.0732173856717881E-003   0.0000000000000000     
  -2.6368956931172027E-013   2.5153389020045025E-003   0.0000000000000000     
  -3.9741062003717520E-013   4.3263645489981430E-003   0.0000000000000000     
  -5.3238254191408096E-013   6.5062943266527102E-003   0.0000000000000000     
   0.0000000000000000        0.0000000000000000        0.0000000000000000     
  -2.1299149581118252E-004   1.0755070180436315E-003   0.0000000000000000     
  -4.2700093353460126E-004   2.5204979048278685E-003   0.0000000000000000     
  -6.4202831317025622E-004   4.3349726603527103E-003   0.0000000000000000     
  -8.5807363471814750E-004   6.5189312846181567E-003   0.0000000000000000     
   0.0000000000000000        0.0000000000000000        0.0000000000000000     
  -4.2427270384695837E-004   1.0823759151332489E-003   0.0000000000000000     
  -8.5303764953933200E-004   2.5359749132340893E-003   0.0000000000000000     
  -1.2862948370771206E-003   4.3607969943025215E-003   0.0000000000000000     
  -1.7240442664603246E-003   6.5568421583385448E-003   0.0000000000000000     
   0.0000000000000000        0.0000000000000000        0.0000000000000000     
  -6.3384362423854696E-004   1.0938240769406407E-003   0.0000000000000000     
  -1.2781101482778816E-003   2.5617699272231665E-003   0.0000000000000000     
  -1.9327995721180040E-003   4.4038375508475775E-003   0.0000000000000000     
  -2.5979118957589150E-003   6.6200269478138745E-003   0.0000000000000000     
   0.0000000000000000        0.0000000000000000        0.0000000000000000     
  -8.4170425698594823E-004   1.1098515034658066E-003   0.0000000000000000     
  -1.7022184297502503E-003   2.5978829467950995E-003   0.0000000000000000     
  -2.5815425182929065E-003   4.4640943299878791E-003   0.0000000000000000     
  -3.4796765226139167E-003   6.7084856530441449E-003   0.0000000000000000     
  -5.3238254191408096E-013   6.5062943266527102E-003   0.0000000000000000     
  -6.9238744512117867E-013   9.0277409353236217E-003   0.0000000000000000     
  -9.0120741950841868E-013   1.1863317075366291E-002   0.0000000000000000     
  -1.1588424803223940E-012   1.5013022746780727E-002   0.0000000000000000     
  -1.4652929477415588E-012   1.8476857949566921E-002   0.0000000000000000     
  -8.5807363471814750E-004   6.5189312846181567E-003   0.0000000000000000     
  -1.0762737459099080E-003   9.0443603054092755E-003   0.0000000000000000     
  -1.2977654944771706E-003   1.1883246250511128E-002   0.0000000000000000     
  -1.5225488804199350E-003   1.5035589119923717E-002   0.0000000000000000     
  -1.7506239037382027E-003   1.8501388913647041E-002   0.0000000000000000     
  -1.7240442664603246E-003   6.5568421583385448E-003   0.0000000000000000     
  -2.1664234728763611E-003   9.0942184154474831E-003   0.0000000000000000     
  -2.6135699915126450E-003   1.1943033775734661E-002   0.0000000000000000     
  -3.0654838223691783E-003   1.5103288239200074E-002   0.0000000000000000     
  -3.5221649654459592E-003   1.8574981805843736E-002   0.0000000000000000     
  -2.5979118957589150E-003   6.6200269478138745E-003   0.0000000000000000     
  -3.2704491815917463E-003   9.1773152654382496E-003   0.0000000000000000     
  -3.9474134920076303E-003   1.2042679651036892E-002   0.0000000000000000     
  -4.6288048270065694E-003   1.5216120104609808E-002   0.0000000000000000     
  -5.3146231865885633E-003   1.8697636626156998E-002   0.0000000000000000     
  -3.4796765226139167E-003   6.7084856530441449E-003   0.0000000000000000     
  -4.3883508720560628E-003   9.2936508553815699E-003   0.0000000000000000     
  -5.2992959959621286E-003   1.2182183876417826E-002   0.0000000000000000     
  -6.2125118943321114E-003   1.5374084716152913E-002   0.0000000000000000     
  -7.1279985671660129E-003   1.8869353374586832E-002   0.0000000000000000     
  -1.4652929477415588E-012   1.8476857949566921E-002   0.0000000000000000     
  -1.6787981595156598E-012   2.2225662216665013E-002   0.0000000000000000     
  -1.6575964776124885E-012   2.6230275081015143E-002   0.0000000000000000     
  -1.4016895012302494E-012   3.0490696542617317E-002   0.0000000000000000     
  -9.1107590222128110E-013   3.5006926601471519E-002   0.0000000000000000     
  -1.7506239037382027E-003   1.8501388913647041E-002   0.0000000000000000     
  -1.9784262518381165E-003   2.2251699848319952E-002   0.0000000000000000     
  -2.2023916121258228E-003   2.6257576140581280E-002   0.0000000000000000     
  -2.4225199846013208E-003   3.0519017790431049E-002   0.0000000000000000     
  -2.6388113692646120E-003   3.5036024797869242E-002   0.0000000000000000     
  -3.5221649654459592E-003   1.8574981805843736E-002   0.0000000000000000     
  -3.9777690168554328E-003   2.2329812743348196E-002   0.0000000000000000     
  -4.4264515727100448E-003   2.6339479319396040E-002   0.0000000000000000     
  -4.8682126330097933E-003   3.0603981533987263E-002   0.0000000000000000     
  -5.3030521977546815E-003   3.5123319387121862E-002   0.0000000000000000     
  -5.3146231865885633E-003   1.8697636626156998E-002   0.0000000000000000     
  -5.9980282967307475E-003   2.2460000901749766E-002   0.0000000000000000     
  -6.6721798834102619E-003   2.6475984617459414E-002   0.0000000000000000     
  -7.3370779466271066E-003   3.0745587773285964E-002   0.0000000000000000     
  -7.9927224863812832E-003   3.5268810369229388E-002   0.0000000000000000     
  -7.1279985671660129E-003   1.8869353374586832E-002   0.0000000000000000     
  -8.0392040914640597E-003   2.2642264323524647E-002   0.0000000000000000     
  -8.9395765442264758E-003   2.6667092034771418E-002   0.0000000000000000     
  -9.8291159254532637E-003   3.0943836508327147E-002   0.0000000000000000     
  -1.0707822235144420E-002   3.5472497744191825E-002   0.0000000000000000     
  -9.1107590222128110E-013   3.5006926601471519E-002   0.0000000000000000     
  -6.8338379659999005E-013   3.9759399151005896E-002   0.0000000000000000     
  -1.2162403245988274E-012   4.4728548084648573E-002   0.0000000000000000     
  -2.5096454049026301E-012   4.9914373402399549E-002   0.0000000000000000     
  -4.5635979804142801E-012   5.5316875104258832E-002   0.0000000000000000     
  -2.6388113692646120E-003   3.5036024797869242E-002   0.0000000000000000     
  -2.8509795422207301E-003   3.9788971049001677E-002   0.0000000000000000     
  -3.0587382795747155E-003   4.4758230429934195E-002   0.0000000000000000     
  -3.2620875813265666E-003   4.9943802940666790E-002   0.0000000000000000     
  -3.4610274474762824E-003   5.5345688581199468E-002   0.0000000000000000     
  -5.3030521977546815E-003   3.5123319387121862E-002   0.0000000000000000     
  -5.7296002301093470E-003   3.9877686742998159E-002   0.0000000000000000     
  -6.1464866932384359E-003   4.4847277465814475E-002   0.0000000000000000     
  -6.5537115871419456E-003   5.0032091555570812E-002   0.0000000000000000     
  -6.9512749118198769E-003   5.5432129012267163E-002   0.0000000000000000     
  -7.9927224863812832E-003   3.5268810369229388E-002   0.0000000000000000     
  -8.6358620643492319E-003   4.0025546232995327E-002   0.0000000000000000     
  -9.2632452422073998E-003   4.4995689192289398E-002   0.0000000000000000     
  -9.8748720199557834E-003   5.0179239247111602E-002   0.0000000000000000     
  -1.0470742397594381E-002   5.5576196397461940E-002   0.0000000000000000     
  -1.0707822235144420E-002   3.5472497744191825E-002   0.0000000000000000     
  -1.1569765044940387E-002   4.0232549518993202E-002   0.0000000000000000     
  -1.2409013926481607E-002   4.5203465609358978E-002   0.0000000000000000     
  -1.3225568879768078E-002   5.0385246015289167E-002   0.0000000000000000     
  -1.4019429904799798E-002   5.5777890736783770E-002   0.0000000000000000     
  -4.5635979804142801E-012   5.5316875104258832E-002   0.0000000000000000     
  -7.9115927134262853E-012   6.0920678589857363E-002   0.0000000000000000     
  -1.3087121338885288E-011   6.6710409258826098E-002   0.0000000000000000     
  -2.0090183558635691E-011   7.2686067111164987E-002   0.0000000000000000     
  -2.8920780917665589E-011   7.8847652146874087E-002   0.0000000000000000     
  -3.4610274474762824E-003   5.5345688581199468E-002   0.0000000000000000     
  -3.6546666674061065E-003   6.0948691474161446E-002   0.0000000000000000     
  -3.8421140304982795E-003   6.6737615742181983E-002   0.0000000000000000     
  -4.0233695367528008E-003   7.2712461385261051E-002   0.0000000000000000     
  -4.1984331861696714E-003   7.8873228403398665E-002   0.0000000000000000     
  -6.9512749118198769E-003   5.5432129012267163E-002   0.0000000000000000     
  -7.3379914706006143E-003   6.1032730129623250E-002   0.0000000000000000     
  -7.7126760668125389E-003   6.6819235201358754E-002   0.0000000000000000     
  -8.0753287004556498E-003   7.2791644227473709E-002   0.0000000000000000     
  -8.4259493715299495E-003   7.8949957207968102E-002   0.0000000000000000     
  -1.0470742397594381E-002   5.5576196397461940E-002   0.0000000000000000     
  -1.1049974417495115E-002   6.1172794556242763E-002   0.0000000000000000     
  -1.1611686122029900E-002   6.6955267636356453E-002   0.0000000000000000     
  -1.2155877511198726E-002   7.2923615637802974E-002   0.0000000000000000     
  -1.2682548585001608E-002   7.9077838560582384E-002   0.0000000000000000     
  -1.4019429904799798E-002   5.5777890736783770E-002   0.0000000000000000     
  -1.4790615508089609E-002   6.1368884754019998E-002   0.0000000000000000     
  -1.5539144196150358E-002   6.7145713047175024E-002   0.0000000000000000     
  -1.6265015968982038E-002   7.3108375616248861E-002   0.0000000000000000     
  -1.6968230826584656E-002   7.9256872461241523E-002   0.0000000000000000     
  -2.8920780917665589E-011   7.8847652146874087E-002   0.0000000000000000     
  -3.6852201628842507E-011   8.5181982344390561E-002   0.0000000000000000     
  -4.1157734501345161E-011   9.1675875682151617E-002   0.0000000000000000     
  -4.1837380172142329E-011   9.8329332160157198E-002   0.0000000000000000     
  -3.8891137272428766E-011  0.10514235177840735        0.0000000000000000     
  -4.1984331861696714E-003   7.8873228403398665E-002   0.0000000000000000     
  -4.3669440228643400E-003   8.5206693555540891E-002   0.0000000000000000     
  -4.5285410909522549E-003   9.1699633600633698E-002   0.0000000000000000     
  -4.6832243904334171E-003   9.8352048538677100E-002   0.0000000000000000     
  -4.8309939213078247E-003  0.10516393836967111        0.0000000000000000     
  -8.4259493715299495E-003   7.8949957207968102E-002   0.0000000000000000     
  -8.7635220658491934E-003   8.5280827240023643E-002   0.0000000000000000     
  -9.0870307692271449E-003   9.1770907420822015E-002   0.0000000000000000     
  -9.3964754816638109E-003   9.8420197750363203E-002   0.0000000000000000     
  -9.6918562031591774E-003  0.10522869822864725        0.0000000000000000     
  -1.2682548585001608E-002   7.9077838560582384E-002   0.0000000000000000     
  -1.3189734165806761E-002   8.5404383397838846E-002   0.0000000000000000     
  -1.3675469075982409E-002   9.1889697142716567E-002   0.0000000000000000     
  -1.4139753315528553E-002   9.8533779795215506E-002   0.0000000000000000     
  -1.4582586884445194E-002  0.10533663135533571        0.0000000000000000     
  -1.6968230826584656E-002   7.9256872461241523E-002   0.0000000000000000     
  -1.7645580322737043E-002   8.5577362028986498E-002   0.0000000000000000     
  -1.8293856011218041E-002   9.2056002766317341E-002   0.0000000000000000     
  -1.8913057892027654E-002   9.8692794673234011E-002   0.0000000000000000     
  -1.9503185965165874E-002  0.10548773774973653        0.0000000000000000     
  -3.8891137272428766E-011  0.10514235177840735        0.0000000000000000     
  -3.5068652192229988E-011  0.11210314581176839        0.0000000000000000     
  -3.3119569912108682E-011  0.11919992553510665        0.0000000000000000     
  -3.3043888344975667E-011  0.12643269094842216        0.0000000000000000     
  -3.4841610065811102E-011  0.13380144205171490        0.0000000000000000     
  -4.8309939213078247E-003  0.10516393836967111        0.0000000000000000     
  -4.9725797385806389E-003  0.11212357448166481        0.0000000000000000     
  -5.1087118972570214E-003  0.11921922826270731        0.0000000000000000     
  -5.2393903973369698E-003  0.12645089971279858        0.0000000000000000     
  -5.3646152388204874E-003  0.13381858883193859        0.0000000000000000     
  -9.6918562031591774E-003  0.10522869822864725        0.0000000000000000     
  -9.9749002980619658E-003  0.11218486057929655        0.0000000000000000     
  -1.0247335130720892E-002  0.11927713652593352        0.0000000000000000     
  -1.0509160701135957E-002  0.12650552606855819        0.0000000000000000     
  -1.0760377009307154E-002  0.13387002920717056        0.0000000000000000     
  -1.4582586884445194E-002  0.10533663135533571        0.0000000000000000     
  -1.5006961713512634E-002  0.11228700410466354        0.0000000000000000     
  -1.5415869733511183E-002  0.11937365032478531        0.0000000000000000     
  -1.5809310944440842E-002  0.12659657001570104        0.0000000000000000     
  -1.6187285346301612E-002  0.13395576317741076        0.0000000000000000     
  -1.9503185965165874E-002  0.10548773774973653        0.0000000000000000     
  -2.0068763984932642E-002  0.11243000505776579        0.0000000000000000     
  -2.0614315705627894E-002  0.11950876965926267        0.0000000000000000     
  -2.1139841127251632E-002  0.12672403155422715        0.0000000000000000     
  -2.1645340249803854E-002  0.13407579074265924        0.0000000000000000     
  -3.4841610065811102E-011  0.13380144205171490        0.0000000000000000     
  -5.3393167274637388E-011  0.14129477152817482        0.0000000000000000     
  -1.0357899715880692E-010  0.14890127206099191        0.0000000000000000     
  -1.8539909738728502E-010  0.15662094365016613        0.0000000000000000     
  -2.9885347061636702E-010  0.16445378629569754        0.0000000000000000     
  -5.3646152388204874E-003  0.13381858883193859        0.0000000000000000     
  -5.4820912321822332E-003  0.14131081077089636        0.0000000000000000     
  -5.5895231878968750E-003  0.14891608068044085        0.0000000000000000     
  -5.6869111059644111E-003  0.15663439856057207        0.0000000000000000     
  -5.7742549863848405E-003  0.16446576441128993        0.0000000000000000     
  -1.0760377009307154E-002  0.13387002920717056        0.0000000000000000     
  -1.0996238417554680E-002  0.14135892847859854        0.0000000000000000     
  -1.1211999288198726E-002  0.14896050641967004        0.0000000000000000     
  -1.1407659621239286E-002  0.15667476303038516        0.0000000000000000     
  -1.1583219416676373E-002  0.16450169831074377        0.0000000000000000     
  -1.6187285346301612E-002  0.13395576317741076        0.0000000000000000     
  -1.6542441609510503E-002  0.14143912465128136        0.0000000000000000     
  -1.6867428404484543E-002  0.14903454927867954        0.0000000000000000     
  -1.7162245731223730E-002  0.15674203705960546        0.0000000000000000     
  -1.7426893589728064E-002  0.16456158799405904        0.0000000000000000     
  -2.1645340249803854E-002  0.13407579074265924        0.0000000000000000     
  -2.2120700808049711E-002  0.14155139928894472        0.0000000000000000     
  -2.2555810536754338E-002  0.14913820925746929        0.0000000000000000     
  -2.2950669435917739E-002  0.15683622064823299        0.0000000000000000     
  -2.3305277505539915E-002  0.16464543346123575        0.0000000000000000     
   0.0000000000000000        0.0000000000000000        0.0000000000000000     
  -8.4170425698594823E-004   1.1098515034658066E-003   0.0000000000000000     
  -1.7022184297502503E-003   2.5978829467950995E-003   0.0000000000000000     
  -2.5815425182929065E-003   4.4640943299878791E-003   0.0000000000000000     
  -3.4796765226139167E-003   6.7084856530441449E-003   0.0000000000000000     
   0.0000000000000000        0.0000000000000000        0.0000000000000000     
  -1.0567491376780494E-003   1.1340271439146210E-003   0.0000000000000000     
  -2.1398892373609875E-003   2.6501696252862936E-003   0.0000000000000000     
  -3.2494202990488142E-003   4.5484274441150172E-003   0.0000000000000000     
  -4.3853423227415292E-003   6.8288006004007928E-003   0.0000000000000000     
   0.0000000000000000        0.0000000000000000        0.0000000000000000     
  -1.2878728019037379E-003   1.1699199474929595E-003   0.0000000000000000     
  -2.6056493145146416E-003   2.7244856160331551E-003   0.0000000000000000     
  -3.9533295378327126E-003   4.6636970056205878E-003   0.0000000000000000     
  -5.3309134718579490E-003   6.9875541162552554E-003   0.0000000000000000     
   0.0000000000000000        0.0000000000000000        0.0000000000000000     
  -1.5350752496630137E-003   1.2175299142008213E-003   0.0000000000000000     
  -3.0994986612112143E-003   2.8208309190356834E-003   0.0000000000000000     
  -4.6932702346446017E-003   4.8099030145045867E-003   0.0000000000000000     
  -6.3163899699631761E-003   7.1847462006075329E-003   0.0000000000000000     
   0.0000000000000000        0.0000000000000000        0.0000000000000000     
  -1.7983564809558768E-003   1.2768570440382064E-003   0.0000000000000000     
  -3.6214372774507043E-003   2.9392055342938790E-003   0.0000000000000000     
  -5.4692423894844820E-003   4.9870454707670181E-003   0.0000000000000000     
  -7.3417718170572105E-003   7.4203768534576234E-003   0.0000000000000000     
  -3.4796765226139167E-003   6.7084856530441449E-003   0.0000000000000000     
  -4.3883508720560628E-003   9.2936508553815699E-003   0.0000000000000000     
  -5.2992959959621286E-003   1.2182183876417826E-002   0.0000000000000000     
  -6.2125118943321114E-003   1.5374084716152913E-002   0.0000000000000000     
  -7.1279985671660129E-003   1.8869353374586832E-002   0.0000000000000000     
  -4.3853423227415292E-003   6.8288006004007928E-003   0.0000000000000000     
  -5.5346682086894420E-003   9.4491849383884444E-003   0.0000000000000000     
  -6.6844108571428619E-003   1.2367476302322799E-002   0.0000000000000000     
  -7.8345702681017915E-003   1.5583674692203857E-002   0.0000000000000000     
  -8.9851464415662257E-003   1.9097780108031617E-002   0.0000000000000000     
  -5.3309134718579490E-003   6.9875541162552554E-003   0.0000000000000000     
  -6.7239408559120108E-003   9.6498772675698737E-003   0.0000000000000000     
  -8.1179514293165580E-003   1.2604486779197156E-002   0.0000000000000000     
  -9.5129451920715896E-003   1.5851382651137103E-002   0.0000000000000000     
  -1.0908922144177109E-002   1.9390564883389718E-002   0.0000000000000000     
  -6.3163899699631761E-003   7.1847462006075329E-003   0.0000000000000000     
  -7.9561688137237702E-003   9.8957278429258576E-003   0.0000000000000000     
  -9.5999177124832160E-003   1.2893215307040899E-002   0.0000000000000000     
  -1.1247636666241515E-002   1.6177208592952658E-002   0.0000000000000000     
  -1.2899325674998666E-002   1.9747707700661137E-002   0.0000000000000000     
  -7.3417718170572105E-003   7.4203768534576234E-003   0.0000000000000000     
  -9.2313520821247167E-003   1.0186736664456393E-002   0.0000000000000000     
  -1.1130309706642836E-002   1.3233661885854026E-002   0.0000000000000000     
  -1.3038644690611563E-002   1.6561152517650512E-002   0.0000000000000000     
  -1.4956357034030896E-002   2.0169208559845872E-002   0.0000000000000000     
  -7.1279985671660129E-003   1.8869353374586832E-002   0.0000000000000000     
  -8.0392040914640597E-003   2.2642264323524647E-002   0.0000000000000000     
  -8.9395765442264758E-003   2.6667092034771418E-002   0.0000000000000000     
  -9.8291159254532637E-003   3.0943836508327147E-002   0.0000000000000000     
  -1.0707822235144420E-002   3.5472497744191825E-002   0.0000000000000000     
  -8.9851464415662257E-003   1.9097780108031617E-002   0.0000000000000000     
  -1.0129120489709049E-002   2.2885175735928801E-002   0.0000000000000000     
  -1.1259473524703148E-002   2.6921244762018133E-002   0.0000000000000000     
  -1.2376205546548523E-002   3.1205987186299616E-002   0.0000000000000000     
  -1.3479316555245173E-002   3.5739403008773249E-002   0.0000000000000000     
  -1.0908922144177109E-002   1.9390564883389718E-002   0.0000000000000000     
  -1.2295601580119400E-002   2.3197307866218177E-002   0.0000000000000000     
  -1.3662702794384748E-002   2.7246885989885661E-002   0.0000000000000000     
  -1.5010225786973154E-002   3.1539299254392174E-002   0.0000000000000000     
  -1.6338170557884620E-002   3.6074547659737721E-002   0.0000000000000000     
  -1.2899325674998666E-002   1.9747707700661137E-002   0.0000000000000000     
  -1.4538647362695107E-002   2.3578660714392765E-002   0.0000000000000000     
  -1.6149264353271266E-002   2.7644015718374000E-002   0.0000000000000000     
  -1.7731176646727152E-002   3.1943772712604832E-002   0.0000000000000000     
  -1.9284384243062766E-002   3.6477931697085256E-002   0.0000000000000000     
  -1.4956357034030896E-002   2.0169208559845872E-002   0.0000000000000000     
  -1.6858257837436171E-002   2.4029234280452581E-002   0.0000000000000000     
  -1.8719158201362711E-002   2.8112633947483152E-002   0.0000000000000000     
  -2.0539058125810528E-002   3.2419407560937571E-002   0.0000000000000000     
  -2.2317957610779610E-002   3.6949555120815845E-002   0.0000000000000000     
  -1.0707822235144420E-002   3.5472497744191825E-002   0.0000000000000000     
  -1.1569765044940387E-002   4.0232549518993202E-002   0.0000000000000000     
  -1.2409013926481607E-002   4.5203465609358978E-002   0.0000000000000000     
  -1.3225568879768078E-002   5.0385246015289167E-002   0.0000000000000000     
  -1.4019429904799798E-002   5.5777890736783770E-002   0.0000000000000000     
  -1.3479316555245173E-002   3.5739403008773249E-002   0.0000000000000000     
  -1.4560711023713349E-002   4.0501350075082813E-002   0.0000000000000000     
  -1.5612293424873316E-002   4.5471686230872131E-002   0.0000000000000000     
  -1.6634063758725066E-002   5.0650411476141174E-002   0.0000000000000000     
  -1.7626022025268605E-002   5.6037525810889957E-002   0.0000000000000000     
  -1.6338170557884620E-002   3.6074547659737721E-002   0.0000000000000000     
  -1.7638101852498658E-002   4.0834601375355266E-002   0.0000000000000000     
  -1.8901584416194783E-002   4.5801430570677787E-002   0.0000000000000000     
  -2.0128618248972999E-002   5.0975035245705277E-002   0.0000000000000000     
  -2.1319203350833295E-002   5.6355415400437738E-002   0.0000000000000000     
  -1.9284384243062766E-002   3.6477931697085256E-002   0.0000000000000000     
  -2.0801937531296315E-002   4.1232303419810538E-002   0.0000000000000000     
  -2.2276886900446012E-002   4.6192698628775952E-002   0.0000000000000000     
  -2.3709232350511866E-002   5.1359117323981476E-002   0.0000000000000000     
  -2.5098973881493861E-002   5.6731559505427125E-002   0.0000000000000000     
  -2.2317957610779610E-002   3.6949555120815845E-002   0.0000000000000000     
  -2.4052218060106319E-002   4.1694456208448645E-002   0.0000000000000000     
  -2.5738200877626998E-002   4.6645490405166620E-002   0.0000000000000000     
  -2.7375906063341664E-002   5.1802657710969771E-002   0.0000000000000000     
  -2.8965333617250313E-002   5.7165958125858105E-002   0.0000000000000000     
  -1.4019429904799798E-002   5.5777890736783770E-002   0.0000000000000000     
  -1.4790615508089609E-002   6.1368884754019998E-002   0.0000000000000000     
  -1.5539144196150358E-002   6.7145713047175024E-002   0.0000000000000000     
  -1.6265015968982038E-002   7.3108375616248861E-002   0.0000000000000000     
  -1.6968230826584656E-002   7.9256872461241523E-002   0.0000000000000000     
  -1.7626022025268605E-002   5.6037525810889957E-002   0.0000000000000000     
  -1.8589143771479834E-002   6.1621616822674072E-002   0.0000000000000000     
  -1.9524404544334656E-002   6.7391272099049104E-002   0.0000000000000000     
  -2.0431804343833068E-002   7.3346491640015082E-002   0.0000000000000000     
  -2.1311343169975072E-002   7.9487275445571950E-002   0.0000000000000000     
  -2.1319203350833295E-002   5.6355415400437738E-002   0.0000000000000000     
  -2.2474788236761523E-002   6.1931606861924109E-002   0.0000000000000000     
  -2.3596821421743529E-002   6.7692645457213291E-002   0.0000000000000000     
  -2.4685302905779305E-002   7.3638531186305298E-002   0.0000000000000000     
  -2.5740232688868853E-002   7.9769264049200150E-002   0.0000000000000000     
  -2.5098973881493861E-002   5.6731559505427125E-002   0.0000000000000000     
  -2.6447548903934678E-002   6.2298854871770087E-002   0.0000000000000000     
  -2.7756394828376971E-002   6.8049833121667569E-002   0.0000000000000000     
  -2.9025511654820747E-002   7.3984494255119562E-002   0.0000000000000000     
  -3.0254899383265994E-002   8.0102838272126095E-002   0.0000000000000000     
  -2.8965333617250313E-002   5.7165958125858105E-002   0.0000000000000000     
  -3.0507425772999294E-002   6.2723360852212029E-002   0.0000000000000000     
  -3.2003124764234996E-002   6.8462835092411967E-002   0.0000000000000000     
  -3.3452430590957392E-002   7.4384380846457890E-002   0.0000000000000000     
  -3.4855343253166492E-002   8.0487998114349812E-002   0.0000000000000000     
  -1.6968230826584656E-002   7.9256872461241523E-002   0.0000000000000000     
  -1.7645580322737043E-002   8.5577362028986498E-002   0.0000000000000000     
  -1.8293856011218041E-002   9.2056002766317341E-002   0.0000000000000000     
  -1.8913057892027654E-002   9.8692794673234011E-002   0.0000000000000000     
  -1.9503185965165874E-002  0.10548773774973653        0.0000000000000000     
  -2.1311343169975072E-002   7.9487275445571950E-002   0.0000000000000000     
  -2.2158660397004367E-002   8.5799643837500772E-002   0.0000000000000000     
  -2.2969395399164656E-002   9.2269617137582555E-002   0.0000000000000000     
  -2.3743548176455933E-002   9.8897195345817257E-002   0.0000000000000000     
  -2.4481118728878197E-002  0.10568237846220493        0.0000000000000000     
  -2.5740232688868853E-002   7.9769264049200150E-002   0.0000000000000000     
  -2.6756574248973073E-002   8.6071109527415840E-002   0.0000000000000000     
  -2.7729291064052863E-002   9.2530333102470400E-002   0.0000000000000000     
  -2.8658383134108210E-002   9.9146934774363857E-002   0.0000000000000000     
  -2.9543850459139129E-002  0.10592091454309616        0.0000000000000000     
  -3.0254899383265994E-002   8.0102838272126095E-002   0.0000000000000000     
  -3.1439321878643151E-002   8.6391759098731702E-002   0.0000000000000000     
  -3.2573543005882652E-002   9.2838150660980903E-002   0.0000000000000000     
  -3.3657562764984494E-002   9.9442012958873741E-002   0.0000000000000000     
  -3.4691381155948685E-002  0.10620334599241020        0.0000000000000000     
  -3.4855343253166492E-002   8.0487998114349812E-002   0.0000000000000000     
  -3.6206903286014606E-002   8.6761592551448316E-002   0.0000000000000000     
  -3.7502151224654036E-002   9.3193069813114024E-002   0.0000000000000000     
  -3.8741087069084787E-002   9.9782429899346964E-002   0.0000000000000000     
  -3.9923710819306853E-002  0.10652967281014711        0.0000000000000000     
  -1.9503185965165874E-002  0.10548773774973653        0.0000000000000000     
  -2.0068763984932642E-002  0.11243000505776579        0.0000000000000000     
  -2.0614315705627894E-002  0.11950876965926267        0.0000000000000000     
  -2.1139841127251632E-002  0.12672403155422715        0.0000000000000000     
  -2.1645340249803854E-002  0.13407579074265924        0.0000000000000000     
  -2.4481118728878197E-002  0.10568237846220493        0.0000000000000000     
  -2.5188115134026235E-002  0.11261465561772084        0.0000000000000000     
  -2.5870545469494854E-002  0.11968351594334030        0.0000000000000000     
  -2.6528409735284027E-002  0.12688895943906325        0.0000000000000000     
  -2.7161707931393782E-002  0.13423098610488976        0.0000000000000000     
  -2.9543850459139129E-002  0.10592091454309616        0.0000000000000000     
  -3.0392823182497669E-002  0.11284174796364621        0.0000000000000000     
  -3.1212431447535868E-002  0.11989891059099290        0.0000000000000000     
  -3.2002675254253737E-002  0.12709240242513622        0.0000000000000000     
  -3.2763554602651269E-002  0.13442222346607613        0.0000000000000000     
  -3.4691381155948685E-002  0.10620334599241020        0.0000000000000000     
  -3.5682888130346931E-002  0.11311128209554193        0.0000000000000000     
  -3.6639973639750953E-002  0.12015495360222056        0.0000000000000000     
  -3.7562637684160752E-002  0.12733436051244604        0.0000000000000000     
  -3.8450880263576327E-002  0.13464950282621838        0.0000000000000000     
  -3.9923710819306853E-002  0.10652967281014711        0.0000000000000000     
  -4.1058309977574030E-002  0.11342325801340798        0.0000000000000000     
  -4.2153172046140108E-002  0.12045164497702315        0.0000000000000000     
  -4.3208297025005074E-002  0.12761483370099264        0.0000000000000000     
  -4.4223684914168948E-002  0.13491282418531644        0.0000000000000000     
  -2.1645340249803854E-002  0.13407579074265924        0.0000000000000000     
  -2.2120700808049711E-002  0.14155139928894472        0.0000000000000000     
  -2.2555810536754338E-002  0.14913820925746929        0.0000000000000000     
  -2.2950669435917739E-002  0.15683622064823299        0.0000000000000000     
  -2.3305277505539915E-002  0.16464543346123575        0.0000000000000000     
  -2.7161707931393782E-002  0.13423098610488976        0.0000000000000000     
  -2.7757562431216489E-002  0.14169649084598587        0.0000000000000000     
  -2.8303095608144556E-002  0.14927236856751760        0.0000000000000000     
  -2.8798307462177968E-002  0.15695861926948493        0.0000000000000000     
  -2.9243197993316736E-002  0.16475524295188793        0.0000000000000000     
  -3.2763554602651269E-002  0.13442222346607613        0.0000000000000000     
  -3.3479572897055047E-002  0.14187513777680194        0.0000000000000000     
  -3.4135233541791654E-002  0.14943790942030274        0.0000000000000000     
  -3.4730536536861076E-002  0.15711053839657865        0.0000000000000000     
  -3.5265481882263319E-002  0.16489302470562961        0.0000000000000000     
  -3.8450880263576327E-002  0.13464950282621838        0.0000000000000000     
  -3.9286732205565389E-002  0.14208734008139287        0.0000000000000000     
  -4.0052224337695633E-002  0.14963483181582476        0.0000000000000000     
  -4.0747356659967059E-002  0.15729197802951411        0.0000000000000000     
  -4.1372129172379681E-002  0.16505877872246077        0.0000000000000000     
  -4.4223684914168948E-002  0.13491282418531644        0.0000000000000000     
  -4.5179040356747496E-002  0.14233309775975869        0.0000000000000000     
  -4.6054067995856492E-002  0.14986313575408364        0.0000000000000000     
  -4.6848767831495913E-002  0.15750293816829122        0.0000000000000000     
  -4.7563139863665796E-002  0.16525250500238148        0.0000000000000000     
   0.0000000000000000        0.0000000000000000        0.0000000000000000     
  -1.7983564809558768E-003   1.2768570440382064E-003   0.0000000000000000     
  -3.6214372774507043E-003   2.9392055342938790E-003   0.0000000000000000     
  -5.4692423894844820E-003   4.9870454707670181E-003   0.0000000000000000     
  -7.3417718170572105E-003   7.4203768534576234E-003   0.0000000000000000     
   0.0000000000000000        0.0000000000000000        0.0000000000000000     
  -2.0694520179684191E-003   1.3550028628406771E-003   0.0000000000000000     
  -4.1641224532676735E-003   3.0941031332351048E-003   0.0000000000000000     
  -6.2840113058977645E-003   5.2173008111832822E-003   0.0000000000000000     
  -8.4291185758586917E-003   7.7245958966852130E-003   0.0000000000000000     
   0.0000000000000000        0.0000000000000000        0.0000000000000000     
  -2.3400973828867329E-003   1.4590688964437953E-003   0.0000000000000000     
  -4.7202114786966867E-003   3.3000173872867250E-003   0.0000000000000000     
  -7.1403422874298621E-003   5.5228454725287871E-003   0.0000000000000000     
  -9.6004898090862600E-003   8.1275531521699841E-003   0.0000000000000000     
   0.0000000000000000        0.0000000000000000        0.0000000000000000     
  -2.6102925757108177E-003   1.5890551448475611E-003   0.0000000000000000     
  -5.2897043537377423E-003   3.5569482964487378E-003   0.0000000000000000     
  -8.0382353340807729E-003   5.9036794548035301E-003   0.0000000000000000     
  -1.0855885516739912E-002   8.6292486199119368E-003   0.0000000000000000     
   0.0000000000000000        0.0000000000000000        0.0000000000000000     
  -2.8800375964406744E-003   1.7449616080519740E-003   0.0000000000000000     
  -5.8726010783908406E-003   3.8648958607211442E-003   0.0000000000000000     
  -8.9776904458504989E-003   6.3598027580075104E-003   0.0000000000000000     
  -1.2195305698819650E-002   9.2296822999110711E-003   0.0000000000000000     
  -7.3417718170572105E-003   7.4203768534576234E-003   0.0000000000000000     
  -9.2313520821247167E-003   1.0186736664456393E-002   0.0000000000000000     
  -1.1130309706642836E-002   1.3233661885854026E-002   0.0000000000000000     
  -1.3038644690611563E-002   1.6561152517650512E-002   0.0000000000000000     
  -1.4956357034030896E-002   2.0169208559845872E-002   0.0000000000000000     
  -8.4291185758586917E-003   7.7245958966852130E-003   0.0000000000000000     
  -1.0591118136173474E-002   1.0558535527590928E-002   0.0000000000000000     
  -1.2761683859865126E-002   1.3661666841750467E-002   0.0000000000000000     
  -1.4940815746933650E-002   1.7033989839163832E-002   0.0000000000000000     
  -1.7128513797379043E-002   2.0675504519831019E-002   0.0000000000000000     
  -9.6004898090862600E-003   8.1275531521699841E-003   0.0000000000000000     
  -1.2077094450928643E-002   1.1046756227758910E-002   0.0000000000000000     
  -1.4546596620219792E-002   1.4213070500844166E-002   0.0000000000000000     
  -1.7008996316959697E-002   1.7626495971425748E-002   0.0000000000000000     
  -1.9464293541148356E-002   2.1287032639503659E-002   0.0000000000000000     
  -1.0855885516739912E-002   8.6292486199119368E-003   0.0000000000000000     
  -1.3689281026390240E-002   1.1651398764960338E-002   0.0000000000000000     
  -1.6485047987706836E-002   1.4887872863135117E-002   0.0000000000000000     
  -1.9243186400689699E-002   1.8338670914436275E-002   0.0000000000000000     
  -2.1963696265338836E-002   2.2003792918863806E-002   0.0000000000000000     
  -1.2195305698819650E-002   9.2296822999110711E-003   0.0000000000000000     
  -1.5427677862558250E-002   1.2372463139195216E-002   0.0000000000000000     
  -1.8577037962326258E-002   1.5686073928623322E-002   0.0000000000000000     
  -2.1643385998123661E-002   1.9170514668195401E-002   0.0000000000000000     
  -2.4626721969950475E-002   2.2825785357911445E-002   0.0000000000000000     
  -1.4956357034030896E-002   2.0169208559845872E-002   0.0000000000000000     
  -1.6858257837436171E-002   2.4029234280452581E-002   0.0000000000000000     
  -1.8719158201362711E-002   2.8112633947483152E-002   0.0000000000000000     
  -2.0539058125810528E-002   3.2419407560937571E-002   0.0000000000000000     
  -2.2317957610779610E-002   3.6949555120815845E-002   0.0000000000000000     
  -1.7128513797379043E-002   2.0675504519831019E-002   0.0000000000000000     
  -1.9293758666223366E-002   2.4558454833580826E-002   0.0000000000000000     
  -2.1405531008488649E-002   2.8655084730242052E-002   0.0000000000000000     
  -2.3463830824174910E-002   3.2965394209814695E-002   0.0000000000000000     
  -2.5468658113282142E-002   3.7489383272298747E-002   0.0000000000000000     
  -1.9464293541148356E-002   2.1287032639503659E-002   0.0000000000000000     
  -2.1884475510937453E-002   2.5175748642960689E-002   0.0000000000000000     
  -2.4241529444478650E-002   2.9273712119679621E-002   0.0000000000000000     
  -2.6535455341771954E-002   3.3580923069660450E-002   0.0000000000000000     
  -2.8766253202817352E-002   3.8097381492903176E-002   0.0000000000000000     
  -2.1963696265338836E-002   2.2003792918863806E-002   0.0000000000000000     
  -2.4630408371578441E-002   2.5881115708592178E-002   0.0000000000000000     
  -2.7227153509332715E-002   2.9968516115795860E-002   0.0000000000000000     
  -2.9753931678601651E-002   3.4265994140474869E-002   0.0000000000000000     
  -3.2210742879385260E-002   3.8773549782629160E-002   0.0000000000000000     
  -2.4626721969950475E-002   2.2825785357911445E-002   0.0000000000000000     
  -2.7531557248146321E-002   2.6674556030475291E-002   0.0000000000000000     
  -3.0362403203050829E-002   3.0739496718590779E-002   0.0000000000000000     
  -3.3119259834664003E-002   3.5020607422257911E-002   0.0000000000000000     
  -3.5802127142985835E-002   3.9517888141476686E-002   0.0000000000000000     
  -2.2317957610779610E-002   3.6949555120815845E-002   0.0000000000000000     
  -2.4052218060106319E-002   4.1694456208448645E-002   0.0000000000000000     
  -2.5738200877626998E-002   4.6645490405166620E-002   0.0000000000000000     
  -2.7375906063341664E-002   5.1802657710969771E-002   0.0000000000000000     
  -2.8965333617250313E-002   5.7165958125858105E-002   0.0000000000000000     
  -2.5468658113282142E-002   3.7489383272298747E-002   0.0000000000000000     
  -2.7419738269522140E-002   4.2223168794831012E-002   0.0000000000000000     
  -2.9316796686606701E-002   4.7162867654548295E-002   0.0000000000000000     
  -3.1159833364535833E-002   5.2308479851450575E-002   0.0000000000000000     
  -3.2948848303309526E-002   5.7660005385537866E-002   0.0000000000000000     
  -2.8766253202817352E-002   3.8097381492903176E-002   0.0000000000000000     
  -3.0935292990137263E-002   4.2820550232519086E-002   0.0000000000000000     
  -3.3043944666254071E-002   4.7747892131619465E-002   0.0000000000000000     
  -3.5092208231167786E-002   5.2879407190204279E-002   0.0000000000000000     
  -3.7080083684878390E-002   5.8215095408273562E-002   0.0000000000000000     
  -3.2210742879385260E-002   3.8773549782629160E-002   0.0000000000000000     
  -3.4598882221951684E-002   4.3486600521512875E-002   0.0000000000000000     
  -3.6919644816569099E-002   4.8400563836380132E-002   0.0000000000000000     
  -3.9173030663237511E-002   5.3515439727230898E-002   0.0000000000000000     
  -4.1359039761956914E-002   5.8831228194065208E-002   0.0000000000000000     
  -3.5802127142985835E-002   3.9517888141476686E-002   0.0000000000000000     
  -3.8410505964965404E-002   4.4221319661812392E-002   0.0000000000000000     
  -4.0943897137551810E-002   4.9120882768830303E-002   0.0000000000000000     
  -4.3402300660745026E-002   5.4216577462530446E-002   0.0000000000000000     
  -4.5785716534545072E-002   5.9508403742912788E-002   0.0000000000000000     
  -2.8965333617250313E-002   5.7165958125858105E-002   0.0000000000000000     
  -3.0507425772999294E-002   6.2723360852212029E-002   0.0000000000000000     
  -3.2003124764234996E-002   6.8462835092411967E-002   0.0000000000000000     
  -3.3452430590957392E-002   7.4384380846457890E-002   0.0000000000000000     
  -3.4855343253166492E-002   8.0487998114349812E-002   0.0000000000000000     
  -3.2948848303309526E-002   5.7660005385537866E-002   0.0000000000000000     
  -3.4684335634100574E-002   6.3204881791310757E-002   0.0000000000000000     
  -3.6366789488081780E-002   6.8930546603269860E-002   0.0000000000000000     
  -3.7996209865253129E-002   7.4836999821415159E-002   0.0000000000000000     
  -3.9572596765614629E-002   8.0924241445746656E-002   0.0000000000000000     
  -3.7080083684878390E-002   5.8215095408273562E-002   0.0000000000000000     
  -3.9008195277383702E-002   6.3743174677127090E-002   0.0000000000000000     
  -4.0877167258681534E-002   6.9451862888064708E-002   0.0000000000000000     
  -4.2686999628771850E-002   7.5341160041086361E-002   0.0000000000000000     
  -4.4437692387654687E-002   8.1411066136192062E-002   0.0000000000000000     
  -4.1359039761956914E-002   5.8831228194065208E-002   0.0000000000000000     
  -4.3479004702848691E-002   6.4338239509661055E-002   0.0000000000000000     
  -4.5534258076034229E-002   7.0026783946796484E-002   0.0000000000000000     
  -4.7524799881513570E-002   7.5896861505471466E-002   0.0000000000000000     
  -4.9450630119286659E-002   8.1948472185686030E-002   0.0000000000000000     
  -4.5785716534545072E-002   5.9508403742912788E-002   0.0000000000000000     
  -4.8096763910495513E-002   6.4990076288912610E-002   0.0000000000000000     
  -5.0338061940139907E-002   7.0655309779465172E-002   0.0000000000000000     
  -5.2509610623478253E-002   7.6504104214570490E-002   0.0000000000000000     
  -5.4611409960510553E-002   8.2536459594228548E-002   0.0000000000000000     
  -3.4855343253166492E-002   8.0487998114349812E-002   0.0000000000000000     
  -3.6206903286014606E-002   8.6761592551448316E-002   0.0000000000000000     
  -3.7502151224654036E-002   9.3193069813114024E-002   0.0000000000000000     
  -3.8741087069084787E-002   9.9782429899346964E-002   0.0000000000000000     
  -3.9923710819306853E-002  0.10652967281014711        0.0000000000000000     
  -3.9572596765614629E-002   8.0924241445746656E-002   0.0000000000000000     
  -4.1091292510094558E-002   8.7180971283628839E-002   0.0000000000000000     
  -4.2547639419621190E-002   9.3595889142426184E-002   0.0000000000000000     
  -4.3941637494194531E-002  0.10016899502213872        0.0000000000000000     
  -4.5273286733814581E-002  0.10690028892276643        0.0000000000000000     
  -4.4437692387654687E-002   8.1411066136192062E-002   0.0000000000000000     
  -4.6124463589890134E-002   8.7650256693336343E-002   0.0000000000000000     
  -4.7742531290038304E-002   9.4047407232473734E-002   0.0000000000000000     
  -4.9291895488099188E-002  0.10060251775360422        0.0000000000000000     
  -5.0772556184072788E-002  0.10731558825672774        0.0000000000000000     
  -4.9450630119286659E-002   8.1948472185686030E-002   0.0000000000000000     
  -5.1306416525401327E-002   8.8169448780570869E-002   0.0000000000000000     
  -5.3086826835905362E-002   9.4547624083256662E-002   0.0000000000000000     
  -5.4791861050798751E-002  0.10108299809374344        0.0000000000000000     
  -5.6421519170081487E-002  0.10777557081203117        0.0000000000000000     
  -5.4611409960510553E-002   8.2536459594228548E-002   0.0000000000000000     
  -5.6637151316628151E-002   8.8738547545332364E-002   0.0000000000000000     
  -5.8580526057222373E-002   9.5096539694774981E-002   0.0000000000000000     
  -6.0441534182293220E-002  0.10161043604255639        0.0000000000000000     
  -6.2220175691840691E-002  0.10828023658867658        0.0000000000000000     
  -3.9923710819306853E-002  0.10652967281014711        0.0000000000000000     
  -4.1058309977574030E-002  0.11342325801340798        0.0000000000000000     
  -4.2153172046140108E-002  0.12045164497702315        0.0000000000000000     
  -4.3208297025005074E-002  0.12761483370099264        0.0000000000000000     
  -4.4223684914168948E-002  0.13491282418531644        0.0000000000000000     
  -4.5273286733814581E-002  0.10690028892276643        0.0000000000000000     
  -4.6551413145587070E-002  0.11377763489921977        0.0000000000000000     
  -4.7784842736617761E-002  0.12078889700640932        0.0000000000000000     
  -4.8973575506906647E-002  0.12793407524433509        0.0000000000000000     
  -5.0117611456453708E-002  0.13521316961299695        0.0000000000000000     
  -5.0772556184072788E-002  0.10731558825672774        0.0000000000000000     
  -5.2194522055794161E-002  0.11417437193495275        0.0000000000000000     
  -5.3567801781098351E-002  0.12116662198138758        0.0000000000000000     
  -5.4892395359985358E-002  0.12829233839603219        0.0000000000000000     
  -5.6168302792455174E-002  0.13555152117888655        0.0000000000000000     
  -5.6421519170081487E-002  0.10777557081203117        0.0000000000000000     
  -5.7987636708195310E-002  0.11461346912060694        0.0000000000000000     
  -5.9502049179581885E-002  0.12158481990195787        0.0000000000000000     
  -6.0964756584241241E-002  0.12868962315608398        0.0000000000000000     
  -6.2375758922173362E-002  0.13592787888298524        0.0000000000000000     
  -6.2220175691840691E-002  0.10828023658867658        0.0000000000000000     
  -6.3930757102790489E-002  0.11509492645618230        0.0000000000000000     
  -6.5587584932068357E-002  0.12204349076812025        0.0000000000000000     
  -6.7190659179674275E-002  0.12912592952449048        0.0000000000000000     
  -6.8739979845608257E-002  0.13634224272529297        0.0000000000000000     
  -4.4223684914168948E-002  0.13491282418531644        0.0000000000000000     
  -4.5179040356747496E-002  0.14233309775975869        0.0000000000000000     
  -4.6054067995856492E-002  0.14986313575408364        0.0000000000000000     
  -4.6848767831495913E-002  0.15750293816829122        0.0000000000000000     
  -4.7563139863665796E-002  0.16525250500238148        0.0000000000000000     
  -5.0117611456453708E-002  0.13521316961299695        0.0000000000000000     
  -5.1194857137790803E-002  0.14261428957423344        0.0000000000000000     
  -5.2183219103449786E-002  0.15012554458988295        0.0000000000000000     
  -5.3082697353430637E-002  0.15774693465994544        0.0000000000000000     
  -5.3893291887733341E-002  0.16547845978442088        0.0000000000000000     
  -5.6168302792455174E-002  0.13555152117888655        0.0000000000000000     
  -5.7372542335884784E-002  0.14293279428715114        0.0000000000000000     
  -5.8482132247651093E-002  0.15042478167802631        0.0000000000000000     
  -5.9497072527754158E-002  0.15802748335151201        0.0000000000000000     
  -6.0417363176193936E-002  0.16574089930760827        0.0000000000000000     
  -6.2375758922173362E-002  0.13592787888298524        0.0000000000000000     
  -6.3712095951029377E-002  0.14328861189851178        0.0000000000000000     
  -6.4950807428460419E-002  0.15076084701851367        0.0000000000000000     
  -6.6091893354466497E-002  0.15834458424299094        0.0000000000000000     
  -6.7135353729047595E-002  0.16603982357194361        0.0000000000000000     
  -6.8739979845608257E-002  0.13634224272529297        0.0000000000000000     
  -7.0213517983224630E-002  0.14368174240831533        0.0000000000000000     
  -7.1589244645877764E-002  0.15113374061134507        0.0000000000000000     
  -7.2867159833567660E-002  0.15869823733438226        0.0000000000000000     
  -7.4047263546294317E-002  0.16637523257742692        0.0000000000000000     
   0.0000000000000000        0.0000000000000000        0.0000000000000000     
  -2.8800375964406744E-003   1.7449616080519740E-003   0.0000000000000000     
  -5.8726010783908406E-003   3.8648958607211442E-003   0.0000000000000000     
  -8.9776904458504989E-003   6.3598027580075104E-003   0.0000000000000000     
  -1.2195305698819650E-002   9.2296822999110711E-003   0.0000000000000000     
   0.0000000000000000        0.0000000000000000        0.0000000000000000     
  -3.2831738012991771E-003   1.9994692231303907E-003   0.0000000000000000     
  -6.6768896637874747E-003   4.3311974389055128E-003   0.0000000000000000     
  -1.0181147587464894E-002   6.9951846473253676E-003   0.0000000000000000     
  -1.3795947572331440E-002   9.9914308483899546E-003   0.0000000000000000     
   0.0000000000000000        0.0000000000000000        0.0000000000000000     
  -3.9535425465091981E-003   2.4252589271561670E-003   0.0000000000000000     
  -7.9105581210591382E-003   5.0631903898034139E-003   0.0000000000000000     
  -1.1871046723649822E-002   7.9137943879417430E-003   0.0000000000000000     
  -1.5835008354281251E-002   1.0977070921571151E-002   0.0000000000000000     
   0.0000000000000000        0.0000000000000000        0.0000000000000000     
  -4.8911438320707401E-003   3.0223307201293031E-003   0.0000000000000000     
  -9.5736064502058345E-003   6.0608747134148471E-003   0.0000000000000000     
  -1.4047387854405279E-002   9.1156319798566341E-003   0.0000000000000000     
  -1.8312488044669076E-002   1.2186602519454659E-002   0.0000000000000000     
   0.0000000000000000        0.0000000000000000        0.0000000000000000     
  -6.0959776579838018E-003   3.7906846020497979E-003   0.0000000000000000     
  -1.1666034651227557E-002   7.3242504097398107E-003   0.0000000000000000     
  -1.6710170979731265E-002   1.0600697423070040E-002   0.0000000000000000     
  -2.1228386643494926E-002   1.3620025642040481E-002   0.0000000000000000     
  -1.2195305698819650E-002   9.2296822999110711E-003   0.0000000000000000     
  -1.5427677862558250E-002   1.2372463139195216E-002   0.0000000000000000     
  -1.8577037962326258E-002   1.5686073928623322E-002   0.0000000000000000     
  -2.1643385998123661E-002   1.9170514668195401E-002   0.0000000000000000     
  -2.4626721969950475E-002   2.2825785357911445E-002   0.0000000000000000     
  -1.3795947572331440E-002   9.9914308483899546E-003   0.0000000000000000     
  -1.7404165782603866E-002   1.3221956250122787E-002   0.0000000000000000     
  -2.0888678382498922E-002   1.6588781060547380E-002   0.0000000000000000     
  -2.4249485372016620E-002   2.0091905279663726E-002   0.0000000000000000     
  -2.7486586751156946E-002   2.3731328907471830E-002   0.0000000000000000     
  -1.5835008354281251E-002   1.0977070921571151E-002   0.0000000000000000     
  -1.9730625609698269E-002   1.4211884997402308E-002   0.0000000000000000     
  -2.3486081086645710E-002   1.7577101622145864E-002   0.0000000000000000     
  -2.7101374785123596E-002   2.1072720795801841E-002   0.0000000000000000     
  -3.0576506705131911E-002   2.4698742518370218E-002   0.0000000000000000     
  -1.8312488044669076E-002   1.2186602519454659E-002   0.0000000000000000     
  -2.2407057343841456E-002   1.5342249381033768E-002   0.0000000000000000     
  -2.6369246074766629E-002   1.8651035613418791E-002   0.0000000000000000     
  -3.0199054237444602E-002   2.2112961216609741E-002   0.0000000000000000     
  -3.3896481831875373E-002   2.5728026190606608E-002   0.0000000000000000     
  -2.1228386643494926E-002   1.3620025642040481E-002   0.0000000000000000     
  -2.5433460985033431E-002   1.6613049401017176E-002   0.0000000000000000     
  -2.9538173346861662E-002   1.9810583034366159E-002   0.0000000000000000     
  -3.3542523728979624E-002   2.3212626542087434E-002   0.0000000000000000     
  -3.7446512131387326E-002   2.6819179924180994E-002   0.0000000000000000     
  -2.4626721969950475E-002   2.2825785357911445E-002   0.0000000000000000     
  -2.7531557248146321E-002   2.6674556030475291E-002   0.0000000000000000     
  -3.0362403203050829E-002   3.0739496718590779E-002   0.0000000000000000     
  -3.3119259834664003E-002   3.5020607422257911E-002   0.0000000000000000     
  -3.5802127142985835E-002   3.9517888141476686E-002   0.0000000000000000     
  -2.7486586751156946E-002   2.3731328907471830E-002   0.0000000000000000     
  -3.0623302891752149E-002   2.7549579268080979E-002   0.0000000000000000     
  -3.3682954165634466E-002   3.1589183685600437E-002   0.0000000000000000     
  -3.6665540572803891E-002   3.5850142160030199E-002   0.0000000000000000     
  -3.9571062113260433E-002   4.0332454691370291E-002   0.0000000000000000     
  -3.0576506705131911E-002   2.4698742518370218E-002   0.0000000000000000     
  -3.3941026053506969E-002   2.8499695080880173E-002   0.0000000000000000     
  -3.7224482037085067E-002   3.2520106774360881E-002   0.0000000000000000     
  -4.0426874655866210E-002   3.6759977598812332E-002   0.0000000000000000     
  -4.3548203909850397E-002   4.1219307554234516E-002   0.0000000000000000     
  -3.3896481831875373E-002   2.5728026190606608E-002   0.0000000000000000     
  -3.7484726733410766E-002   2.9524903468872897E-002   0.0000000000000000     
  -4.0986986817402635E-002   3.3532265984872120E-002   0.0000000000000000     
  -4.4403262083850939E-002   3.7750113738604284E-002   0.0000000000000000     
  -4.7733552532755706E-002   4.2178446730069388E-002   0.0000000000000000     
  -3.7446512131387326E-002   2.6819179924180994E-002   0.0000000000000000     
  -4.1254404931463561E-002   3.0625204432059138E-002   0.0000000000000000     
  -4.4970468506587147E-002   3.4625661317134168E-002   0.0000000000000000     
  -4.8594702856758092E-002   3.8820550579406074E-002   0.0000000000000000     
  -5.2127107981976388E-002   4.3209872218874866E-002   0.0000000000000000     
  -3.5802127142985835E-002   3.9517888141476686E-002   0.0000000000000000     
  -3.8410505964965404E-002   4.4221319661812392E-002   0.0000000000000000     
  -4.0943897137551810E-002   4.9120882768830303E-002   0.0000000000000000     
  -4.3402300660745026E-002   5.4216577462530446E-002   0.0000000000000000     
  -4.5785716534545072E-002   5.9508403742912788E-002   0.0000000000000000     
  -3.9571062113260433E-002   4.0332454691370291E-002   0.0000000000000000     
  -4.2396740973501268E-002   4.5021664667363522E-002   0.0000000000000000     
  -4.5139799340023601E-002   4.9903315475752726E-002   0.0000000000000000     
  -4.7800237212827397E-002   5.4977407116537889E-002   0.0000000000000000     
  -5.0378054591912698E-002   6.0243939589719020E-002   0.0000000000000000     
  -4.3548203909850397E-002   4.1219307554234516E-002   0.0000000000000000     
  -4.6584164001882124E-002   4.5884592552112219E-002   0.0000000000000000     
  -4.9530449134805893E-002   5.0742328503930137E-002   0.0000000000000000     
  -5.2387059308621704E-002   5.5792515409688284E-002   0.0000000000000000     
  -5.5153994523329572E-002   6.1035153269386661E-002   0.0000000000000000     
  -4.7733552532755706E-002   4.2178446730069388E-002   0.0000000000000000     
  -5.0972775050107957E-002   4.6810103316058442E-002   0.0000000000000000     
  -5.4115846521898693E-002   5.1637921853362530E-002   0.0000000000000000     
  -5.7162766948127934E-002   5.6661902341981610E-002   0.0000000000000000     
  -6.0113536328795687E-002   6.1882044781915703E-002   0.0000000000000000     
  -5.2127107981976388E-002   4.3209872218874866E-002   0.0000000000000000     
  -5.5562574118178783E-002   4.7798196959202247E-002   0.0000000000000000     
  -5.8895991501302029E-002   5.2590095524049918E-002   0.0000000000000000     
  -6.2127360131346114E-002   5.7585567913417880E-002   0.0000000000000000     
  -6.5256680008311058E-002   6.2784614127306126E-002   0.0000000000000000     
  -4.5785716534545072E-002   5.9508403742912788E-002   0.0000000000000000     
  -4.8096763910495513E-002   6.4990076288912610E-002   0.0000000000000000     
  -5.0338061940139907E-002   7.0655309779465172E-002   0.0000000000000000     
  -5.2509610623478253E-002   7.6504104214570490E-002   0.0000000000000000     
  -5.4611409960510553E-002   8.2536459594228548E-002   0.0000000000000000     
  -5.0378054591912698E-002   6.0243939589719020E-002   0.0000000000000000     
  -5.2877449655180632E-002   6.5699314952826438E-002   0.0000000000000000     
  -5.5302620580532376E-002   7.1339935263390400E-002   0.0000000000000000     
  -5.7653567367967923E-002   7.7165800521410935E-002   0.0000000000000000     
  -5.9930290017487266E-002   8.3176910726888015E-002   0.0000000000000000     
  -5.5153994523329572E-002   6.1035153269386661E-002   0.0000000000000000     
  -5.7837038691760483E-002   6.6466585439347192E-002   0.0000000000000000     
  -6.0441975726745457E-002   7.2083155275891722E-002   0.0000000000000000     
  -6.2968805628284524E-002   7.7884862779020250E-002   0.0000000000000000     
  -6.5417528396377655E-002   8.3871707948732818E-002   0.0000000000000000     
  -6.0113536328795687E-002   6.1882044781915703E-002   0.0000000000000000     
  -6.2975531020235037E-002   6.7291887748474860E-002   0.0000000000000000     
  -6.5756127378779186E-002   7.2884969816969125E-002   0.0000000000000000     
  -6.8455325404428100E-002   7.8661290987398505E-002   0.0000000000000000     
  -7.1073125097181736E-002   8.4620851259762986E-002   0.0000000000000000     
  -6.5256680008311058E-002   6.2784614127306126E-002   0.0000000000000000     
  -6.8292926640604351E-002   6.8175221880209455E-002   0.0000000000000000     
  -7.1245075536633520E-002   7.3745378886622609E-002   0.0000000000000000     
  -7.4113126696398593E-002   7.9495085146545616E-002   0.0000000000000000     
  -7.6897080119899527E-002   8.5424340659978476E-002   0.0000000000000000     
  -5.4611409960510553E-002   8.2536459594228548E-002   0.0000000000000000     
  -5.6637151316628151E-002   8.8738547545332364E-002   0.0000000000000000     
  -5.8580526057222373E-002   9.5096539694774981E-002   0.0000000000000000     
  -6.0441534182293220E-002  0.10161043604255639        0.0000000000000000     
  -6.2220175691840691E-002  0.10828023658867658        0.0000000000000000     
  -5.9930290017487266E-002   8.3176910726888015E-002   0.0000000000000000     
  -6.2125178723525902E-002   8.9358046154383419E-002   0.0000000000000000     
  -6.4230623680519336E-002   9.5693987078458803E-002   0.0000000000000000     
  -6.6246624888467553E-002  0.10218473349911428        0.0000000000000000     
  -6.8173182347370562E-002  0.10883028541634973        0.0000000000000000     
  -6.5417528396377655E-002   8.3871707948732818E-002   0.0000000000000000     
  -6.7779009506049898E-002   9.0028437774486464E-002   0.0000000000000000     
  -7.0044114432326235E-002   9.6339799245738267E-002   0.0000000000000000     
  -7.2212843175206723E-002  0.10280579236248820        0.0000000000000000     
  -7.4285195734691348E-002  0.10942641712473632        0.0000000000000000     
  -7.1073125097181736E-002   8.4620851259762986E-002   0.0000000000000000     
  -7.3598643664200103E-002   9.0749722405641609E-002   0.0000000000000000     
  -7.6020998312643098E-002   9.7033976196613358E-002   0.0000000000000000     
  -7.8340189042510736E-002  0.10347361263267828        0.0000000000000000     
  -8.0556215853802987E-002  0.11006863171383632        0.0000000000000000     
  -7.6897080119899527E-002   8.5424340659978476E-002   0.0000000000000000     
  -7.9584081197976567E-002   9.1521900047848742E-002   0.0000000000000000     
  -8.2161275321469898E-002   9.7776517931084050E-002   0.0000000000000000     
  -8.4628662490379578E-002  0.10418819430968439        0.0000000000000000     
  -8.6986242704705535E-002  0.11075692918364975        0.0000000000000000     
  -6.2220175691840691E-002  0.10828023658867658        0.0000000000000000     
  -6.3930757102790489E-002  0.11509492645618230        0.0000000000000000     
  -6.5587584932068357E-002  0.12204349076812025        0.0000000000000000     
  -6.7190659179674275E-002  0.12912592952449048        0.0000000000000000     
  -6.8739979845608257E-002  0.13634224272529297        0.0000000000000000     
  -6.8173182347370562E-002  0.10883028541634973        0.0000000000000000     
  -7.0026661494012321E-002  0.11562052484382676        0.0000000000000000     
  -7.1823427765176751E-002  0.12254533379520684        0.0000000000000000     
  -7.3563481160863864E-002  0.12960471227049003        0.0000000000000000     
  -7.5246821681073675E-002  0.13679866026967624        0.0000000000000000     
  -7.4285195734691348E-002  0.10942641712473632        0.0000000000000000     
  -7.6278128136293352E-002  0.11619204518568826        0.0000000000000000     
  -7.8208596405526049E-002  0.12309304819854978        0.0000000000000000     
  -8.0076600542389395E-002  0.13012942616332088        0.0000000000000000     
  -8.1882140546883447E-002  0.13730117908000150        0.0000000000000000     
  -8.0556215853802987E-002  0.11006863171383632        0.0000000000000000     
  -8.2685157029633596E-002  0.11680948748176684        0.0000000000000000     
  -8.4743090853116224E-002  0.12368663397814905        0.0000000000000000     
  -8.6730017324250869E-002  0.13070007120298305        0.0000000000000000     
  -8.8645936443037587E-002  0.13784979915626874        0.0000000000000000     
  -8.6986242704705535E-002  0.11075692918364975        0.0000000000000000     
  -8.9247748174033040E-002  0.11747285173206243        0.0000000000000000     
  -9.1426911107947290E-002  0.12432609113400467        0.0000000000000000     
  -9.3523731506448313E-002  0.13131664738947654        0.0000000000000000     
  -9.5538209369536081E-002  0.13844452049847800        0.0000000000000000     
  -6.8739979845608257E-002  0.13634224272529297        0.0000000000000000     
  -7.0213517983224630E-002  0.14368174240831533        0.0000000000000000     
  -7.1589244645877764E-002  0.15113374061134507        0.0000000000000000     
  -7.2867159833567660E-002  0.15869823733438226        0.0000000000000000     
  -7.4047263546294317E-002  0.16637523257742692        0.0000000000000000     
  -7.5246821681073675E-002  0.13679866026967624        0.0000000000000000     
  -7.6850685396755061E-002  0.14411569169448402        0.0000000000000000     
  -7.8352308378856969E-002  0.15154432044663166        0.0000000000000000     
  -7.9751690627379385E-002  0.15908454652611925        0.0000000000000000     
  -8.1048832142322294E-002  0.16673636993294680        0.0000000000000000     
  -8.1882140546883447E-002  0.13730117908000150        0.0000000000000000     
  -8.3597475155905251E-002  0.14459396563493998        0.0000000000000000     
  -8.5194863106351909E-002  0.15199344451448454        0.0000000000000000     
  -8.6674304398223420E-002  0.15949961571863516        0.0000000000000000     
  -8.8035799031519757E-002  0.16711247924739192        0.0000000000000000     
  -8.8645936443037587E-002  0.13784979915626874        0.0000000000000000     
  -9.0453887260675200E-002  0.14511656422968328        0.0000000000000000     
  -9.2116908828362570E-002  0.15248111281490370        0.0000000000000000     
  -9.3635001146099711E-002  0.15994344491192999        0.0000000000000000     
  -9.5008164213886651E-002  0.16750356052076226        0.0000000000000000     
  -9.5538209369536081E-002  0.13844452049847800        0.0000000000000000     
  -9.7419921711064866E-002  0.14568348747871390        0.0000000000000000     
  -9.9118445544888967E-002  0.15300732534788919        0.0000000000000000     
 -0.10063378087100834       0.16041603410600383        0.0000000000000000     
 -0.10196592768942302       0.16790961375305780        0.0000000000000000     
 </DataArray>
 <DataArray  type="Float64" Name="stress" NumberOfComponents="3" format="ascii">
   13416660375.783426        4024998112.7350278        2894210953.0519996     
   11766474932.052958        1890272220.7499917        1715944695.5684001     
   10313628651.838045        413343540.48348665        810748263.46383703     
   9058121535.1386929       -405787928.06448412        178621656.73831087     
   7999953581.9549046       -567122184.89392328       -180435124.60817927     
   10539923212.639273        3161976963.7917819        2225888553.7097297     
   9667494064.2494469        1589439571.2366199        1446808468.1845074     
   8943746127.9544106        512506218.99741697        863196823.05846477     
   8368679403.7541609       -68823092.925828457        475053618.33160371     
   7942293891.6486988       -154548364.53311205        282378854.00392157     
   8337876464.7587452        2501362939.4276237        1712435194.2966335     
   8021485368.9099751        1424498573.4624588        1275773670.7388873     
   7805117533.7352219        681045076.41068029        956979202.60046458     
   7688772959.2344837        271002448.27228785        756051789.88136673     
   7672451645.4077625        194370689.04728031        672991432.58159435     
   6810520132.1418428        2043156039.6425529        1353850874.8127115     
   6828448846.0345402        1395449227.4275093        1202840303.2315397     
   6897742869.1804819        918960112.72327828        1092095402.0898368     
   7018402201.5796690        613688695.52986073        1021616171.3876039     
   7190426843.2320976        479634975.84725451        991402611.12483799     
   5957854214.7885637        1787356264.4365692        1150135595.2579625     
   6088384495.6231413        1502291533.1317706        1228008365.6624660     
   6221622134.2901917        1226251327.9352117        1268545421.5265825     
   6357567130.7897120        959235648.84689093        1271746762.8503110     
   6496219485.1217041        701244495.86681008        1237612389.6336527     
   7999953581.9549046       -567122184.89392328       -180435124.60817927     
   7917548309.6245556       -199489756.78817463       -78358817.458020091     
   7793565113.7868814        29549592.959832191       -8876192.3325607441     
   7628003994.4418831        119995864.35008669        28012750.768197864     
   7420864951.5895624        71849057.382600784        32308011.844255187     
   7942293891.6486988       -154548364.53311205        282378854.00392157     
   7739508089.9001713        16734599.092299938        281205311.31509078     
   7513268541.1946239        109838406.19431639        265336458.28628501     
   7263575245.5320578        124763056.77294016        234772294.91750601     
   6990428202.9124727        61508550.828165054        189512821.20875123     
   7672451645.4077625        194370689.04728031        672991432.58159435     
   7400423519.0545616        184645649.63640499        589712912.69579458     
   7123065822.2946482        157155375.53648710        509637454.15474778     
   6840378555.1280222        111899866.74752641        432765056.95845407     
   6552361717.5546808        48879123.269519329        359095721.10691428     
   7190426843.2320976        479634975.84725451        991402611.12483799     
   6900294597.0877295        304243394.84414387        847163986.68409288     
   6622956957.0869532        171500500.98634267        724026795.27282798     
   6358413923.2297707        81406294.273847818        621991036.89104450     
   6106665495.5161810        33960774.706664085        541056711.53873789     
   6496219485.1217041        701244495.86681008        1237612389.6336527     
   6239121323.9996748        375527834.71551728        1053558533.2799841     
   6012941945.5715446        152873782.54388261        908504481.64052415     
   5817681349.8373108        33282339.351909161        802450234.71527112     
   5653339536.7969742        16753505.139593124        735395792.50422478     
   7420864951.5895624        71849057.382600784        32308011.844255187     
   7217140776.5841198       -19524489.401194572        15192915.190454600     
   7025817909.5890484       -69560342.817075253        2734471.5873440313     
   6846896350.6043577       -78258502.865023136       -5067318.9650717145     
   6680376099.6300421       -45618969.545062065       -8212456.4667987237     
   6990428202.9124727        61508550.828165054        189512821.20875123     
   6807404499.9601593        1732372.3265576363        181240953.59370884     
   6632301352.0151854       -31641956.150588036        176944172.59602714     
   6465118759.0775499       -38614434.603273869        176622478.21571663     
   6305856721.1472521       -19185063.031493664        180275870.45276377     
   6552361717.5546808        48879123.269519329        359095721.10691428     
   6388091153.9888515        20116113.250108242        354439537.36041242     
   6227260392.4273243        2819109.9116997719        353076873.79795367     
   6069869432.8700943       -3011886.7457115650        355007730.41953152     
   5915918275.3171692        2623123.2778818607        360232107.22515118     
   6106665495.5161810        33960774.706664085        541056711.53873789     
   5959200738.6701889        35626733.369455338        534788666.49057299     
   5810695030.8254604        33822855.369785070        531132575.19311947     
   5661148371.9819946        28549140.707662582        530088437.64638144     
   5510560762.1397915        19805589.383077860        531656253.85035187     
   5653339536.7969742        16753505.139593124        735395792.50422478     
   5520733254.0041704        48264232.684589863        722288340.98418510     
   5382605267.2095957        61369280.223671675        711111276.78152812     
   5238955576.4132433        56068647.756832123        701864599.89625955     
   5089784181.6151171        32362335.284078598        694548310.32837701     
   6680376099.6300421       -45618969.545062065       -8212456.4667987237     
   6495563045.4749947       -8550445.2669508457       -207822.11130588612     
   6304887253.8012457        8975620.6154623032        11938488.958171187     
   6108348724.6087894        6959228.1022014618        28226476.741632175     
   5905947457.8976202       -14599622.806775570        48656141.239075474     
   6305856721.1472521       -19185063.031493664        180275870.45276377     
   6127345232.4556580        1143337.2429332733        177624003.08596358     
   5945313538.6013746        9737720.3083829880        179540922.59330276     
   5759761639.5843992        6598086.1648666859        186026628.97477517     
   5570689535.4047222       -8275565.1876590252        197081122.23039398     
   5915918275.3171692        2623123.2778818607        360232107.22515118     
   5744928666.8323288        6577493.9716320038        349656692.55140626     
   5572761385.5408068        6606288.6430988312        344077174.91195124     
   5399416431.4426031        2709507.2922942638        343493554.30679113     
   5224893804.5377207       -5112850.0807769299        347905830.73592389     
   5510560762.1397915        19805589.383077860        531656253.85035187     
   5348313348.6049995        7752024.9191145897        515890246.28501087     
   5187230794.6195440       -418674.38039803505        505547245.91411895     
   5027313100.1834173       -4706508.5154812336        500627252.73766917     
   4868560265.2966251       -5111477.4861211777        501130266.75567007     
   5089784181.6151171        32362335.284078598        694548310.32837701     
   4937499277.7736788        4666930.0854129791        676324664.28678775     
   4788721765.8375835       -11337168.762104511        663951135.59980106     
   4643451645.8068333       -15649961.258476257        657427724.26741588     
   4501688917.6814308       -8271447.4036948681        656754430.28963280     
   5905947457.8976202       -14599622.806775570        48656141.239075474     
   5739940728.9160843       -29729860.363732338        54302859.541436836     
   5576836464.0685024       -35185217.474180698        61724475.080519125     
   5416634663.3548737       -30965694.138120651        70920987.856336430     
   5259335326.7751913       -17071290.355561256        81892397.868883640     
   5570689535.4047222       -8275565.1876590252        197081122.23039398     
   5411868251.4060793       -16730508.878740311        201982928.38951901     
   5254815608.7946186       -19289981.279222965        209096650.25277328     
   5099531607.5703306       -15953982.389125109        218422287.82017758     
   4946016247.7332220       -6722512.2084310055        229959841.09171945     
   5224893804.5377207       -5112850.0807769299        347905830.73592389     
   5074506589.7145844       -6517912.6481838226        350739931.54723650     
   4924754193.5318451       -5806913.0809252262        356222966.53010261     
   4775636615.9895105       -2979851.3789892197        364354935.68451935     
   4627153857.0875711        1963272.4576051235        375135839.01049030     
   4868560265.2966251       -5111477.4861211777        501130266.75567007     
   4727855743.8415918        907928.32791948318        500573869.01460457     
   4586652218.2801828        5263987.1207020283        503103423.91250002     
   4444949688.6124029        7956698.8922486305        508718931.44935888     
   4302748154.8382435        8986063.6425361633        517420391.62518388     
   4501688917.6814308       -8271447.4036948681        656754430.28963280     
   4371915713.7871065        5547014.0495696068        651484740.79161441     
   4240509683.0396323        13922719.325670481        649738022.39997065     
   4107470825.4390001        16855668.424588203        651514275.11470056     
   3972799140.9852247        14345861.346353054        656813498.93580520     
   5259335326.7751913       -17071290.355561256        81892397.868883640     
   5048566883.1557169       -16868293.289776087        79568801.409898221     
   4836444981.1573648       -21176824.153591156        82097398.890290663     
   4622969620.7801161       -29996882.947051048        89478190.310078263     
   4408140802.0239801       -43328469.670146704        101711175.66925015     
   4946016247.7332220       -6722512.2084310055        229959841.09171945     
   4747078185.2268248       -9600301.9175398350        224511962.17487064     
   4547372064.3514833       -15038286.189795494        224023133.27674425     
   4346897885.1072025       -23036465.025196075        228493354.39733446     
   4145655647.4939651       -33594838.423759460        237922625.53666118     
   4627153857.0875711        1963272.4576051235        375135839.01049030     
   4440351478.7780647       -3903713.1012754440        367246644.31404477     
   4253366442.1095428       -10379559.856830359        364423355.71566838     
   4066198747.0820322       -17464267.809031248        366665973.21534038     
   3878848393.6955223       -25157836.957910776        373974496.81307954     
   4302748154.8382435        8986063.6425361633        517420391.62518388     
   4128386763.8094230        221473.15902686119        507772847.82742232     
   3954428114.4315491       -7200645.1546714306        503298066.20705152     
   3780872206.7046256       -13280291.298536777        503996046.76407719     
   3607719040.6286402       -18017465.272592306        509866789.49849284     
   3972799140.9852247        14345861.346353054        656813498.93580520     
   3811184040.3209190        2775256.8633737564        646090572.71499300     
   3650557081.3174953       -5501542.0833237171        640647264.75091171     
   3490918263.9749675       -10484535.493701935        640483575.04355574     
   3332267588.2933245       -12173723.367796659        645599503.59292173     
   4408140802.0239801       -43328469.670146704        101711175.66925015     
   4250239944.5759506       -42672457.724033594        106492576.36682084     
   4091654662.1728115       -44297862.294972420        120675449.51965141     
   3932384954.8145576       -48204683.382942438        144259795.12772840     
   3772430822.5011969       -54392920.987949133        177245613.19105628     
   4145655647.4939651       -33594838.423759460        237922625.53666118     
   4011568915.1496568       -26103561.371498346        239402660.74771819     
   3876867603.0666852       -20660883.448100090        248222412.40496475     
   3741551711.2450686       -17266804.653514624        264381880.50839862     
   3605621239.6847897       -15921324.987815619        287881065.05801117     
   3878848393.6955223       -25157836.957910776        373974496.81307954     
   3762685055.0004497       -12598514.235835075        372234652.62348509     
   3645976981.7831764       -1854973.2544274330        375772768.87101150     
   3528724174.0437045        7072785.9863178730        384588845.55566192     
   3410926631.7820401        14184763.486425400        398682882.67743069     
   3607719040.6286402       -18017465.272592306        509866789.49849284     
   3503588364.1283321       -2157316.3170394897        504988551.99411774     
   3398982798.3222809        12119868.286021709        503326518.91780120     
   3293902343.2104878        24814088.536624193        504880690.26953411     
   3188346998.7929521        35925344.434746504        509651066.04931915     
   3332267588.2933245       -12173723.367796659        645599503.59292173     
   3234278842.5333071        5220032.3848787546        637664358.85963273     
   3135885052.6840000        21263641.173268437        630883662.54532754     
   3037086218.7454109        35957102.997374415        625257414.65001166     
   2937882340.7175264        49300417.857179403        620785615.17367506     
   3772430822.5011969       -54392920.987949133        177245613.19105628     
   3404080730.4072261       -109820063.80705762        192411190.86719388     
   3045171029.8969774       -133779234.68040466        239993441.35279819     
   2695701720.9704590       -126270433.60796440        319992364.64788276     
   2355672803.6276922       -87293660.589743137        432407960.75243276     
   3605621239.6847897       -15921324.987815619        287881065.05801117     
   3316869421.6949701       -50880083.251242638        298658659.05833560     
   3035023721.4655833       -62818448.979881048        333525548.50876564     
   2760084138.9966435       -51736422.173707604        392481733.40930194     
   2492050674.2881384       -17634002.832741141        475527213.75993234     
   3410926631.7820401        14184763.486425400        398682882.67743069     
   3177980581.1552973       -7443362.2436696291        402115840.20811856     
   2949406374.4657092       -14498674.849920750        421310715.82952946     
   2725204011.7132626       -6981174.3323335648        456267509.54166323     
   2505373492.8979845        15109139.309094071        506986221.34453315     
   3188346998.7929521        35925344.434746504        509651066.04931915     
   2987414208.7882338        20490099.215701342        502782734.31651872     
   2788318988.8973708        11180087.709516644        503348943.31508142     
   2591061339.1203656        7995309.9161924124        511349693.04498279     
   2395641259.4572225        10935765.835726738        526784983.50624418     
   2937882340.7175264        49300417.857179403        620785615.17367506     
   2745170304.5937548        32920301.126837611        600659341.38355172     
   2551761564.7605548        14217838.698400855        579640230.96541739     
   2357656121.2179179       -6806969.4281493425        557728283.91925275     
   2162853973.9658475       -30154123.252811074        534923500.24507439     
   5957854214.7885637        1787356264.4365692        1150135595.2579625     
   6088384495.6231413        1502291533.1317706        1228008365.6624660     
   6221622134.2901917        1226251327.9352117        1268545421.5265825     
   6357567130.7897120        959235648.84689093        1271746762.8503110     
   6496219485.1217041        701244495.86681008        1237612389.6336527     
   5434513528.9951401        1630354058.6985421        1033577457.9650017     
   5489867119.6910009        1372503132.7909942        1113972214.8495312     
   5547406646.1270809        1121938659.3508501        1167594354.1529922     
   5607132108.3033829        878660638.37811065        1194443875.8753836     
   5669043506.2199068        642669069.87277532        1194520780.0167072     
   4895132891.0577984        1468539867.3173394        936464565.26644337     
   4905490068.6415663        1246956829.9150298        1018772982.8567059     
   4917511759.8733034        1030922171.3392891        1084871879.8252189     
   4931197964.7530127        820435891.59011757        1134761256.1719818     
   4946548683.2806911        615497990.66751528        1168441111.8969953     
   4339712300.9765387        1301913690.2929616        858796917.16228712     
   4335253342.4748383        1125652624.5038779        942410669.68399119     
   4331937475.5288582        953201863.90052748        1020377998.5432642     
   4329764700.1385984        784561408.48291171        1092698903.7401059     
   4328735016.3040590        619731258.25102973        1159373385.2745171     
   3768251758.7513614        1130475527.6254084        800574513.65253329     
   3779156941.1908183        1008590516.5575376        884885275.33138645     
   3790683793.0937448        888777737.03456521        974112710.30712700     
   3802832314.4601412        771037189.05649269        1068256818.5797554     
   3815602505.2900066        655368872.62331879        1167317600.1492710     
   6496219485.1217041        701244495.86681008        1237612389.6336527     
   6239121323.9996748        375527834.71551728        1053558533.2799841     
   6012941945.5715446        152873782.54388261        908504481.64052415     
   5817681349.8373108        33282339.351909161        802450234.71527112     
   5653339536.7969742        16753505.139593124        735395792.50422478     
   5669043506.2199068        642669069.87277532        1194520780.0167072     
   5518892727.3860559        382989183.00914955        1073738152.7210349     
   5392883705.9988995        203781820.96783924        980983682.25106108     
   5291016442.0584373        105046983.74884415        916257368.60678637     
   5213290935.5646715        86784671.352162361        879559211.78821135     
   4946548683.2806911        615497990.66751528        1168441111.8969953     
   4871997721.3392811        412450608.47283626        1103023184.2042475     
   4814811491.5973606        267285666.94312716        1054661765.4486899     
   4774989994.0549326        180003166.07838893        1023356855.6303236     
   4752533228.7119961        150603105.87861967        1009108454.7491477     
   4328735016.3040590        619731258.25102973        1159373385.2745171     
   4298436305.8593512        463912111.10657561        1141413627.7296231     
   4278725302.3669319        343385320.46974778        1129538731.2334111     
   4269602005.8267980        258150886.34054375        1123748695.7858813     
   4271066416.2389536        208208808.71896696        1124043521.3870344     
   3815602505.2900066        655368872.62331879        1167317600.1492710     
   3798208480.9462638        537373690.91036808        1188909483.2971599     
   3784625138.3076057        432080781.54769957        1205614579.6052232     
   3774852477.3740315        339490144.53531182        1217432889.0734603     
   3768890498.1455421        259601779.87320316        1224364411.7018721     
   5653339536.7969742        16753505.139593124        735395792.50422478     
   5520733254.0041704        48264232.684589863        722288340.98418510     
   5382605267.2095957        61369280.223671675        711111276.78152812     
   5238955576.4132433        56068647.756832123        701864599.89625955     
   5089784181.6151171        32362335.284078598        694548310.32837701     
   5213290935.5646715        86784671.352162361        879559211.78821135     
   5078310359.2843733        84638016.203361034        855744538.40967059     
   4941138912.2720013        75188458.614317179        835940186.42192829     
   4801776594.5275555        58435998.585023165        820146155.82499027     
   4660223406.0510349        34380636.115485907        808362446.61885262     
   4752533228.7119961        150603105.87861967        1009108454.7491477     
   4621121027.7253885        116581868.67037845        978472531.66009140     
   4490848789.2764111        86360506.587562799        953926864.03525078     
   4361716513.3650608        59939019.630172253        935471451.87462640     
   4233724199.9913378        37317407.798207045        923106295.17822027     
   4271066416.2389536        208208808.71896696        1124043521.3870344     
   4149165259.3272247        144095790.08564162        1090472320.7354467     
   4031734898.2228260        94885424.143411160        1065071309.6214916     
   3918775332.9257541        60577710.892278194        1047840488.0451686     
   3810286563.4360123        41172650.332241774        1038779856.0064782     
   3768890498.1455421        259601779.87320316        1224364411.7018721     
   3662443054.0898776        167179780.44914818        1191743905.6357386     
   3563797239.1112442        100763211.28185952        1169373523.1806536     
   3472953053.2096405        60352072.371340275        1157253264.3366153     
   3389910496.3850679        45946363.717586875        1155383129.1036253     
   5089784181.6151171        32362335.284078598        694548310.32837701     
   4937499277.7736788        4666930.0854129791        676324664.28678775     
   4788721765.8375835       -11337168.762104511        663951135.59980106     
   4643451645.8068333       -15649961.258476257        657427724.26741588     
   4501688917.6814308       -8271447.4036948681        656754430.28963280     
   4660223406.0510349        34380636.115485907        808362446.61885262     
   4524312380.7809143        12555056.855763912        794511167.17904472     
   4390946380.6920252       -787105.13317775726        786050486.37666118     
   4260125405.7843733       -5645849.8513312340        782980404.21169806     
   4131849456.0579562       -2021177.2987012863        785300920.68416131     
   4233724199.9913378        37317407.798207045        923106295.17822027     
   4112874142.6720147        20967781.291270733        912504621.16206753     
   3993606743.8098207        9893682.9747574329        906834027.06615639     
   3875922003.4047503        4095112.8486599922        906094512.89049125     
   3759819921.4568081        3572070.9129869938        910286078.63506734     
   3810286563.4360123        41172650.332241774        1038779856.0064782     
   3703184563.4469843        29905103.391940117        1030305026.2358503     
   3596702855.1909695        20705195.561695576        1026301757.6682872     
   3490841438.6679754        13572926.841511488        1026770050.3037900     
   3385600313.8779936        8508297.2313780785        1031709904.1423558     
   3389910496.3850679        45946363.717586875        1155383129.1036253     
   3295243643.1058187        39367023.157769561        1147912382.4003956     
   3200234714.8354750        31647432.627645731        1144453678.1830533     
   3104883711.5740376        22787592.127208829        1145007016.4515977     
   3009190633.3215113        12787501.656466722        1149572397.2060218     
   4501688917.6814308       -8271447.4036948681        656754430.28963280     
   4371915713.7871065        5547014.0495696068        651484740.79161441     
   4240509683.0396323        13922719.325670481        649738022.39997065     
   4107470825.4390001        16855668.424588203        651514275.11470056     
   3972799140.9852247        14345861.346353054        656813498.93580520     
   4131849456.0579562       -2021177.2987012863        785300920.68416131     
   4010002126.2360096        5975079.2939939499        777964474.79929888     
   3887220539.1902390        10857145.140601158        774545469.75463915     
   3763504694.9206319        12625020.241092205        775043905.55018783     
   3638854593.4272017        11278704.595491886        779459782.18593490     
   3759819921.4568081        3572070.9129869938        910286078.63506734     
   3647025522.0896149        6084239.5598380566        901697874.26423740     
   3533995435.1279125        7810782.8916511536        897421580.46743941     
   3420729660.5716982        8751700.9084300995        897457197.24467385     
   3307228198.4209704        8906993.6101677418        901804724.59593689     
   3385600313.8779936        8508297.2313780785        1031709904.1423558     
   3282985901.3479190        5874494.8470871449        1022684939.1864289     
   3180834370.8526545        4783632.5788236856        1018366354.5383627     
   3079145722.3921947        5235710.4265887737        1018754150.1981584     
   2977919955.9665499        7230728.3903888464        1023848326.1658136     
   3009190633.3215113        12787501.656466722        1149572397.2060218     
   2917883264.0109229        5345845.1557480097        1140925669.5658731     
   2827737346.3644590        1775694.2021117210        1137379791.9674134     
   2738752880.3821292        2077048.7955870628        1138934764.4106429     
   2650929866.0639248        6249908.9361418486        1145590586.8955605     
   3972799140.9852247        14345861.346353054        656813498.93580520     
   3811184040.3209190        2775256.8633737564        646090572.71499300     
   3650557081.3174953       -5501542.0833237171        640647264.75091171     
   3490918263.9749675       -10484535.493701935        640483575.04355574     
   3332267588.2933245       -12173723.367796659        645599503.59292173     
   3638854593.4272017        11278704.595491886        779459782.18593490     
   3491561669.8334718        2709361.1867349148        770386766.45681465     
   3344919367.5516663       -3691244.5156173706        766358593.04659677     
   3198927686.5817761       -7923112.5115805864        767375261.95527589     
   3053586626.9238110       -9986242.8011351824        773436773.18285680     
   3307228198.4209704        8906993.6101677418        901804724.59593689     
   3173586663.5040412        3137674.7575139999        893987845.61804450     
   3040258229.5500579       -1587974.2186447382        890981033.02122378     
   2907242896.5590210       -5269953.3183150291        892784286.80547237     
   2774540664.5309381       -7908262.5414813757        899397606.97079909     
   2977919955.9665499        7230728.3903888464        1023848326.1658136     
   2857259021.3326230        4060197.5756955147        1016893810.1986750     
   2736573667.3126740        808268.80759537220        1014514584.6747862     
   2615863893.9067025       -2525057.9139095545        1016710649.5941421     
   2495129701.1147075       -5939782.5888350010        1023482004.9567490     
   2650929866.0639248        6249908.9361418486        1145590586.8955605     
   2542578743.3192120        5476929.6412690878        1139104660.1987164     
   2433865680.8395119        3497484.5631009340        1136959248.0072930     
   2324790678.6248116        311573.70160079002        1139154350.3212893     
   2215353736.6751232       -4080802.9431947470        1145689967.1407053     
   3332267588.2933245       -12173723.367796659        645599503.59292173     
   3234278842.5333071        5220032.3848787546        637664358.85963273     
   3135885052.6840000        21263641.173268437        630883662.54532754     
   3037086218.7454109        35957102.997374415        625257414.65001166     
   2937882340.7175264        49300417.857179403        620785615.17367506     
   3053586626.9238110       -9986242.8011351824        773436773.18285680     
   2958449599.4608822        3802727.6599060297        765420565.23067653     
   2863183417.3401413        17161182.594917178        759275411.84764612     
   2767788080.5616055        30089122.003934383        755001313.03377295     
   2672263589.1252656        42586545.886934996        752598268.78905773     
   2774540664.5309381       -7908262.5414813757        899397606.97079909     
   2684302801.5084391        2890156.4709168673        891622206.80312181     
   2594211673.2596159        14177691.395575762        886434467.35476923     
   2504267279.7844763        25954342.232504129        883834388.62574327     
   2414469621.0830145        38220108.981693268        883821970.61603665     
   2495129701.1147075       -5939782.5888350010        1023482004.9567490     
   2411838448.6759796        2482318.8179301023        1016269283.5769755     
   2328969820.4424076        12313167.575224757        1012360829.0666922     
   2246523816.4140034        23552763.683070540        1011756641.4259001     
   2164500436.5907607        36201107.141457558        1014456720.6546072     
   2215353736.6751232       -4080802.9431947470        1145689967.1407053     
   2141056540.9635055        2579214.7009389400        1139361795.5522299     
   2067457858.8885276        11567611.133871913        1137054496.9834173     
   1994557690.4502003        22884386.355641365        1138768071.4342620     
   1922356035.6485133        36529540.366210461        1144502518.9047680     
   2937882340.7175264        49300417.857179403        620785615.17367506     
   2745170304.5937548        32920301.126837611        600659341.38355172     
   2551761564.7605548        14217838.698400855        579640230.96541739     
   2357656121.2179179       -6806969.4281493425        557728283.91925275     
   2162853973.9658475       -30154123.252811074        534923500.24507439     
   2672263589.1252656        42586545.886934996        752598268.78905773     
   2479505073.7718954        24861449.579260230        735505013.13858104     
   2286181880.3188028        5254092.9391905069        719579220.76504159     
   2092294008.7659950       -16235524.033267736        704820891.66845167     
   1897841459.1134675       -39607401.338129282        691230025.84879136     
   2414469621.0830145        38220108.981693268        883821970.61603665     
   2227551197.6570659        20916004.443793178        869915762.98319948     
   2040200121.7411146        2169724.9391993284        859237318.53227246     
   1852416393.3351653       -18018729.532054663        851786637.26323879     
   1664200012.4391994       -39649358.970000744        847563719.17610621     
   2164500436.5907607        36201107.141457558        1014456720.6546072     
   1989308676.2492688        21083965.720435262        1003891590.9174196     
   1813816289.0274813        4964734.6984380484        998614524.26708925     
   1638023274.9254003       -12156585.924530506        998625520.70361805     
   1461929633.9430470       -30279996.148440659        1003924580.2270093     
   1922356035.6485133        36529540.366210461        1144502518.9047680     
   1764777509.5485013        25365333.409182787        1137432496.9412217     
   1607030382.1779003        13639122.216859102        1137710837.9694989     
   1449114653.5367401        1350906.7893382907        1145337541.9895957     
   1291030323.6249976       -11499312.873456359        1160312609.0015109     
   3768251758.7513614        1130475527.6254084        800574513.65253329     
   3779156941.1908183        1008590516.5575376        884885275.33138645     
   3790683793.0937448        888777737.03456521        974112710.30712700     
   3802832314.4601412        771037189.05649269        1068256818.5797554     
   3815602505.2900066        655368872.62331879        1167317600.1492710     
   3207879388.8095822        962363816.64287460        756660456.79618728     
   3235956956.8764143        868127474.47427964        853051288.34314859     
   3263766866.8630600        772998938.70506406        951354511.94521618     
   3291309118.7695193        676978209.33522773        1051570127.6023902     
   3318583712.5957923        580065286.36477113        1153698135.3146703     
   2685723315.5785174        805716994.67355514        721917848.65225458     
   2722389608.5819211        736554223.19699502        829351201.26639223     
   2757898915.9614825        663534832.97429478        935692664.69385469     
   2792251237.7172017        586658824.00545430        1040942238.9346428     
   2825446573.8490801        505926196.29047388        1145099923.9887569     
   2201783539.0581660        660535061.71744978        696346689.22073543     
   2238454896.3073382        613870762.72568369        813785014.10111737     
   2273079940.3890133        560385419.84225786        927127168.55304337     
   2305658671.3031898        500079033.06717241        1036373152.5765131     
   2336191089.0498686        432951602.40042675        1141522966.1715283     
   1756060059.2485287        526818017.77455866        679946978.50162947     
   1784152820.0526669        500077093.06034553        806352726.84732401     
   1809309940.1456513        463550699.30895346        925658023.52278125     
   1831531419.5274816        417238836.52038145        1037862868.5280020     
   1850817258.1981585        361141504.69463062        1142967261.8629856     
   3815602505.2900066        655368872.62331879        1167317600.1492710     
   3798208480.9462638        537373690.91036808        1188909483.2971599     
   3784625138.3076057        432080781.54769957        1205614579.6052232     
   3774852477.3740315        339490144.53531182        1217432889.0734603     
   3768890498.1455421        259601779.87320316        1224364411.7018721     
   3318583712.5957923        580065286.36477113        1153698135.3146703     
   3294034204.5191622        472825240.68139219        1181929063.1547225     
   3273194183.8796077        377950153.12159860        1207060605.1101696     
   3256063650.6771283        295440023.68538976        1229092761.1810131     
   3242642604.9117241        225294852.37276506        1248025531.3672528     
   2825446573.8490801        505926196.29047388        1145099923.9887569     
   2798848441.9116230        410973344.59828335        1179851836.5416279     
   2775858603.1432352        328048136.80298436        1213291764.1651161     
   2756477057.5439124        257150572.90457439        1245419706.8592217     
   2740703805.1136565        198280652.90305388        1276235664.6239457     
   2336191089.0498686        432951602.40042675        1141522966.1715283     
   2312651193.1236482        351818002.66104478        1182677803.4578753     
   2292618396.0984869        282374732.59185898        1224308056.7700613     
   2276092697.9743824        224621792.19286466        1266413726.1080861     
   2263074098.7513380        178559181.46406686        1308994811.4719505     
   1850817258.1981585        361141504.69463062        1142967261.8629856     
   1835442458.1552360        295359214.86967498        1190406963.9034655     
   1823473562.7453630        240929940.48821825        1240109482.9250062     
   1814910571.9685400        197853681.55026221        1292074818.9276075     
   1809753485.8247666        166130438.05580407        1346302971.9112682     
   3768890498.1455421        259601779.87320316        1224364411.7018721     
   3662443054.0898776        167179780.44914818        1191743905.6357386     
   3563797239.1112442        100763211.28185952        1169373523.1806536     
   3472953053.2096405        60352072.371340275        1157253264.3366153     
   3389910496.3850679        45946363.717586875        1155383129.1036253     
   3242642604.9117241        225294852.37276506        1248025531.3672528     
   3165215739.5257277        150915364.43037426        1230886803.3549590     
   3093948021.3772140        97066367.279586434        1221657817.2894413     
   3028839450.4661789        63747860.920402646        1220338573.1706963     
   2969890026.7926259        50959845.352821112        1226929070.9987266     
   2740703805.1136565        198280652.90305388        1276235664.6239457     
   2685610713.6422606        139937635.01580584        1272662485.8526850     
   2635034287.5687962        96650168.454997063        1274658667.3639257     
   2588974526.8932638        68418253.220627785        1282224209.1576669     
   2547431431.6156635        55241889.312697768        1295359111.2339101     
   2263074098.7513380        178559181.46406686        1308994811.4719505     
   2223627976.4394760        134246592.20544398        1317070953.1289153     
   2187056037.6859951        99514614.808093071        1328376073.4041083     
   2153358282.4908967        74363249.272017479        1342910172.2975283     
   2122534710.8541844        58792495.597220898        1360673249.8091757     
   1809753485.8247666        166130438.05580407        1346302971.9112682     
   1779267527.9173708        133842235.99928248        1364112205.1836510     
   1750013271.7288082        105659706.33887047        1382810035.4099886     
   1721990717.2590795        81582849.074572980        1402396462.5902803     
   1695199864.5081840        61611664.206385374        1422871486.7245255     
   3389910496.3850679        45946363.717586875        1155383129.1036253     
   3295243643.1058187        39367023.157769561        1147912382.4003956     
   3200234714.8354750        31647432.627645731        1144453678.1830533     
   3104883711.5740376        22787592.127208829        1145007016.4515977     
   3009190633.3215113        12787501.656466722        1149572397.2060218     
   2969890026.7926259        50959845.352821112        1226929070.9987266     
   2884795996.8314977        39978159.102903843        1218701803.6944206     
   2799905266.5805364        29674138.553546786        1214842130.0774252     
   2715217836.0397444        20047783.704755187        1215350050.1477387     
   2630733705.2091222        11099094.556523085        1220225563.9053597     
   2547431431.6156635        55241889.312697768        1295359111.2339101     
   2472926085.5481505        40162615.545325756        1287011593.8133345     
   2399169413.8920679        27578923.149389029        1283387221.2814913     
   2326161416.6474152        17490812.124884605        1284485993.6383798     
   2253902093.8141932        9898282.4718155861        1290307910.8839996     
   2122534710.8541844        58792495.597220898        1360673249.8091757     
   2059633909.2557807        39920392.485042214        1352841752.7571356     
   1998027156.7700694        25361786.415171504        1350088951.7952499     
   1937714453.3970509        15116677.387609005        1352414846.9235187     
   1878695799.1367223        9185065.4023464918        1359819438.1419423     
   1695199864.5081840        61611664.206385374        1422871486.7245255     
   1644919467.9543867        39251489.922054768        1416192280.5258250     
   1596478495.2145422        23022728.350895882        1414947321.6187012     
   1549876946.2886503        12925379.492916584        1419136610.0031559     
   1505114821.1767130        8959443.3481158614        1428760145.6791880     
   3009190633.3215113        12787501.656466722        1149572397.2060218     
   2917883264.0109229        5345845.1557480097        1140925669.5658731     
   2827737346.3644590        1775694.2021117210        1137379791.9674134     
   2738752880.3821292        2077048.7955870628        1138934764.4106429     
   2650929866.0639248        6249908.9361418486        1145590586.8955605     
   2630733705.2091222        11099094.556523085        1220225563.9053597     
   2552856002.9338636        5772971.0108499527        1213157939.8880689     
   2475856739.6534572        3374977.4480261803        1210831779.0204864     
   2399735915.3679070        3905113.8680518866        1213247081.3026094     
   2324493530.0772104        7363380.2709196806        1220403846.7344384     
   2253902093.8141932        9898282.4718155861        1290307910.8839996     
   2188427238.8828850        6379645.9737836123        1284489209.0420835     
   2123547810.2771573        4845763.8943513632        1283052583.4578884     
   2059263807.9970098        5296636.2335191965        1285998034.1314173     
   1995575232.0424411        7732262.9912793636        1293325561.0626714     
   1878695799.1367223        9185065.4023464918        1359819438.1419423     
   1824596971.8579884        7165870.0445431471        1354919477.0279100     
   1770810558.2355561        6188053.5410846472        1354042205.2796185     
   1717336558.2694311        6251615.8919776678        1357187622.8970680     
   1664174971.9596090        7356557.0972193480        1364355729.8802571     
   1505114821.1767130        8959443.3481158614        1428760145.6791880     
   1461365201.8591692        8131643.2231175303        1424448743.8455534     
   1417644983.5286584        7401846.3882312179        1423800644.4856777     
   1373954166.1851773        6770052.8434401155        1426815847.5995607     
   1330292749.8287227        6236262.5887429118        1433494353.1872005     
   2650929866.0639248        6249908.9361418486        1145590586.8955605     
   2542578743.3192120        5476929.6412690878        1139104660.1987164     
   2433865680.8395119        3497484.5631009340        1136959248.0072930     
   2324790678.6248116        311573.70160079002        1139154350.3212893     
   2215353736.6751232       -4080802.9431947470        1145689967.1407053     
   2324493530.0772104        7363380.2709196806        1220403846.7344384     
   2227515149.0086508        5390877.7010389566        1212916944.7175310     
   2130377029.8862994        2885914.9518522024        1210114604.0864732     
   2033079172.7101474       -151507.97666442394        1211996824.8412666     
   1935621577.4802120       -3721391.0844696760        1218563606.9819155     
   1995575232.0424411        7732262.9912793636        1293325561.0626714     
   1910952583.7369730        4855134.4724636078        1285073585.6870992     
   1826372399.0589151        2119551.3783456087        1281850218.5778086     
   1741834678.0082612       -474486.29109275341        1283655459.7347972     
   1657339420.5850148       -2926978.5358372927        1290489309.1580710     
   1664174971.9596090        7356557.0972193480        1364355729.8802571     
   1592891047.5041857        3869699.9555670619        1355574583.1074204     
   1521851788.3573644        1198393.8425922394        1352166091.4812982     
   1451057194.5191505       -657361.24169015884        1354130255.0018871     
   1380507265.9895458       -1697565.2972812653        1361467073.6691897     
   1330292749.8287227        6236262.5887429118        1433494353.1872005     
   1273330540.3102808        2434574.1503202915        1424419936.9784989     
   1216815197.7816446        122442.34458816051        1421062222.7969394     
   1160746722.2428160       -700132.82845646143        1423421210.6425276     
   1105125113.6937923       -33151.368817448616        1431496900.5152552     
   2215353736.6751232       -4080802.9431947470        1145689967.1407053     
   2141056540.9635055        2579214.7009389400        1139361795.5522299     
   2067457858.8885276        11567611.133871913        1137054496.9834173     
   1994557690.4502003        22884386.355641365        1138768071.4342620     
   1922356035.6485133        36529540.366210461        1144502518.9047680     
   1935621577.4802120       -3721391.0844696760        1218563606.9819155     
   1871619691.7048302        3236337.9894288778        1213336900.7106614     
   1808101213.8812730        11805426.902737379        1211940087.9638295     
   1745066144.0095413        21985875.655465364        1214373168.7414143     
   1682514482.0896297        33777684.247593582        1220636143.0434256     
   1657339420.5850148       -2926978.5358372927        1290489309.1580710     
   1603087189.0451903        4164765.2576277852        1286113111.5717509     
   1549103259.7723672        12150849.941100717        1285375828.0146091     
   1495387632.7665465        21031275.514578640        1288277458.4866490     
   1441940308.0277274        30806041.978064537        1294818002.9878745     
   1380507265.9895458       -1697565.2972812653        1361467073.6691897     
   1335459032.9845881        5364496.5055404902        1357690428.1355045     
   1290463996.5618119        12603880.248965919        1357361717.1357632     
   1245522156.7212214        20020585.933004498        1360480940.6699610     
   1200633513.4628046        27614613.557629347        1367048098.7381024     
   1105125113.6937923       -33151.368817448616        1431496900.5152552     
   1068735223.5230204        6835531.7331635952        1428068850.4019191     
   1032183424.2496125        13164517.826350331        1427897755.3272843     
   995469715.87355578        18953806.910713017        1430983615.2913504     
   958594098.39486289        24203398.986288428        1437326430.2941194     
   1922356035.6485133        36529540.366210461        1144502518.9047680     
   1764777509.5485013        25365333.409182787        1137432496.9412217     
   1607030382.1779003        13639122.216859102        1137710837.9694989     
   1449114653.5367401        1350906.7893382907        1145337541.9895957     
   1291030323.6249976       -11499312.873456359        1160312609.0015109     
   1682514482.0896297        33777684.247593582        1220636143.0434256     
   1544393370.0259192        23676400.913896441        1213241109.9168708     
   1406301647.6701486        13673083.273338675        1213219665.2979460     
   1268239315.0223155        3767731.3259171247        1220571809.1866713     
   1130206372.0824304       -6039654.9283741117        1235297541.5830436     
   1441940308.0277274        30806041.978064537        1294818002.9878745     
   1323348682.9026706        21789304.138425112        1287328948.1732354     
   1204984438.4640698        13530501.920303464        1287238707.3820567     
   1086847574.7119274        6029635.3236985803        1294547280.6143448     
   968938091.64623308       -713295.65138077736        1309254667.8701065     
   1200633513.4628046        27614613.557629347        1367048098.7381024     
   1101643448.1787572        19704043.082756877        1359696011.7103157     
   1003078754.5596774        13211378.157775760        1359767964.2218134     
   904939432.60556769        8136618.7826960683        1367263956.2726054     
   807225482.31643260        4479764.9575315416        1382183987.8626852     
   958594098.39486289        24203398.986288428        1437326430.2941194     
   879277665.85417247        17420617.746880531        1430342300.5281236     
   800584595.95696783        12715711.985759705        1430807435.8172343     
   722514888.70324206        10088681.702902079        1438721836.1614556     
   645068544.09300911        9539526.8983569741        1454085501.5607901     
   1756060059.2485287        526818017.77455866        679946978.50162947     
   1784152820.0526669        500077093.06034553        806352726.84732401     
   1809309940.1456513        463550699.30895346        925658023.52278125     
   1831531419.5274816        417238836.52038145        1037862868.5280020     
   1850817258.1981585        361141504.69463062        1142967261.8629856     
   1326344806.9375648        397903442.08126944        669609740.43501055     
   1339640409.3106725        375515558.08282989        791755707.24927413     
   1350734281.1513689        345788572.30968404        908615148.31395781     
   1359626422.4596534        308722484.76183212        1020188063.6290613     
   1366316833.2355256        264317295.43927300        1126474453.1945846     
   890429712.91323185        267128913.87396955        662225998.96095216     
   894110802.34290051        250648864.23758081        780968412.78565073     
   896324071.41889954        229276080.08895880        896238226.78142595     
   897069520.14122796        203010561.42810315        1008035440.9482780     
   896347148.50988674        171852308.25501436        1116360055.2862060     
   448314777.17553085        134494433.15265924        657795754.07945430     
   447563999.14935070        125477011.52459842        773990843.45645356     
   446079310.94824249        114013222.64677718        888527258.92518568     
   443860712.57220614        100103066.51919560        1001405000.4856515     
   440908204.02124172        83746543.141853407        1112624068.1378503     
 -0.27553880651479762       -8.2661641954439286E-002   656319005.79051685     
 -0.26997718392376024       -5.6117324615029218E-002   770822999.26168215     
 -0.26060177653651162       -1.6860521392509251E-002   885482244.74523723     
 -0.24741274591108992        3.5108511078892082E-002   1000296742.2411823     
 -0.23040965884319836        9.9790891552845054E-002   1115266491.7495172     
   1850817258.1981585        361141504.69463062        1142967261.8629856     
   1835442458.1552360        295359214.86967498        1190406963.9034655     
   1823473562.7453630        240929940.48821825        1240109482.9250062     
   1814910571.9685400        197853681.55026221        1292074818.9276075     
   1809753485.8247666        166130438.05580407        1346302971.9112682     
   1366316833.2355256        264317295.43927300        1126474453.1945846     
   1360532955.0768480        216704744.64288276        1181806266.0740638     
   1357303505.3889551        177606955.41577688        1238059877.4922326     
   1356628484.1718483        147023927.75795597        1295235287.4490902     
   1358507891.4255271        124955661.66942006        1353332495.9446380     
   896347148.50988674        171852308.25501436        1116360055.2862060     
   896322710.97153604        141260052.10801351        1178590590.1487093     
   898001225.74170625        116344303.65608227        1240401905.1075313     
   901382692.82039785        97105062.899222136        1301794000.1626723     
   906467112.20761013        83542329.837431639        1362766875.3141308     
   440908204.02124172        83746543.141853407        1112624068.1378503     
   442811725.83930027        69025137.265066579        1180759936.1274033     
   445566723.80361617        57141985.209136724        1247135565.7709036     
   449173197.91418779        48097086.974059328        1311750957.0683503     
   453631148.17101693        41890442.559840947        1374606110.0197444     
 -0.23040965884319836        9.9790891552845054E-002   1115266491.7495172     
 -0.31985913459999893       0.11404281822920274        1188314304.0101442     
 -0.42531613104352495        7.4936212512214578E-002   1258260859.4823470     
 -0.54678041906160324       -1.7528053470657556E-002   1325106158.1661265     
 -0.68425288329172063      -0.16335273335464562        1388850200.0614812     
   1809753485.8247666        166130438.05580407        1346302971.9112682     
   1779267527.9173708        133842235.99928248        1364112205.1836510     
   1750013271.7288082        105659706.33887047        1382810035.4099886     
   1721990717.2590795        81582849.074572980        1402396462.5902803     
   1695199864.5081840        61611664.206385374        1422871486.7245255     
   1358507891.4255271        124955661.66942006        1353332495.9446380     
   1333261948.6419084        100025067.79539728        1372398615.3922768     
   1308939782.1517053        78173728.232759058        1392909009.1698265     
   1285541391.9549174        59401642.981506586        1414863677.2772908     
   1263066778.0515444        43708812.041635454        1438262619.7146685     
   906467112.20761013        83542329.837431639        1362766875.3141308     
   888048834.19336760        66445639.039590210        1382730634.6073680     
   870246407.04712224        51401784.468405306        1404694345.6064780     
   853059830.76887381        38410766.123877525        1428658008.3114600     
   836489105.35862172        27472584.006006122        1454621622.7223148     
   453631148.17101693        41890442.559840947        1374606110.0197444     
   443628184.57174766        33103949.731857806        1395108262.8289270     
   433933146.41505748        25343875.045804575        1418166044.7199414     
   424546033.70094597        18610218.501681060        1443779455.6927879     
   415466846.42941391        12902980.099488452        1471948495.7474670     
 -0.68425288329172063      -0.16335273335464562        1388850200.0614812     
 -0.22295046989902828      -0.12779641699274308        1409531500.0569549     
  0.25551257538352395       -3.5038341276002638E-002   1433324106.5102191     
  0.75113618964838147       0.11492215146546493        1460228019.4212751     
   1.2639210648786450       0.32208615353556258        1490243238.7901213     
   1695199864.5081840        61611664.206385374        1422871486.7245255     
   1644919467.9543867        39251489.922054768        1416192280.5258250     
   1596478495.2145422        23022728.350895882        1414947321.6187012     
   1549876946.2886503        12925379.492916584        1419136610.0031559     
   1505114821.1767130        8959443.3481158614        1428760145.6791880     
   1263066778.0515444        43708812.041635454        1438262619.7146685     
   1228023477.9775076        27738780.542865217        1435094403.7375374     
   1194359745.7588222        16367308.561932683        1436738135.5796692     
   1162075581.3954880        9594396.0988363624        1443193815.2410653     
   1131170984.8875053        7420043.1535811424        1454461442.7217193     
   836489105.35862172        27472584.006006122        1454621622.7223148     
   814904903.27201390        17359295.745093733        1454427898.3483877     
   794240413.08215702        10311713.806684405        1458423822.3214052     
   774495634.78905070        6329838.1907769144        1466609394.6413696     
   755670568.39269400        5413668.8973702490        1478984615.3082821     
   415466846.42941391        12902980.099488452        1471948495.7474670     
   405563743.83790475        8113035.5287363529        1474192764.3583722     
   396120497.18454593        4855944.0851514190        1480004381.8439095     
   387137106.46933603        3131705.7687284201        1489383348.2040772     
   378613571.69227701        2940320.5794776678        1502329663.4388752     
   1.2639210648786450       0.32208615353556258        1490243238.7901213     
 -0.32481872045555382      -0.10620361046642168        1494389001.7674930     
  -1.9340085393976552      -0.60265980621671900        1501479814.1471808     
  -3.5636518404254258       -1.1672949694753054        1511515675.9291849     
  -5.2137464675254037       -1.8001001788071611        1524496587.1135013     
   1505114821.1767130        8959443.3481158614        1428760145.6791880     
   1461365201.8591692        8131643.2231175303        1424448743.8455534     
   1417644983.5286584        7401846.3882312179        1423800644.4856777     
   1373954166.1851773        6770052.8434401155        1426815847.5995607     
   1330292749.8287227        6236262.5887429118        1433494353.1872005     
   1131170984.8875053        7420043.1535811424        1454461442.7217193     
   1097245528.1725886        6465219.8389148116        1449765129.2533524     
   1063342121.8612176        5583897.8694024682        1448991874.5108645     
   1029460765.9533947        4776077.2450519800        1452141678.4942577     
   995601460.44912219        4041757.9658672810        1459214541.2035229     
   755670568.39269400        5413668.8973702490        1478984615.3082821     
   732311435.00074124        4554470.6091230214        1473894814.5244553     
   708967001.42885768        3744271.7211050391        1472987828.7186294     
   685637267.67703843        2983072.2333018780        1476263657.8907988     
   662322233.74528575        2270872.1457224190        1483722302.0409684     
   378613571.69227701        2940320.5794776678        1502329663.4388752     
   366562922.34363425        2399395.5337611735        1496837799.6588619     
   354519622.23157394        1882967.9433202446        1495788507.1089649     
   342483671.35610271        1391037.8081745356        1499181785.7891891     
   330455069.71721536        923605.12831157446        1507017635.6995270     
  -5.2137464675254037       -1.8001001788071611        1524496587.1135013     
  -9.7987381944705643       -5.3871869419620753        1518594084.6565702     
  -15.730625295951894       -13.463924606626188        1517393909.6818776     
  -23.009411031724493       -26.030325079483930        1520896062.1894224     
  -31.635093674690047       -43.086380868817429        1529100542.1792030     
   1330292749.8287227        6236262.5887429118        1433494353.1872005     
   1273330540.3102808        2434574.1503202915        1424419936.9784989     
   1216815197.7816446        122442.34458816051        1421062222.7969394     
   1160746722.2428160       -700132.82845646143        1423421210.6425276     
   1105125113.6937923       -33151.368817448616        1431496900.5152552     
   995601460.44912219        4041757.9658672810        1459214541.2035229     
   953628153.77555025        1414992.9279521704        1451003216.2782743     
   911989997.52836251       -94604.022017717361        1448333978.4218211     
   870686991.70755720       -487032.88404399157        1451206827.6341603     
   829719136.31313562        237706.34187400341        1459621763.9152954     
   662322233.74528575        2270872.1457224190        1483722302.0409684     
   634838930.03558743        669360.54401841760        1476243732.4085126     
   607579060.18884683       -187371.51449021697        1474132634.8864989     
   580542624.20506954       -299324.02979025245        1477389009.4749312     
   553729622.08424795        333502.99809771776        1486012856.1738083     
   330455069.71721536        923605.12831157446        1507017635.6995270     
   316962869.09038937        197676.99851547182        1500141485.3692026     
   303582385.76309812       -155860.13283264637        1498458192.1909726     
   290313619.73534560       -137006.26571735740        1501967756.1648402     
   277156571.00712878        254238.59984953701        1510670177.2907996     
  -31.635093674690047       -43.086380868817429        1529100542.1792030     
  -29.060044480667791       -57.708563294312320        1522696475.1603515     
  -25.748886013292690       -69.877049876687892        1521310650.3352454     
  -21.701606846265282       -79.591799926194014        1524943067.7038810     
  -16.918222134587360       -86.852864826865087        1533593727.2662654     
   1105125113.6937923       -33151.368817448616        1431496900.5152552     
   1068735223.5230204        6835531.7331635952        1428068850.4019191     
   1032183424.2496125        13164517.826350331        1427897755.3272843     
   995469715.87355578        18953806.910713017        1430983615.2913504     
   958594098.39486289        24203398.986288428        1437326430.2941194     
   829719136.31313562        237706.34187400341        1459621763.9152954     
   801483415.46594834        5106227.0408099294        1455934246.0718796     
   773126263.60480261        9569977.6932186484        1455723787.0701506     
   744647680.72969854        13628958.299099684        1458990386.9100986     
   716047666.84064078        17283168.858467788        1465734045.5917284     
   553729622.08424795        333502.99809771776        1486012856.1738083     
   534276938.56914818        3390521.6965328753        1482113095.0371201     
   514743302.12877560        6177697.3107256591        1481910496.5450876     
   495128712.76312608        8695029.8406618834        1485405060.6977170     
   475433170.47220880        10942519.286374092        1492596787.4949977     
   277156571.00712878        254238.59984953701        1510670177.2907996     
   267115792.83262178        1688415.7003338039        1506605397.2976308     
   257034539.82152915        2987676.6788632870        1506457883.7521026     
   246912811.97384200        4152021.5354122221        1510227636.6542046     
   236750609.28957200        5181450.2700173259        1517914656.0039382     
  -16.918222134587360       -86.852864826865087        1533593727.2662654     
  -21.743625489866446       -90.947768226746518        1529411152.8534191     
  -23.316934006300595       -84.202358272702355        1529365948.6911838     
  -21.638153082501756       -66.616648449824780        1533458114.7795587     
  -16.707267437653030       -38.190590250670297        1541687651.1185520     
   958594098.39486289        24203398.986288428        1437326430.2941194     
   879277665.85417247        17420617.746880531        1430342300.5281236     
   800584595.95696783        12715711.985759705        1430807435.8172343     
   722514888.70324206        10088681.702902079        1438721836.1614556     
   645068544.09300911        9539526.8983569741        1454085501.5607901     
   716047666.84064078        17283168.858467788        1465734045.5917284     
   656599647.23332620        12207887.573957771        1460057857.5211515     
   597619153.06081855        8691024.4054693580        1461821760.5084693     
   539106184.32311320        6732579.3529932499        1471025754.5536759     
   481060741.02020681        6332552.4165088534        1487669839.6567886     
   475433170.47220880        10942519.286374092        1492596787.4949977     
   435827352.37766564        7566874.5306106806        1488046731.0430431     
   396533222.50923830        5230190.5285697430        1490927591.6517718     
   357550780.86692870        3932467.2802543640        1501239369.3211789     
   318880027.45073998        3673704.7856680602        1518982064.0512650     
   236750609.28957200        5181450.2700173259        1517914656.0039382     
   216960781.28717810        3497578.6167987883        1514308921.0938129     
   197326804.30221727        2333210.3550212011        1518124929.2471509     
   177848678.33469322        1688345.4847002029        1529362680.4639456     
   158526403.38460040        1562984.0058220848        1548022174.7442136     
  -16.707267437653030       -38.190590250670297        1541687651.1185520     
  -66.038127576219082      -0.16745183536485087        1538844427.6734486     
  -101.56023636544973        83.884857050502490        1543413773.2945986     
  -123.27359305045434        213.96634100490206        1555395687.9819973     
  -131.17820309847127        390.07697694648022        1574790171.7356396     
 -0.27553880651479762       -8.2661641954439286E-002   656319005.79051685     
 -0.26997718392376024       -5.6117324615029218E-002   770822999.26168215     
 -0.26060177653651162       -1.6860521392509251E-002   885482244.74523723     
 -0.24741274591108992        3.5108511078892082E-002   1000296742.2411823     
 -0.23040965884319836        9.9790891552845054E-002   1115266491.7495172     
  -448314777.71617973       -134494433.31485394        657795754.09722733     
  -447563999.67946869       -125477011.62083830        773990843.48755538     
  -446079311.46218657       -114013222.65825266        888527258.96619165     
  -443860713.06433362       -100103066.42709731        1001405000.5331371     
  -440908204.48590970       -83746542.927371740        1112624068.1883905     
  -890429713.42259490       -267128914.02677849        662225999.00267315     
  -894110802.85210991       -250648864.31450427        780968412.85171378     
  -896324071.92429662       -229276080.07780257        896238226.86498177     
  -897069520.63915515       -203010561.31667358        1008035441.0424768     
  -896347148.99668586       -171852308.03111720        1116360055.3841989     
  -1326344807.3947842       -397903442.21843523        669609740.50685370     
  -1339640409.7879007       -375515558.13711500        791755707.35415757     
  -1350734281.6469321       -345788572.27550995        908615148.44160688     
  -1359626422.9718778       -308722484.63362002        1020188063.7692021     
  -1366316833.7627382       -264317295.21144575        1126474453.3369429     
  -1756060059.6327479       -526818017.88982433        679946978.60976970     
  -1784152820.4868414       -500077093.08867079        806352726.99488640     
  -1809309940.6300924       -463550699.25137508        925658023.69606769     
  -1831531420.0625007       -417238836.37793684        1037862868.7133126     
  -1850817258.7840664       -361141504.46835673        1142967262.0466223     
 -0.23040965884319836        9.9790891552845054E-002   1115266491.7495172     
 -0.31985913459999893       0.11404281822920274        1188314304.0101442     
 -0.42531613104352495        7.4936212512214578E-002   1258260859.4823470     
 -0.54678041906160324       -1.7528053470657556E-002   1325106158.1661265     
 -0.68425288329172063      -0.16335273335464562        1388850200.0614812     
  -440908204.48590970       -83746542.927371740        1112624068.1883905     
  -442811726.47581291       -69025137.023835465        1180759936.1387067     
  -445566724.64124870       -57141985.038741156        1247135565.7488015     
  -449173198.98221695       -48097086.972087935        1311750957.0186749     
  -453631149.49871707       -41890442.823874831        1374606109.9483268     
  -896347148.99668586       -171852308.03111720        1116360055.3841989     
  -896322711.60646451       -141260051.85412413        1178590590.1714261     
  -898001226.55130029       -116344303.46065336        1240401905.0666344     
  -901382693.83119369       -97105062.850708455        1301794000.0698230     
  -906467113.44614351       -83542330.024284810        1362766875.1809936     
  -1366316833.7627382       -264317295.21144575        1126474453.3369429     
  -1360532955.7118146       -216704744.37682247        1181806266.1083021     
  -1357303506.1554718       -177606955.19080260        1238059877.4358444     
  -1356628485.0937119       -147023927.65339082        1295235287.3195701     
  -1358507892.5265331       -124955661.76458281        1353332495.7594795     
  -1850817258.7840664       -361141504.46835673        1142967262.0466223     
  -1835442458.7918618       -295359214.59192890        1190406963.9493344     
  -1823473563.4537623       -240929940.22918665        1240109482.8564329     
  -1814910572.7697709       -197853681.38013774        1292074818.7679167     
  -1809753486.7398846       -166130438.04477161        1346302971.6837864     
 -0.68425288329172063      -0.16335273335464562        1388850200.0614812     
 -0.22295046989902828      -0.12779641699274308        1409531500.0569549     
  0.25551257538352395       -3.5038341276002638E-002   1433324106.5102191     
  0.75113618964838147       0.11492215146546493        1460228019.4212751     
   1.2639210648786450       0.32208615353556258        1490243238.7901213     
  -453631149.49871707       -41890442.823874831        1374606109.9483268     
  -443628185.01907581       -33103949.889867812        1395108262.8028083     
  -433933145.93294340       -25343874.934223399        1418166044.6985788     
  -424546032.24032044       -18610217.956944764        1443779455.6356370     
  -415466843.94120884       -12902978.958035603        1471948495.6139841     
  -906467113.44614351       -83542330.024284810        1362766875.1809936     
  -888048834.70959878       -66445639.120255172        1382730634.5820346     
  -870246406.77723396       -51401784.230158955        1404694345.6078618     
  -853059829.64904904       -38410765.353995740        1428658008.2584734     
  -836489103.32504427       -27472582.491766095        1454621622.5338736     
  -1358507892.5265331       -124955661.76458281        1353332495.7594795     
  -1333261949.2945209       -100025067.81896436        1372398615.3946321     
  -1308939782.2773597       -78173727.922846675        1392909009.2380674     
  -1285541391.4750481       -59401642.076226711        1414863677.2897866     
  -1263066776.8875864       -43708810.279108465        1438262619.5497882     
  -1809753486.7398846       -166130438.04477161        1346302971.6837864     
  -1779267528.7738419       -133842235.98599297        1364112205.2406011     
  -1750013272.4333196       -105659706.01228160        1382810035.5891960     
  -1721990717.7183173       -81582848.123638749        1402396462.7295730     
  -1695199864.6288362       -61611662.320064664        1422871486.6617286     
   1.2639210648786450       0.32208615353556258        1490243238.7901213     
 -0.32481872045555382      -0.10620361046642168        1494389001.7674930     
  -1.9340085393976552      -0.60265980621671900        1501479814.1471808     
  -3.5636518404254258       -1.1672949694753054        1511515675.9291849     
  -5.2137464675254037       -1.8001001788071611        1524496587.1135013     
  -415466843.94120884       -12902978.958035603        1471948495.6139841     
  -405563744.39992136       -8113035.0074045062        1474192764.0513225     
  -396120500.84156281       -4855944.3332015276        1480004381.4066155     
  -387137113.26613414       -3131706.9354314804        1489383347.6798623     
  -378613581.67363435       -2940322.8140926361        1502329662.8710644     
  -836489103.32504427       -27472582.491766095        1454621622.5338736     
  -814904904.03761876       -17359294.577381313        1454427897.8082881     
  -794240416.69559979       -10311713.147684634        1458423821.5162959     
  -774495641.29898787       -6329838.2026786208        1466609393.6578972     
  -755670577.84778237       -5413669.7423606217        1478984614.2330923     
  -1263066776.8875864       -43708810.279108465        1438262619.5497882     
  -1228023479.2379131       -27738778.816141844        1435094403.0383890     
  -1194359749.4961228       -16367307.046117783        1436738134.4762220     
  -1162075587.6622152       -9594394.9690383077        1443193813.8632867     
  -1131170993.7361937       -7420042.5849088430        1454461441.1995847     
  -1695199864.6288362       -61611662.320064664        1422871486.6617286     
  -1644919470.0008020       -39251487.723676920        1416192279.7416255     
  -1596478499.2431278       -23022726.028489232        1414947320.2863941     
  -1549876952.3558168       -12925377.234512329        1419136608.2960339     
  -1505114829.3388655       -8959441.3417353034        1428760143.7705443     
  -5.2137464675254037       -1.8001001788071611        1524496587.1135013     
  -9.7987381944705643       -5.3871869419620753        1518594084.6565702     
  -15.730625295951894       -13.463924606626188        1517393909.6818776     
  -23.009411031724493       -26.030325079483930        1520896062.1894224     
  -31.635093674690047       -43.086380868817429        1529100542.1792030     
  -378613581.67363435       -2940322.8140926361        1502329662.8710644     
  -366562940.93246359       -2399404.1044887155        1496837796.2929802     
  -354519651.78397143       -1882990.7038150281        1495788501.1843174     
  -342483714.22815716       -1391082.6120680869        1499181777.5450749     
  -330455128.26502120       -923679.82924793661        1507017625.3752532     
  -755670577.84778237       -5413669.7423606217        1478984614.2330923     
  -732311451.81706977       -4554476.7470530272        1473894808.2471108     
  -708967027.62481916       -3744289.8799507618        1472987817.7177320     
  -685637305.27102745       -2983109.1410466135        1476263642.6449571     
  -662322284.75569606       -2270934.5303425193        1483722283.0287833     
  -1131170993.7361937       -7420042.5849088430        1454461441.1995847     
  -1097245542.4525585       -6465223.3148788810        1449765120.5189595     
  -1063342143.2531687       -5583910.9923329353        1448991859.2821207     
  -1029460796.1380202       -4776105.6172593236        1452141657.4890661     
  -995601501.10711551       -4041807.1896638870        1459214515.1397986     
  -1505114829.3388655       -8959441.3417353034        1428760143.7705443     
  -1461365212.8389323       -8131643.8079801798        1424448733.1085300     
  -1417644998.6690247       -7401854.0409779549        1423800625.8774831     
  -1373954186.8291397       -6770072.0407171249        1426815822.0774066     
  -1330292777.3192787       -6236297.8072016835        1433494321.7082989     
  -31.635093674690047       -43.086380868817429        1529100542.1792030     
  -29.060044480667791       -57.708563294312320        1522696475.1603515     
  -25.748886013292690       -69.877049876687892        1521310650.3352454     
  -21.701606846265282       -79.591799926194014        1524943067.7038810     
  -16.918222134587360       -86.852864826865087        1533593727.2662654     
  -330455128.26502120       -923679.82924793661        1507017625.3752532     
  -316962921.59225988       -197776.66993311048        1500141477.5032701     
  -303582430.91124922        155739.85021317005        1498458186.4862051     
  -290313656.22199315        136869.73117710650        1501967752.3240600     
  -277156597.52449101       -254387.02703811228        1510670175.0168328     
  -662322284.75569606       -2270934.5303425193        1483722283.0287833     
  -634838974.95329189       -669443.87993711233        1476243718.1211605     
  -607579097.87051177        187271.03839355707        1474132624.7296300     
  -580542653.50734794        299210.22466698289        1477389002.8541915     
  -553729641.86380577       -333626.32113176584        1486012852.4948449     
  -995601501.10711551       -4041807.1896638870        1459214515.1397986     
  -953628189.14314461       -1415059.3385877013        1451003197.0140226     
  -911990026.62666643        94523.687512755394        1448333965.0655134     
  -870687013.55767107        486941.88866966963        1451206819.2942696     
  -829719149.93616581       -237804.73513913155        1459621759.7002921     
  -1330292777.3192787       -6236297.8072016835        1433494321.7082989     
  -1273330564.1618197       -2434623.0458950400        1424419914.1818573     
  -1216815217.1797183       -122502.20244473219        1421062207.4938581     
  -1160746736.3729641        700064.72317951918        1423421201.6442981     
  -1105125121.7415674        33077.730947852135        1431496896.6331785     
  -16.918222134587360       -86.852864826865087        1533593727.2662654     
  -21.743625489866446       -90.947768226746518        1529411152.8534191     
  -23.316934006300595       -84.202358272702355        1529365948.6911838     
  -21.638153082501756       -66.616648449824780        1533458114.7795587     
  -16.707267437653030       -38.190590250670297        1541687651.1185520     
  -277156597.52449101       -254387.02703811228        1510670175.0168328     
  -267115828.42100954       -1688571.6992700547        1506605401.8619823     
  -257034579.17355645       -2987822.5582620949        1506457895.4581237     
  -246912849.78213847       -4152139.6040395498        1510227655.8052542     
  -236750640.24674925       -5181522.8365772218        1517914682.9033728     
  -553729641.86380577       -333626.32113176584        1486012852.4948449     
  -534276965.97321224       -3390651.7132141292        1482113103.6385050     
  -514743333.04677445       -6177820.3191508353        1481910518.0335352     
  -495128743.08449697       -8695132.1389558315        1485405095.6799352     
  -475433196.08637726       -10942587.172619700        1492596836.5777032     
  -829719149.93616581       -237804.73513913155        1459621759.7002921     
  -801483434.40023446       -5106330.9896057844        1455934258.1829851     
  -773126284.93658400       -9570077.4850105643        1455723816.4174242     
  -744647701.54522228       -13629044.221378833        1458990434.4036140     
  -716047684.22614729       -17283231.198702306        1465734112.1415520     
  -1105125121.7415674        33077.730947852135        1431496896.6331785     
  -1068735233.7020745       -6835609.5284394026        1428068865.4954214     
  -1032183434.8429878       -13164594.055851877        1427897790.6097901     
  -995469725.16431391       -18953875.851307631        1430983671.9762864     
  -958594104.66605866       -24203454.914820671        1437326509.5949111     
  -16.707267437653030       -38.190590250670297        1541687651.1185520     
  -66.038127576219082      -0.16745183536485087        1538844427.6734486     
  -101.56023636544973        83.884857050502490        1543413773.2945986     
  -123.27359305045434        213.96634100490206        1555395687.9819973     
  -131.17820309847127        390.07697694648022        1574790171.7356396     
  -236750640.24674925       -5181522.8365772218        1517914682.9033728     
  -216960911.41901547       -3497601.0189402252        1514308978.8335061     
  -197327014.86986554       -2333120.1299201325        1518125023.4052722     
  -177848950.59930938       -1688080.1695429981        1529362816.6186645     
  -158526718.60734776       -1562481.1378146857        1548022358.4736962     
  -475433196.08637726       -10942587.172619700        1492596836.5777032     
  -435827461.74180627       -7566913.3529928327        1488046831.4478400     
  -396533405.76316726       -5230167.4198061675        1490927754.5349934     
  -357551028.15045738       -3932349.3730565906        1501239605.8391595     
  -318880328.90368915       -3673459.2127653360        1518982385.3603432     
  -716047684.22614729       -17283231.198702306        1465734112.1415520     
  -656599717.00650227       -12207937.169616997        1460057985.5164595     
  -597619274.24013293       -8691057.9847844839        1461821966.6837611     
  -539106355.92703784       -6732593.6442032158        1471026055.6434636     
  -481060962.06721956       -6332544.1478727162        1487670252.3955629     
  -958594104.66605866       -24203454.914820671        1437326509.5949111     
  -879277677.21310616       -17420672.468816876        1430342441.0393543     
  -800584620.30076873       -12715791.824867219        1430807659.8515816     
  -722514933.92904699       -10088812.982967645        1438722166.0315883     
  -645068618.09794652       -9539735.9431390166        1454085959.5793774     
  -1756060059.6327479       -526818017.88982433        679946978.60976970     
  -1784152820.4868414       -500077093.08867079        806352726.99488640     
  -1809309940.6300924       -463550699.25137508        925658023.69606769     
  -1831531420.0625007       -417238836.37793684        1037862868.7133126     
  -1850817258.7840664       -361141504.46835673        1142967262.0466223     
  -2201783539.3595185       -660535061.80785561        696346689.36819351     
  -2238454896.6887121       -613870762.74054670        813785014.28990924     
  -2273079940.8520594       -560385419.78708410        927127168.77637076     
  -2305658671.8495598       -500079032.94746816        1036373152.8275791     
  -2336191089.6812158       -432951602.22169828        1141522966.4435334     
  -2685723315.7981291       -805716994.73943877        721917848.83889806     
  -2722389608.8919015       -736554223.19281840        829351201.49471664     
  -2757898916.3648257       -663534832.91003346        935692664.96396327     
  -2792251238.2168999       -586658823.89108312        1040942239.2466388     
  -2825446574.4481239       -505926196.13596749        1145099924.3427422     
  -3207879388.9485788       -962363816.68457365        756660457.02188337     
  -3235956957.0964112       -868127474.44548631        853051288.60930884     
  -3263766867.1683908       -772998938.62022233        951354512.25884461     
  -3291309119.1645184       -676978209.20878196        1051570127.9704906     
  -3318583713.0847917       -580065286.21116447        1153698135.7442472     
  -3768251758.8108683       -1130475527.6432605        800574513.91714954     
  -3779156941.3022408       -1008590516.4985499        884885275.63368583     
  -3790683793.2627563       -888777736.91765141        974112710.66101432     
  -3802832314.6924152       -771037188.90056431        1068256818.9991357     
  -3815602505.5912189       -655368872.44728971        1167317600.6480491     
  -1850817258.7840664       -361141504.46835673        1142967262.0466223     
  -1835442458.7918618       -295359214.59192890        1190406963.9493344     
  -1823473563.4537623       -240929940.22918665        1240109482.8564329     
  -1814910572.7697709       -197853681.38013774        1292074818.7679167     
  -1809753486.7398846       -166130438.04477161        1346302971.6837864     
  -2336191089.6812158       -432951602.22169828        1141522966.4435334     
  -2312651193.7528005       -351818002.42506772        1182677803.5936220     
  -2292618396.7422047       -282374732.35450339        1224308056.7855930     
  -2276092698.6494293       -224621792.01000750        1266413726.0194471     
  -2263074099.4744740       -178559181.39157593        1308994811.2951846     
  -2825446574.4481239       -505926196.13596749        1145099924.3427422     
  -2798848442.4763637       -410973344.38699436        1179851836.7658734     
  -2775858603.6861367       -328048136.57646608        1213291764.2683852     
  -2756477058.0774446       -257150572.70438504        1245419706.8502767     
  -2740703805.6502838       -198280652.77074671        1276235664.5115490     
  -3318583713.0847917       -580065286.21116447        1153698135.7442472     
  -3294034204.9625511       -472825240.47770786        1181929063.4660892     
  -3273194184.2855573       -377950152.89507461        1207060605.3048084     
  -3256063651.0538111       -295440023.46326733        1229092761.2604055     
  -3242642605.2673140       -225294852.18228459        1248025531.3328800     
  -3815602505.5912189       -655368872.44728971        1167317600.6480491     
  -3798208481.2113628       -537373690.69720888        1188909483.6942692     
  -3784625138.5404687       -432080781.31033158        1205614579.8948641     
  -3774852477.5785346       -339490144.28665829        1217432889.2498333     
  -3768890498.3255625       -259601779.62618613        1224364411.7591772     
  -1809753486.7398846       -166130438.04477161        1346302971.6837864     
  -1779267528.7738419       -133842235.98599297        1364112205.2406011     
  -1750013272.4333196       -105659706.01228160        1382810035.5891960     
  -1721990717.7183173       -81582848.123638749        1402396462.7295730     
  -1695199864.6288362       -61611662.320064664        1422871486.6617286     
  -2263074099.4744740       -178559181.39157593        1308994811.2951846     
  -2223627977.4897952       -134246592.26115513        1317070953.3530509     
  -2187056039.0032887       -99514614.791314125        1328376073.9246316     
  -2153358284.0149579       -74363248.982055902        1342910173.0099277     
  -2122534712.5248027       -58792494.833383679        1360673250.6089389     
  -2740703805.6502838       -198280652.77074671        1276235664.5115490     
  -2685610714.7271538       -139937635.09273624        1272662486.2190361     
  -2635034289.1748524       -96650168.650823593        1274658668.1621728     
  -2588974528.9933805       -68418253.445007682        1282224210.3409588     
  -2547431434.1827378       -55241889.475290656        1295359112.7553935     
  -3242642605.2673140       -225294852.18228459        1248025531.3328800     
  -3165215740.4859214       -150915364.48074317        1230886803.8385577     
  -3093948022.9480119       -97066367.590813160        1221657818.3018193     
  -3028839452.6535864       -63747861.512494445        1220338574.7226648     
  -2969890029.6026444       -50959846.245791197        1226929073.1010945     
  -3768890498.3255625       -259601779.62618613        1224364411.7591772     
  -3662443054.7660947       -167179780.42516780        1191743906.2116148     
  -3563797240.3227649       -100763211.61127687        1169373524.3435724     
  -3472953054.9955740       -60352073.184515476        1157253266.1550462     
  -3389910498.7845216       -45946365.144881129        1155383131.6460392     
  -1695199864.6288362       -61611662.320064664        1422871486.6617286     
  -1644919470.0008020       -39251487.723676920        1416192279.7416255     
  -1596478499.2431278       -23022726.028489232        1414947320.2863941     
  -1549876952.3558168       -12925377.234512329        1419136608.2960339     
  -1505114829.3388655       -8959441.3417353034        1428760143.7705443     
  -2122534712.5248027       -58792494.833383679        1360673250.6089389     
  -2059633912.3194947       -39920391.588257074        1352841753.0611489     
  -1998027161.2653091       -25361785.513534665        1350088951.8812959     
  -1937714459.3622427       -15116676.609212518        1352414847.0693829     
  -1878695806.6102960       -9185064.8752894402        1359819438.6254032     
  -2547431434.1827378       -55241889.475290656        1295359112.7553935     
  -2472926088.6771131       -40162615.664519310        1287011595.0856996     
  -2399169417.6033669       -27578923.293342710        1283387222.6870070     
  -2326161420.9614992       -17490812.361761093        1284485995.5593200     
  -2253902098.7515106       -9898282.8697756529        1290307913.7026365     
  -2969890029.6026444       -50959846.245791197        1226929073.1010945     
  -2884795999.0736532       -39978159.952454209        1218701805.8152747     
  -2799905268.2572999       -29674139.367909670        1214842132.7035248     
  -2715217837.1535850       -20047784.492159605        1215350053.7658472     
  -2630733705.7625041       -11099095.325194716        1220225569.0022385     
  -3389910498.7845216       -45946365.144881129        1155383131.6460392     
  -3295243643.5091181       -39367024.452067137        1147912385.2498777     
  -3200234713.2271123       -31647433.737247109        1144453681.9308522     
  -3104883707.9385018       -22787593.000408769        1145007021.6889648     
  -3009190627.6432843       -12787502.241556525        1149572404.5242136     
  -1505114829.3388655       -8959441.3417353034        1428760143.7705443     
  -1461365212.8389323       -8131643.8079801798        1424448733.1085300     
  -1417644998.6690247       -7401854.0409779549        1423800625.8774831     
  -1373954186.8291397       -6770072.0407171249        1426815822.0774066     
  -1330292777.3192787       -6236297.8072016835        1433494321.7082989     
  -1878695806.6102960       -9185064.8752894402        1359819438.6254032     
  -1824596979.3703580       -7165870.2231734991        1354919468.1183639     
  -1770810566.3385556       -6188056.2648376226        1354042187.7222767     
  -1717336567.5148900       -6251623.0002919436        1357187597.4371412     
  -1664174982.8993597       -7356570.4295324087        1364355697.2629547     
  -2253902098.7515106       -9898282.8697756529        1290307913.7026365     
  -2188427241.6859007       -6379645.3735927343        1284489202.8261073     
  -2123547810.7065389       -4845761.4982376099        1283052568.7405109     
  -2059263805.8134234       -5296631.2437031269        1285998011.4458532     
  -1995575227.0065556       -7732254.6099961996        1293325530.9421251     
  -2630733705.7625041       -11099095.325194716        1220225569.0022385     
  -2552855999.7855592       -5772969.2592521906        1213157937.2317564     
  -2475856731.7729740       -3374969.7411743402        1210831768.9321916     
  -2399735901.7247443       -3905096.7709531784        1213247064.1035469     
  -2324493509.6408772       -7363350.3485983610        1220403822.7458158     
  -3009190627.6432843       -12787502.241556525        1149572404.5242136     
  -2917883253.6693354       -5345841.8801454306        1140925671.3353140     
  -2827737329.5378599       -1775680.9936449528        1137379788.2973161     
  -2738752855.2488508       -2077019.5820344687        1138934755.4102178     
  -2650929830.8023148       -6249857.6453354359        1145590572.6740224     
  -1330292777.3192787       -6236297.8072016835        1433494321.7082989     
  -1273330564.1618197       -2434623.0458950400        1424419914.1818573     
  -1216815217.1797183       -122502.20244473219        1421062207.4938581     
  -1160746736.3729641        700064.72317951918        1423421201.6442981     
  -1105125121.7415674        33077.730947852135        1431496896.6331785     
  -1664174982.8993597       -7356570.4295324087        1364355697.2629547     
  -1592891055.4663210       -3869718.1477410793        1355574559.6706076     
  -1521851792.8147433       -1198415.1374824047        1352166075.8701549     
  -1451057194.9446206        657338.60125726461        1354130245.8615959     
  -1380507261.8559604        1697543.0684551001        1361467069.6449299     
  -1995575227.0065556       -7732254.6099961996        1293325530.9421251     
  -1910952576.8594983       -4855122.2761768103        1285073564.9100831     
  -1826372390.1000099       -2119534.5675888062        1281850205.6233878     
  -1741834666.7280846        474508.51579296589        1283655453.0820394     
  -1657339406.7437239        2927006.9739546776        1290489307.2860365     
  -2324493509.6408772       -7363350.3485983610        1220403822.7458158     
  -2227515128.3413630       -5390835.4312319756        1212916929.9002855     
  -2130377009.0355215       -2885860.4927639961        1210114596.7535558     
  -2033079151.7233512        151574.46679770947        1211996823.3056271     
  -1935621556.4048529        3721469.4474477768        1218563609.5564947     
  -2650929830.8023148       -6249857.6453354359        1145590572.6740224     
  -2542578709.9119062       -5476857.6128789186        1139104654.6412151     
  -2433865649.6212811       -3497392.9130251408        1136959249.2606621     
  -2324790649.9304290       -311463.54575204849        1139154356.5323608     
  -2215353710.8393574        4080930.4889215231        1145689976.4563100     
  -1105125121.7415674        33077.730947852135        1431496896.6331785     
  -1068735233.7020745       -6835609.5284394026        1428068865.4954214     
  -1032183434.8429878       -13164594.055851877        1427897790.6097901     
  -995469725.16431391       -18953875.851307631        1430983671.9762864     
  -958594104.66605866       -24203454.914820671        1437326509.5949111     
  -1380507261.8559604        1697543.0684551001        1361467069.6449299     
  -1335459026.4817822       -5364518.2993091941        1357690443.1644266     
  -1290463987.7683203       -12603901.869461179        1357361752.4065657     
  -1245522145.7155616       -20020607.641959548        1360480997.3713455     
  -1200633500.3235159       -27614635.616834164        1367048178.0587654     
  -1657339406.7437239        2927006.9739546776        1290489307.2860365     
  -1603087168.4048257       -4164731.8131946921        1286113126.7357740     
  -1549103234.2069385       -12150817.737039328        1285375861.3786674     
  -1495387604.1500545       -21031250.797564864        1288277511.2147138     
  -1441940278.2341847       -30806030.994804442        1294818076.2439137     
  -1935621556.4048529        3721469.4474477768        1218563609.5564947     
  -1871619659.4712007       -3236250.0700755119        1213336916.2094615     
  -1808101174.1588509       -11805341.658607483        1211940117.5260966     
  -1745066100.4678097       -21985805.318169117        1214373213.5063994     
  -1682514438.3980708       -33777641.048739970        1220636204.1503692     
  -2215353710.8393574        4080930.4889215231        1145689976.4563100     
  -2141056499.6809046       -2579073.0699498653        1139361811.5854919     
  -2067457807.6240592       -11567473.634175897        1137054520.8488519     
  -1994557634.6688085       -22884271.203724265        1138768104.2463944     
  -1922355980.8151712       -36529465.778643012        1144502561.7781179     
  -958594104.66605866       -24203454.914820671        1437326509.5949111     
  -879277677.21310616       -17420672.468816876        1430342441.0393543     
  -800584620.30076873       -12715791.824867219        1430807659.8515816     
  -722514933.92904699       -10088812.982967645        1438722166.0315883     
  -645068618.09794652       -9539735.9431390166        1454085959.5793774     
  -1200633500.3235159       -27614635.616834164        1367048178.0587654     
  -1101643390.3053491       -19704068.748689771        1359696137.9529157     
  -1003078662.4472327       -13211442.414047182        1359768154.5089555     
  -904939316.74916553       -8136756.6129052043        1367264227.7268951     
  -807225353.21114588       -4480011.3452536464        1382184357.6067109     
  -1441940278.2341847       -30806030.994804442        1294818076.2439137     
  -1323348573.3819239       -21789306.023863971        1287329051.0317714     
  -1204984262.3091416       -13530560.317860603        1287238851.7756243     
  -1086847345.0158401       -6029793.8767929673        1294547478.4754782     
  -968937821.50202298        712993.29933500290        1309254931.1313348     
  -1682514438.3980708       -33777641.048739970        1220636204.1503692     
  -1544393226.4428267       -23676384.294329107        1213241180.2759218     
  -1406301419.8864977       -13673145.536301553        1213219751.6515858     
  -1268239018.7290831       -3767924.7746561766        1220571918.2773557     
  -1130206022.9705777        6039277.9906203747        1235297680.1532347     
  -1922355980.8151712       -36529465.778643012        1144502561.7781179     
  -1764777349.4880669       -25365303.560108662        1137432525.6853659     
  -1607030135.1793065       -13639198.069395900        1137710854.1368349     
  -1449114337.8888869       -1351149.3064855337        1145337547.1325173     
  -1291029957.6168194        11498842.728593051        1160312604.6724148     
  -3768251758.8108683       -1130475527.6432605        800574513.91714954     
  -3779156941.3022408       -1008590516.4985499        884885275.63368583     
  -3790683793.2627563       -888777736.91765141        974112710.66101432     
  -3802832314.6924152       -771037188.90056431        1068256818.9991357     
  -3815602505.5912189       -655368872.44728971        1167317600.6480491     
  -4339712300.9469910       -1301913690.2840974        858796917.46249986     
  -4335253342.4661064       -1125652624.4304667        942410670.02003026     
  -4331937475.5497065       -953201863.79178047        1020377998.9279841     
  -4329764700.1977892       -784561408.36803842        1092698904.1863606     
  -4328735016.4103546       -619731258.15924084        1159373385.7951608     
  -4895132890.9189386       -1468539867.2756817        936464565.59573793     
  -4905490068.4954252       -1246956829.8220191        1018772983.2163663     
  -4917511759.7317343       -1030922171.2344332        1084871880.2270486     
  -4931197964.6278667       -820435891.51292384        1134761256.6277847     
  -4946548683.1838217       -615497990.65749121        1168441112.4185748     
  -5434513528.7267122       -1630354058.6180136        1033577458.3168639     
  -5489867119.3901949       -1372503132.6732068        1113972215.2226939     
  -5547406645.8088398       -1121938659.2456093        1167594354.5582082     
  -5607132107.9826479       -878660638.33522034        1194443876.3234074     
  -5669043505.9116192       -642669069.94203997        1194520780.5182912     
  -5957854214.3703108       -1787356264.3110933        1150135595.6258776     
  -6088384495.1504164       -1502291532.9840302        1228008366.0390129     
  -6221622133.7810240       -1226251327.8253083        1268545421.9214633     
  -6357567130.2621355       -959235648.83492863        1271746763.2732294     
  -6496219484.5937471       -701244496.01288962        1237612390.0943105     
  -3815602505.5912189       -655368872.44728971        1167317600.6480491     
  -3798208481.2113628       -537373690.69720888        1188909483.6942692     
  -3784625138.5404687       -432080781.31033158        1205614579.8948641     
  -3774852477.5785346       -339490144.28665829        1217432889.2498333     
  -3768890498.3255625       -259601779.62618613        1224364411.7591772     
  -4328735016.4103546       -619731258.15924084        1159373385.7951608     
  -4298436305.9506044       -463912111.01476276        1141413628.1580291     
  -4278725302.4314380       -343385320.33889461        1129538731.5677345     
  -4269602005.8528533       -258150886.13163161        1123748696.0242765     
  -4271066416.2148504       -208208808.39297748        1124043521.5276566     
  -4946548683.1838217       -615497990.65749121        1168441112.4185748     
  -4871997721.2371426       -412450608.49650741        1103023184.6612005     
  -4814811491.4626694       -267285666.90953612        1054661765.8431247     
  -4774989993.8603964       -180003165.89657402        1023356855.9643490     
  -4752533228.4303284       -150603105.45762491        1009108455.0248722     
  -5669043505.9116192       -642669069.94203997        1194520780.5182912     
  -5518892727.0709791       -382989183.14244080        1073738153.2037829     
  -5392883705.6341610       -203781821.02225590        980983682.72103608     
  -5291016441.6011677       -105046983.58148456        916257369.07004929     
  -5213290934.9719992       -86784670.820129633        879559212.25082564     
  -6496219484.5937471       -701244496.01288962        1237612390.0943105     
  -6239121323.4521074       -375527834.95256162        1053558533.7857769     
  -6012941944.9459133       -152873782.67705464        908504482.20146573     
  -5817681349.0751629       -33282339.186362982        802450235.34137917     
  -5653339535.8398590       -16753504.480492115        735395793.20551527     
  -3768890498.3255625       -259601779.62618613        1224364411.7591772     
  -3662443054.7660947       -167179780.42516780        1191743906.2116148     
  -3563797240.3227649       -100763211.61127687        1169373524.3435724     
  -3472953054.9955740       -60352073.184515476        1157253266.1550462     
  -3389910498.7845216       -45946365.144881129        1155383131.6460392     
  -4271066416.2148504       -208208808.39297748        1124043521.5276566     
  -4149165259.6295466       -144095789.88108540        1090472321.3205225     
  -4031734898.9460483       -94885424.375208855        1065071310.6896961     
  -3918775334.1643538       -60577711.875346899        1047840489.6351767     
  -3810286565.2844629       -41172652.381499767        1038779858.1569653     
  -4752533228.4303284       -150603105.45762491        1009108455.0248722     
  -4621121027.6855049       -116581868.29475212        978472532.24155509     
  -4490848789.6281548       -86360506.756785393        953926864.93133509     
  -4361716514.2582741       -59939020.843722105        935471453.09421253     
  -4233724201.5758653       -37317410.555557966        923106296.73018634     
  -5213290934.9719992       -86784670.820129633        879559212.25082564     
  -5078310358.9339733       -84638015.666173220        855744538.97471440     
  -4941138912.3690844       -75188458.756011009        835940187.06849098     
  -4801776595.2773314       -58436000.089635849        820146156.53215325     
  -4660223407.6587152       -34380639.667051554        808362447.36570251     
  -5653339535.8398590       -16753504.480492115        735395793.20551527     
  -5520733253.3749456       -48264231.995346546        722288341.52000165     
  -5382605267.1688347       -61369280.372880697        711111277.10116255     
  -5238955577.2215309       -56068649.613097191        701864599.94899964     
  -5089784183.5330238       -32362339.715980053        694548310.06351364     
  -3389910498.7845216       -45946365.144881129        1155383131.6460392     
  -3295243643.5091181       -39367024.452067137        1147912385.2498777     
  -3200234713.2271123       -31647433.737247109        1144453681.9308522     
  -3104883707.9385018       -22787593.000408769        1145007021.6889648     
  -3009190627.6432843       -12787502.241556525        1149572404.5242136     
  -3810286565.2844629       -41172652.381499767        1038779858.1569653     
  -3703184562.0431752       -29905105.505319834        1030305028.5114827     
  -3596702850.5436544       -20705197.768369198        1026301760.4895345     
  -3490841430.7859006       -13572929.170635223        1026770054.0911242     
  -3385600302.7699161       -8508299.7121372223        1031709909.3162508     
  -4233724201.5758653       -37317410.555557966        923106296.73018634     
  -4112874140.2361169       -20967784.456236839        912504622.62894773     
  -3993606737.3865118       -9893686.6573822498        906834028.69764471     
  -3875921993.0270448       -4095117.1589939594        906094514.93627977     
  -3759819907.1577182       -3572075.9610714912        910286081.34485018     
  -4660223407.6587152       -34380639.667051554        808362447.36570251     
  -4524312378.0879450       -12555061.304820299        794511167.60227442     
  -4390946373.7556820        787099.59570789337        786050486.55518198     
  -4260125394.6619320        5645843.0345268250        782980404.22442639     
  -4131849440.8066945        2021169.0116448402        785300920.61000550     
  -5089784183.5330238       -32362339.715980053        694548310.06351364     
  -4937499275.5986538       -4666936.0510694981        676324663.43146229     
  -4788721759.6511660        11337160.990904331        663951134.06214786     
  -4643451635.6905622        15649951.409927607        657427721.95556831     
  -4501688903.7168427        8271435.2060046196        656754427.11172485     
  -3009190627.6432843       -12787502.241556525        1149572404.5242136     
  -2917883253.6693354       -5345841.8801454306        1140925671.3353140     
  -2827737329.5378599       -1775680.9936449528        1137379788.2973161     
  -2738752855.2488508       -2077019.5820344687        1138934755.4102178     
  -2650929830.8023148       -6249857.6453354359        1145590572.6740224     
  -3385600302.7699161       -8508299.7121372223        1031709909.3162508     
  -3282985885.5009060       -5874493.7318093777        1022684940.3129557     
  -3180834348.0862212       -4783620.5992377996        1018366351.6275171     
  -3079145690.5258665       -5235680.3144278526        1018754143.2599386     
  -2977919912.8198357       -7230672.8773729801        1023848315.2102178     
  -3759819907.1577182       -3572075.9610714912        910286081.34485018     
  -3647025503.2594805       -6084241.3615686893        901697874.84665585     
  -3533995409.2274275       -7810772.9826822281        897421578.83327818     
  -3420729625.0615597       -8751670.8244142532        897457193.30471551     
  -3307228150.7618752       -8906934.8867628574        901804718.26096725     
  -4131849440.8066945        2021169.0116448402        785300920.61000550     
  -4010002106.9450660       -5975084.7694342136        777964474.93641531     
  -3887220512.9614778       -10857138.143983841        774545469.91459727     
  -3763504658.8559318       -12624991.112003088        775043905.54455209     
  -3638854544.6284304       -11278643.673507452        779459781.82627928     
  -4501688903.7168427        8271435.2060046196        656754427.11172485     
  -4371915696.5576553       -5547023.9553940296        651484740.58223510     
  -4240509659.2883725       -13922716.083135366        649738024.87147737     
  -4107470791.9089894       -16855641.177207947        651514279.97944725     
  -3972799094.4195027       -14345799.237610579        656813505.90614867     
  -2650929830.8023148       -6249857.6453354359        1145590572.6740224     
  -2542578709.9119062       -5476857.6128789186        1139104654.6412151     
  -2433865649.6212811       -3497392.9130251408        1136959249.2606621     
  -2324790649.9304290       -311463.54575204849        1139154356.5323608     
  -2215353710.8393574        4080930.4889215231        1145689976.4563100     
  -2977919912.8198357       -7230672.8773729801        1023848315.2102178     
  -2857258983.4973011       -4060118.8366758823        1016893806.5737888     
  -2736573635.1212997       -808167.95108509064        1014514587.0002265     
  -2615863867.6918292        2525179.7793967724        1016710656.4895320     
  -2495129681.2088933        5939924.3547718525        1023482015.0417051     
  -3307228150.7618752       -8906934.8867628574        901804718.26096725     
  -3173586623.2625990       -3137589.9144343138        893987845.28303730     
  -3040258197.0566044        1588084.0802724361        890981037.77858877     
  -2907242872.1439023        5270087.0973503590        892784295.74762309     
  -2774540648.5244846        7908419.1368035078        899397619.19013679     
  -3638854544.6284304       -11278643.673507452        779459781.82627928     
  -3491561629.2077971       -2709270.8461625576        770386770.76896560     
  -3344919335.4272060        3691363.1810390949        766358601.59574950     
  -3198927663.2866616        7923258.4080929756        767375274.30662596     
  -3053586612.7861524        9986414.8350149393        773436788.90160322     
  -3972799094.4195027       -14345799.237610579        656813505.90614867     
  -3811184001.3329005       -2775161.6318690777        646090583.03157127     
  -3650557050.2330952        5501669.3512189388        640647278.45170677     
  -3490918241.1200900        10484693.711636543        640483592.16654909     
  -3332267573.9938807        12173911.449404955        645599524.17610562     
  -2215353710.8393574        4080930.4889215231        1145689976.4563100     
  -2141056499.6809046       -2579073.0699498653        1139361811.5854919     
  -2067457807.6240592       -11567473.634175897        1137054520.8488519     
  -1994557634.6688085       -22884271.203724265        1138768104.2463944     
  -1922355980.8151712       -36529465.778643012        1144502561.7781179     
  -2495129681.2088933        5939924.3547718525        1023482015.0417051     
  -2411838410.2045660       -2482158.3783717155        1016269294.3099512     
  -2328969768.8020210       -12313006.450785756        1012360840.6733651     
  -2246523757.0012484       -23552619.862445593        1011756654.1319464     
  -2164500374.8022532       -36200998.613351107        1014456734.6856972     
  -2774540648.5244846        7908419.1368035078        899397619.19013679     
  -2684302766.3571830       -2889977.3754861355        891622213.68057966     
  -2594211624.2918291       -14177507.560943723        886434468.22717845     
  -2504267222.3284268       -25954171.419568896        883834382.82993174     
  -2414469560.4669719       -38219968.951352000        883821957.48884344     
  -3053586612.7861524        9986414.8350149393        773436788.90160322     
  -2958449568.1387625       -3802530.0612832308        765420569.69737446     
  -2863183374.0934949       -17160976.964661837        759275403.51028836     
  -2767788030.6503477       -30088925.875108004        755001290.34034610     
  -2672263537.8093252       -42586376.792635679        752598230.18754888     
  -3332267573.9938807        12173911.449404955        645599524.17610562     
  -3234278815.5492945       -5219816.4357724190        637664362.36033762     
  -3135885018.2070088       -21263414.661933541        630883646.52269816     
  -3037086181.9670215       -35956883.229094505        625257376.66319001     
  -2937882306.8293219       -49300222.137222409        620785552.78181541     
  -1922355980.8151712       -36529465.778643012        1144502561.7781179     
  -1764777349.4880669       -25365303.560108662        1137432525.6853659     
  -1607030135.1793065       -13639198.069395900        1137710854.1368349     
  -1449114337.8888869       -1351149.3064855337        1145337547.1325173     
  -1291029957.6168194        11498842.728593051        1160312604.6724148     
  -2164500374.8022532       -36200998.613351107        1014456734.6856972     
  -1989308506.8430915       -21083885.756191015        1003891568.3995188     
  -1813816022.9876242       -4964719.9113422632        998614461.75409389     
  -1638022923.2358522        12156498.921191573        998625414.74942768     
  -1461929207.5877800        30279770.741392434        1003924427.3855163     
  -2414469560.4669719       -38219968.951352000        883821957.48884344     
  -2227551041.3142085       -20915881.087084293        869915699.40965855     
  -2040199873.3505006       -2169630.5196557045        859237196.06777215     
  -1852416056.5758350        18018782.750959992        851786447.46317208     
  -1664199590.9902246        39649358.724746585        847563453.59588301     
  -2672263537.8093252       -42586376.792635679        752598230.18754888     
  -2479504952.9014363       -24861289.552832603        735504918.71578419     
  -2286181686.2679396       -5253929.8943450451        719579057.07785165     
  -2092293737.9088438        16235702.182815909        704820645.27376151     
  -1897841107.8241425        39607606.678652167        691229683.30349576     
  -2937882306.8293219       -49300222.137222409        620785552.78181541     
  -2745170241.6047516       -32920111.153380513        600659226.31789601     
  -2551761461.7399325       -14217618.035389781        579640044.78435004     
  -2357655967.2348566        6807257.2167829275        557728008.18117511     
  -2162853758.0895414        30154514.603126645        534923116.50837559     
  -5957854214.3703108       -1787356264.3110933        1150135595.6258776     
  -6088384495.1504164       -1502291532.9840302        1228008366.0390129     
  -6221622133.7810240       -1226251327.8253083        1268545421.9214633     
  -6357567130.2621355       -959235648.83492863        1271746763.2732294     
  -6496219484.5937471       -701244496.01288962        1237612390.0943105     
  -6810520131.5965509       -2043156039.4789655        1353850875.1813102     
  -6828448845.4219427       -1395449227.2865579        1202840303.5705805     
  -6897742868.5092278       -918960112.63378954        1092095402.4098506     
  -7018402200.8584051       -613688695.52065778        1021616171.6991206     
  -7190426842.4694729       -479634975.94716668        991402611.43838954     
  -8337876464.1522503       -2501362939.2456751        1712435194.6416934     
  -8021485368.2209740       -1424498573.3473365        1275773671.0271447     
  -7805117532.9629812       -681045076.35993481        956979202.84328067     
  -7688772958.3782663       -271002448.28346634        756051790.09010017     
  -7672451644.4668331       -194370689.11793423        672991432.76760423     
  -10539923212.037409       -3161976963.6112227        2225888554.0070267     
  -9667494063.5475101       -1589439571.1663675        1446808468.4087052     
  -8943746127.1422787       -512506219.00374222        863196823.22175229     
  -8368679402.8217220        68823092.876647949        475053618.44616783     
  -7942293890.5858307        154548364.47480822        282378854.08195192     
  -13416660375.252028       -4024998112.5756083        2894210953.2773099     
  -11766474931.401548       -1890272220.7436483        1715944695.7152622     
  -10313628651.047129       -413343540.56521797        810748263.54526734     
  -9058121534.1887684        405787927.95968628        178621656.76732498     
  -7999953580.8264694        567122184.83105612       -180435124.61856568     
  -6496219484.5937471       -701244496.01288962        1237612390.0943105     
  -6239121323.4521074       -375527834.95256162        1053558533.7857769     
  -6012941944.9459133       -152873782.67705464        908504482.20146573     
  -5817681349.0751629       -33282339.186362982        802450235.34137917     
  -5653339535.8398590       -16753504.480492115        735395793.20551527     
  -7190426842.4694729       -479634975.94716668        991402611.43838954     
  -6900294596.2605944       -304243394.99937248        847163987.08334959     
  -6622956956.1557693       -171500501.06509066        724026795.77408433     
  -6358413922.1549997       -81406294.144318819        621991037.51059198     
  -6106665494.2582827       -33960774.237060547        541056712.29287398     
  -7672451644.4668331       -194370689.11793423        672991432.76760423     
  -7400423517.9862890       -184645649.72134590        589712912.98601651     
  -7123065821.0784073       -157155375.56696224        509637454.57175285     
  -6840378553.7431850       -111899866.65477967        432765057.52481252     
  -6552361715.9806242       -48879122.984802485        359095721.84519833     
  -7942293890.5858307        154548364.47480822        282378854.08195192     
  -7739508088.6291904       -16734599.118479729        281205311.49377304     
  -7513268539.7138186       -109838406.18266392        265336458.59447080     
  -7263575243.8397169       -124763056.71774626        234772295.38404152     
  -6990428201.0068827       -61508550.723721027        189512821.86248964     
  -7999953580.8264694        567122184.83105612       -180435124.61856568     
  -7917548308.1893005        199489756.80922031       -78358817.393378928     
  -7793565112.0620117       -29549592.912202835       -8876192.1577615868     
  -7628003992.4445944       -119995864.33321285        28012751.088277455     
  -7420864949.3370590       -71849057.453815460        32308012.344743300     
  -5653339535.8398590       -16753504.480492115        735395793.20551527     
  -5520733253.3749456       -48264231.995346546        722288341.52000165     
  -5382605267.1688347       -61369280.372880697        711111277.10116255     
  -5238955577.2215309       -56068649.613097191        701864599.94899964     
  -5089784183.5330238       -32362339.715980053        694548310.06351364     
  -6106665494.2582827       -33960774.237060547        541056712.29287398     
  -5959200737.7822084       -35626732.945970774        534788666.86817026     
  -5810695030.4921780       -33822855.608353615        531132575.23015410     
  -5661148372.3881950       -28549142.224218607        530088437.37882799     
  -5510560763.4702444       -19805592.793544292        531656253.31419045     
  -6552361715.9806242       -48879122.984802485        359095721.84519833     
  -6388091152.5790691       -20116113.013474464        354439537.59952378     
  -6227260391.2907944       -2819110.0864138603        353076873.66055113     
  -6069869432.1158037        3011885.7963798046        355007730.02828240     
  -5915918275.0540895       -2623125.3651006222        360232106.70271659     
  -6990428201.0068827       -61508550.723721027        189512821.86248964     
  -6807404497.7655220       -1732372.1978545189        181240953.71406496     
  -6632301349.5646782        31641956.192955017        176944172.39235798     
  -6465118756.4043531        38614434.448692322        176622477.89736807     
  -6305856718.2845526        19185062.569362164        180275870.22909346     
  -7420864949.3370590       -71849057.453815460        32308012.344743300     
  -7217140773.3415661        19524489.500886917        15192915.211788816     
  -7025817905.3138304        69560343.229735851        2734471.4255715129     
  -6846896345.2538548        78258503.732713699       -5067319.0139178187     
  -6680376093.1616354        45618971.009838104       -8212456.1066765357     
  -5089784183.5330238       -32362339.715980053        694548310.06351364     
  -4937499275.5986538       -4666936.0510694981        676324663.43146229     
  -4788721759.6511660        11337160.990904331        663951134.06214786     
  -4643451635.6905622        15649951.409927607        657427721.95556831     
  -4501688903.7168427        8271435.2060046196        656754427.11172485     
  -5510560763.4702444       -19805592.793544292        531656253.31419045     
  -5348313346.4684439       -7752029.2527003288        515890245.21810949     
  -5187230789.0597095        418668.97791957855        505547243.78594923     
  -5027313091.2440414        4706501.8983201981        500627249.01770872     
  -4868560253.0214396        5111469.5084972382        501130260.91338730     
  -5915918275.0540895       -2623125.3651006222        360232106.70271659     
  -5744928664.9814739       -6577496.7473108768        349656691.60206085     
  -5572761382.1081066       -6606292.1270179749        344077172.56650913     
  -5399416426.4339895       -2709511.5042240620        343493549.59606302     
  -5224893797.9591217        5112845.1210715771        347905822.69071633     
  -6305856718.2845526        19185062.569362164        180275870.22909346     
  -6127345231.1377401       -1143338.5348911285        177624002.58331606     
  -5945313538.7963581       -9737722.3239085674        179540920.40382856     
  -5759761641.2604122       -6598088.7977106571        186026623.69061971     
  -5570689538.5298977        8275562.0437109470        197081112.44370791     
  -6680376093.1616354        45618971.009838104       -8212456.1066765357     
  -6495563044.9372463        8550445.3845620155       -207821.83812504919     
  -6304887259.1244669       -8975621.6127634048        11938487.297899907     
  -6108348735.7233057       -6959229.9821429253        28226471.301394973     
  -5905947474.7337627        14599620.276423454        48656130.172361262     
  -4501688903.7168427        8271435.2060046196        656754427.11172485     
  -4371915696.5576553       -5547023.9553940296        651484740.58223510     
  -4240509659.2883725       -13922716.083135366        649738024.87147737     
  -4107470791.9089894       -16855641.177207947        651514279.97944725     
  -3972799094.4195027       -14345799.237610579        656813505.90614867     
  -4868560253.0214396        5111469.5084972382        501130260.91338730     
  -4727855729.3953075       -907934.40140271187        500573867.96544290     
  -4586652199.2362080       -5263983.2013902664        503103427.19222265     
  -4444949662.5441284       -7956676.8914630413        508718938.59372824     
  -4302748119.3190775       -8986015.4716172218        517420402.16996127     
  -5224893797.9591217        5112845.1210715771        347905822.69071633     
  -5074506582.5632019        6517909.0535333157        350739929.15100038     
  -4924754184.2114458        5806916.1721274853        356222969.14200824     
  -4775636602.9038277        2979866.4769134521        364354942.66373271     
  -4627153838.6403646       -1963240.0321440697        375135849.71618241     
  -5570689538.5298977        8275562.0437109470        197081112.44370791     
  -5411868256.0613499        16730506.409368038        201982924.13890502     
  -5254815614.2140751        19289982.037446260        209096650.72082475     
  -5099531612.9880819        15953988.927928925        218422292.18946037     
  -4946016252.3833666        6722527.0808045864        229959848.54481480     
  -5905947474.7337627        14599620.276423454        48656130.172361262     
  -5739940749.8897314        29729857.666154623        54302852.929164566     
  -5576836489.2441139        35185214.394517660        61724471.928685516     
  -5416634692.7968893        30965690.461559534        70920987.170909479     
  -5259335360.5480690        17071285.867263317        81892398.655854136     
  -3972799094.4195027       -14345799.237610579        656813505.90614867     
  -3811184001.3329005       -2775161.6318690777        646090583.03157127     
  -3650557050.2330952        5501669.3512189388        640647278.45170677     
  -3490918241.1200900        10484693.711636543        640483592.16654909     
  -3332267573.9938807        12173911.449404955        645599524.17610562     
  -4302748119.3190775       -8986015.4716172218        517420402.16996127     
  -4128386736.8290257       -221401.06078052521        507772859.87042469     
  -3954428096.3368826        7200740.0236833096        503298081.09304434     
  -3780872197.8426619        13280407.781749249        503996065.83781320     
  -3607719041.3463497        18017602.213443756        509866814.10473776     
  -4627153838.6403646       -1963240.0321440697        375135849.71618241     
  -4440351466.0970211        3903761.3787503242        367246654.64538282     
  -4253366435.5627074        10379622.759536982        364423368.32417768     
  -4066198747.0374274        17464344.110210657        366665990.75256419     
  -3878848400.5211830        25157925.430770159        373974521.93055785     
  -4946016252.3833666        6722527.0808045864        229959848.54481480     
  -4747078189.1368866        9600325.6867187023        224511967.35644272     
  -4547372067.9105568        15038317.558808327        224023140.14511225     
  -4346897888.7043982        23036502.697002172        228493366.91081423     
  -4145655651.5183792        33594881.101379395        237922647.65356570     
  -5259335360.5480690        17071285.867263317        81892398.655854136     
  -5048566905.9486332        16868291.863118887        79568798.003610149     
  -4836444993.3804579        21176824.421419144        82097396.555847764     
  -4622969622.8435593        29996883.542145967        89478194.312561229     
  -4408140794.3379307        43328469.225295067        101711191.27376269     
  -3332267573.9938807        12173911.449404955        645599524.17610562     
  -3234278815.5492945       -5219816.4357724190        637664362.36033762     
  -3135885018.2070088       -21263414.661933541        630883646.52269816     
  -3037086181.9670215       -35956883.229094505        625257376.66319001     
  -2937882306.8293219       -49300222.137222409        620785552.78181541     
  -3607719041.3463497        18017602.213443756        509866814.10473776     
  -3503588359.3364973        2157472.5247976780        504988558.28464991     
  -3398982791.4437194       -12119704.220769405        503326505.79898524     
  -3293902337.6680107       -24813928.023237348        504880656.64772964     
  -3188346998.0093794       -35925198.882621408        509651010.83089459     
  -3878848400.5211830        25157925.430770159        373974521.93055785     
  -3762685059.6423912        12598614.529743671        372234660.25558293     
  -3645976985.8954492        1855079.8558819294        375772759.27130920     
  -3528724179.2803569       -7072678.5908041000        384588818.97773689     
  -3410926639.7971120       -14184660.810324430        398682839.37486500     
  -4145655651.5183792        33594881.101379395        237922647.65356570     
  -4011568916.4669714        26103609.579085588        239402668.27312851     
  -3876867601.5622001        20660937.568027020        248222406.93967807     
  -3741551706.8040442        17266865.068242073        264381863.65321383     
  -3605621232.1925240        15921392.079662800        287881038.41373378     
  -4408140794.3379307        43328469.225295067        101711191.27376269     
  -4250239929.8102479        42672457.672832012        106492582.33729240     
  -4091654638.4439654        44297868.915668011        120675448.80408598     
  -3932384920.2390804        48204702.953858614        144259790.67416027     
  -3772430775.1956043        54392959.787356138        177245607.94749686     
  -2937882306.8293219       -49300222.137222409        620785552.78181541     
  -2745170241.6047516       -32920111.153380513        600659226.31789601     
  -2551761461.7399325       -14217618.035389781        579640044.78435004     
  -2357655967.2348566        6807257.2167829275        557728008.18117511     
  -2162853758.0895414        30154514.603126645        534923116.50837559     
  -3188346998.0093794       -35925198.882621408        509651010.83089459     
  -2987414220.4440298       -20489968.573533535        502782647.73222607     
  -2788319008.0166817       -11179955.391122341        503348813.96718770     
  -2591061360.7273388       -7995159.3354126215        511349509.53578007     
  -2395641278.5760074       -10935580.406391740        526784734.43799484     
  -3410926639.7971120       -14184660.810324430        398682839.37486500     
  -3177980623.0245280        7443446.8839641809        402115779.90015036     
  -2949406451.1682110        14498738.190703869        421310634.16231400     
  -2725204124.2281566        6981213.1098909378        456267402.16136509     
  -2505373642.2043843       -15109128.358490109        506986083.89730775     
  -3605621232.1925240        15921392.079662800        287881038.41373378     
  -3316869449.3462505        50880135.219109774        298658622.82166505     
  -3035023791.1945162        62818462.710104227        333525505.36972874     
  -2760084257.7373114        51736374.552686810        392481686.05793506     
  -2492050848.9746180        17633870.746851444        475527164.88630027     
  -3772430775.1956043        54392959.787356138        177245607.94749686     
  -3404080699.4092083        109820096.43185139        192411176.49676979     
  -3045171028.0956030        133779218.16707516        239993427.58943340     
  -2695701761.2547755        126270324.99301291        319992361.22550660     
  -2355672898.8867488        87293416.909636974        432407977.40496856     
 </DataArray>
 <DataArray  type="Float64" Name="VM" NumberOfComponents="1" format="ascii">
   12935792355.986586     
   11340838562.015902     
   10210321018.872046     
   9272843309.7175884     
   8303945239.6470737     
   10130391147.926638     
   9322050538.5526161     
   8826372877.9218540     
   8443489669.6851511     
   8035583329.2587681     
   7982371088.7081480     
   7734961190.6733475     
   7669124645.4205341     
   7669539658.7025433     
   7666273338.9741478     
   6491644807.3841667     
   6586859107.9319239     
   6757411554.3827553     
   6961218858.1663027     
   7171620814.3403025     
   5657764299.5913591     
   5890907466.3628244     
   6116422512.9152279     
   6331856545.0574169     
   6536989105.4596567     
   8303945239.6470737     
   8020302830.8018360     
   7778847603.9084759     
   7568875025.8357611     
   7385414557.6216526     
   8035583329.2587681     
   7746481603.7163830     
   7473100662.6428566     
   7213474849.7857170     
   6967613937.4736538     
   7666273338.9741478     
   7380866495.6931496     
   7100882159.3207922     
   6826398735.2325640     
   6557622188.0359020     
   7171620814.3403025     
   6910884239.8976107     
   6658060922.0652809     
   6409294675.6128035     
   6161441131.1435661     
   6536989105.4596567     
   6328874234.6523037     
   6142944020.1136007     
   5965289355.5145197     
   5786902129.8238182     
   7385414557.6216526     
   7226970710.9780731     
   7060856653.0103846     
   6886364710.0647173     
   6703317099.0229073     
   6967613937.4736538     
   6813773618.0327387     
   6655239225.3424311     
   6491724350.9328213     
   6323185390.3983212     
   6557622188.0359020     
   6407533990.6636505     
   6255814451.1656179     
   6102433713.5948009     
   5947426271.1947088     
   6161441131.1435661     
   6013238113.1555510     
   5866437749.3052244     
   5721081740.0881462     
   5577231157.8107128     
   5786902129.8238182     
   5637328488.4090576     
   5492077638.2047281     
   5351065297.6606169     
   5214348003.3553085     
   6703317099.0229073     
   6499842496.0704317     
   6300438171.3856440     
   6105067844.1890383     
   5913861292.7491150     
   6323185390.3983212     
   6134493144.6965857     
   5948584615.1623344     
   5765475869.0020628     
   5585272947.2655210     
   5947426271.1947088     
   5773494680.4065943     
   5601255675.2801867     
   5430749381.8917799     
   5262069071.1756477     
   5577231157.8107128     
   5418623787.3688164     
   5260824013.9858809     
   5103865514.3885994     
   4947846536.9278536     
   5214348003.3553085     
   5072289728.4060764     
   4930392333.2944841     
   4788652376.6611385     
   4647201970.7178154     
   5913861292.7491150     
   5755631804.9452105     
   5595533476.1549654     
   5433572412.5357866     
   5269800968.0961103     
   5585272947.2655210     
   5431531321.8665667     
   5276929856.2677059     
   5121519293.2442102     
   4965381773.3548632     
   5262069071.1756477     
   5113979888.6651573     
   4966137292.9215622     
   4818631362.9829273     
   4671579283.3906527     
   4947846536.9278536     
   4806251221.0422773     
   4666112018.4012089     
   4527544452.6513720     
   4390698036.7084217     
   4647201970.7178154     
   4512507485.0229931     
   4380588462.8903713     
   4251561957.8136234     
   4125597836.6619916     
   5269800968.0961103     
   5058899722.5055456     
   4849153432.0179682     
   4640629445.0050850     
   4433465481.0388308     
   4965381773.3548632     
   4767770307.9884720     
   4571407071.8915844     
   4376393115.6124372     
   4182903718.6662812     
   4671579283.3906527     
   4487614137.3322506     
   4305089435.1080017     
   4124151093.6248736     
   3945028768.7553773     
   4390698036.7084217     
   4220919661.4909940     
   4052894623.0419383     
   3886826229.6245651     
   3723017014.0354695     
   4125597836.6619916     
   3970749747.9740047     
   3818110490.5216560     
   3667952908.2833796     
   3520670069.8100758     
   4433465481.0388308     
   4275716397.9774003     
   4119288703.4314833     
   3964589154.1885529     
   3812300415.0063896     
   4182903718.6662812     
   4045988592.9403133     
   3910942583.5166616     
   3778068994.7625899     
   3647847420.4730992     
   3945028768.7553773     
   3823746552.3693190     
   3704528351.0699387     
   3587577476.5531940     
   3473194873.6276979     
   3723017014.0354695     
   3612164827.4339037     
   3503148367.4851179     
   3396084029.5026784     
   3291130106.5669332     
   3520670069.8100758     
   3415194188.2382817     
   3310829119.5049334     
   3207619256.5662117     
   3105618890.3514638     
   3812300415.0063896     
   3476309627.7050571     
   3141836197.2711320     
   2816083229.6525159     
   2514633129.6387763     
   3647847420.4730992     
   3382390444.5891056     
   3120847401.7027602     
   2868041792.4343739     
   2633049703.8613710     
   3473194873.6276979     
   3257048093.8035564     
   3045402898.6578112     
   2840836300.6938853     
   2647711403.0385990     
   3291130106.5669332     
   3101970747.6505346     
   2916119785.5297532     
   2734480202.0454164     
   2558422506.0946040     
   3105618890.3514638     
   2920453192.1521940     
   2735572533.8698058     
   2551042871.0507545     
   2366959020.0299473     
   5657764299.5913591     
   5890907466.3628244     
   6116422512.9152279     
   6331856545.0574169     
   6536989105.4596567     
   5151374335.9745111     
   5311341479.0779171     
   5467947202.1007032     
   5618300208.9153395     
   5760937299.8887739     
   4643396946.4908495     
   4755575146.6921520     
   4868879903.8056574     
   4980677257.8135462     
   5089042618.5282278     
   4134095752.4502916     
   4224445488.1852131     
   4320715101.5767736     
   4421244774.2022982     
   4524577462.5913496     
   3624988068.4524779     
   3719774995.3818183     
   3825809827.8375120     
   3943022281.4412665     
   4071313653.3756614     
   6536989105.4596567     
   6328874234.6523037     
   6142944020.1136007     
   5965289355.5145197     
   5786902129.8238182     
   5760937299.8887739     
   5652426230.8982267     
   5559922390.6128130     
   5474364551.0052004     
   5390210889.9968634     
   5089042618.5282278     
   5054403952.1190166     
   5030293783.1832685     
   5011506263.3999777     
   4994838009.4668961     
   4524577462.5913496     
   4539399483.4067507     
   4558917137.6921263     
   4580652248.3151331     
   4602880305.1333218     
   4071313653.3756614     
   4112738517.8957534     
   4151546337.8526502     
   4186844645.9384584     
   4217905004.5710506     
   5786902129.8238182     
   5637328488.4090576     
   5492077638.2047281     
   5351065297.6606169     
   5214348003.3553085     
   5390210889.9968634     
   5250093116.2771730     
   5113255168.8615894     
   4979738524.2744818     
   4849638369.2617903     
   4994838009.4668961     
   4868453290.9194221     
   4745237443.4350281     
   4625153741.1352196     
   4508236603.6659870     
   4602880305.1333218     
   4495091583.7789297     
   4391408355.0892363     
   4291501881.0428996     
   4195269961.9963584     
   4217905004.5710506     
   4133994725.1552868     
   4056353983.8409429     
   3984112287.8103423     
   3916960646.5032816     
   5214348003.3553085     
   5072289728.4060764     
   4930392333.2944841     
   4788652376.6611385     
   4647201970.7178154     
   4849638369.2617903     
   4722975876.8686085     
   4597552933.4072485     
   4473469270.8408604     
   4350934132.0098734     
   4508236603.6659870     
   4396354122.0807791     
   4286784936.0624614     
   4179705445.0404229     
   4075376116.7486134     
   4195269961.9963584     
   4097354201.2098689     
   4002763494.2683196     
   3911719244.4505434     
   3824504171.9929805     
   3916960646.5032816     
   3831914013.9279523     
   3751072812.1458492     
   3674669034.9337764     
   3602979579.0309868     
   4647201970.7178154     
   4512507485.0229931     
   4380588462.8903713     
   4251561957.8136234     
   4125597836.6619916     
   4350934132.0098734     
   4227514499.7345414     
   4107086477.5979390     
   3989823532.8728981     
   3875954211.7257295     
   4075376116.7486134     
   3964570590.7632351     
   3857159311.2051344     
   3753374356.8640518     
   3653510026.5971556     
   3824504171.9929805     
   3727787347.5957074     
   3635068683.1449637     
   3546635635.7348046     
   3462849000.7773333     
   3602979579.0309868     
   3521875483.1433954     
   3445573802.6968293     
   3374403698.9238377     
   3308781274.7662172     
   4125597836.6619916     
   3970749747.9740047     
   3818110490.5216560     
   3667952908.2833796     
   3520670069.8100758     
   3875954211.7257295     
   3736581009.8289537     
   3600383673.3587222     
   3467728501.7214494     
   3339101405.6147671     
   3653510026.5971556     
   3529780060.7611680     
   3410211442.0232391     
   3295239204.4661951     
   3185408671.1179986     
   3462849000.7773333     
   3354782202.7220488     
   3251821601.8635139     
   3154434518.2906637     
   3063180418.7426505     
   3308781274.7662172     
   3216129571.1634116     
   3129413838.4060330     
   3049089266.3924346     
   2975679041.1639738     
   3520670069.8100758     
   3415194188.2382817     
   3310829119.5049334     
   3207619256.5662117     
   3105618890.3514638     
   3339101405.6147671     
   3240184291.0858865     
   3143004235.9502397     
   3047680568.7232008     
   2954355477.9761724     
   3185408671.1179986     
   3095594015.2210221     
   3008430400.5303311     
   2924127443.5309758     
   2842932792.5653448     
   3063180418.7426505     
   2984860747.6191735     
   2910360525.3707533     
   2839976522.8332982     
   2774055273.8168368     
   2975679041.1639738     
   2910849261.4591184     
   2851189058.3913627     
   2797055238.7163110     
   2748858381.2283349     
   3105618890.3514638     
   2920453192.1521940     
   2735572533.8698058     
   2551042871.0507545     
   2366959020.0299473     
   2954355477.9761724     
   2776656673.9909720     
   2601543032.1611090     
   2429453594.7450466     
   2260959169.1188731     
   2842932792.5653448     
   2680688465.8117728     
   2524452590.1765833     
   2375241205.6765327     
   2234325623.3036728     
   2774055273.8168368     
   2634244864.4759350     
   2504524299.4422870     
   2386407256.5822458     
   2281669573.9752979     
   2748858381.2283349     
   2636584332.7529411     
   2538497989.6798701     
   2456292275.0544925     
   2391801317.8690219     
   3624988068.4524779     
   3719774995.3818183     
   3825809827.8375120     
   3943022281.4412665     
   4071313653.3756614     
   3138007708.3119192     
   3255599652.8819504     
   3382608374.9677458     
   3518560765.0591950     
   3662995569.8396378     
   2694782519.1661258     
   2830582976.4134364     
   2973698908.2546530     
   3123046422.5279393     
   3277713185.6823907     
   2298803651.8005109     
   2449517048.1413574     
   2604960218.0164561     
   2763211414.8368902     
   2922841471.2314630     
   1955286106.1118302     
   2119358060.5363879     
   2284798273.7771029     
   2448650148.6514120     
   2608958272.0289893     
   4071313653.3756614     
   4112738517.8957534     
   4151546337.8526502     
   4186844645.9384584     
   4217905004.5710506     
   3662995569.8396378     
   3702376461.7057104     
   3740391443.9348049     
   3776144969.3492441     
   3808889776.2414541     
   3277713185.6823907     
   3320896061.9292593     
   3364315983.5079775     
   3407150315.1556573     
   3448720986.0704432     
   2922841471.2314630     
   2975681347.9961243     
   3030717365.0504408     
   3087264821.0526156     
   3144788919.5366025     
   2608958272.0289893     
   2676784910.8133006     
   2749070439.6618180     
   2825302061.4295611     
   2905124255.3566895     
   4217905004.5710506     
   4133994725.1552868     
   4056353983.8409429     
   3984112287.8103423     
   3916960646.5032816     
   3808889776.2414541     
   3756186018.5767479     
   3709307403.1801529     
   3667768922.6474609     
   3631468487.5936685     
   3448720986.0704432     
   3422758952.0405769     
   3401813427.9829769     
   3385651165.0143809     
   3374255372.8358173     
   3144788919.5366025     
   3141346325.0143456     
   3141531825.1710715     
   3145246295.5167971     
   3152477775.0073595     
   2905124255.3566895     
   2920269141.8179440     
   2936885309.0446544     
   2954923078.1278882     
   2974347709.3610024     
   3916960646.5032816     
   3831914013.9279523     
   3751072812.1458492     
   3674669034.9337764     
   3602979579.0309868     
   3631468487.5936685     
   3558654186.9341059     
   3490671780.9814448     
   3427769383.1519561     
   3370242652.3769178     
   3374255372.8358173     
   3314642334.9218059     
   3260652732.7998419     
   3212531589.8924150     
   3170575086.5697851     
   3152477775.0073595     
   3106767855.4839616     
   3067621673.9809899     
   3035251516.2858014     
   3009925753.3002758     
   2974347709.3610024     
   2942709112.6817565     
   2918689108.1198845     
   2902429847.5463128     
   2894137620.6431193     
   3602979579.0309868     
   3521875483.1433954     
   3445573802.6968293     
   3374403698.9238377     
   3308781274.7662172     
   3370242652.3769178     
   3304183120.9166260     
   3243433800.2119136     
   3188303924.0772052     
   3139166275.9900470     
   3170575086.5697851     
   3118498143.8475370     
   3072110084.0314207     
   3031676292.9692106     
   2997502794.4629836     
   3009925753.3002758     
   2970446263.1583810     
   2936859093.5990009     
   2909368065.3683863     
   2888198319.1947489     
   2894137620.6431193     
   2865472691.8809967     
   2842693040.4048715     
   2825934275.7692242     
   2815340089.2554488     
   3308781274.7662172     
   3216129571.1634116     
   3129413838.4060330     
   3049089266.3924346     
   2975679041.1639738     
   3139166275.9900470     
   3059958673.4511027     
   2987557295.8721199     
   2922418156.8437867     
   2865054927.5052752     
   2997502794.4629836     
   2932017697.7210264     
   2874228503.6180391     
   2824558153.9855590     
   2783472918.9077621     
   2888198319.1947489     
   2836177040.3981390     
   2792717304.1532927     
   2758174672.7107711     
   2732933309.1865411     
   2815340089.2554488     
   2775822949.1459651     
   2745677288.7614627     
   2725166040.6276717     
   2714569631.2639155     
   2975679041.1639738     
   2910849261.4591184     
   2851189058.3913627     
   2797055238.7163110     
   2748858381.2283349     
   2865054927.5052752     
   2813089556.7381601     
   2766662301.6680927     
   2726073916.3348269     
   2691657900.3633113     
   2783472918.9077621     
   2743262693.6534696     
   2708803922.2268610     
   2680327033.7049470     
   2658078511.4557862     
   2732933309.1865411     
   2703014139.2969923     
   2678896008.4293289     
   2660735866.8520913     
   2648695883.4157882     
   2714569631.2639155     
   2693153960.2152176     
   2677436036.1627221     
   2667506997.7292595     
   2663458093.5762262     
   2748858381.2283349     
   2636584332.7529411     
   2538497989.6798701     
   2456292275.0544925     
   2391801317.8690219     
   2691657900.3633113     
   2600962850.3920846     
   2524747248.0838408     
   2464356588.4659061     
   2421179263.5275779     
   2658078511.4557862     
   2587380746.1980824     
   2531169096.7835588     
   2490437451.1056008     
   2466166261.5444136     
   2648695883.4157882     
   2595885097.4276686     
   2557341632.4740634     
   2533742412.4073486     
   2525730507.4133606     
   2663458093.5762262     
   2625976470.1007290     
   2602411792.2884779     
   2593183736.0090775     
   2598681342.1371889     
   1955286106.1118302     
   2119358060.5363879     
   2284798273.7771029     
   2448650148.6514120     
   2608958272.0289893     
   1653750932.1235836     
   1820226316.8554378     
   1988398556.5286407     
   2155573563.8738966     
   2319995308.7187991     
   1393554171.6324120     
   1570950702.0294654     
   1749339180.8778977     
   1926717097.9978416     
   2101835250.2375205     
   1207006550.2753873     
   1398958361.7605431     
   1590461850.0160296     
   1780740593.8678386     
   1969336421.4706042     
   1136777864.0022674     
   1335104598.3638608     
   1533700237.0988905     
   1732564780.2073569     
   1931698227.6892600     
   2608958272.0289893     
   2676784910.8133006     
   2749070439.6618180     
   2825302061.4295611     
   2905124255.3566895     
   2319995308.7187991     
   2406901550.3731108     
   2496222601.0422544     
   2587567077.5283294     
   2680658667.1435251     
   2101835250.2375205     
   2205439083.0917854     
   2308951175.2565880     
   2412134777.6715989     
   2514822904.5549426     
   1969336421.4706042     
   2086351752.2813287     
   2200539866.2431893     
   2311825618.2598534     
   2420156831.9685078     
   1931698227.6892600     
   2058220749.9064186     
   2179371737.7987089     
   2295151191.3661318     
   2405559110.6086855     
   2905124255.3566895     
   2920269141.8179440     
   2936885309.0446544     
   2954923078.1278882     
   2974347709.3610024     
   2680658667.1435251     
   2702714690.7644315     
   2727214019.0607691     
   2754142267.6854019     
   2783494043.0105495     
   2514822904.5549426     
   2543594072.6103134     
   2575798390.3853879     
   2611438472.2435465     
   2650520787.4892173     
   2420156831.9685078     
   2454016541.8255057     
   2492293628.6298294     
   2534991544.4739408     
   2582114550.0007677     
   2405559110.6086855     
   2441380172.9674196     
   2482590176.1889644     
   2529189120.2733216     
   2581177005.2204890     
   2974347709.3610024     
   2942709112.6817565     
   2918689108.1198845     
   2902429847.5463128     
   2894137620.6431193     
   2783494043.0105495     
   2766448096.6700368     
   2756785092.6890702     
   2754593883.1228199     
   2759997061.8937736     
   2650520787.4892173     
   2645053251.9758148     
   2646456937.4778938     
   2654771265.5635910     
   2670049220.9786816     
   2582114550.0007677     
   2584761176.2130213     
   2593501571.2987137     
   2608344459.8058009     
   2629301597.3492408     
   2581177005.2204890     
   2588357677.3334346     
   2600639324.6419921     
   2618021947.1461620     
   2640505544.8459373     
   2894137620.6431193     
   2865472691.8809967     
   2842693040.4048715     
   2825934275.7692242     
   2815340089.2554488     
   2759997061.8937736     
   2739042242.2084651     
   2724614176.6177740     
   2716807291.4125905     
   2715720135.7101774     
   2670049220.9786816     
   2655195522.5508676     
   2647465409.4531183     
   2646908615.5135059     
   2653576352.3559661     
   2629301597.3492408     
   2618217867.0156670     
   2614798258.5716534     
   2619056828.8837085     
   2631007916.9548984     
   2640505544.8459373     
   2630282110.6987324     
   2628203346.6645923     
   2634269252.7435145     
   2648479828.9354968     
   2815340089.2554488     
   2775822949.1459651     
   2745677288.7614627     
   2725166040.6276717     
   2714569631.2639155     
   2715720135.7101774     
   2687803988.7117052     
   2669236966.1791086     
   2660173659.3016758     
   2660775028.6811996     
   2653576352.3559661     
   2634479578.8593507     
   2624588971.2884498     
   2623973790.7272396     
   2632704799.4885855     
   2631007916.9548984     
   2617570681.2933927     
   2613109348.4318023     
   2617640772.3436799     
   2631181962.3999004     
   2648479828.9354968     
   2637387659.4837704     
   2634987340.4762964     
   2641278871.9130692     
   2656262253.7941008     
   2714569631.2639155     
   2693153960.2152176     
   2677436036.1627221     
   2667506997.7292595     
   2663458093.5762262     
   2660775028.6811996     
   2645286897.3303099     
   2635870299.4603920     
   2632583520.4263678     
   2635484068.1736407     
   2632704799.4885855     
   2621760771.8122482     
   2617249522.3093934     
   2619199776.6213102     
   2627639532.3174515     
   2631181962.3999004     
   2623067319.8621511     
   2621746328.5622249     
   2627226775.9425354     
   2639516185.9045525     
   2656262253.7941008     
   2649017822.4046135     
   2648939526.4989080     
   2656027366.0769835     
   2670281341.1388535     
   2663458093.5762262     
   2625976470.1007290     
   2602411792.2884779     
   2593183736.0090775     
   2598681342.1371889     
   2635484068.1736407     
   2611237882.0243835     
   2600538183.1179023     
   2603613170.5987282     
   2620667443.7796087     
   2627639532.3174515     
   2613341559.9729590     
   2612237978.7813272     
   2624425823.0040007     
   2649989816.8972764     
   2639516185.9045525     
   2631676253.2265501     
   2636776973.6988688     
   2654841493.9635172     
   2685889657.0327463     
   2670281341.1388535     
   2665356733.6746640     
   2673271072.4478421     
   2694024357.4583840     
   2727616588.7062860     
   1136777864.0022674     
   1335104598.3638608     
   1533700237.0988905     
   1732564780.2073569     
   1931698227.6892600     
   1207006550.4630864     
   1398958361.9512277     
   1590461850.2096934     
   1780740594.0630841     
   1969336421.6653075     
   1393554171.9490070     
   1570950702.3675690     
   1749339181.2335529     
   1926717098.3654923     
   2101835250.6107969     
   1653750932.5005450     
   1820226317.2855275     
   1988398557.0028460     
   2155573564.3813505     
   2319995309.2477555     
   1955286106.4972529     
   2119358061.0138588     
   2284798274.3333149     
   2448650149.2706437     
   2608958272.6943741     
   1931698227.6892600     
   2058220749.9064186     
   2179371737.7987089     
   2295151191.3661318     
   2405559110.6086855     
   1969336421.6653075     
   2086351752.4427044     
   2200539866.3771663     
   2311825618.3718462     
   2420156832.0640130     
   2101835250.6107969     
   2205439083.4012461     
   2308951175.5133042     
   2412134777.8857574     
   2514822904.7368922     
   2319995309.2477555     
   2406901550.8051262     
   2496222601.3930297     
   2587567077.8124323     
   2680658667.3757238     
   2608958272.6943741     
   2676784911.3404775     
   2749070440.0710673     
   2825302061.7398367     
   2905124255.5871425     
   2405559110.6086855     
   2441380172.9674196     
   2482590176.1889644     
   2529189120.2733216     
   2581177005.2204890     
   2420156832.0640130     
   2454016541.8466587     
   2492293628.5204515     
   2534991544.1786518     
   2582114549.4644771     
   2514822904.7368922     
   2543594072.7305145     
   2575798390.3346539     
   2611438471.9134359     
   2650520786.7709661     
   2680658667.3757238     
   2702714691.0729394     
   2727214019.2893257     
   2754142267.6775999     
   2783494042.6081467     
   2905124255.5871425     
   2920269142.4033966     
   2936885309.7904696     
   2954923078.8383203     
   2974347709.8368659     
   2581177005.2204890     
   2588357677.3334346     
   2600639324.6419921     
   2618021947.1461620     
   2640505544.8459373     
   2582114549.4644771     
   2584761175.8142180     
   2593501571.0867319     
   2608344459.8273454     
   2629301597.6492553     
   2650520786.7709661     
   2645053251.4904404     
   2646456937.3205690     
   2654771265.8233767     
   2670049221.7404947     
   2783494042.6081467     
   2766448096.5010929     
   2756785092.8912649     
   2754593883.8244691     
   2759997063.2170739     
   2974347709.8368659     
   2942709113.2649207     
   2918689108.9867496     
   2902429848.8614755     
   2894137622.5640273     
   2640505544.8459373     
   2630282110.6987324     
   2628203346.6645923     
   2634269252.7435145     
   2648479828.9354968     
   2629301597.6492553     
   2618217863.2447228     
   2614798250.8736825     
   2619056817.4158039     
   2631007901.8922825     
   2670049221.7404947     
   2655195515.8849082     
   2647465395.6820021     
   2646908594.9825959     
   2653576325.4425931     
   2759997063.2170739     
   2739042233.3548217     
   2724614158.1140366     
   2716807263.8161302     
   2715720099.6219988     
   2894137622.5640273     
   2865472681.3051467     
   2842693018.0868649     
   2825934242.5022135     
   2815340045.8875046     
   2648479828.9354968     
   2637387659.4837704     
   2634987340.4762964     
   2641278871.9130692     
   2656262253.7941008     
   2631007901.8922825     
   2617570668.0977821     
   2613109336.8701172     
   2617640762.2014437     
   2631181953.4721289     
   2653576325.4425931     
   2634479555.6399541     
   2624588951.2616930     
   2623973773.4263663     
   2632704784.4643388     
   2715720099.6219988     
   2687803958.3052783     
   2669236940.6533961     
   2660173637.8980556     
   2660775010.6596627     
   2815340045.8875046     
   2775822913.8104310     
   2745677260.3357430     
   2725166018.0262923     
   2714569613.4085698     
   2656262253.7941008     
   2649017822.4046135     
   2648939526.4989080     
   2656027366.0769835     
   2670281341.1388535     
   2631181953.4721289     
   2623067323.4971004     
   2621746345.5920019     
   2627226807.1305914     
   2639516231.9463162     
   2632704784.4643388     
   2621760778.8868647     
   2617249553.0486231     
   2619199832.4908667     
   2627639614.6822166     
   2660775010.6596627     
   2645286907.4994407     
   2635870340.0290961     
   2632583593.5166430     
   2635484175.8160248     
   2714569613.4085698     
   2693153973.0136337     
   2677436082.3509870     
   2667507080.0153856     
   2663458214.6317425     
   2670281341.1388535     
   2665356733.6746640     
   2673271072.4478421     
   2694024357.4583840     
   2727616588.7062860     
   2639516231.9463162     
   2631676362.6477966     
   2636777155.2947354     
   2654841756.1362443     
   2685890007.7731128     
   2627639614.6822166     
   2613341746.4411368     
   2612238287.0186176     
   2624426270.2468901     
   2649990419.9236884     
   2635484175.8160248     
   2611238108.1056738     
   2600538554.7044845     
   2603613714.8084283     
   2620668187.7239528     
   2663458214.6317425     
   2625976694.6730361     
   2602412157.3501387     
   2593184279.7888403     
   2598682104.0428233     
   1955286106.4972529     
   2119358061.0138588     
   2284798274.3333149     
   2448650149.2706437     
   2608958272.6943741     
   2298803652.1625347     
   2449517048.6271791     
   2604960218.6213584     
   2763211415.5541210     
   2922841472.0529809     
   2694782519.4890380     
   2830582976.8728547     
   2973698908.8541598     
   3123046423.2693934     
   3277713186.5662942     
   3138007708.5874362     
   3255599653.2871423     
   3382608375.5136271     
   3518560765.7555299     
   3662995570.6950970     
   3624988068.6766663     
   3719774995.7096229     
   3825809828.2864161     
   3943022282.0281334     
   4071313654.1168880     
   2608958272.6943741     
   2676784911.3404775     
   2749070440.0710673     
   2825302061.7398367     
   2905124255.5871425     
   2922841472.0529809     
   2975681348.6735539     
   3030717365.5938830     
   3087264821.4707594     
   3144788919.8376956     
   3277713186.5662942     
   3320896062.6721773     
   3364315984.1125393     
   3407150315.6232262     
   3448720986.4016600     
   3662995570.6950970     
   3702376462.4346800     
   3740391444.5342002     
   3776144969.8152223     
   3808889776.5696907     
   4071313654.1168880     
   4112738518.5382257     
   4151546338.3886409     
   4186844646.3603334     
   4217905004.8714275     
   2905124255.5871425     
   2920269142.4033966     
   2936885309.7904696     
   2954923078.8383203     
   2974347709.8368659     
   3144788919.8376956     
   3141346325.9999628     
   3141531826.7328825     
   3145246297.5471249     
   3152477777.3950725     
   3448720986.4016600     
   3422758953.2512608     
   3401813430.0312371     
   3385651167.8622632     
   3374255376.4463997     
   3808889776.5696907     
   3756186019.8228040     
   3709307405.3484335     
   3667768925.7497382     
   3631468491.6503496     
   4217905004.8714275     
   4133994726.2483888     
   4056353985.7595229     
   3984112290.5960932     
   3916960650.2147245     
   2974347709.8368659     
   2942709113.2649207     
   2918689108.9867496     
   2902429848.8614755     
   2894137622.5640273     
   3152477777.3950725     
   3106767858.1782560     
   3067621677.2900672     
   3035251520.5187116     
   3009925758.7717581     
   3374255376.4463997     
   3314642338.6763325     
   3260652737.1227822     
   3212531595.2241688     
   3170575093.3729610     
   3631468491.6503496     
   3558654190.5832334     
   3490671784.7414327     
   3427769387.5722528     
   3370242658.0465989     
   3916960650.2147245     
   3831914016.2903061     
   3751072813.7468524     
   3674669036.4055500     
   3602979581.0612426     
   2894137622.5640273     
   2865472681.3051467     
   2842693018.0868649     
   2825934242.5022135     
   2815340045.8875046     
   3009925758.7717581     
   2970446255.5175405     
   2936859073.3763390     
   2909368033.1028666     
   2888198275.4529605     
   3170575093.3729610     
   3118498138.3401098     
   3072110066.7123103     
   3031676264.3050928     
   2997502754.8970146     
   3370242658.0465989     
   3304183116.2346869     
   3243433785.8355412     
   3188303900.5957580     
   3139166243.9116206     
   3602979581.0612426     
   3521875477.6548138     
   3445573790.6705117     
   3374403681.2564921     
   3308781252.2266674     
   2815340045.8875046     
   2775822913.8104310     
   2745677260.3357430     
   2725166018.0262923     
   2714569613.4085698     
   2888198275.4529605     
   2836177006.1752005     
   2792717278.1126728     
   2758174653.5114512     
   2732933295.4548092     
   2997502754.8970146     
   2932017669.8795276     
   2874228485.9249558     
   2824558144.8145657     
   2783472916.5515504     
   3139166243.9116206     
   3059958656.1153111     
   2987557291.4675484     
   2922418163.4639721     
   2865054943.1108708     
   3308781252.2266674     
   3216129567.2249784     
   3129413851.0474243     
   3049089293.4603443     
   2975679080.3248692     
   2714569613.4085698     
   2693153973.0136337     
   2677436082.3509870     
   2667507080.0153856     
   2663458214.6317425     
   2732933295.4548092     
   2703014153.3966789     
   2678896052.7220936     
   2660735943.8010945     
   2648695995.5759215     
   2783472916.5515504     
   2743262712.6565742     
   2708803964.2233658     
   2680327100.5826941     
   2658078605.3726401     
   2865054943.1108708     
   2813089584.5119381     
   2766662342.1334820     
   2726073970.4070339     
   2691657969.4198008     
   2975679080.3248692     
   2910849301.9018178     
   2851189099.1691399     
   2797055279.3585825     
   2748858421.8872380     
   2663458214.6317425     
   2625976694.6730361     
   2602412157.3501387     
   2593184279.7888403     
   2598682104.0428233     
   2648695995.5759215     
   2595885266.2091641     
   2557341887.8460464     
   2533742786.4922786     
   2525731034.3474774     
   2658078605.3726401     
   2587380843.7063136     
   2531169220.1024132     
   2490437625.4782705     
   2466166515.1700282     
   2691657969.4198008     
   2600962869.0307851     
   2524747229.3071690     
   2464356548.8230290     
   2421179223.3068790     
   2748858421.8872380     
   2636584273.2911129     
   2538497832.1132159     
   2456292024.7115431     
   2391800983.9812703     
   3624988068.6766663     
   3719774995.7096229     
   3825809828.2864161     
   3943022282.0281334     
   4071313654.1168880     
   4134095752.6128817     
   4224445488.4204183     
   4320715101.8984671     
   4421244774.6217489     
   4524577463.1173286     
   4643396946.5744371     
   4755575146.8152933     
   4868879903.9770155     
   4980677258.0369883     
   5089042618.8028507     
   5151374335.9625921     
   5311341479.0710983     
   5467947202.1018600     
   5618300208.9207649     
   5760937299.8882551     
   5657764299.4677887     
   5890907466.2086821     
   6116422512.7278996     
   6331856544.8266821     
   6536989105.1680374     
   4071313654.1168880     
   4112738518.5382257     
   4151546338.3886409     
   4186844646.3603334     
   4217905004.8714275     
   4524577463.1173286     
   4539399483.8457470     
   4558917138.0502892     
   4580652248.5997267     
   4602880305.3510218     
   5089042618.8028507     
   5054403952.3144178     
   5030293783.3203106     
   5011506263.5028276     
   4994838009.5578451     
   5760937299.8882551     
   5652426230.8203373     
   5559922390.4900856     
   5474364550.8779106     
   5390210889.9035988     
   6536989105.1680374     
   6328874234.2785664     
   6142944019.6960115     
   5965289355.1058302     
   5786902129.4775743     
   4217905004.8714275     
   4133994726.2483888     
   4056353985.7595229     
   3984112290.5960932     
   3916960650.2147245     
   4602880305.3510218     
   4495091584.5667934     
   4391408356.4212437     
   4291501882.8948956     
   4195269964.3530517     
   4994838009.5578451     
   4868453291.4019098     
   4745237444.2281332     
   4625153742.1552935     
   4508236604.8289127     
   5390210889.9035988     
   5250093116.4685078     
   5113255169.2054224     
   4979738524.6347008     
   4849638369.4931984     
   5786902129.4775743     
   5637328488.3330898     
   5492077638.2177153     
   5351065297.5792503     
   5214348002.9800997     
   3916960650.2147245     
   3831914016.2903061     
   3751072813.7468524     
   3674669036.4055500     
   3602979581.0612426     
   4195269964.3530517     
   4097354200.7232857     
   4002763491.2945666     
   3911719239.3813896     
   3824504165.2666960     
   4508236604.8289127     
   4396354119.2558041     
   4286784929.4143629     
   4179705434.7582383     
   4075376103.0545778     
   4849638369.4931984     
   4722975872.3869534     
   4597552924.2283249     
   4473469256.9940672     
   4350934113.5441332     
   5214348002.9800997     
   5072289723.0496368     
   4930392322.8656902     
   4788652361.0757608     
   4647201949.9011393     
   3602979581.0612426     
   3521875477.6548138     
   3445573790.6705117     
   3374403681.2564921     
   3308781252.2266674     
   3824504165.2666960     
   3727787335.0685549     
   3635068666.0175052     
   3546635615.1405101     
   3462848977.7538590     
   4075376103.0545778     
   3964570573.0272117     
   3857159290.8795772     
   3753374335.3549600     
   3653510005.2579045     
   4350934113.5441332     
   4227514478.9363570     
   4107086456.1909938     
   3989823512.5539203     
   3875954194.1864481     
   4647201949.9011393     
   4512507463.4638233     
   4380588442.5952091     
   4251561940.7768350     
   4125597824.9192519     
   3308781252.2266674     
   3216129567.2249784     
   3129413851.0474243     
   3049089293.4603443     
   2975679080.3248692     
   3462848977.7538590     
   3354782200.6600118     
   3251821619.3662090     
   3154434553.8354492     
   3063180470.6308355     
   3653510005.2579045     
   3529780062.4091959     
   3410211465.7989492     
   3295239249.4020262     
   3185408736.0938787     
   3875954194.1864481     
   3736581016.6919484     
   3600383704.2007942     
   3467728556.0321741     
   3339101482.7640777     
   4125597824.9192519     
   3970749761.2380052     
   3818110528.7004318     
   3667952971.2117929     
   3520670157.2331100     
   2975679080.3248692     
   2910849301.9018178     
   2851189099.1691399     
   2797055279.3585825     
   2748858421.8872380     
   3063180470.6308355     
   2984860792.1983352     
   2910360560.0545955     
   2839976545.3527250     
   2774055282.3259282     
   3185408736.0938787     
   3095594068.1821160     
   3008430437.5865178     
   2924127460.9515553     
   2842932786.8297229     
   3339101482.7640777     
   3240184355.6478724     
   3143004283.1683359     
   3047680593.8986063     
   2954355476.4664760     
   3520670157.2331100     
   3415194266.5899029     
   3310829183.6174979     
   3207619301.3136845     
   3105618910.6153588     
   2748858421.8872380     
   2636584273.2911129     
   2538497832.1132159     
   2456292024.7115431     
   2391800983.9812703     
   2774055282.3259282     
   2634244741.0321822     
   2504524037.5845580     
   2386406850.9710894     
   2281669021.0160413     
   2842932786.8297229     
   2680688324.9054356     
   2524452302.5646162     
   2375240758.7285581     
   2234325003.3256583     
   2954355476.4664760     
   2776656561.5798717     
   2601542797.3139353     
   2429453224.0275702     
   2260958646.7759223     
   3105618910.6153588     
   2920453149.4452195     
   2735572421.4606490     
   2551042681.4374976     
   2366958745.0124345     
   5657764299.4677887     
   5890907466.2086821     
   6116422512.7278996     
   6331856544.8266821     
   6536989105.1680374     
   6491644807.1628418     
   6586859107.5906858     
   6757411553.9318647     
   6961218857.6118879     
   7171620813.6878109     
   7982371088.4297523     
   7734961190.2033930     
   7669124644.7811031     
   7669539657.9158268     
   7666273338.0598116     
   10130391147.627913     
   9322050538.0133476     
   8826372877.1675720     
   8443489668.7517376     
   8035583328.1763096     
   12935792355.702404     
   11340838561.463230     
   10210321018.070562     
   9272843308.7147808     
   8303945238.4875164     
   6536989105.1680374     
   6328874234.2785664     
   6142944019.6960115     
   5965289355.1058302     
   5786902129.4775743     
   7171620813.6878109     
   6910884239.1661167     
   6658060921.2773876     
   6409294674.7963667     
   6161441130.3291140     
   7666273338.0598116     
   7380866494.6645145     
   7100882158.1893864     
   6826398734.0089035     
   6557622186.7303820     
   8035583328.1763096     
   7746481602.4543571     
   7473100661.2034883     
   7213474848.1686449     
   6967613935.6750479     
   8303945238.4875164     
   8020302829.3761368     
   7778847602.2066994     
   7568875023.8504896     
   7385414555.3407755     
   5786902129.4775743     
   5637328488.3330898     
   5492077638.2177153     
   5351065297.5792503     
   5214348002.9800997     
   6161441130.3291140     
   6013238112.5862570     
   5866437748.8693533     
   5721081739.6719408     
   5577231157.2968302     
   6557622186.7303820     
   6407533989.4172535     
   6255814449.9243870     
   6102433712.3034649     
   5947426269.8009892     
   6967613935.6750479     
   6813773615.9142942     
   6655239222.8996115     
   6491724348.1587524     
   6323185387.2881594     
   7385414555.3407755     
   7226970707.7857313     
   7060856648.9445066     
   6886364705.1558046     
   6703317093.2931538     
   5214348002.9800997     
   5072289723.0496368     
   4930392322.8656902     
   4788652361.0757608     
   4647201949.9011393     
   5577231157.2968302     
   5418623782.8243065     
   5260824005.2261896     
   5103865501.2194777     
   4947846519.1347322     
   5947426269.8009892     
   5773494677.0156574     
   5601255669.7057533     
   5430749373.9277430     
   5262069060.5774317     
   6323185387.2881594     
   6134493142.6916780     
   5948584614.1548929     
   5765475868.8518620     
   5585272947.7763290     
   6703317093.2931538     
   6499842495.5915794     
   6300438176.2018127     
   6105067854.2894030     
   5913861308.0406265     
   4647201949.9011393     
   4512507463.4638233     
   4380588442.5952091     
   4251561940.7768350     
   4125597824.9192519     
   4947846519.1347322     
   4806251203.5191193     
   4666112002.6750078     
   4527544440.2508545     
   4390698029.1694412     
   5262069060.5774317     
   5113979879.2833500     
   4966137285.7717762     
   4818631359.0840731     
   4671579283.7467318     
   5585272947.7763290     
   5431531324.8001280     
   5276929862.1102905     
   5121519302.4818983     
   4965381786.4528570     
   5913861308.0406265     
   5755631824.3696461     
   5595533499.6672525     
   5433572440.0895758     
   5269800999.6390762     
   4125597824.9192519     
   3970749761.2380052     
   3818110528.7004318     
   3667952971.2117929     
   3520670157.2331100     
   4390698029.1694412     
   4220919674.7041235     
   4052894657.3671665     
   3886826285.4607301     
   3723017091.8548489     
   4671579283.7467318     
   4487614151.2421684     
   4305089463.0589819     
   4124151136.1959558     
   3945028826.6899724     
   4965381786.4528570     
   4767770324.4983654     
   4571407092.1527929     
   4376393140.0621128     
   4182903747.9365888     
   5269800999.6390762     
   5058899744.4125519     
   4849153444.2518816     
   4640629447.5991287     
   4433465474.2076063     
   3520670157.2331100     
   3415194266.5899029     
   3310829183.6174979     
   3207619301.3136845     
   3105618910.6153588     
   3723017091.8548489     
   3612164901.2724490     
   3503148434.1941042     
   3396084085.8211079     
   3291130149.0738316     
   3945028826.6899724     
   3823746608.8502989     
   3704528404.7086477     
   3587577525.7564402     
   3473194916.5691109     
   4182903747.9365888     
   4045988619.7962766     
   3910942608.0907912     
   3778069017.0073676     
   3647847440.1935029     
   4433465474.2076063     
   4275716383.6461444     
   4119288683.0306840     
   3964589129.1415062     
   3812300386.8770847     
   3105618910.6153588     
   2920453149.4452195     
   2735572421.4606490     
   2551042681.4374976     
   2366958745.0124345     
   3291130149.0738316     
   3101970778.7811627     
   2916119799.5470552     
   2734480190.4397864     
   2558422456.1280141     
   3473194916.5691109     
   3257048153.8535395     
   3045402970.2044353     
   2840836375.7230148     
   2647711470.0553679     
   3647847440.1935029     
   3382390488.5761614     
   3120847463.3377748     
   2868041864.5635376     
   2633049779.9077854     
   3812300386.8770847     
   3476309611.4794092     
   3141836183.6270618     
   2816083211.0951271     
   2514633106.5228744     
 </DataArray>
 <DataArray  type="Float64" Name="strain" NumberOfComponents="3" format="ascii">
  0.20348601569938196        0.0000000000000000       0.12541580796558666     
  0.18665655443046600       -2.7327837647764926E-002   7.4357603474630676E-002
  0.16982709316154998       -4.4679084251132116E-002   3.5132424750099603E-002
  0.15299763189263399       -5.2053739810101543E-002   7.7402717919934708E-003
  0.13616817062371803       -4.9451804324673249E-002  -7.8188553996877685E-003
  0.15985550205836230        0.0000000000000000        9.6455170660754957E-002
  0.15317770321464103       -2.1846810800636905E-002   6.2695033621328652E-002
  0.14649990437091975       -3.6176960323148440E-002   3.7405195665866808E-002
  0.13982210552719848       -4.2990448567534603E-002   2.0585656794369495E-002
  0.13314430668347721       -4.2287275533795361E-002   1.2236417006836600E-002
  0.12645779304884097        0.0000000000000000        7.4205525086187454E-002
  0.12656892994785396       -1.6365783953508895E-002   5.5283525732018446E-002
  0.12668006684686697       -2.7674836395164774E-002   4.1469098779353467E-002
  0.12679120374587996       -3.3927157324967622E-002   3.2762244228192558E-002
  0.12690234064489297       -3.5122746742917474E-002   2.9162962078535755E-002
  0.10329288867081796        0.0000000000000000        5.8666871241884161E-002
  0.10683023463010478       -1.0884757106380880E-002   5.2123079806700057E-002
  0.11036758058939165       -1.9172712467181108E-002   4.7324134090559598E-002
  0.11390492654867851       -2.4863866082400668E-002   4.4270034093462834E-002
  0.11744227250796536       -2.7958217952039583E-002   4.2960779815409647E-002
   9.0360788924293223E-002   0.0000000000000000        4.9839209127845042E-002
   9.3961617261393515E-002  -5.4037302592528664E-003   5.3213695845373526E-002
   9.7562445598493794E-002  -1.0670588539197431E-002   5.4970301599485238E-002
  0.10116327393559407       -1.5800574839833707E-002   5.5109026390180144E-002
  0.10476410227269435       -2.0793689161161685E-002   5.3629870217458284E-002
  0.13616817062371803       -4.9451804324673249E-002  -7.8188553996877685E-003
  0.13295658727768345       -4.2912570827925683E-002  -3.3955487565142037E-003
  0.12974500393164887       -3.8475332352937201E-002  -3.8463500107763227E-004
  0.12653342058561429       -3.6140088899707976E-002   1.2138858666219075E-003
  0.12332183723957971       -3.5906840468237805E-002   1.4000138465843914E-003
  0.13314430668347721       -4.2287275533795361E-002   1.2236417006836600E-002
  0.12890812850287470       -3.8418630464629192E-002   1.2185563490320600E-002
  0.12467195032227216       -3.5735702602734516E-002   1.1497913192405684E-002
  0.12043577214166960       -3.4238491948111287E-002   1.0173466113091927E-002
  0.11619959396106705       -3.3926998500759614E-002   8.2122222523792199E-003
  0.12690234064489297       -3.5122746742917474E-002   2.9162962078535755E-002
  0.12241716373606067       -3.3924690101332727E-002   2.5554226216817764E-002
  0.11793198682722836       -3.2996072852531783E-002   2.2084289680039070E-002
  0.11344680991839608       -3.2336894996514674E-002   1.8753152468199676E-002
  0.10896163300956374       -3.1947156533281409E-002   1.5560814581299619E-002
  0.11744227250796536       -2.7958217952039583E-002   4.2960779815409647E-002
  0.11348369297724144       -2.9430749738036249E-002   3.6710439422977359E-002
  0.10952511344651751       -3.0256443102329056E-002   3.1374494461822548E-002
  0.10556653391579361       -3.0435298044918058E-002   2.6952944931945260E-002
  0.10160795438506970       -2.9967314565803170E-002   2.3445790833345310E-002
  0.10476410227269435       -2.0793689161161685E-002   5.3629870217458284E-002
  0.10210771622641700       -2.4936809374739754E-002   4.5654203108799314E-002
   9.9451330180139658E-002  -2.7516813352126347E-002   3.9368527537756048E-002
   9.6794944133862304E-002  -2.8533701093321404E-002   3.4772843504328417E-002
   9.4138558087584936E-002  -2.7987472598324986E-002   3.1867151008516406E-002
  0.12332183723957971       -3.5906840468237805E-002   1.4000138465843914E-003
  0.12038330205674130       -3.6411112039607174E-002   6.5835965825303266E-004
  0.11744476687390286       -3.6288428594896498E-002   1.1849376878490803E-004
  0.11450623169106441       -3.5538790134105505E-002  -2.1958382181977432E-004
  0.11156769650822601       -3.4162196657234578E-002  -3.5587311356127804E-004
  0.11619959396106705       -3.3926998500759614E-002   8.2122222523792199E-003
  0.11344807980436987       -3.4008149627691497E-002   7.8537746557273830E-003
  0.11069656564767269       -3.3688872695919060E-002   7.6675808124945094E-003
  0.10794505149097554       -3.2969167705442316E-002   7.6536407226810536E-003
  0.10519353733427833       -3.1849034656261155E-002   7.8119543862864294E-003
  0.10896163300956374       -3.1947156533281409E-002   1.5560814581299619E-002
  0.10636760533356367       -3.1605187215775793E-002   1.5359046618951204E-002
  0.10377357765756358       -3.1089316796941626E-002   1.5299997864577992E-002
  0.10117954998156346       -3.0399545276778996E-002   1.5383668318179699E-002
   9.8585522305563417E-002  -2.9535872655287815E-002   1.5610057979756550E-002
  0.10160795438506970       -2.9967314565803170E-002   2.3445790833345310E-002
   9.9141878644322529E-002  -2.9202224803860019E-002   2.3174175547924829E-002
   9.6675802903575414E-002  -2.8489760897964220E-002   2.3015744925035178E-002
   9.4209727162828272E-002  -2.7829922848115602E-002   2.2970498964676529E-002
   9.1743651422081129E-002  -2.7222710654314322E-002   2.3038437666848582E-002
   9.4138558087584936E-002  -2.7987472598324986E-002   3.1867151008516406E-002
   9.1770899736646566E-002  -2.6799262391944356E-002   3.1299161442648021E-002
   8.9403241385708238E-002  -2.5890204998986782E-002   3.0814821993866218E-002
   8.7035583034769895E-002  -2.5260300419452347E-002   3.0414132662171245E-002
   8.4667924683831552E-002  -2.4909548653340940E-002   3.0097093447563006E-002
  0.11156769650822601       -3.4162196657234578E-002  -3.5587311356127804E-004
  0.10830213631758467       -3.2620322648490824E-002  -9.0056248232550651E-006
  0.10503657612694345       -3.1374842592081856E-002   5.1733452152075143E-004
  0.10177101593630217       -3.0425756488007261E-002   1.2231473254707276E-003
   9.8505455745660886E-002  -2.9773064336267696E-002   2.1084327870266040E-003
  0.10519353733427833       -3.1849034656261155E-002   7.8119543862864294E-003
  0.10211670385471297       -3.0617670541562739E-002   7.6970401337250888E-003
   9.9039870375147665E-002  -2.9564272354533822E-002   7.7801066457097862E-003
   9.5963036895582318E-002  -2.8688840095174216E-002   8.0611539222402578E-003
   9.2886203416016999E-002  -2.7991373763484595E-002   8.5401819633170728E-003
   9.8585522305563417E-002  -2.9535872655287815E-002   1.5610057979756550E-002
   9.5715923644013989E-002  -2.8615018434634445E-002   1.5151790010560939E-002
   9.2846324982464631E-002  -2.7753702116985725E-002   1.4910010912851220E-002
   8.9976726320915246E-002  -2.6951923702341445E-002   1.4884720686627616E-002
   8.7107127659365888E-002  -2.6209683190701549E-002   1.5075919331890036E-002
   9.1743651422081129E-002  -2.7222710654314322E-002   2.3038437666848582E-002
   8.9099795685487759E-002  -2.6612366327706423E-002   2.2355244005683804E-002
   8.6455939948894389E-002  -2.5943131879437687E-002   2.1907047322945156E-002
   8.3812084212301033E-002  -2.5215007309508441E-002   2.1693847618632332E-002
   8.1168228475707691E-002  -2.4427992617918476E-002   2.1715644892745703E-002
   8.4667924683831552E-002  -2.4909548653340940E-002   3.0097093447563006E-002
   8.2268319979134252E-002  -2.4609714220778178E-002   2.9307402119094134E-002
   7.9868715274436924E-002  -2.4132561641889663E-002   2.8771215875991379E-002
   7.7469110569739610E-002  -2.3478090916675440E-002   2.8488534718254688E-002
   7.5069505865042324E-002  -2.2646302045135402E-002   2.8459358645884086E-002
   9.8505455745660886E-002  -2.9773064336267696E-002   2.1084327870266040E-003
   9.5814328117086733E-002  -2.9195201317309294E-002   2.3531239134622628E-003
   9.3123200488512609E-002  -2.8470602611578855E-002   2.6747272534891620E-003
   9.0432072859938498E-002  -2.7599268219076378E-002   3.0732428071079121E-003
   8.7740945231364331E-002  -2.6581198139801976E-002   3.5486705743182911E-003
   9.2886203416016999E-002  -2.7991373763484595E-002   8.5401819633170728E-003
   9.0281456734495030E-002  -2.7338183071676070E-002   8.7525935635458241E-003
   8.7676710052973089E-002  -2.6595577731960141E-002   9.0608548442868420E-003
   8.5071963371451134E-002  -2.5763557744337071E-002   9.4649658055410285E-003
   8.2467216689929179E-002  -2.4842123108806624E-002   9.9649264473078425E-003
   8.7107127659365888E-002  -2.6209683190701549E-002   1.5075919331890036E-002
   8.4607699391817323E-002  -2.5481164826042652E-002   1.5198730367046914E-002
   8.2108271124268717E-002  -2.4720552852341315E-002   1.5436328549637779E-002
   7.9608842856720125E-002  -2.3927847269597374E-002   1.5788713879662505E-002
   7.7109414589171504E-002  -2.3103048077811106E-002   1.6255886357121246E-002
   8.1168228475707691E-002  -2.4427992617918476E-002   2.1715644892745703E-002
   7.8793056089053598E-002  -2.3624146580409303E-002   2.1691534323966200E-002
   7.6417883702399533E-002  -2.2845527972722546E-002   2.1801148369541667E-002
   7.4042711315745469E-002  -2.2092136794857872E-002   2.2044487029472218E-002
   7.1667538929091376E-002  -2.1363973046815615E-002   2.2421550303757969E-002
   7.5069505865042324E-002  -2.2646302045135402E-002   2.8459358645884086E-002
   7.2837526826203924E-002  -2.1767128334776037E-002   2.8231005434303291E-002
   7.0605547787365511E-002  -2.0970503093103651E-002   2.8155314303998730E-002
   6.8373568748527069E-002  -2.0256426320118533E-002   2.8232285254970360E-002
   6.6141589709688642E-002  -1.9624898015820236E-002   2.8461918287218224E-002
   8.7740945231364331E-002  -2.6581198139801976E-002   3.5486705743182911E-003
   8.4227122852377490E-002  -2.5523972637274850E-002   3.4479813944289228E-003
   8.0713300473390703E-002  -2.4535171975013342E-002   3.5575539519125954E-003
   7.7199478094403862E-002  -2.3614796153018099E-002   3.8773882467700582E-003
   7.3685655715417075E-002  -2.2762845171289015E-002   4.4074842790008395E-003
   8.2467216689929179E-002  -2.4842123108806624E-002   9.9649264473078425E-003
   7.9165971263368107E-002  -2.3895395958093119E-002   9.7288516942443948E-003
   7.5864725836807034E-002  -2.2987498424920677E-002   9.7076691086589173E-003
   7.2563480410246017E-002  -2.2118430509289279E-002   9.9013786905511603E-003
   6.9262234983684889E-002  -2.1288192211199153E-002   1.0309980439921984E-002
   7.7109414589171504E-002  -2.3103048077811106E-002   1.6255886357121246E-002
   7.4025376545140784E-002  -2.2266819278911582E-002   1.5914021253608607E-002
   7.0941338501109868E-002  -2.1439824874828220E-002   1.5791678747678964E-002
   6.7857300457079023E-002  -2.0622064865560678E-002   1.5888858839331416E-002
   6.4773262413048260E-002  -1.9813539251109458E-002   1.6205561528566781E-002
   7.1667538929091376E-002  -2.1363973046815615E-002   2.2421550303757969E-002
   6.8805338697695256E-002  -2.0638242599730003E-002   2.2003490072521635E-002
   6.5943138466299178E-002  -1.9892151324735603E-002   2.1809582868972232E-002
   6.3080938234903114E-002  -1.9125699221832076E-002   2.1839828693110012E-002
   6.0218738003506959E-002  -1.8338886291019735E-002   2.2094227544934689E-002
   6.6141589709688642E-002  -1.9624898015820236E-002   2.8461918287218224E-002
   6.3505857721031789E-002  -1.9009665920548369E-002   2.7997258150983029E-002
   6.0870125732374880E-002  -1.8344477774642876E-002   2.7761381472539509E-002
   5.8234393743717972E-002  -1.7629333578103201E-002   2.7754288251887416E-002
   5.5598661755061063E-002  -1.6864233330929901E-002   2.7975978489026609E-002
   7.3685655715417075E-002  -2.2762845171289015E-002   4.4074842790008395E-003
   7.1050694698219341E-002  -2.1962407351613644E-002   4.6146783092289034E-003
   6.8415733681021718E-002  -2.1196571015780263E-002   5.2292694791848948E-003
   6.5780772663824011E-002  -2.0465336163788497E-002   6.2512577888682308E-003
   6.3145811646626360E-002  -1.9768702795638471E-002   7.6806432382791057E-003
   6.9262234983684889E-002  -2.1288192211199153E-002   1.0309980439921984E-002
   6.6989999726018434E-002  -2.0492903931939921E-002   1.0374115299067788E-002
   6.4717764468351924E-002  -1.9728686072801760E-002   1.0756304537548472E-002
   6.2445529210685385E-002  -1.8995538633783920E-002   1.1456548155363941E-002
   6.0173293953018903E-002  -1.8293461614887541E-002   1.2474846152513819E-002
   6.4773262413048260E-002  -1.9813539251109458E-002   1.6205561528566781E-002
   6.2774410154520011E-002  -1.9023400512266170E-002   1.6130168280351020E-002
   6.0775557895991747E-002  -1.8260801129823007E-002   1.6283486651077164E-002
   5.8776705637463490E-002  -1.7525741103779892E-002   1.6665516640745351E-002
   5.6777853378935206E-002  -1.6818220434136444E-002   1.7276258249355331E-002
   6.0218738003506959E-002  -1.8338886291019735E-002   2.2094227544934689E-002
   5.8403925983724070E-002  -1.7553897092592322E-002   2.1882837253078435E-002
   5.6589113963941243E-002  -1.6792916186844378E-002   2.1810815819771387E-002
   5.4774301944158339E-002  -1.6055943573775367E-002   2.1878163245013144E-002
   5.2959489924375470E-002  -1.5342979253385652E-002   2.2084879528803829E-002
   5.5598661755061063E-002  -1.6864233330929901E-002   2.7975978489026609E-002
   5.3878547213630723E-002  -1.6084393672918557E-002   2.7632122217250754E-002
   5.2158432672200328E-002  -1.5325031243865528E-002   2.7338292043630863E-002
   5.0438318130769974E-002  -1.4586146043770815E-002   2.7094487968167172E-002
   4.8718203589339537E-002  -1.3867738072634639E-002   2.6900709990859251E-002
   6.3145811646626360E-002  -1.9768702795638471E-002   7.6806432382791057E-003
   5.7283779159155723E-002  -1.8850738048820426E-002   8.3378182709117343E-003
   5.1421746671684976E-002  -1.7455509060824964E-002   1.0399715791954589E-002
   4.5559714184214145E-002  -1.5583015831651705E-002   1.3866335801408253E-002
   3.9697681696743592E-002  -1.3233258361300848E-002   1.8737678299272087E-002
   6.0173293953018903E-002  -1.8293461614887541E-002   1.2474846152513819E-002
   5.5535557444505723E-002  -1.7432348495995564E-002   1.2941875225861210E-002
   5.0897820935992460E-002  -1.6222092756992601E-002   1.4452773768713179E-002
   4.6260084427479267E-002  -1.4662694397878345E-002   1.7007541781069752E-002
   4.1622347918966018E-002  -1.2754153418653047E-002   2.0606179262930402E-002
   5.6777853378935206E-002  -1.6818220434136444E-002   1.7276258249355331E-002
   5.3003559830473307E-002  -1.6013958943170981E-002   1.7425019742351805E-002
   4.9229266282011422E-002  -1.4988676453160557E-002   1.8256797685946277E-002
   4.5454972733549377E-002  -1.3742372964105205E-002   1.9771592080138740E-002
   4.1680679185087610E-002  -1.2275048476005024E-002   2.1969402924929771E-002
   5.2959489924375470E-002  -1.5342979253385652E-002   2.2084879528803829E-002
   4.9687786317058724E-002  -1.4595569390346147E-002   2.1787251820382478E-002
   4.6416082709741929E-002  -1.3755260149328243E-002   2.1811787543653528E-002
   4.3144379102425134E-002  -1.2822051530331955E-002   2.2158486698615920E-002
   3.9872675495108409E-002  -1.1795943533357334E-002   2.2827349285270582E-002
   4.8718203589339537E-002  -1.3867738072634639E-002   2.6900709990859251E-002
   4.5588236904261725E-002  -1.3177179837521480E-002   2.6028571459953909E-002
   4.2458270219183913E-002  -1.2521843845496095E-002   2.5117743341834753E-002
   3.9328303534106046E-002  -1.1901730096558746E-002   2.4168225636500951E-002
   3.6198336849028179E-002  -1.1316838590709422E-002   2.3180018343953224E-002
   9.0360788924293223E-002   0.0000000000000000        4.9839209127845042E-002
   9.3961617261393515E-002  -5.4037302592528664E-003   5.3213695845373526E-002
   9.7562445598493794E-002  -1.0670588539197431E-002   5.4970301599485238E-002
  0.10116327393559407       -1.5800574839833707E-002   5.5109026390180144E-002
  0.10476410227269435       -2.0793689161161685E-002   5.3629870217458284E-002
   8.2423455189759631E-002   0.0000000000000000        4.4788356511816743E-002
   8.4635269664228380E-002  -4.5742833852717678E-003   4.8272129310146350E-002
   8.6847084138697100E-002  -9.0380555747879027E-003   5.0595755346629669E-002
   8.9058898613165835E-002  -1.3391316568548407E-002   5.1759234621266623E-002
   9.1270713087634570E-002  -1.7634066366553278E-002   5.1762567134057316E-002
   7.4242848847709944E-002   0.0000000000000000        4.0580131161545879E-002
   7.5523383661117618E-002  -3.7448365112906666E-003   4.4146829257123925E-002
   7.6803918474525279E-002  -7.4055226103783671E-003   4.7011114792426152E-002
   7.8084453287932953E-002  -1.0982058297263102E-002   4.9172987767452547E-002
   7.9364988101340614E-002  -1.4474443571944870E-002   5.0632448182203131E-002
   6.5818969898144175E-002   0.0000000000000000        3.7214533077032444E-002
   6.6625959252061259E-002  -2.9153896373095662E-003   4.0837795686306286E-002
   6.7432948605978330E-002  -5.7729896459688332E-003   4.4216379936874779E-002
   6.8239937959895414E-002  -8.5728000259777982E-003   4.7350285828737924E-002
   6.9046927313812498E-002  -1.1314820777336466E-002   5.0239513361895735E-002
   5.7151818341062317E-002   0.0000000000000000        3.4691562258276444E-002
   5.7942996437059288E-002  -2.0859427633284668E-003   3.8345028597693412E-002
   5.8734174533056252E-002  -4.1404566815593010E-003   4.2211550779975501E-002
   5.9525352629053223E-002  -6.1635417546924941E-003   4.6291128805122733E-002
   6.0316530725050187E-002  -8.1551979827280529E-003   5.0583762673135080E-002
  0.10476410227269435       -2.0793689161161685E-002   5.3629870217458284E-002
  0.10210771622641700       -2.4936809374739754E-002   4.5654203108799314E-002
   9.9451330180139658E-002  -2.7516813352126347E-002   3.9368527537756048E-002
   9.6794944133862304E-002  -2.8533701093321404E-002   3.4772843504328417E-002
   9.4138558087584936E-002  -2.7987472598324986E-002   3.1867151008516406E-002
   9.1270713087634570E-002  -1.7634066366553278E-002   5.1762567134057316E-002
   9.0066599541388515E-002  -2.1211310586777783E-002   4.6528653284578177E-002
   8.8862485995142459E-002  -2.3568054847197178E-002   4.2509292897545979E-002
   8.7658372448896404E-002  -2.4704299147811453E-002   3.9704485972960744E-002
   8.6454258902650377E-002  -2.4620043488620652E-002   3.8114232510822493E-002
   7.9364988101340614E-002  -1.4474443571944870E-002   5.0632448182203131E-002
   7.9137708979957172E-002  -1.7485811798815802E-002   4.7797671315517390E-002
   7.8910429858573716E-002  -1.9619296342268021E-002   4.5702009836109898E-002
   7.8683150737190261E-002  -2.0874897202301516E-002   4.4345463743980691E-002
   7.8455871615806833E-002  -2.1252614378916318E-002   4.3728033039129734E-002
   6.9046927313812498E-002  -1.1314820777336466E-002   5.0239513361895735E-002
   6.9321044542122970E-002  -1.3760313010853828E-002   4.9461257201617002E-002
   6.9595161770433456E-002  -1.5670537837338863E-002   4.8946678353447813E-002
   6.9869278998743914E-002  -1.7045495256791592E-002   4.8695776817388188E-002
   7.0143396227054386E-002  -1.7885185269211984E-002   4.8708552593438162E-002
   6.0316530725050187E-002  -8.1551979827280529E-003   5.0583762673135080E-002
   6.0616606227885894E-002  -1.0034814222891854E-002   5.1519410942876931E-002
   6.0916681730721595E-002  -1.1721779332409700E-002   5.2243298449559668E-002
   6.1216757233557302E-002  -1.3216093311281627E-002   5.2755425193183283E-002
   6.1516832736393016E-002  -1.4517756159507657E-002   5.3055791173747792E-002
   9.4138558087584936E-002  -2.7987472598324986E-002   3.1867151008516406E-002
   9.1770899736646566E-002  -2.6799262391944356E-002   3.1299161442648021E-002
   8.9403241385708238E-002  -2.5890204998986782E-002   3.0814821993866218E-002
   8.7035583034769895E-002  -2.5260300419452347E-002   3.0414132662171245E-002
   8.4667924683831552E-002  -2.4909548653340940E-002   3.0097093447563006E-002
   8.6454258902650377E-002  -2.4620043488620652E-002   3.8114232510822493E-002
   8.4215315907056082E-002  -2.3980918193032517E-002   3.7082263331085726E-002
   8.1976372911461773E-002  -2.3452553584454722E-002   3.6224074744950228E-002
   7.9737429915867478E-002  -2.3034949662887390E-002   3.5539666752416245E-002
   7.7498486920273155E-002  -2.2728106428330411E-002   3.5029039353483615E-002
   7.8455871615806833E-002  -2.1252614378916318E-002   4.3728033039129734E-002
   7.6435774452071253E-002  -2.1162573994120637E-002   4.2400476371937293E-002
   7.4415677288335702E-002  -2.1014902169922675E-002   4.1336830774860868E-002
   7.2395580124600151E-002  -2.0809598906322432E-002   4.0537096247900480E-002
   7.0375482960864599E-002  -2.0546664203319909E-002   4.0001272791056211E-002
   7.0143396227054386E-002  -1.7885185269211984E-002   4.8708552593438162E-002
   6.8432275371692206E-002  -1.8344229795208764E-002   4.7253800565202689E-002
   6.6721154516330039E-002  -1.8577250755390608E-002   4.6153090083597970E-002
   6.5010033660967845E-002  -1.8584248149757468E-002   4.5406421148623977E-002
   6.3298912805605664E-002  -1.8365221978309365E-002   4.5013793760280724E-002
   6.1516832736393016E-002  -1.4517756159507657E-002   5.3055791173747792E-002
   6.0204818665918890E-002  -1.5525885596296918E-002   5.1642235910882003E-002
   5.8892804595444770E-002  -1.6139599340858561E-002   5.0672852671161658E-002
   5.7580790524970643E-002  -1.6358897393192535E-002   5.0147641454586660E-002
   5.6268776454496530E-002  -1.6183779753298891E-002   5.0066602261157098E-002
   8.4667924683831552E-002  -2.4909548653340940E-002   3.0097093447563006E-002
   8.2268319979134252E-002  -2.4609714220778178E-002   2.9307402119094134E-002
   7.9868715274436924E-002  -2.4132561641889663E-002   2.8771215875991379E-002
   7.7469110569739610E-002  -2.3478090916675440E-002   2.8488534718254688E-002
   7.5069505865042324E-002  -2.2646302045135402E-002   2.8459358645884086E-002
   7.7498486920273155E-002  -2.2728106428330411E-002   3.5029039353483615E-002
   7.5342431062069753E-002  -2.2412310956308509E-002   3.4428817244425272E-002
   7.3186375203866311E-002  -2.1967850322346421E-002   3.4062187742988650E-002
   7.1030319345662882E-002  -2.1394724526444055E-002   3.3929150849173584E-002
   6.8874263487459439E-002  -2.0692933568601468E-002   3.4029706562980322E-002
   7.0375482960864599E-002  -2.0546664203319909E-002   4.0001272791056211E-002
   6.8443063471410562E-002  -2.0214907691838896E-002   3.9541866917022925E-002
   6.6510643981956566E-002  -1.9803139002803151E-002   3.9296141172866776E-002
   6.4578224492502542E-002  -1.9311358136212750E-002   3.9264095558587953E-002
   6.2645805003048532E-002  -1.8739565092067589E-002   3.9445730074186253E-002
   6.3298912805605664E-002  -1.8365221978309365E-002   4.5013793760280724E-002
   6.1570217207156705E-002  -1.8017504427369255E-002   4.4646551136886849E-002
   5.9841521608707683E-002  -1.7638427683259923E-002   4.4473076165625777E-002
   5.8112826010258703E-002  -1.7227991745981351E-002   4.4493368846497565E-002
   5.6384130411809674E-002  -1.6786196615533669E-002   4.4707429179502087E-002
   5.6268776454496530E-002  -1.6183779753298891E-002   5.0066602261157098E-002
   5.4723892269308128E-002  -1.5820101162899600E-002   4.9742869904017148E-002
   5.3179008084119690E-002  -1.5473716363716614E-002   4.9592992721265640E-002
   5.1634123898931253E-002  -1.5144625355750042E-002   4.9616970712902567E-002
   5.0089239713742850E-002  -1.4832828138999776E-002   4.9814803878927616E-002
   7.5069505865042324E-002  -2.2646302045135402E-002   2.8459358645884086E-002
   7.2837526826203924E-002  -2.1767128334776037E-002   2.8231005434303291E-002
   7.0605547787365511E-002  -2.0970503093103651E-002   2.8155314303998730E-002
   6.8373568748527069E-002  -2.0256426320118533E-002   2.8232285254970360E-002
   6.6141589709688642E-002  -1.9624898015820236E-002   2.8461918287218224E-002
   6.8874263487459439E-002  -2.0692933568601468E-002   3.4029706562980322E-002
   6.6803493374130191E-002  -1.9950425976280148E-002   3.3711793907969620E-002
   6.4732723260800984E-002  -1.9255150276941177E-002   3.3563637022701029E-002
   6.2661953147471736E-002  -1.8607106470584955E-002   3.3585235907174806E-002
   6.0591183034142571E-002  -1.8006294557211144E-002   3.3776590561390513E-002
   6.2645805003048532E-002  -1.8739565092067589E-002   3.9445730074186253E-002
   6.0753337503694389E-002  -1.8133723617784106E-002   3.9073574551450288E-002
   5.8860870004340288E-002  -1.7539797460778710E-002   3.8888268486922374E-002
   5.6968402504986151E-002  -1.6957786621051324E-002   3.8889811880602532E-002
   5.5075935005632001E-002  -1.6387691098602053E-002   3.9078204732490601E-002
   5.6384130411809674E-002  -1.6786196615533669E-002   4.4707429179502087E-002
   5.4687059214896541E-002  -1.6317021259288141E-002   4.4316347364745254E-002
   5.2989988017983457E-002  -1.5824444644616211E-002   4.4129208696662384E-002
   5.1292916821070303E-002  -1.5308466771517829E-002   4.4146013175253532E-002
   4.9595845624157218E-002  -1.4769087639992934E-002   4.4366760800518587E-002
   5.0089239713742850E-002  -1.4832828138999776E-002   4.9814803878927616E-002
   4.8604658507736639E-002  -1.4500318900792147E-002   4.9440112347854503E-002
   4.7120077301730429E-002  -1.4109091828453768E-002   4.9286457651921245E-002
   4.5635496095724218E-002  -1.3659146921984194E-002   4.9353839791127854E-002
   4.4150914889718035E-002  -1.3150484181383926E-002   4.9642258765474290E-002
   6.6141589709688642E-002  -1.9624898015820236E-002   2.8461918287218224E-002
   6.3505857721031789E-002  -1.9009665920548369E-002   2.7997258150983029E-002
   6.0870125732374880E-002  -1.8344477774642876E-002   2.7761381472539509E-002
   5.8234393743717972E-002  -1.7629333578103201E-002   2.7754288251887416E-002
   5.5598661755061063E-002  -1.6864233330929901E-002   2.7975978489026609E-002
   6.0591183034142571E-002  -1.8006294557211144E-002   3.3776590561390513E-002
   5.8179147691290858E-002  -1.7412652329388448E-002   3.3383426546461967E-002
   5.5767112348439188E-002  -1.6786117579685289E-002   3.3208872365352526E-002
   5.3355077005587503E-002  -1.6126690308101890E-002   3.3252928018061956E-002
   5.0943041662735861E-002  -1.5434370514637974E-002   3.3515593504590463E-002
   5.5075935005632001E-002  -1.6387691098602053E-002   3.9078204732490601E-002
   5.2877422684613117E-002  -1.5815638738228305E-002   3.8739473310115263E-002
   5.0678910363594190E-002  -1.5227757384727703E-002   3.8609178097586364E-002
   4.8480398042575264E-002  -1.4624047038100357E-002   3.8687319094903805E-002
   4.6281885721556379E-002  -1.4004507698346047E-002   3.8973896302067962E-002
   4.9595845624157218E-002  -1.4769087639992934E-002   4.4366760800518587E-002
   4.7600682700998570E-002  -1.4218625147068190E-002   4.4065398441942585E-002
   4.5605519777839928E-002  -1.3669397189770116E-002   4.3962298669240736E-002
   4.3610356854681252E-002  -1.3121403768098672E-002   4.4057461482412824E-002
   4.1615193931522632E-002  -1.2574644882054120E-002   4.4350886881459120E-002
   4.4150914889718035E-002  -1.3150484181383926E-002   4.9642258765474290E-002
   4.2348927740447184E-002  -1.2621611555908241E-002   4.9361201941944377E-002
   4.0546940591176361E-002  -1.2111036994812543E-002   4.9268234080316026E-002
   3.8744953441905525E-002  -1.1618760498097378E-002   4.9363355180589208E-002
   3.6942966292634688E-002  -1.1144782065762193E-002   4.9646565242763896E-002
   5.5598661755061063E-002  -1.6864233330929901E-002   2.7975978489026609E-002
   5.3878547213630723E-002  -1.6084393672918557E-002   2.7632122217250754E-002
   5.2158432672200328E-002  -1.5325031243865528E-002   2.7338292043630863E-002
   5.0438318130769974E-002  -1.4586146043770815E-002   2.7094487968167172E-002
   4.8718203589339537E-002  -1.3867738072634639E-002   2.6900709990859251E-002
   5.0943041662735861E-002  -1.5434370514637974E-002   3.3515593504590463E-002
   4.9288479686048506E-002  -1.4728869202972644E-002   3.3168224493329318E-002
   4.7633917709361109E-002  -1.4029897376785422E-002   3.2901934513397998E-002
   4.5979355732673748E-002  -1.3337455036075786E-002   3.2716723564796830E-002
   4.4324793755986414E-002  -1.2651542180844078E-002   3.2612591647525835E-002
   4.6281885721556379E-002  -1.4004507698346047E-002   3.8973896302067962E-002
   4.4723929242786065E-002  -1.3373344733026912E-002   3.8636962294801944E-002
   4.3165972764015716E-002  -1.2734763509705149E-002   3.8412160252040001E-002
   4.1608016285245422E-002  -1.2088764028380647E-002   3.8299490173782209E-002
   4.0050059806475108E-002  -1.1435346289053516E-002   3.8298952060028257E-002
   4.1615193931522632E-002  -1.2574644882054120E-002   4.4350886881459120E-002
   4.0184895883843344E-002  -1.2017820263081062E-002   4.4038335621668936E-002
   3.8754597836164008E-002  -1.1439629642624960E-002   4.3868969259556662E-002
   3.7324299788484699E-002  -1.0840073020685508E-002   4.3842787795122337E-002
   3.5894001740805391E-002  -1.0219150397262844E-002   4.3959791228366310E-002
   3.6942966292634688E-002  -1.1144782065762193E-002   4.9646565242763896E-002
   3.5671379609220399E-002  -1.0662295793135212E-002   4.9372344473929963E-002
   3.4399792925806097E-002  -1.0144495775544771E-002   4.9272361535948078E-002
   3.3128206242391801E-002  -9.5913820129903127E-003   4.9346616428818019E-002
   3.1856619558977506E-002  -9.0029545054723936E-003   4.9595109152539951E-002
   4.8718203589339537E-002  -1.3867738072634639E-002   2.6900709990859251E-002
   4.5588236904261725E-002  -1.3177179837521480E-002   2.6028571459953909E-002
   4.2458270219183913E-002  -1.2521843845496095E-002   2.5117743341834753E-002
   3.9328303534106046E-002  -1.1901730096558746E-002   2.4168225636500951E-002
   3.6198336849028179E-002  -1.1316838590709422E-002   2.3180018343953224E-002
   4.4324793755986414E-002  -1.2651542180844078E-002   3.2612591647525835E-002
   4.1200777314968628E-002  -1.1983167875871809E-002   3.1871883902671844E-002
   3.8076760873950760E-002  -1.1343341185940839E-002   3.1181766233151803E-002
   3.4952744432932920E-002  -1.0732062111051103E-002   3.0542238638966240E-002
   3.1828727991915107E-002  -1.0149330651202826E-002   2.9953301120114295E-002
   4.0050059806475108E-002  -1.1435346289053516E-002   3.8298952060028257E-002
   3.7021273272065461E-002  -1.0789155914222109E-002   3.7696349729271980E-002
   3.3992486737655911E-002  -1.0164838526385583E-002   3.7233617136398472E-002
   3.0963700203246361E-002  -9.5623941255434039E-003   3.6910754281407013E-002
   2.7934913668836658E-002  -8.9818227116960081E-003   3.6727761164297934E-002
   3.5894001740805391E-002  -1.0219150397262844E-002   4.3959791228366310E-002
   3.3049724775552305E-002  -9.5951439525724241E-003   4.3501968939754845E-002
   3.0205447810299164E-002  -8.9863358668301058E-003   4.3273296051573866E-002
   2.7361170845045992E-002  -8.3927261400358437E-003   4.3273772563823448E-002
   2.4516893879792986E-002  -7.8143147721892459E-003   4.3503398476503738E-002
   3.1856619558977506E-002  -9.0029545054723936E-003   4.9595109152539951E-002
   2.9286131825429107E-002  -8.4011319909227944E-003   4.9288741534119607E-002
   2.6715644091880708E-002  -7.8078332072751833E-003   4.9300802978678282E-002
   2.4145156358332309E-002  -7.2230581545280614E-003   4.9631293486215811E-002
   2.1574668624783910E-002  -6.6468068326825946E-003   5.0280213056732137E-002
   5.7151818341062317E-002   0.0000000000000000        3.4691562258276444E-002
   5.7942996437059288E-002  -2.0859427633284668E-003   3.8345028597693412E-002
   5.8734174533056252E-002  -4.1404566815593010E-003   4.2211550779975501E-002
   5.9525352629053223E-002  -6.1635417546924941E-003   4.6291128805122733E-002
   6.0316530725050187E-002  -8.1551979827280529E-003   5.0583762673135080E-002
   4.8652837396945328E-002   0.0000000000000000        3.2788619794501449E-002
   4.9591978575568837E-002  -1.7109935431440775E-003   3.6965555828203107E-002
   5.0531119754192347E-002  -3.4355186892308983E-003   4.1225362184292701E-002
   5.1470260932815849E-002  -5.1735754382604658E-003   4.5568038862770242E-002
   5.2409402111439352E-002  -6.9251637902327766E-003   4.9993585863635719E-002
   4.0733470286274179E-002   0.0000000000000000        3.1283106774931034E-002
   4.1690389027047040E-002  -1.3360443229596874E-003   3.5938552054876997E-002
   4.2647307767819900E-002  -2.7305806969024999E-003   4.0546682136733701E-002
   4.3604226508592761E-002  -4.1836091218284393E-003   4.5107497020501187E-002
   4.4561145249365629E-002  -5.6951295977375012E-003   4.9620996706179463E-002
   3.3393717009048848E-002   0.0000000000000000        3.0175023199565200E-002
   3.4238227791493887E-002  -9.6109510277529774E-004   3.5264017277715089E-002
   3.5082738573938933E-002  -2.0256427045741020E-003   4.0175510637298545E-002
   3.5927249356383965E-002  -3.1936428053964084E-003   4.4909503278315568E-002
   3.6771760138829011E-002  -4.4650954052422309E-003   4.9465995200766229E-002
   2.6633577565269354E-002   0.0000000000000000        2.9464369068403946E-002
   2.7235494868909388E-002  -5.8614588259090807E-004   3.4941951496717374E-002
   2.7837412172549425E-002  -1.3207047122457006E-003   4.0111847685987190E-002
   2.8439329476189455E-002  -2.2036764889643845E-003   4.4974057636213420E-002
   2.9041246779829489E-002  -3.2350612127469485E-003   4.9528581347396045E-002
   6.0316530725050187E-002  -8.1551979827280529E-003   5.0583762673135080E-002
   6.0616606227885894E-002  -1.0034814222891854E-002   5.1519410942876931E-002
   6.0916681730721595E-002  -1.1721779332409700E-002   5.2243298449559668E-002
   6.1216757233557302E-002  -1.3216093311281627E-002   5.2755425193183283E-002
   6.1516832736393016E-002  -1.4517756159507657E-002   5.3055791173747792E-002
   5.2409402111439352E-002  -6.9251637902327766E-003   4.9993585863635719E-002
   5.2536443871912412E-002  -8.5897503445726085E-003   5.1216926070037971E-002
   5.2663485632385466E-002  -1.0066801700704727E-002   5.2305959554774017E-002
   5.2790527392858520E-002  -1.1356317858629145E-002   5.3260686317843906E-002
   5.2917569153331581E-002  -1.2458298818345870E-002   5.4081106359247622E-002
   4.4561145249365629E-002  -5.6951295977375012E-003   4.9620996706179463E-002
   4.4592607308868965E-002  -7.1446864662533908E-003   5.1126912916803872E-002
   4.4624069368372328E-002  -8.4118240689997695E-003   5.2575976447155032E-002
   4.4655531427875664E-002  -9.4965424059766535E-003   5.3968187297232940E-002
   4.4686993487379006E-002  -1.0398841477184052E-002   5.5303545467037647E-002
   3.6771760138829011E-002  -4.4650954052422309E-003   4.9465995200766229E-002
   3.6785096538755578E-002  -5.6996225879341611E-003   5.1249371483174599E-002
   3.6798432938682152E-002  -6.7568464372947841E-003   5.3053349126702655E-002
   3.6811769338608712E-002  -7.6367669533241667E-003   5.4877928131350402E-002
   3.6825105738535299E-002  -8.3393841360222421E-003   5.6723108497117862E-002
   2.9041246779829489E-002  -3.2350612127469485E-003   4.9528581347396045E-002
   2.9113911561572225E-002  -4.2545587096149313E-003   5.1584301769150173E-002
   2.9186576343314959E-002  -5.1018688055898438E-003   5.3738077593416929E-002
   2.9259241125057688E-002  -5.7769915006716634E-003   5.5989908820196332E-002
   2.9331905906800425E-002  -6.2799267948604326E-003   5.8339795449488294E-002
   6.1516832736393016E-002  -1.4517756159507657E-002   5.3055791173747792E-002
   6.0204818665918890E-002  -1.5525885596296918E-002   5.1642235910882003E-002
   5.8892804595444770E-002  -1.6139599340858561E-002   5.0672852671161658E-002
   5.7580790524970643E-002  -1.6358897393192535E-002   5.0147641454586660E-002
   5.6268776454496530E-002  -1.6183779753298891E-002   5.0066602261157098E-002
   5.2917569153331581E-002  -1.2458298818345870E-002   5.4081106359247622E-002
   5.1999018836610261E-002  -1.3310822623789069E-002   5.3338428145381554E-002
   5.1080468519888962E-002  -1.3851967318892960E-002   5.2938505415875789E-002
   5.0161918203167635E-002  -1.4081732903657516E-002   5.2881338170730173E-002
   4.9243367886446329E-002  -1.4000119378082779E-002   5.3166926409944817E-002
   4.4686993487379006E-002  -1.0398841477184052E-002   5.5303545467037647E-002
   4.4060490385625317E-002  -1.1095759651281206E-002   5.5148707720283019E-002
   4.3433987283871621E-002  -1.1564335296927363E-002   5.5235208919103447E-002
   4.2807484182117925E-002  -1.1804568414122524E-002   5.5563049063498904E-002
   4.2180981080364235E-002  -1.1816459002866687E-002   5.6132228153469438E-002
   3.6825105738535299E-002  -8.3393841360222421E-003   5.6723108497117862E-002
   3.6389233312964051E-002  -8.8806966787733158E-003   5.7073074635586328E-002
   3.5953360887392788E-002  -9.2767032749617572E-003   5.7562963180844695E-002
   3.5517488461821525E-002  -9.5274039245875266E-003   5.8192774132892894E-002
   3.5081616036250297E-002  -9.6327986276505718E-003   5.8962507491730952E-002
   2.9331905906800425E-002  -6.2799267948604326E-003   5.8339795449488294E-002
   2.8985247618626437E-002  -6.6656337062654808E-003   5.9111528891291544E-002
   2.8638589330452449E-002  -6.9890712529961999E-003   5.9921768201099512E-002
   2.8291931042278461E-002  -7.2502394350525152E-003   6.0770513378912143E-002
   2.7945272754104473E-002  -7.4491382524344979E-003   6.1657764424729436E-002
   5.6268776454496530E-002  -1.6183779753298891E-002   5.0066602261157098E-002
   5.4723892269308128E-002  -1.5820101162899600E-002   4.9742869904017148E-002
   5.3179008084119690E-002  -1.5473716363716614E-002   4.9592992721265640E-002
   5.1634123898931253E-002  -1.5144625355750042E-002   4.9616970712902567E-002
   5.0089239713742850E-002  -1.4832828138999776E-002   4.9814803878927616E-002
   4.9243367886446329E-002  -1.4000119378082779E-002   5.3166926409944817E-002
   4.7880042485010439E-002  -1.3757677332442424E-002   5.2810411493424893E-002
   4.6516717083574535E-002  -1.3504957357010235E-002   5.2643158970021760E-002
   4.5153391682138624E-002  -1.3241959451786134E-002   5.2665168839735349E-002
   4.3790066280702755E-002  -1.2968683616770227E-002   5.2876441102565591E-002
   4.2180981080364235E-002  -1.1816459002866687E-002   5.6132228153469438E-002
   4.1014621681409215E-002  -1.1695253501985324E-002   5.5770502398577823E-002
   3.9848262282454187E-002  -1.1536198350303855E-002   5.5613446255531288E-002
   3.8681902883499160E-002  -1.1339293547822333E-002   5.5661059724329796E-002
   3.7515543484544139E-002  -1.1104539094540705E-002   5.5913342804973315E-002
   3.5081616036250297E-002  -9.6327986276505718E-003   5.8962507491730952E-002
   3.4127629858504469E-002  -9.6328296715282001E-003   5.8623142619475876E-002
   3.3173643680758633E-002  -9.5674393435974878E-003   5.8503854577794168E-002
   3.2219657503012804E-002  -9.4366276438584366E-003   5.8604643366685812E-002
   3.1265671325266975E-002  -9.2403945723111697E-003   5.8925508986150829E-002
   2.7945272754104473E-002  -7.4491382524344979E-003   6.1657764424729436E-002
   2.7219067016296172E-002  -7.5704058410710207E-003   6.1368332156119088E-002
   2.6492861278487888E-002  -7.5986803368911122E-003   6.1314383936810386E-002
   2.5766655540679591E-002  -7.5339617398946417E-003   6.1495919766803422E-002
   2.5040449802871304E-002  -7.3762500500816341E-003   6.1912939646098147E-002
   5.0089239713742850E-002  -1.4832828138999776E-002   4.9814803878927616E-002
   4.8604658507736639E-002  -1.4500318900792147E-002   4.9440112347854503E-002
   4.7120077301730429E-002  -1.4109091828453768E-002   4.9286457651921245E-002
   4.5635496095724218E-002  -1.3659146921984194E-002   4.9353839791127854E-002
   4.4150914889718035E-002  -1.3150484181383926E-002   4.9642258765474290E-002
   4.3790066280702755E-002  -1.2968683616770227E-002   5.2876441102565591E-002
   4.2518735193843478E-002  -1.2668063831155152E-002   5.2570177395149659E-002
   4.1247404106984152E-002  -1.2323034074133515E-002   5.2469377090887739E-002
   3.9976073020124861E-002  -1.1933594345705338E-002   5.2574040189779743E-002
   3.8704741933265577E-002  -1.1499744645870724E-002   5.2884166691825663E-002
   3.7515543484544139E-002  -1.1104539094540705E-002   5.5913342804973315E-002
   3.6441889084845830E-002  -1.0835808761518032E-002   5.5661199058490290E-002
   3.5368234685147527E-002  -1.0536976319813263E-002   5.5598945283175161E-002
   3.4294580285449239E-002  -1.0208041769426399E-002   5.5726581479028078E-002
   3.3220925885750957E-002  -9.8490051103575504E-003   5.6044107646049099E-002
   3.1265671325266975E-002  -9.2403945723111697E-003   5.8925508986150829E-002
   3.0374120180743758E-002  -9.0035536918808903E-003   5.8713177337876100E-002
   2.9482569036220513E-002  -8.7509185654930377E-003   5.8675162228783467E-002
   2.8591017891697299E-002  -8.4824891931475285E-003   5.8811463658872951E-002
   2.7699466747174058E-002  -8.1982655748443906E-003   5.9122081628144474E-002
   2.5040449802871304E-002  -7.3762500500816341E-003   6.1912939646098147E-002
   2.4315428481537234E-002  -7.1712986222438879E-003   6.1726112233307318E-002
   2.3590407160203150E-002  -6.9648608111727711E-003   6.1698027927712701E-002
   2.2865385838869087E-002  -6.7569366168685509E-003   6.1828686729314297E-002
   2.2140364517534997E-002  -6.5475260393312307E-003   6.2118088638112023E-002
   4.4150914889718035E-002  -1.3150484181383926E-002   4.9642258765474290E-002
   4.2348927740447184E-002  -1.2621611555908241E-002   4.9361201941944377E-002
   4.0546940591176361E-002  -1.2111036994812543E-002   4.9268234080316026E-002
   3.8744953441905525E-002  -1.1618760498097378E-002   4.9363355180589208E-002
   3.6942966292634688E-002  -1.1144782065762193E-002   4.9646565242763896E-002
   3.8704741933265577E-002  -1.1499744645870724E-002   5.2884166691825663E-002
   3.7098298094972323E-002  -1.1047727783359274E-002   5.2559734271093006E-002
   3.5491854256679063E-002  -1.0603786566900628E-002   5.2438299510413844E-002
   3.3885410418385775E-002  -1.0167920996495144E-002   5.2519862409788218E-002
   3.2278966580092550E-002  -9.7401310721422218E-003   5.2804422969216336E-002
   3.3220925885750957E-002  -9.8490051103575504E-003   5.6044107646049099E-002
   3.1824934056587234E-002  -9.4738440108104727E-003   5.5686522046440964E-002
   3.0428942227423525E-002  -9.0965361389888158E-003   5.5546842805038375E-002
   2.9032950398259816E-002  -8.7170814948928522E-003   5.5625069921841214E-002
   2.7636958569096100E-002  -8.3354800785223615E-003   5.5921203396849750E-002
   2.7699466747174058E-002  -8.1982655748443906E-003   5.9122081628144474E-002
   2.6528835625291926E-002  -7.8999602382614775E-003   5.8741565267988224E-002
   2.5358204503409781E-002  -7.5892857110769520E-003   5.8593863964189585E-002
   2.4187573381527626E-002  -7.2662419932905892E-003   5.8678977716748439E-002
   2.3016942259645505E-002  -6.9308290849024179E-003   5.8996906525664888E-002
   2.2140364517534997E-002  -6.5475260393312307E-003   6.2118088638112023E-002
   2.1210002801086411E-002  -6.3260764657127322E-003   6.1724863935734953E-002
   2.0279641084637805E-002  -6.0820352831650881E-003   6.1579362987867370E-002
   1.9349279368189216E-002  -5.8154024916883540E-003   6.1681585794509525E-002
   1.8418917651740627E-002  -5.5261780912825853E-003   6.2031532355661056E-002
   3.6942966292634688E-002  -1.1144782065762193E-002   4.9646565242763896E-002
   3.5671379609220399E-002  -1.0662295793135212E-002   4.9372344473929963E-002
   3.4399792925806097E-002  -1.0144495775544771E-002   4.9272361535948078E-002
   3.3128206242391801E-002  -9.5913820129903127E-003   4.9346616428818019E-002
   3.1856619558977506E-002  -9.0029545054723936E-003   4.9595109152539951E-002
   3.2278966580092550E-002  -9.7401310721422218E-003   5.2804422969216336E-002
   3.1177479838466693E-002  -9.3041594920336701E-003   5.2577932364128666E-002
   3.0075993096840864E-002  -8.8437489543607417E-003   5.2517403811765950E-002
   2.8974506355215028E-002  -8.3588994591232840E-003   5.2622837312127954E-002
   2.7873019613589192E-002  -7.8496110063215885E-003   5.2894232865215107E-002
   2.7636958569096100E-002  -8.3354800785223615E-003   5.5921203396849750E-002
   2.6697295991131700E-002  -7.9460231909321555E-003   5.5731568168109202E-002
   2.5757633413167284E-002  -7.5430021331768238E-003   5.5699619213966392E-002
   2.4817970835202881E-002  -7.1264169052564219E-003   5.5825356534421458E-002
   2.3878308257238468E-002  -6.6962675071708944E-003   5.6108780129474567E-002
   2.3016942259645505E-002  -6.9308290849024179E-003   5.8996906525664888E-002
   2.2230828067215432E-002  -6.5878868898305992E-003   5.8833251885871865E-002
   2.1444713874785370E-002  -6.2422553119929614E-003   5.8819007742549737E-002
   2.0658599682355335E-002  -5.8939343513893655E-003   5.8954174095698308E-002
   1.9872485489925262E-002  -5.5429240080202002E-003   5.9238750945317775E-002
   1.8418917651740627E-002  -5.5261780912825853E-003   6.2031532355661056E-002
   1.7778076066717857E-002  -5.2297505887290430E-003   6.1882983517416501E-002
   1.7137234481695122E-002  -4.9415084908088908E-003   6.1875569397515651E-002
   1.6496392896672363E-002  -4.6614517975225624E-003   6.2009289995958519E-002
   1.5855551311649604E-002  -4.3895805088695061E-003   6.2284145312745176E-002
   3.1856619558977506E-002  -9.0029545054723936E-003   4.9595109152539951E-002
   2.9286131825429107E-002  -8.4011319909227944E-003   4.9288741534119607E-002
   2.6715644091880708E-002  -7.8078332072751833E-003   4.9300802978678282E-002
   2.4145156358332309E-002  -7.2230581545280614E-003   4.9631293486215811E-002
   2.1574668624783910E-002  -6.6468068326825946E-003   5.0280213056732137E-002
   2.7873019613589192E-002  -7.8496110063215885E-003   5.2894232865215107E-002
   2.5621507495862506E-002  -7.3273601682313227E-003   5.2573781429731070E-002
   2.3369995378135784E-002  -6.8036235171284321E-003   5.2572852162910994E-002
   2.1118483260409004E-002  -6.2784010530129580E-003   5.2891445064755752E-002
   1.8866971142682376E-002  -5.7516927758850533E-003   5.3529560135265220E-002
   2.3878308257238468E-002  -6.6962675071708944E-003   5.6108780129474567E-002
   2.1946864861019051E-002  -6.2535883455396013E-003   5.5784254420840201E-002
   2.0015421464799649E-002  -5.7994138269819584E-003   5.5780343986555792E-002
   1.8083978068580295E-002  -5.3337439514979934E-003   5.6097048826621615E-002
   1.6152534672360788E-002  -4.8565787190875120E-003   5.6734368941037949E-002
   1.9872485489925262E-002  -5.5429240080202002E-003   5.9238750945317775E-002
   1.8262203920898834E-002  -5.1798165228478382E-003   5.8920160507447014E-002
   1.6651922351872409E-002  -4.7952041368354570E-003   5.8923278449611913E-002
   1.5041640782845981E-002  -4.3890868499829039E-003   5.9248104771812901E-002
   1.3431359213819553E-002  -3.9614646622899707E-003   5.9894639474049688E-002
   1.5855551311649604E-002  -4.3895805088695061E-003   6.2284145312745176E-002
   1.4567524675501806E-002  -4.1060447001561862E-003   6.1981499689552022E-002
   1.3279498039354000E-002  -3.7909944466888446E-003   6.2001655552080148E-002
   1.1991471403206191E-002  -3.4444297484678421E-003   6.2344612900329749E-002
   1.0703444767058368E-002  -3.0663506054924294E-003   6.3010371734300907E-002
   2.6633577565269354E-002   0.0000000000000000        2.9464369068403946E-002
   2.7235494868909388E-002  -5.8614588259090807E-004   3.4941951496717374E-002
   2.7837412172549425E-002  -1.3207047122457006E-003   4.0111847685987190E-002
   2.8439329476189455E-002  -2.2036764889643845E-003   4.4974057636213420E-002
   2.9041246779829489E-002  -3.2350612127469485E-003   4.9528581347396045E-002
   2.0116229571886399E-002   0.0000000000000000        2.9016422085517125E-002
   2.0449762364763729E-002  -4.3960941183953176E-004   3.4309413980801881E-002
   2.0783295157641064E-002  -9.9052853392877713E-004   3.9373323093604841E-002
   2.1116827950518398E-002  -1.6527573662677326E-003   4.4208149423925994E-002
   2.1450360743395729E-002  -2.4262959088564113E-003   4.8813892971765332E-002
   1.3504850645850682E-002   0.0000000000000000        2.8696459954974596E-002
   1.3648602384527106E-002  -2.9307294108815544E-004   3.3841964554044868E-002
   1.3792354123203530E-002  -6.6035235561185106E-004   3.8836989827195127E-002
   1.3936105861879952E-002  -1.1018382435710877E-003   4.3681535774425378E-002
   1.4079857600556373E-002  -1.6175306049658607E-003   4.8375602395735594E-002
   6.7994407871622177E-003   0.0000000000000000        2.8504482676776351E-002
   6.8320149281995198E-003  -1.4653647033678000E-004   3.3539603216446320E-002
   6.8645890692368228E-003  -3.3017617729492630E-004   3.8502847886758049E-002
   6.8971632102741249E-003  -5.5091912087443760E-004   4.3394216687711568E-002
   6.9297373513114279E-003  -8.0876530107531846E-004   4.8213709619306842E-002
  -4.1790052321410975E-012   0.0000000000000000        2.8440490250922400E-002
  -4.2190331089875244E-012   4.1459717603498092E-013   3.3402329968006225E-002
  -4.2590603353126477E-012   1.0220001928074041E-012   3.8370897272293612E-002
  -4.2990883205792918E-012   1.8222055808703175E-012   4.3346192163784568E-002
  -4.3391154384841979E-012   2.8152298200967429E-012   4.8328214642479078E-002
   2.9041246779829489E-002  -3.2350612127469485E-003   4.9528581347396045E-002
   2.9113911561572225E-002  -4.2545587096149313E-003   5.1584301769150173E-002
   2.9186576343314959E-002  -5.1018688055898438E-003   5.3738077593416929E-002
   2.9259241125057688E-002  -5.7769915006716634E-003   5.5989908820196332E-002
   2.9331905906800425E-002  -6.2799267948604326E-003   5.8339795449488294E-002
   2.1450360743395729E-002  -2.4262959088564113E-003   4.8813892971765332E-002
   2.1592025528066387E-002  -3.1909190313361940E-003   5.1211604863209428E-002
   2.1733690312737038E-002  -3.8264016033484954E-003   5.3649261357996747E-002
   2.1875355097407692E-002  -4.3327436248933090E-003   5.6126862456127247E-002
   2.2017019882078350E-002  -4.7099450959706343E-003   5.8644408157600983E-002
   1.4079857600556373E-002  -1.6175306049658607E-003   4.8375602395735594E-002
   1.4232411588985534E-002  -2.1272793530574558E-003   5.1072258906444075E-002
   1.4384965577414694E-002  -2.5509344011071609E-003   5.3750749221326360E-002
   1.4537519565843853E-002  -2.8884957491149541E-003   5.6411073340382464E-002
   1.4690073554273011E-002  -3.1399633970808569E-003   5.9053231263612331E-002
   6.9297373513114279E-003  -8.0876530107531846E-004   4.8213709619306842E-002
   7.0350697443296722E-003  -1.0636396747787250E-003   5.1166263898854140E-002
   7.1404021373479192E-003  -1.2754671988658020E-003   5.4042541183405818E-002
   7.2457345303661670E-003  -1.4442478733366168E-003   5.6842541472961847E-002
   7.3510669233844113E-003  -1.5699816981910690E-003   5.9566264767522262E-002
  -4.3391154384841979E-012   2.8152298200967429E-012   4.8328214642479078E-002
  -5.9011996678126621E-012   3.5000093101533736E-012   5.1493619840439583E-002
  -7.4632832466198229E-012   3.3755175304212015E-012   5.4524637244235043E-002
  -9.0253667170067664E-012   2.4417678707970569E-012   5.7421266853865477E-002
  -1.0587451054755448E-011   6.9871886054784227E-013   6.0183508669330851E-002
   2.9331905906800425E-002  -6.2799267948604326E-003   5.8339795449488294E-002
   2.8985247618626437E-002  -6.6656337062654808E-003   5.9111528891291544E-002
   2.8638589330452449E-002  -6.9890712529961999E-003   5.9921768201099512E-002
   2.8291931042278461E-002  -7.2502394350525152E-003   6.0770513378912143E-002
   2.7945272754104473E-002  -7.4491382524344979E-003   6.1657764424729436E-002
   2.2017019882078350E-002  -4.7099450959706343E-003   5.8644408157600983E-002
   2.1720907138388156E-002  -4.9992252799529215E-003   5.9470606666998660E-002
   2.1424794394697959E-002  -5.2418034402125415E-003   6.0359390397359151E-002
   2.1128681651007758E-002  -5.4376795767494771E-003   6.1310759348682603E-002
   2.0832568907317564E-002  -5.5868536895637977E-003   6.2324713520968966E-002
   1.4690073554273011E-002  -3.1399633970808569E-003   5.9053231263612331E-002
   1.4468585708024843E-002  -3.3328168536403344E-003   5.9918327499652611E-002
   1.4247097861776676E-002  -3.4945356274288554E-003   6.0870088309614045E-002
   1.4025610015528510E-002  -3.6251197184464104E-003   6.1908513693496606E-002
   1.3804122169280333E-002  -3.7245691266930073E-003   6.3033603651300313E-002
   7.3510669233844113E-003  -1.5699816981910690E-003   5.9566264767522262E-002
   7.2282833275365051E-003  -1.6664084273277750E-003   6.0454691389253502E-002
   7.1054997316886016E-003  -1.7472678146452109E-003   6.1453861937864132E-002
   6.9827161358406945E-003  -1.8125598601433789E-003   6.2563776413354144E-002
   6.8599325399927892E-003  -1.8622845638222620E-003   6.3784434815723573E-002
  -1.0587451054755448E-011   6.9871886054784227E-013   6.0183508669330851E-002
  -3.0768590800200890E-012  -1.0151879337172431E-012   6.1079698335801375E-002
   4.4337346294387459E-012  -1.8615352315176636E-012   6.2110711282109494E-002
   1.1944325736812367E-011  -1.8403117571508254E-012   6.3276547508255260E-002
   1.9454920313632940E-011  -9.5150276546718260E-013   6.4577207014238594E-002
   2.7945272754104473E-002  -7.4491382524344979E-003   6.1657764424729436E-002
   2.7219067016296172E-002  -7.5704058410710207E-003   6.1368332156119088E-002
   2.6492861278487888E-002  -7.5986803368911122E-003   6.1314383936810386E-002
   2.5766655540679591E-002  -7.5339617398946417E-003   6.1495919766803422E-002
   2.5040449802871304E-002  -7.3762500500816341E-003   6.1912939646098147E-002
   2.0832568907317564E-002  -5.5868536895637977E-003   6.2324713520968966E-002
   2.0328364063577468E-002  -5.6778043808397849E-003   6.2187424161959950E-002
   1.9824159219837371E-002  -5.6990102527618991E-003   6.2258652541785670E-002
   1.9319954376097286E-002  -5.6504713053301681E-003   6.2538398660446165E-002
   1.8815749532357186E-002  -5.5321875385445085E-003   6.3026662517941173E-002
   1.3804122169280333E-002  -3.7245691266930073E-003   6.3033603651300313E-002
   1.3494951909141430E-002  -3.7852029206085075E-003   6.3025208928430138E-002
   1.3185781649002529E-002  -3.7993401686327120E-003   6.3198365633927556E-002
   1.2876611388863627E-002  -3.7669808707656385E-003   6.3553073767792678E-002
   1.2567441128724717E-002  -3.6881250270072996E-003   6.4089333330025561E-002
   6.8599325399927892E-003  -1.8622845638222620E-003   6.3784434815723573E-002
   6.7188305529880636E-003  -1.8926014603772509E-003   6.3881686455529468E-002
   6.5777285659833424E-003  -1.8996700845035396E-003   6.4133523213236079E-002
   6.4366265789786246E-003  -1.8834904362012063E-003   6.4539945088843351E-002
   6.2955245919738955E-003  -1.8440625154700907E-003   6.5100952082351254E-002
   1.9454920313632940E-011  -9.5150276546718260E-013   6.4577207014238594E-002
  -4.8826272885937883E-012  -1.4596657216259246E-013   6.4756856743258026E-002
  -2.9220176625543992E-011  -3.7428740662370785E-013   6.5064125279711171E-002
  -5.3557722493047244E-011  -1.6366569557946242E-012   6.5499012623598016E-002
  -7.7895273564720924E-011  -3.9329373091590014E-012   6.6061518774918393E-002
   2.5040449802871304E-002  -7.3762500500816341E-003   6.1912939646098147E-002
   2.4315428481537234E-002  -7.1712986222438879E-003   6.1726112233307318E-002
   2.3590407160203150E-002  -6.9648608111727711E-003   6.1698027927712701E-002
   2.2865385838869087E-002  -6.7569366168685509E-003   6.1828686729314297E-002
   2.2140364517534997E-002  -6.5475260393312307E-003   6.2118088638112023E-002
   1.8815749532357186E-002  -5.5321875385445085E-003   6.3026662517941173E-002
   1.8255099370348568E-002  -5.3784739768810291E-003   6.2823155600978606E-002
   1.7694449208339947E-002  -5.2236456448160468E-003   6.2789647895470799E-002
   1.7133799046331319E-002  -5.0677025423494400E-003   6.2926139401417835E-002
   1.6573148884322701E-002  -4.9106446694811567E-003   6.3232630118819327E-002
   1.2567441128724717E-002  -3.6881250270072996E-003   6.4089333330025561E-002
   1.2182418230300073E-002  -3.5856493315183230E-003   6.3868775296059735E-002
   1.1797395331875436E-002  -3.4824304784592044E-003   6.3829472577807272E-002
   1.1412372433450798E-002  -3.3784684678301608E-003   6.3971425175267951E-002
   1.1027349535026151E-002  -3.2737632996310551E-003   6.4294633088441966E-002
   6.2955245919738955E-003  -1.8440625154700907E-003   6.5100952082351254E-002
   6.0973850613917652E-003  -1.7928246861554850E-003   6.4862971318550677E-002
   5.8992455308096306E-003  -1.7412153121025321E-003   6.4817501974721817E-002
   5.7011060002275064E-003  -1.6892343933109380E-003   6.4964544050864867E-002
   5.5029664696453649E-003  -1.6368819297808840E-003   6.5304097546979509E-002
  -7.7895273564720924E-011  -3.9329373091590014E-012   6.6061518774918393E-002
  -1.3637636853136570E-010  -4.0792758060348433E-011   6.5805743668451377E-002
  -1.9485746523273395E-010  -1.4574561696401034E-010   6.5753736086214695E-002
  -2.5333855846465525E-010  -3.1879169616610969E-010   6.5905496028208305E-002
  -3.1181965690074698E-010  -5.5993087944017361E-010   6.6261023494432136E-002
   2.2140364517534997E-002  -6.5475260393312307E-003   6.2118088638112023E-002
   2.1210002801086411E-002  -6.3260764657127322E-003   6.1724863935734953E-002
   2.0279641084637805E-002  -6.0820352831650881E-003   6.1579362987867370E-002
   1.9349279368189216E-002  -5.8154024916883540E-003   6.1681585794509525E-002
   1.8418917651740627E-002  -5.5261780912825853E-003   6.2031532355661056E-002
   1.6573148884322701E-002  -4.9106446694811567E-003   6.3232630118819327E-002
   1.5886727598286077E-002  -4.7445575534118822E-003   6.2876806038725225E-002
   1.5200306312249463E-002  -4.5615267213421073E-003   6.2761139064945584E-002
   1.4513885026212840E-002  -4.3615521732718529E-003   6.2885629197480281E-002
   1.3827463740176224E-002  -4.1446339092011120E-003   6.3250276436329467E-002
   1.1027349535026151E-002  -3.2737632996310551E-003   6.4294633088441966E-002
   1.0577302031206364E-002  -3.1630386411109629E-003   6.3970561737702214E-002
   1.0127254527386565E-002  -3.0410181595190711E-003   6.3879080845081621E-002
   9.6772070235667772E-003  -2.9077018548551853E-003   6.4020190410580352E-002
   9.2271595197469768E-003  -2.7630897271196109E-003   6.4393890434198367E-002
   5.5029664696453649E-003  -1.6368819297808840E-003   6.5304097546979509E-002
   5.2817260998472464E-003  -1.5815197288100227E-003   6.5006131032665448E-002
   5.0604857300491322E-003  -1.5205095976960348E-003   6.4933188328275479E-002
   4.8392453602510137E-003  -1.4538515364386842E-003   6.5085269433809739E-002
   4.6180049904528979E-003  -1.3815455450381514E-003   6.5462374349267979E-002
  -3.1181965690074698E-010  -5.5993087944017361E-010   6.6261023494432136E-002
  -1.9579125820623489E-010  -8.1650916583519972E-010   6.5983513923615233E-002
  -7.9762850838105415E-011  -1.0358730678783346E-009   6.5923461514527298E-002
   3.6265552193215367E-011  -1.2180219645385737E-009   6.6080866267168178E-002
   1.5229395522453615E-010  -1.3629566364414814E-009   6.6455728181538165E-002
   1.8418917651740627E-002  -5.5261780912825853E-003   6.2031532355661056E-002
   1.7778076066717857E-002  -5.2297505887290430E-003   6.1882983517416501E-002
   1.7137234481695122E-002  -4.9415084908088908E-003   6.1875569397515651E-002
   1.6496392896672363E-002  -4.6614517975225624E-003   6.2009289995958519E-002
   1.5855551311649604E-002  -4.3895805088695061E-003   6.2284145312745176E-002
   1.3827463740176224E-002  -4.1446339092011120E-003   6.3250276436329467E-002
   1.3332525789228424E-002  -3.9223132933162430E-003   6.3090483996448121E-002
   1.2837587838280616E-002  -3.7061316898037017E-003   6.3081364106373189E-002
   1.2342649887332812E-002  -3.4960890986634983E-003   6.3222916766104267E-002
   1.1847711936385008E-002  -3.2921855198954075E-003   6.3515141975641565E-002
   9.2271595197469768E-003  -2.7630897271196109E-003   6.4393890434198367E-002
   8.8876630343364717E-003  -2.6148759979035263E-003   6.4224900784941877E-002
   8.5481665489259648E-003  -2.4707548887984501E-003   6.4216121516953800E-002
   8.2086700635154580E-003  -2.3307263998045991E-003   6.4367552630234401E-002
   7.8691735781049425E-003  -2.1947905309214755E-003   6.4679194124783235E-002
   4.6180049904528979E-003  -1.3815455450381514E-003   6.5462374349267979E-002
   4.4434878020420277E-003  -1.3074387024908790E-003   6.5286233882897338E-002
   4.2689706136311689E-003  -1.2353780877932576E-003   6.5279841629257776E-002
   4.0944534252203056E-003  -1.1653637009456730E-003   6.5443197588348864E-002
   3.9199362368094468E-003  -1.0973955419475712E-003   6.5776301760170658E-002
   1.5229395522453615E-010  -1.3629566364414814E-009   6.6455728181538165E-002
   9.2345082969291781E-011  -1.4070780096631097E-009   6.6274483290314823E-002
   3.2396224591835221E-011  -1.2867879678468697E-009   6.6272524443284631E-002
  -2.7552642459238719E-011  -1.0020867087512375E-009   6.6449851640447546E-002
  -8.7501506040865706E-011  -5.5297350032290638E-010   6.6806464881803918E-002
   1.5855551311649604E-002  -4.3895805088695061E-003   6.2284145312745176E-002
   1.4567524675501806E-002  -4.1060447001561862E-003   6.1981499689552022E-002
   1.3279498039354000E-002  -3.7909944466888446E-003   6.2001655552080148E-002
   1.1991471403206191E-002  -3.4444297484678421E-003   6.2344612900329749E-002
   1.0703444767058368E-002  -3.0663506054924294E-003   6.3010371734300907E-002
   1.1847711936385008E-002  -3.2921855198954075E-003   6.3515141975641565E-002
   1.0882288016018982E-002  -3.0795334432673349E-003   6.3269173825916569E-002
   9.9168640956529622E-003  -2.8432453585462703E-003   6.3345609622033672E-002
   8.9514401752869219E-003  -2.5833212657323454E-003   6.3744449363992622E-002
   7.9860162549209024E-003  -2.2997611648258864E-003   6.4465693051794171E-002
   7.8691735781049425E-003  -2.1947905309214755E-003   6.4679194124783235E-002
   7.2259548336413744E-003  -2.0530221863781506E-003   6.4482025011865202E-002
   6.5827360891777906E-003  -1.8954962704033629E-003   6.4606862304910112E-002
   5.9395173447142060E-003  -1.7222127829970707E-003   6.5053706003917758E-002
   5.2962986002506596E-003  -1.5331717241592324E-003   6.5822556108888153E-002
   3.9199362368094468E-003  -1.0973955419475712E-003   6.5776301760170658E-002
   3.5985251283689743E-003  -1.0265109294892438E-003   6.5620053247398558E-002
   3.2771140199285152E-003  -9.4774718226073307E-004   6.5785413600709872E-002
   2.9557029114880527E-003  -8.6110430026179602E-004   6.6272382820104309E-002
   2.6342918030475629E-003  -7.6658228349263391E-004   6.7080960905582590E-002
  -8.7501506040865706E-011  -5.5297350032290638E-010   6.6806464881803918E-002
  -1.0997982004268270E-009   3.2739977395834785E-010   6.6683258532516110E-002
  -2.1120948913433413E-009   1.9058821326689568E-009   6.6881263509432604E-002
  -3.1243915891987495E-009   4.1824736486673064E-009   6.7400479812553218E-002
  -4.1366882697069229E-009   7.1571739646003607E-009   6.8240907441877718E-002
  -4.1790052321410975E-012   0.0000000000000000        2.8440490250922400E-002
  -4.2190331089875244E-012   4.1459717603498092E-013   3.3402329968006225E-002
  -4.2590603353126477E-012   1.0220001928074041E-012   3.8370897272293612E-002
  -4.2990883205792918E-012   1.8222055808703175E-012   4.3346192163784568E-002
  -4.3391154384841979E-012   2.8152298200967429E-012   4.8328214642479078E-002
  -6.7994407953620595E-003   0.0000000000000000        2.8504482677546520E-002
  -6.8320149365536202E-003   1.4653647138337163E-004   3.3539603217794069E-002
  -6.8645890777451800E-003   3.3017617967338875E-004   3.8502847888534975E-002
  -6.8971632189367398E-003   5.5091912487004614E-004   4.3394216689769276E-002
  -6.9297373601283022E-003   8.0876530697335247E-004   4.8213709621496917E-002
  -1.3504850653576024E-002   0.0000000000000000        2.8696459956782501E-002
  -1.3648602392629312E-002   2.9307294235214609E-004   3.3841964556907599E-002
  -1.3792354131682597E-002   6.6035235832477297E-004   3.8836989830815877E-002
  -1.3936105870735885E-002   1.1018382479178832E-003   4.3681535778507329E-002
  -1.4079857609789179E-002   1.6175306111314756E-003   4.8375602399981954E-002
  -2.0116229578820893E-002   0.0000000000000000        2.9016422088630329E-002
  -2.0449762372446105E-002   4.3960941332092055E-004   3.4309413985346829E-002
  -2.0783295166071320E-002   9.9052853697616195E-004   3.9373323099136298E-002
  -2.1116827959696532E-002   1.6527573709657220E-003   4.4208149429998761E-002
  -2.1450360753321740E-002   2.4262959152895952E-003   4.8813892977934190E-002
  -2.6633577571096675E-002   0.0000000000000000        2.9464369073090021E-002
  -2.7235494876004004E-002   5.8614588428969501E-004   3.4941951503111746E-002
  -2.7837412180911333E-002   1.3207047156275457E-003   4.0111847693496266E-002
  -2.8439329485818662E-002   2.2036764940135574E-003   4.4974057644243545E-002
  -2.9041246790725991E-002   3.2350612194477213E-003   4.9528581355353631E-002
  -4.3391154384841979E-012   2.8152298200967429E-012   4.8328214642479078E-002
  -5.9011996678126621E-012   3.5000093101533736E-012   5.1493619840439583E-002
  -7.4632832466198229E-012   3.3755175304212015E-012   5.4524637244235043E-002
  -9.0253667170067664E-012   2.4417678707970569E-012   5.7421266853865477E-002
  -1.0587451054755448E-011   6.9871886054784227E-013   6.0183508669330851E-002
  -6.9297373601283022E-003   8.0876530697335247E-004   4.8213709621496917E-002
  -7.0350697561443708E-003   1.0636396819818069E-003   5.1166263899343957E-002
  -7.1404021521604393E-003   1.2754672058938911E-003   5.4042541182448063E-002
  -7.2457345481765096E-003   1.4442478787096190E-003   5.6842541470809249E-002
  -7.3510669441925764E-003   1.5699817004290045E-003   5.9566264764427501E-002
  -1.4079857609789179E-002   1.6175306111314756E-003   4.8375602399981954E-002
  -1.4232411600837122E-002   2.1272793604635871E-003   5.1072258907428461E-002
  -1.4384965591885070E-002   2.5509344084122787E-003   5.3750749219554160E-002
  -1.4537519582933020E-002   2.8884957549774946E-003   5.6411073336359002E-002
  -1.4690073573980968E-002   3.1399634001593041E-003   5.9053231257843050E-002
  -2.1450360753321740E-002   2.4262959152895952E-003   4.8813892977934190E-002
  -2.1592025539979465E-002   3.1909190389453656E-003   5.1211604864693089E-002
  -2.1733690326637183E-002   3.8264016109306486E-003   5.3649261355553257E-002
  -2.1875355113294911E-002   4.3327436312453789E-003   5.6126862450514702E-002
  -2.2017019899952636E-002   4.7099450998896175E-003   5.8644408149577450E-002
  -2.9041246790725991E-002   3.2350612194477213E-003   4.9528581355353631E-002
  -2.9113911573571384E-002   4.2545587174271596E-003   5.1584301771137819E-002
  -2.9186576356416773E-002   5.1018688134490345E-003   5.3738077590445424E-002
  -2.9259241139262163E-002   5.7769915075132263E-003   5.5989908813276389E-002
  -2.9331905922107552E-002   6.2799267996198962E-003   5.8339795439630741E-002
  -1.0587451054755448E-011   6.9871886054784227E-013   6.0183508669330851E-002
  -3.0768590800200890E-012  -1.0151879337172431E-012   6.1079698335801375E-002
   4.4337346294387459E-012  -1.8615352315176636E-012   6.2110711282109494E-002
   1.1944325736812367E-011  -1.8403117571508254E-012   6.3276547508255260E-002
   1.9454920313632940E-011  -9.5150276546718260E-013   6.4577207014238594E-002
  -7.3510669441925764E-003   1.5699817004290045E-003   5.9566264764427501E-002
  -7.2282833342019251E-003   1.6664084269309154E-003   6.0454691388121692E-002
  -7.1054997242112729E-003   1.7472678140943269E-003   6.1453861936938414E-002
  -6.9827161142206173E-003   1.8125598619191897E-003   6.2563776410877611E-002
  -6.8599325042299694E-003   1.8622845704054508E-003   6.3784434809939311E-002
  -1.4690073573980968E-002   3.1399634001593041E-003   5.9053231257843050E-002
  -1.4468585716225371E-002   3.3328168548770742E-003   5.9918327498554830E-002
  -1.4247097858469771E-002   3.4945356300501874E-003   6.0870088309674011E-002
  -1.4025610000714173E-002   3.6251197256786491E-003   6.1908513691200519E-002
  -1.3804122142958574E-002   3.7245691417624530E-003   6.3033603643134525E-002
  -2.2017019899952636E-002   4.7099450998896175E-003   5.8644408149577450E-002
  -2.1720907149147192E-002   4.9992252828231984E-003   5.9470606667100724E-002
  -2.1424794398341763E-002   5.2418034460060209E-003   6.0359390400316251E-002
  -2.1128681647536337E-002   5.4376795894381293E-003   6.1310759349224087E-002
  -2.0832568896730901E-002   5.5868537131194586E-003   6.2324713513824161E-002
  -2.9331905922107552E-002   6.2799267996198962E-003   5.8339795439630741E-002
  -2.8985247632967399E-002   6.6656337107693260E-003   5.9111528893759382E-002
  -2.8638589343827250E-002   6.9890712619619048E-003   5.9921768208865162E-002
  -2.8291931054687094E-002   7.2502394531976082E-003   6.0770513384948162E-002
  -2.7945272765546945E-002   7.4491382844764364E-003   6.1657764422008238E-002
   1.9454920313632940E-011  -9.5150276546718260E-013   6.4577207014238594E-002
  -4.8826272885937883E-012  -1.4596657216259246E-013   6.4756856743258026E-002
  -2.9220176625543992E-011  -3.7428740662370785E-013   6.5064125279711171E-002
  -5.3557722493047244E-011  -1.6366569557946242E-012   6.5499012623598016E-002
  -7.7895273564720924E-011  -3.9329373091590014E-012   6.6061518774918393E-002
  -6.8599325042299694E-003   1.8622845704054508E-003   6.3784434809939311E-002
  -6.7188305649616671E-003   1.8926014718761985E-003   6.3881686442223973E-002
  -6.5777286256933727E-003   1.8996700986544553E-003   6.4133523194286668E-002
  -6.4366266864250773E-003   1.8834904507401455E-003   6.4539945066127369E-002
  -6.2955247471567759E-003   1.8440625281332945E-003   6.5100952057746131E-002
  -1.3804122142958574E-002   3.7245691417624530E-003   6.3033603643134525E-002
  -1.3494951927740074E-002   3.7852029438984053E-003   6.3025208905025817E-002
  -1.3185781712521574E-002   3.7993401976832552E-003   6.3198365599039491E-002
  -1.2876611497303072E-002   3.7669809031169624E-003   6.3553073725175546E-002
  -1.2567441282084570E-002   3.6881250601995680E-003   6.4089333283433997E-002
  -2.0832568896730901E-002   5.5868537131194586E-003   6.2324713513824161E-002
  -2.0328364093217845E-002   5.6778044159205357E-003   6.2187424131663525E-002
  -1.9824159289704792E-002   5.6990102967119849E-003   6.2258652493969627E-002
  -1.9319954486191733E-002   5.6504713554937722E-003   6.2538398600742423E-002
  -1.8815749682678684E-002   5.5321875922658206E-003   6.3026662451982005E-002
  -2.7945272765546945E-002   7.4491382844764364E-003   6.1657764422008238E-002
  -2.7219067061394986E-002   7.5704058879427286E-003   6.1368332122137104E-002
  -2.6492861357243016E-002   7.5986803957408186E-003   6.1314383879077075E-002
  -2.5766655653091053E-002   7.5339618078705452E-003   6.1495919692828131E-002
  -2.5040449948939083E-002   7.3762501243320733E-003   6.1912939563390251E-002
  -7.7895273564720924E-011  -3.9329373091590014E-012   6.6061518774918393E-002
  -1.3637636853136570E-010  -4.0792758060348433E-011   6.5805743668451377E-002
  -1.9485746523273395E-010  -1.4574561696401034E-010   6.5753736086214695E-002
  -2.5333855846465525E-010  -3.1879169616610969E-010   6.5905496028208305E-002
  -3.1181965690074698E-010  -5.5993087944017361E-010   6.6261023494432136E-002
  -6.2955247471567759E-003   1.8440625281332945E-003   6.5100952057746131E-002
  -6.0973853283519492E-003   1.7928246362541728E-003   6.4862971172695807E-002
  -5.8992459095471147E-003   1.7412150805229398E-003   6.4817501717987086E-002
  -5.7011064907422793E-003   1.6892338609396512E-003   6.4964543693619911E-002
  -5.5029670719374466E-003   1.6368809775043069E-003   6.5304097099594310E-002
  -1.2567441282084570E-002   3.6881250601995680E-003   6.4089333283433997E-002
  -1.2182418479882563E-002   3.5856493133011313E-003   6.3868775024041466E-002
  -1.1797395677680567E-002   3.4824303067915834E-003   6.3829472101101722E-002
  -1.1412372875478558E-002   3.3784680406710272E-003   6.3971424514614808E-002
  -1.1027350073276553E-002   3.2737625149394378E-003   6.4294632264580612E-002
  -1.8815749682678684E-002   5.5321875922658206E-003   6.3026662451982005E-002
  -1.8255099590968250E-002   5.3784739903481454E-003   6.2823155222488242E-002
  -1.7694449499257813E-002   5.2236455330602945E-003   6.2789647235558563E-002
  -1.7133799407547372E-002   5.0677022204024449E-003   6.2926138491192871E-002
  -1.6573149315836939E-002   4.9106440523745132E-003   6.3232628989391276E-002
  -2.5040449948939083E-002   7.3762501243320733E-003   6.1912939563390251E-002
  -2.4315428661608973E-002   7.1712986673949930E-003   6.1726111768036301E-002
  -2.3590407374278859E-002   6.9648607593288253E-003   6.1698027121357607E-002
  -2.2865386086948745E-002   6.7569364001337472E-003   6.1828685623354293E-002
  -2.2140364799618638E-002   6.5475255898096996E-003   6.2118087274026290E-002
  -3.1181965690074698E-010  -5.5993087944017361E-010   6.6261023494432136E-002
  -1.9579125820623489E-010  -8.1650916583519972E-010   6.5983513923615233E-002
  -7.9762850838105415E-011  -1.0358730678783346E-009   6.5923461514527298E-002
   3.6265552193215367E-011  -1.2180219645385737E-009   6.6080866267168178E-002
   1.5229395522453615E-010  -1.3629566364414814E-009   6.6455728181538165E-002
  -5.5029670719374466E-003   1.6368809775043069E-003   6.5304097099594310E-002
  -5.2817264765213324E-003   1.5815183301290808E-003   6.5006130691808370E-002
  -5.0604858811052200E-003   1.5205078187264659E-003   6.4933188081068891E-002
  -4.8392452856891041E-003   1.4538494432962505E-003   6.5085269267375928E-002
  -4.6180046902729935E-003   1.3815432038384867E-003   6.5462374250729427E-002
  -1.1027350073276553E-002   3.2737625149394378E-003   6.4294632264580612E-002
  -1.0577302363155180E-002   3.1630374767675079E-003   6.3970561118583624E-002
  -1.0127254653033831E-002   3.0410166733257846E-003   6.3879080404950633E-002
  -9.6772069429124676E-003   2.9077001046145228E-003   6.4020190123681639E-002
  -9.2271592327911028E-003   2.7630877706334989E-003   6.4393890274776613E-002
  -1.6573149315836939E-002   4.9106440523745132E-003   6.3232628989391276E-002
  -1.5886727855692805E-002   4.7445566234059280E-003   6.2876805203940983E-002
  -1.5200306395548670E-002   4.5615255279252108E-003   6.2761138486172249E-002
  -1.4513884935404533E-002   4.3615507659328498E-003   6.2885628836085020E-002
  -1.3827463475260402E-002   4.1446323374285110E-003   6.3250276253679322E-002
  -2.2140364799618638E-002   6.5475255898096996E-003   6.2118087274026290E-002
  -2.1210002954134187E-002   6.3260757700441816E-003   6.1724862947880488E-002
  -2.0279641108649746E-002   6.0820343825245121E-003   6.1579362324733850E-002
  -1.9349279263165299E-002   5.8154014272511455E-003   6.1681585404586250E-002
  -1.8418917417680862E-002   5.5261769042236342E-003   6.2031532187437732E-002
   1.5229395522453615E-010  -1.3629566364414814E-009   6.6455728181538165E-002
   9.2345082969291781E-011  -1.4070780096631097E-009   6.6274483290314823E-002
   3.2396224591835221E-011  -1.2867879678468697E-009   6.6272524443284631E-002
  -2.7552642459238719E-011  -1.0020867087512375E-009   6.6449851640447546E-002
  -8.7501506040865706E-011  -5.5297350032290638E-010   6.6806464881803918E-002
  -4.6180046902729935E-003   1.3815432038384867E-003   6.5462374250729427E-002
  -4.4434876151871420E-003   1.3074362804505468E-003   6.5286234080685901E-002
  -4.2689705401012974E-003   1.2353758532300807E-003   6.5279842136518690E-002
  -4.0944534650154433E-003   1.1653619221766998E-003   6.5443198418227683E-002
  -3.9199363899296014E-003   1.0973944872907926E-003   6.5776302925812824E-002
  -9.2271592327911028E-003   2.7630877706334989E-003   6.4393890274776613E-002
  -8.8876628409874665E-003   2.6148739679791588E-003   6.4224901157668546E-002
  -8.5481664491838198E-003   2.4707529932480252E-003   6.4216122448119861E-002
  -8.2086700573801713E-003   2.3307248464398880E-003   6.4367554146130532E-002
  -7.8691736655765229E-003   2.1947895275548912E-003   6.4679196251700474E-002
  -1.3827463475260402E-002   4.1446323374285110E-003   6.3250276253679322E-002
  -1.3332525585055880E-002   3.9223116555077431E-003   6.3090484521262688E-002
  -1.2837587694851348E-002   3.7061301332660772E-003   6.3081365378088380E-002
  -1.2342649804646812E-002   3.4960877707031308E-003   6.3222918824156607E-002
  -1.1847711914442276E-002   3.2921845678190315E-003   6.3515144859467257E-002
  -1.8418917417680862E-002   5.5261769042236342E-003   6.2031532187437732E-002
  -1.7778075847392379E-002   5.2297493430363828E-003   6.1882984171468258E-002
  -1.7137234277103869E-002   4.9415072732840737E-003   6.1875570926424234E-002
  -1.6496392706815362E-002   4.6614506949664430E-003   6.2009292452305742E-002
  -1.5855551136526876E-002   4.3895796080832827E-003   6.2284148749112811E-002
  -8.7501506040865706E-011  -5.5297350032290638E-010   6.6806464881803918E-002
  -1.0997982004268270E-009   3.2739977395834785E-010   6.6683258532516110E-002
  -2.1120948913433413E-009   1.9058821326689568E-009   6.6881263509432604E-002
  -3.1243915891987495E-009   4.1824736486673064E-009   6.7400479812553218E-002
  -4.1366882697069229E-009   7.1571739646003607E-009   6.8240907441877718E-002
  -3.9199363899296014E-003   1.0973944872907926E-003   6.5776302925812824E-002
  -3.5985271852222236E-003   1.0265112067794069E-003   6.5620055749451928E-002
  -3.2771179805148251E-003   9.4774973885065894E-004   6.5785417680895131E-002
  -2.9557087758074413E-003   8.6111008350416365E-004   6.6272388720142128E-002
  -2.6342995711000558E-003   7.6659224073982735E-004   6.7080968867193502E-002
  -7.8691736655765229E-003   2.1947895275548912E-003   6.4679196251700474E-002
  -7.2259564622651398E-003   2.0530220861591508E-003   6.4482029362739737E-002
  -6.5827392589537575E-003   1.8954975718190673E-003   6.4606869363183050E-002
  -5.9395220556423397E-003   1.7222159845346769E-003   6.5053716253030247E-002
  -5.2963048523309922E-003   1.5331773243056901E-003   6.5822570032281535E-002
  -1.1847711914442276E-002   3.2921845678190315E-003   6.3515144859467257E-002
  -1.0882288930926952E-002   3.0795329655388948E-003   6.3269179372379913E-002
  -9.9168659474116270E-003   2.8432454047875901E-003   6.3345618556296321E-002
  -8.9514429638962809E-003   2.5833218855651355E-003   6.3744462411216757E-002
  -7.9860199803809626E-003   2.2997624078715528E-003   6.4465710937141055E-002
  -1.5855551136526876E-002   4.3895796080832827E-003   6.2284148749112811E-002
  -1.4567524591207685E-002   4.1060438449185832E-003   6.1981505778372026E-002
  -1.3279498045888478E-002   3.7909932377560573E-003   6.2001665260235206E-002
  -1.1991471500569279E-002   3.4444277865957745E-003   6.2344627194702157E-002
  -1.0703444955250080E-002   3.0663474914374156E-003   6.3010391581773018E-002
  -2.6633577571096675E-002   0.0000000000000000        2.9464369073090021E-002
  -2.7235494876004004E-002   5.8614588428969501E-004   3.4941951503111746E-002
  -2.7837412180911333E-002   1.3207047156275457E-003   4.0111847693496266E-002
  -2.8439329485818662E-002   2.2036764940135574E-003   4.4974057644243545E-002
  -2.9041246790725991E-002   3.2350612194477213E-003   4.9528581355353631E-002
  -3.3393717013619366E-002   0.0000000000000000        3.0175023205955054E-002
  -3.4238227797775800E-002   9.6109510443444755E-004   3.5264017285896065E-002
  -3.5082738581932234E-002   2.0256427078088942E-003   4.0175510646976068E-002
  -3.5927249366088661E-002   3.1936428101233313E-003   4.4909503289195095E-002
  -3.6771760150245102E-002   4.4650954113777726E-003   4.9465995212553120E-002
  -4.0733470289604959E-002   0.0000000000000000        3.1283106783018919E-002
  -4.1690389032234265E-002   1.3360443245791992E-003   3.5938552064771055E-002
  -4.2647307774863592E-002   2.7305806999902375E-003   4.0546682148438408E-002
  -4.3604226517492913E-002   4.1836091262331138E-003   4.5107497034021012E-002
  -4.4561145260122226E-002   5.6951296033078275E-003   4.9620996721518824E-002
  -4.8652837399053447E-002   0.0000000000000000        3.2788619804281612E-002
  -4.9591978579379428E-002   1.7109935447239518E-003   3.6965555839736715E-002
  -5.0531119759705409E-002   3.4355186921715846E-003   4.1225362197883267E-002
  -5.1470260940031390E-002   5.1735754423428903E-003   4.5568038878721261E-002
  -5.2409402120357371E-002   6.9251637952378840E-003   4.9993585882250717E-002
  -5.7151818341964838E-002   0.0000000000000000        3.4691562269743147E-002
  -5.7942996439211268E-002   2.0859427648687043E-003   3.8345028610793051E-002
  -5.8734174536457684E-002   4.1404566843529274E-003   4.2211550795310623E-002
  -5.9525352633704100E-002   6.1635417584526720E-003   4.6291128823295884E-002
  -6.0316530730950536E-002   8.1551979871679354E-003   5.0583762694748791E-002
  -2.9041246790725991E-002   3.2350612194477213E-003   4.9528581355353631E-002
  -2.9113911573571384E-002   4.2545587174271596E-003   5.1584301771137819E-002
  -2.9186576356416773E-002   5.1018688134490345E-003   5.3738077590445424E-002
  -2.9259241139262163E-002   5.7769915075132263E-003   5.5989908813276389E-002
  -2.9331905922107552E-002   6.2799267996198962E-003   5.8339795439630741E-002
  -3.6771760150245102E-002   4.4650954113777726E-003   4.9465995212553120E-002
  -3.6785096550421337E-002   5.6996225950128737E-003   5.1249371489056950E-002
  -3.6798432950597565E-002   6.7568464444693020E-003   5.3053349127375700E-002
  -3.6811769350773786E-002   7.6367669597470220E-003   5.4877928127509371E-002
  -3.6825105750950021E-002   8.3393841408461039E-003   5.6723108489457996E-002
  -4.4561145260122226E-002   5.6951296033078275E-003   4.9620996721518824E-002
  -4.4592607319337757E-002   7.1446864725985800E-003   5.1126912926521183E-002
  -4.4624069378553281E-002   8.4118240754895816E-003   5.2575976451630022E-002
  -4.4655531437768813E-002   9.4965424119808038E-003   5.3968187296845327E-002
  -4.4686993496984330E-002   1.0398841482072308E-002   5.5303545462167127E-002
  -5.2409402120357371E-002   6.9251637952378840E-003   4.9993585882250717E-002
  -5.2536443880320645E-002   8.5897503501842897E-003   5.1216926083530533E-002
  -5.2663485640283919E-002   1.0066801706509877E-002   5.2305959563208368E-002
  -5.2790527400247179E-002   1.1356317864214599E-002   5.3260686321284244E-002
  -5.2917569160210474E-002   1.2458298823298493E-002   5.4081106357758132E-002
  -6.0316530730950536E-002   8.1551979871679354E-003   5.0583762694748791E-002
  -6.0616606233370007E-002   1.0034814227770000E-002   5.1519410960084999E-002
  -6.0916681735789485E-002   1.1721779337530150E-002   5.2243298462110774E-002
  -6.1216757238208956E-002   1.3216093316448367E-002   5.2755425200826107E-002
  -6.1516832740628448E-002   1.4517756164524713E-002   5.3055791176231014E-002
  -2.9331905922107552E-002   6.2799267996198962E-003   5.8339795439630741E-002
  -2.8985247632967399E-002   6.6656337107693260E-003   5.9111528893759382E-002
  -2.8638589343827250E-002   6.9890712619619048E-003   5.9921768208865162E-002
  -2.8291931054687094E-002   7.2502394531976082E-003   6.0770513384948162E-002
  -2.7945272765546945E-002   7.4491382844764364E-003   6.1657764422008238E-002
  -3.6825105750950021E-002   8.3393841408461039E-003   5.6723108489457996E-002
  -3.6389233330190805E-002   8.8806966830963889E-003   5.7073074645298871E-002
  -3.5953360909431575E-002   9.2767032818278743E-003   5.7562963203400701E-002
  -3.5517488488672352E-002   9.5274039370405253E-003   5.8192774163763540E-002
  -3.5081616067913129E-002   9.6327986487342865E-003   5.8962507526387355E-002
  -4.4686993496984330E-002   1.0398841482072308E-002   5.5303545462167127E-002
  -4.4060490403322217E-002   1.1095759655423499E-002   5.5148707736158237E-002
  -4.3433987309660090E-002   1.1564335301693870E-002   5.5235208953694152E-002
  -4.2807484215997969E-002   1.1804568420883441E-002   5.5563049114774887E-002
  -4.2180981122335849E-002   1.1816459012992178E-002   5.6132228219400386E-002
  -5.2917569160210474E-002   1.2458298823298493E-002   5.4081106357758132E-002
  -5.1999018852361648E-002   1.3310822627750556E-002   5.3338428166337500E-002
  -5.1080468544512800E-002   1.3851967321559839E-002   5.2938505459745509E-002
  -5.0161918236663966E-002   1.4081732904726356E-002   5.2881338237982141E-002
  -4.9243367928815118E-002   1.4000119377250035E-002   5.3166926501047429E-002
  -6.1516832740628448E-002   1.4517756164524713E-002   5.3055791176231014E-002
  -6.0204818677309077E-002   1.5525885600077678E-002   5.1642235935836646E-002
  -5.8892804613989699E-002   1.6139599341425878E-002   5.0672852721554806E-002
  -5.7580790550670329E-002   1.6358897388569282E-002   5.0147641533385336E-002
  -5.6268776487350951E-002   1.6183779741507920E-002   5.0066602371328373E-002
  -2.7945272765546945E-002   7.4491382844764364E-003   6.1657764422008238E-002
  -2.7219067061394986E-002   7.5704058879427286E-003   6.1368332122137104E-002
  -2.6492861357243016E-002   7.5986803957408186E-003   6.1314383879077075E-002
  -2.5766655653091053E-002   7.5339618078705452E-003   6.1495919692828131E-002
  -2.5040449948939083E-002   7.3762501243320733E-003   6.1912939563390251E-002
  -3.5081616067913129E-002   9.6327986487342865E-003   5.8962507526387355E-002
  -3.4127629914050293E-002   9.6328297017931885E-003   5.8623142632649783E-002
  -3.3173643760187478E-002   9.5674393811009673E-003   5.8503854581522824E-002
  -3.2219657606324649E-002   9.4366276866576712E-003   5.8604643373006589E-002
  -3.1265671452461820E-002   9.2403946184633212E-003   5.8925509007100807E-002
  -4.2180981122335849E-002   1.1816459012992178E-002   5.6132228219400386E-002
  -4.1014621732962622E-002   1.1695253515643576E-002   5.5770502453713650E-002
  -3.9848262343589395E-002   1.1536198366461119E-002   5.5613446316436971E-002
  -3.8681902954216182E-002   1.1339293565444813E-002   5.5661059807570537E-002
  -3.7515543564842962E-002   1.1104539112594625E-002   5.5913342927114251E-002
  -4.9243367928815118E-002   1.4000119377250035E-002   5.3166926501047429E-002
  -4.7880042518131945E-002   1.3757677329494027E-002   5.2810411585328572E-002
  -4.6516717107448785E-002   1.3504957351821339E-002   5.2643159083819412E-002
  -4.5153391696765618E-002   1.3241959444231932E-002   5.2665168996520045E-002
  -4.3790066286082431E-002   1.2968683606725942E-002   5.2876441323430334E-002
  -5.6268776487350951E-002   1.6183779741507920E-002   5.0066602371328373E-002
  -5.4723892269558302E-002   1.5820101143344471E-002   4.9742870027494696E-002
  -5.3179008051765633E-002   1.5473716337181441E-002   4.9592992883670264E-002
  -5.1634123833972985E-002   1.5144625323019028E-002   4.9616970939855141E-002
  -5.0089239616180295E-002   1.4832828100857148E-002   4.9814804196049250E-002
  -2.5040449948939083E-002   7.3762501243320733E-003   6.1912939563390251E-002
  -2.4315428661608973E-002   7.1712986673949930E-003   6.1726111768036301E-002
  -2.3590407374278859E-002   6.9648607593288253E-003   6.1698027121357607E-002
  -2.2865386086948745E-002   6.7569364001337472E-003   6.1828685623354293E-002
  -2.2140364799618638E-002   6.5475255898096996E-003   6.2118087274026290E-002
  -3.1265671452461820E-002   9.2403946184633212E-003   5.8925509007100807E-002
  -3.0374120305056769E-002   9.0035537264655657E-003   5.8713176951795773E-002
  -2.9482569157651739E-002   8.7509185606121503E-003   5.8675161467965323E-002
  -2.8591018010246709E-002   8.4824891209029189E-003   5.8811462555609449E-002
  -2.7699466862841665E-002   8.1982654073379235E-003   5.9122080214728034E-002
  -3.7515543564842962E-002   1.1104539112594625E-002   5.5913342927114251E-002
  -3.6441889134563712E-002   1.0835808785536291E-002   5.5661198789131311E-002
  -3.5368234704284456E-002   1.0536976361895399E-002   5.5598944645422137E-002
  -3.4294580274005206E-002   1.0208041841672065E-002   5.5726580495986971E-002
  -3.3220925843725949E-002   9.8490052248661752E-003   5.6044106340825420E-002
  -4.3790066286082431E-002   1.2968683606725942E-002   5.2876441323430334E-002
  -4.2518735150129723E-002   1.2668063844606926E-002   5.2570177280042776E-002
  -4.1247404014177029E-002   1.2323034163178630E-002   5.2469376653728306E-002
  -3.9976072878224307E-002   1.1933594562441169E-002   5.2574039444487033E-002
  -3.8704741742271627E-002   1.1499745042394413E-002   5.2884165652318682E-002
  -5.0089239616180295E-002   1.4832828100857148E-002   4.9814804196049250E-002
  -4.8604658351754870E-002   1.4500318903677589E-002   4.9440112424530280E-002
  -4.7120077087329439E-002   1.4109091964461883E-002   4.9286457492883698E-002
  -4.5635495822904007E-002   1.3659147283210346E-002   4.9353839401109441E-002
  -4.4150914558478568E-002   1.3150484859922651E-002   4.9642258149207641E-002
  -2.2140364799618638E-002   6.5475255898096996E-003   6.2118087274026290E-002
  -2.1210002954134187E-002   6.3260757700441816E-003   6.1724862947880488E-002
  -2.0279641108649746E-002   6.0820343825245121E-003   6.1579362324733850E-002
  -1.9349279263165299E-002   5.8154014272511455E-003   6.1681585404586250E-002
  -1.8418917417680862E-002   5.5261769042236342E-003   6.2031532187437732E-002
  -2.7699466862841665E-002   8.1982654073379235E-003   5.9122080214728034E-002
  -2.6528835667033311E-002   7.8999599748692528E-003   5.8741564252392992E-002
  -2.5358204471224974E-002   7.5892853784490094E-003   5.8593863287706716E-002
  -2.4187573275416631E-002   7.2662416180773910E-003   5.8678977320669151E-002
  -2.3016942079608284E-002   6.9308286937540542E-003   5.8996906351280298E-002
  -3.3220925843725949E-002   9.8490052248661752E-003   5.6044106340825420E-002
  -3.1824934002944089E-002   9.4738441796945461E-003   5.5686521146103604E-002
  -3.0428942162162222E-002   9.0965363743735692E-003   5.5546842243680138E-002
  -2.9032950321380372E-002   8.7170818089036383E-003   5.5625069633555041E-002
  -2.7636958480598505E-002   8.3354804832845297E-003   5.5921203315728252E-002
  -3.8704741742271627E-002   1.1499745042394413E-002   5.2884165652318682E-002
  -3.7098297961866561E-002   1.1047728384519617E-002   5.2559733629012367E-002
  -3.5491854181461537E-002   1.0603787370298209E-002   5.2438299192654088E-002
  -3.3885410401056512E-002   1.0167921999730052E-002   5.2519862343243844E-002
  -3.2278966620651453E-002   9.7401322728150608E-003   5.2804423080781440E-002
  -4.4150914558478568E-002   1.3150484859922651E-002   4.9642258149207641E-002
  -4.2348927543800707E-002   1.2621612589344883E-002   4.9361201701119323E-002
  -4.0546940529122895E-002   1.2111038366222654E-002   4.9268234134628691E-002
  -3.8744953514445055E-002   1.1618762190556277E-002   4.9363355449735635E-002
  -3.6942966499767235E-002   1.1144784062345481E-002   4.9646565646440100E-002
  -1.8418917417680862E-002   5.5261769042236342E-003   6.2031532187437732E-002
  -1.7778075847392379E-002   5.2297493430363828E-003   6.1882984171468258E-002
  -1.7137234277103869E-002   4.9415072732840737E-003   6.1875570926424234E-002
  -1.6496392706815362E-002   4.6614506949664430E-003   6.2009292452305742E-002
  -1.5855551136526876E-002   4.3895796080832827E-003   6.2284148749112811E-002
  -2.3016942079608284E-002   6.9308286937540542E-003   5.8996906351280298E-002
  -2.2230827849866491E-002   6.5878864940870918E-003   5.8833252537125152E-002
  -2.1444713620124702E-002   6.2422549076839168E-003   5.8819009270951184E-002
  -2.0658599390382899E-002   5.8939339345451501E-003   5.8954176552758308E-002
  -1.9872485160641096E-002   5.5429235746703442E-003   5.9238754382546499E-002
  -2.7636958480598505E-002   8.3354804832845297E-003   5.5921203315728252E-002
  -2.6697295814347790E-002   7.9460236451375510E-003   5.5731568825216876E-002
  -2.5757633148097113E-002   7.5430025420840374E-003   5.5699620659742252E-002
  -2.4817970481846415E-002   7.1264171741241902E-003   5.5825358819304269E-002
  -2.3878307815595724E-002   6.6962675412575168E-003   5.6108783303902926E-002
  -3.2278966620651453E-002   9.7401322728150608E-003   5.2804423080781440E-002
  -3.1177479740836300E-002   9.3041607961880796E-003   5.2577933035743332E-002
  -3.0075992861021146E-002   8.8437501764841303E-003   5.2517405092797516E-002
  -2.8974505981205982E-002   8.3589004137028973E-003   5.2622839251943970E-002
  -2.7873019101390815E-002   7.8496115078446893E-003   5.2894235513182661E-002
  -3.6942966499767235E-002   1.1144784062345481E-002   4.9646565646440100E-002
  -3.5671379629331992E-002   1.0662297947238691E-002   4.9372345168704646E-002
  -3.4399792758896770E-002   1.0144497810884029E-002   4.9272362570116912E-002
  -3.3128205888461520E-002   9.5913836532819721E-003   4.9346617850677094E-002
  -3.1856619018026305E-002   9.0029554744318063E-003   4.9595111010385107E-002
  -1.5855551136526876E-002   4.3895796080832827E-003   6.2284148749112811E-002
  -1.4567524591207685E-002   4.1060438449185832E-003   6.1981505778372026E-002
  -1.3279498045888478E-002   3.7909932377560573E-003   6.2001665260235206E-002
  -1.1991471500569279E-002   3.4444277865957745E-003   6.2344627194702157E-002
  -1.0703444955250080E-002   3.0663474914374156E-003   6.3010391581773018E-002
  -1.9872485160641096E-002   5.5429235746703442E-003   5.9238754382546499E-002
  -1.8262202828012369E-002   5.1798158057152488E-003   5.8920165977959682E-002
  -1.6651920495383644E-002   4.7952026053353775E-003   5.8923286695388072E-002
  -1.5041638162754899E-002   4.3890839735307406E-003   5.9248116534832126E-002
  -1.3431355830126161E-002   3.9614599103015014E-003   5.9894655496290805E-002
  -2.3878307815595724E-002   6.6962675412575168E-003   5.6108783303902926E-002
  -2.1946863026246079E-002   6.2535877665118866E-003   5.5784258878043433E-002
  -2.0015418236896391E-002   5.7994119729146976E-003   5.5780350243610388E-002
  -1.8083973447546701E-002   5.3337401604659843E-003   5.6097057400604056E-002
  -1.6152528658197059E-002   4.8565723291656981E-003   5.6734380349024505E-002
  -2.7873019101390815E-002   7.8496115078446893E-003   5.2894235513182661E-002
  -2.5621505185908802E-002   7.3273597273086494E-003   5.2573784478623278E-002
  -2.3369991270426785E-002   6.8036213404941287E-003   5.2572855904902051E-002
  -2.1118477354944768E-002   6.2783963474011446E-003   5.2891449792018749E-002
  -1.8866963439462731E-002   5.7516847480298949E-003   5.3529566139973506E-002
  -3.1856619018026305E-002   9.0029554744318063E-003   4.9595111010385107E-002
  -2.9286129307000572E-002   8.4011316881051901E-003   4.9288742779699191E-002
  -2.6715639595974797E-002   7.8078307080732684E-003   4.9300803679262845E-002
  -2.4145149884949021E-002   7.2230525343363432E-003   4.9631293709075749E-002
  -2.1574660173923288E-002   6.6467971668939807E-003   5.0280212869137975E-002
  -5.7151818341964838E-002   0.0000000000000000        3.4691562269743147E-002
  -5.7942996439211268E-002   2.0859427648687043E-003   3.8345028610793051E-002
  -5.8734174536457684E-002   4.1404566843529274E-003   4.2211550795310623E-002
  -5.9525352633704100E-002   6.1635417584526720E-003   4.6291128823295884E-002
  -6.0316530730950536E-002   8.1551979871679354E-003   5.0583762694748791E-002
  -6.5818969897696034E-002   0.0000000000000000        3.7214533090041663E-002
  -6.6625959252282776E-002   2.9153896384894219E-003   4.0837795700867978E-002
  -6.7432948606869533E-002   5.7729896478855239E-003   4.4216379953545978E-002
  -6.8239937961456290E-002   8.5728000281883061E-003   4.7350285848075629E-002
  -6.9046927316043033E-002   1.1314820779397754E-002   5.0239513384456966E-002
  -7.4242848845603907E-002   0.0000000000000000        4.0580131175815312E-002
  -7.5523383659146986E-002   3.7448365121101408E-003   4.4146829272709208E-002
  -7.6803918472690080E-002   7.4055226114181222E-003   4.7011114809838772E-002
  -7.8084453286233160E-002   1.0982058297923935E-002   4.9172987787204005E-002
  -7.9364988099776240E-002   1.4474443571627589E-002   5.0632448204804913E-002
  -8.2423455185688471E-002   0.0000000000000000        4.4788356527064102E-002
  -8.4635269659803877E-002   4.5742833857308563E-003   4.8272129326316734E-002
  -8.6847084133919297E-002   9.0380555749507152E-003   5.0595755364189025E-002
  -8.9058898608034703E-002   1.3391316567659569E-002   5.1759234640680989E-002
  -9.1270713082150109E-002   1.7634066363857427E-002   5.1762567155792617E-002
  -9.0360788917949714E-002   0.0000000000000000        4.9839209143788032E-002
  -9.3961617254253449E-002   5.4037302593515774E-003   5.3213695861690558E-002
  -9.7562445590557198E-002   1.0670588538483315E-002   5.4970301616596745E-002
 -0.10116327392686095        1.5800574837395200E-002   5.5109026408506602E-002
 -0.10476410226316468        2.0793689156087244E-002   5.3629870237420128E-002
  -6.0316530730950536E-002   8.1551979871679354E-003   5.0583762694748791E-002
  -6.0616606233370007E-002   1.0034814227770000E-002   5.1519410960084999E-002
  -6.0916681735789485E-002   1.1721779337530150E-002   5.2243298462110774E-002
  -6.1216757238208956E-002   1.3216093316448367E-002   5.2755425200826107E-002
  -6.1516832740628448E-002   1.4517756164524713E-002   5.3055791176231014E-002
  -6.9046927316043033E-002   1.1314820779397754E-002   5.0239513384456966E-002
  -6.9321044544102928E-002   1.3760313012840308E-002   4.9461257220181264E-002
  -6.9595161772162836E-002   1.5670537839842281E-002   4.8946678367935162E-002
  -6.9869279000222731E-002   1.7045495260403738E-002   4.8695776827718647E-002
  -7.0143396228282626E-002   1.7885185274524630E-002   4.8708552599531781E-002
  -7.9364988099776240E-002   1.4474443571627589E-002   5.0632448204804913E-002
  -7.9137708978136503E-002   1.7485811797910589E-002   4.7797671335318689E-002
  -7.8910429856496794E-002   1.9619296342154407E-002   4.5702009853202073E-002
  -7.8683150734857071E-002   2.0874897204359082E-002   4.4345463758455127E-002
  -7.8455871613217362E-002   2.1252614384524565E-002   4.3728033051077794E-002
  -9.1270713082150109E-002   1.7634066363857427E-002   5.1762567155792617E-002
  -9.0066599535470776E-002   2.1211310582980883E-002   4.6528653305497263E-002
  -8.8862485988791401E-002   2.3568054844466540E-002   4.2509292917911563E-002
  -8.7658372442112054E-002   2.4704299148314433E-002   3.9704485993035471E-002
  -8.6454258895432679E-002   2.4620043494524506E-002   3.8114232530869110E-002
 -0.10476410226316468        2.0793689156087244E-002   5.3629870237420128E-002
 -0.10210771621610565        2.4936809368051177E-002   4.5654203130716997E-002
  -9.9451330169046614E-002   2.7516813346778655E-002   3.9368527562063514E-002
  -9.6794944121987581E-002   2.8533701092269770E-002   3.4772843531459763E-002
  -9.4138558074928519E-002   2.7987472604524423E-002   3.1867151038905660E-002
  -6.1516832740628448E-002   1.4517756164524713E-002   5.3055791176231014E-002
  -6.0204818677309077E-002   1.5525885600077678E-002   5.1642235935836646E-002
  -5.8892804613989699E-002   1.6139599341425878E-002   5.0672852721554806E-002
  -5.7580790550670329E-002   1.6358897388569282E-002   5.0147641533385336E-002
  -5.6268776487350951E-002   1.6183779741507920E-002   5.0066602371328373E-002
  -7.0143396228282626E-002   1.7885185274524630E-002   4.8708552599531781E-002
  -6.8432275377753690E-002   1.8344229800129643E-002   4.7253800590555978E-002
  -6.6721154527224755E-002   1.8577250755143423E-002   4.6153090129886831E-002
  -6.5010033676695833E-002   1.8584248139565988E-002   4.5406421217524320E-002
  -6.3298912826166884E-002   1.8365221953397320E-002   4.5013793853468494E-002
  -7.8455871613217362E-002   2.1252614384524565E-002   4.3728033051077794E-002
  -7.6435774453284644E-002   2.1162574000181653E-002   4.2400476397134054E-002
  -7.4415677293351981E-002   2.1014902168861017E-002   4.1336830813691189E-002
  -7.2395580133419291E-002   2.0809598890562667E-002   4.0537096300749212E-002
  -7.0375482973486628E-002   2.0546664165286693E-002   4.0001272858308075E-002
  -8.6454258895432679E-002   2.4620043494524506E-002   3.8114232530869110E-002
  -8.4215315903902022E-002   2.3980918200233646E-002   3.7082263355570959E-002
  -8.1976372912371337E-002   2.3452553582578566E-002   3.6224074772967942E-002
  -7.9737429920840680E-002   2.3034949641559391E-002   3.5539666783059976E-002
  -7.7498486929309995E-002   2.2728106377176052E-002   3.5029039385847109E-002
  -9.4138558074928519E-002   2.7987472604524423E-002   3.1867151038905660E-002
  -9.1770899729605684E-002   2.6799262400285618E-002   3.1299161465866740E-002
  -8.9403241384282850E-002   2.5890204996296164E-002   3.0814822007717044E-002
  -8.7035583038960029E-002   2.5260300392556036E-002   3.0414132664456653E-002
  -8.4667924693637167E-002   2.4909548589065453E-002   3.0097093436085590E-002
  -5.6268776487350951E-002   1.6183779741507920E-002   5.0066602371328373E-002
  -5.4723892269558302E-002   1.5820101143344471E-002   4.9742870027494696E-002
  -5.3179008051765633E-002   1.5473716337181441E-002   4.9592992883670264E-002
  -5.1634123833972985E-002   1.5144625323019028E-002   4.9616970939855141E-002
  -5.0089239616180295E-002   1.4832828100857148E-002   4.9814804196049250E-002
  -6.3298912826166884E-002   1.8365221953397320E-002   4.5013793853468494E-002
  -6.1570217173192991E-002   1.8017504385127212E-002   4.4646551235497586E-002
  -5.9841521520219064E-002   1.7638427623245453E-002   4.4473076287879831E-002
  -5.8112825867245171E-002   1.7227991667752251E-002   4.4493369010615381E-002
  -5.6384130214271251E-002   1.6786196518647295E-002   4.4707429403704202E-002
  -7.0375482973486628E-002   2.0546664165286693E-002   4.0001272858308075E-002
  -6.8443063414987432E-002   2.0214907626909969E-002   3.9541866980587738E-002
  -6.6510643856488291E-002   1.9803138909309525E-002   3.9296141243564606E-002
  -6.4578224297989109E-002   1.9311358012485322E-002   3.9264095647238789E-002
  -6.2645804739489941E-002   1.8739564936437400E-002   3.9445730191610177E-002
  -7.7498486929309995E-002   2.2728106377176052E-002   3.5029039385847109E-002
  -7.5342430994941645E-002   2.2412310868692720E-002   3.4428817262765227E-002
  -7.3186375060573239E-002   2.1967850195373541E-002   3.4062187750724553E-002
  -7.1030319126204833E-002   2.1394724357218439E-002   3.3929150849725143E-002
  -6.8874263191836468E-002   2.0692933354227554E-002   3.4029706559766906E-002
  -8.4667924693637167E-002   2.4909548589065453E-002   3.0097093436085590E-002
  -8.2268319913055540E-002   2.4609714110475439E-002   2.9307402082030032E-002
  -7.9868715132473955E-002   2.4132561481437571E-002   2.8771215809359742E-002
  -7.7469110351892342E-002   2.3478090701951605E-002   2.8488534618074626E-002
  -7.5069505571310730E-002   2.2646301772017624E-002   2.8459358508174742E-002
  -5.0089239616180295E-002   1.4832828100857148E-002   4.9814804196049250E-002
  -4.8604658351754870E-002   1.4500318903677589E-002   4.9440112424530280E-002
  -4.7120077087329439E-002   1.4109091964461883E-002   4.9286457492883698E-002
  -4.5635495822904007E-002   1.3659147283210346E-002   4.9353839401109441E-002
  -4.4150914558478568E-002   1.3150484859922651E-002   4.9642258149207641E-002
  -5.6384130214271251E-002   1.6786196518647295E-002   4.4707429403704202E-002
  -5.4687058956356047E-002   1.6317021198641035E-002   4.4316347413561413E-002
  -5.2989987698440835E-002   1.5824444730443810E-002   4.4129208570525741E-002
  -5.1292916440525638E-002   1.5308467114055535E-002   4.4146012874597337E-002
  -4.9595845182610399E-002   1.4769088349476295E-002   4.4366760325776106E-002
  -6.2645804739489941E-002   1.8739564936437400E-002   3.9445730191610177E-002
  -6.0753337180850166E-002   1.8133723493604592E-002   3.9073574576688419E-002
  -5.8860869622210384E-002   1.7539797496425768E-002   3.8888268416108721E-002
  -5.6968402063570588E-002   1.6957786944900893E-002   3.8889811709871006E-002
  -5.5075934504930771E-002   1.6387691839029994E-002   3.9078204457975246E-002
  -6.8874263191836468E-002   2.0692933354227554E-002   3.4029706559766906E-002
  -6.6803493025237262E-002   1.9950425788568094E-002   3.3711793913911332E-002
  -6.4732722858638042E-002   1.9255150262407657E-002   3.3563637029632547E-002
  -6.2661952692038850E-002   1.8607106775746275E-002   3.3585235906930591E-002
  -6.0591182525439637E-002   1.8006295328583694E-002   3.3776590545805438E-002
  -7.5069505571310730E-002   2.2646301772017624E-002   2.8459358508174742E-002
  -7.2837526489517274E-002   2.1767128083531706E-002   2.8231005425230188E-002
  -7.0605547407723859E-002   2.0970503028389605E-002   2.8155314411097351E-002
  -6.8373568325930445E-002   2.0256426606591479E-002   2.8232285465776046E-002
  -6.6141589244136989E-002   1.9624898818137337E-002   2.8461918589266444E-002
  -4.4150914558478568E-002   1.3150484859922651E-002   4.9642258149207641E-002
  -4.2348927543800707E-002   1.2621612589344883E-002   4.9361201701119323E-002
  -4.0546940529122895E-002   1.2111038366222654E-002   4.9268234134628691E-002
  -3.8744953514445055E-002   1.1618762190556277E-002   4.9363355449735635E-002
  -3.6942966499767235E-002   1.1144784062345481E-002   4.9646565646440100E-002
  -4.9595845182610399E-002   1.4769088349476295E-002   4.4366760325776106E-002
  -4.7600682464104975E-002   1.4218626270208576E-002   4.4065398284864180E-002
  -4.5605519745599572E-002   1.3669398709755080E-002   4.3962298770009817E-002
  -4.3610357027094135E-002   1.3121405668115758E-002   4.4057461781213052E-002
  -4.1615194308588746E-002   1.2574647145290663E-002   4.4350887318473892E-002
  -5.5075934504930771E-002   1.6387691839029994E-002   3.9078204457975246E-002
  -5.2877422438137811E-002   1.5815639951072422E-002   3.8739473295598285E-002
  -5.0678910371344768E-002   1.5227759053287562E-002   3.8609178303738848E-002
  -4.8480398304551788E-002   1.4624049145675350E-002   3.8687319482397002E-002
  -4.6281886237758765E-002   1.4004510228235817E-002   3.8973896831572596E-002
  -6.0591182525439637E-002   1.8006295328583694E-002   3.3776590545805438E-002
  -5.8179147465899139E-002   1.7412653631936274E-002   3.3383426733321842E-002
  -5.5767112406358635E-002   1.6786119396820016E-002   3.3208872735815811E-002
  -5.3355077346818158E-002   1.6126692623234858E-002   3.3252928553287125E-002
  -5.0943042287277619E-002   1.5434373311181013E-002   3.3515594185736138E-002
  -6.6141589244136989E-002   1.9624898818137337E-002   2.8461918589266444E-002
  -6.3505857547388994E-002   1.9009667312800016E-002   2.7997258598034758E-002
  -6.0870125850641013E-002   1.8344479740352457E-002   2.7761382066240625E-002
  -5.8234394153893011E-002   1.7629336100794393E-002   2.7754288993883797E-002
  -5.5598662457145037E-002   1.6864236394126153E-002   2.7975979380964577E-002
  -3.6942966499767235E-002   1.1144784062345481E-002   4.9646565646440100E-002
  -3.5671379629331992E-002   1.0662297947238691E-002   4.9372345168704646E-002
  -3.4399792758896770E-002   1.0144497810884029E-002   4.9272362570116912E-002
  -3.3128205888461520E-002   9.5913836532819721E-003   4.9346617850677094E-002
  -3.1856619018026305E-002   9.0029554744318063E-003   4.9595111010385107E-002
  -4.1615194308588746E-002   1.2574647145290663E-002   4.4350887318473892E-002
  -4.0184896044850905E-002   1.2017822744716633E-002   4.4038336086764551E-002
  -3.8754597781113086E-002   1.1439632069830341E-002   4.3868969762512491E-002
  -3.7324299517375245E-002   1.0840075120632148E-002   4.3842788345717677E-002
  -3.5894001253637467E-002   1.0219151897122081E-002   4.3959791836380213E-002
  -4.6281886237758765E-002   1.4004510228235817E-002   3.8973896831572596E-002
  -4.4723929552408948E-002   1.3373347542194478E-002   3.8636962592825119E-002
  -4.3165972867059102E-002   1.2734766328776750E-002   3.8412160289844399E-002
  -4.1608016181709270E-002   1.2088766587982653E-002   3.8299489922630374E-002
  -4.0050059496359439E-002   1.1435348319812327E-002   3.8298951491183217E-002
  -5.0943042287277619E-002   1.5434373311181013E-002   3.3515594185736138E-002
  -4.9288480152006292E-002   1.4728872339672426E-002   3.3168224686886225E-002
  -4.7633918016734937E-002   1.4029900587723111E-002   3.2901934152112497E-002
  -4.5979355881463589E-002   1.3337458055333271E-002   3.2716722581414996E-002
  -4.4324793746192248E-002   1.2651544742502699E-002   3.2612589974793785E-002
  -5.5598662457145037E-002   1.6864236394126153E-002   2.7975979380964577E-002
  -5.3878547843642710E-002   1.6084397137150264E-002   2.7632122368947964E-002
  -5.2158433230140480E-002   1.5325034846669486E-002   2.7338291349316923E-002
  -5.0438318616638216E-002   1.4586149522683532E-002   2.7094486322071565E-002
  -4.8718204003135923E-002   1.3867741165192904E-002   2.6900707287212000E-002
  -3.1856619018026305E-002   9.0029554744318063E-003   4.9595111010385107E-002
  -2.9286129307000572E-002   8.4011316881051901E-003   4.9288742779699191E-002
  -2.6715639595974797E-002   7.8078307080732684E-003   4.9300803679262845E-002
  -2.4145149884949021E-002   7.2230525343363432E-003   4.9631293709075749E-002
  -2.1574660173923288E-002   6.6467971668939807E-003   5.0280212869137975E-002
  -3.5894001253637467E-002   1.0219151897122081E-002   4.3959791836380213E-002
  -3.3049722351937240E-002   9.5951444382789408E-003   4.3501967963979149E-002
  -3.0205443450237027E-002   8.9863347830824170E-003   4.3273293342677405E-002
  -2.7361164548536827E-002   8.3927229315324536E-003   4.3273767972475202E-002
  -2.4516885646836628E-002   7.8143088836287733E-003   4.3503391853372375E-002
  -4.0050059496359439E-002   1.1435348319812327E-002   3.8298951491183217E-002
  -3.7021271283134718E-002   1.0789157188452969E-002   3.7696346974418538E-002
  -3.3992483069910061E-002   1.0164838858091572E-002   3.7233611829603462E-002
  -3.0963694856685386E-002   9.5623933287285103E-003   3.6910746056737456E-002
  -2.7934906643460808E-002   8.9818206003635659E-003   3.6727749655821595E-002
  -4.4324793746192248E-002   1.2651544742502699E-002   3.2612589974793785E-002
  -4.1200776100593105E-002   1.1983169938626637E-002   3.1871879811017315E-002
  -3.8076758454993934E-002   1.1343342933100613E-002   3.1181759140040240E-002
  -3.4952740809394811E-002   1.0732063725924484E-002   3.0542227961863001E-002
  -3.1828723163795633E-002   1.0149332317098247E-002   2.9953286276484817E-002
  -4.8718204003135923E-002   1.3867741165192904E-002   2.6900707287212000E-002
  -4.5588236804312288E-002   1.3177182688800748E-002   2.6028566473775494E-002
  -4.2458269605488597E-002   1.2521847008109835E-002   2.5117735273988501E-002
  -3.9328302406664864E-002   1.1901734123120667E-002   2.4168213687850923E-002
  -3.6198335207841326E-002   1.1316844033833151E-002   2.3180001715362941E-002
  -9.0360788917949714E-002   0.0000000000000000        4.9839209143788032E-002
  -9.3961617254253449E-002   5.4037302593515774E-003   5.3213695861690558E-002
  -9.7562445590557198E-002   1.0670588538483315E-002   5.4970301616596745E-002
 -0.10116327392686095        1.5800574837395200E-002   5.5109026408506602E-002
 -0.10476410226316468        2.0793689156087244E-002   5.3629870237420128E-002
 -0.10329288866254770        0.0000000000000000        5.8666871257856780E-002
 -0.10683023462059960        1.0884757105667085E-002   5.2123079821391818E-002
 -0.11036758057865152        1.9172712465316318E-002   4.7324134104426860E-002
 -0.11390492653670346        2.4863866078947729E-002   4.4270034106961897E-002
 -0.11744227249475539        2.7958217946561257E-002   4.2960779828996883E-002
 -0.12645779303964247        0.0000000000000000        7.4205525101140049E-002
 -0.12656892993694621        1.6365783951982592E-002   5.5283525744509607E-002
 -0.12668006683425001        2.7674836392149328E-002   4.1469098789875494E-002
 -0.12679120373155378        3.3927157320500230E-002   3.2762244237237677E-002
 -0.12690234062885755        3.5122746737035263E-002   2.9162962086596182E-002
 -0.15985550204923404        0.0000000000000000        9.6455170673637819E-002
 -0.15317770320329335        2.1846810798298102E-002   6.2695033631043895E-002
 -0.14649990435735261        3.6176960318982362E-002   3.7405195672942600E-002
 -0.13982210551141194        4.2990448562052745E-002   2.0585656799333940E-002
 -0.13314430666547122        4.2287275527509285E-002   1.2236417010217916E-002
 -0.20348601569132241        0.0000000000000000       0.12541580797535010     
 -0.18665655441964091        2.7327837644613606E-002   7.4357603480994697E-002
 -0.16982709314795941        4.4679084245815348E-002   3.5132424753628252E-002
 -0.15299763187627791        5.2053739803605281E-002   7.7402717932507498E-003
 -0.13616817060459643        4.9451804317983281E-002  -7.8188554001378460E-003
 -0.10476410226316468        2.0793689156087244E-002   5.3629870237420128E-002
 -0.10210771621610565        2.4936809368051177E-002   4.5654203130716997E-002
  -9.9451330169046614E-002   2.7516813346778655E-002   3.9368527562063514E-002
  -9.6794944121987581E-002   2.8533701092269770E-002   3.4772843531459763E-002
  -9.4138558074928519E-002   2.7987472604524423E-002   3.1867151038905660E-002
 -0.11744227249475539        2.7958217946561257E-002   4.2960779828996883E-002
 -0.11348369296267971        2.9430749731313433E-002   3.6710439440278485E-002
 -0.10952511343060405        3.0256443096360674E-002   3.1374494483543652E-002
 -0.10556653389852839        3.0435298041703019E-002   2.6952944958792319E-002
 -0.10160795436645274        2.9967314567340406E-002   2.3445790866024541E-002
 -0.12690234062885755        3.5122746737035263E-002   2.9162962086596182E-002
 -0.12241716371783141        3.3924690094575681E-002   2.5554226229394048E-002
 -0.11793198680680531        3.2996072845942664E-002   2.2084289698109289E-002
 -0.11344680989577918        3.2336894991136261E-002   1.8753152492741877E-002
 -0.10896163298475306        3.1947156530156409E-002   1.5560814613291929E-002
 -0.13314430666547122        4.2287275527509285E-002   1.2236417010217916E-002
 -0.12890812848156077        3.8418630457837957E-002   1.2185563498063498E-002
 -0.12467195029765032        3.5735702595524693E-002   1.1497913205760402E-002
 -0.12043577211373989        3.4238491940569479E-002   1.0173466133308466E-002
 -0.11619959392982944        3.3926998492972392E-002   8.2122222807078839E-003
 -0.13616817060459643        4.9451804317983281E-002  -7.8188554001378460E-003
 -0.13295658725386778        4.2912570821100171E-002  -3.3955487537130867E-003
 -0.12974500390313917        3.8475332345106680E-002  -3.8463499350300211E-004
 -0.12653342055241051        3.6140088890002753E-002   1.2138858804920231E-003
 -0.12332183720168191        3.5906840455788375E-002   1.4000138682722096E-003
  -9.4138558074928519E-002   2.7987472604524423E-002   3.1867151038905660E-002
  -9.1770899729605684E-002   2.6799262400285618E-002   3.1299161465866740E-002
  -8.9403241384282850E-002   2.5890204996296164E-002   3.0814822007717044E-002
  -8.7035583038960029E-002   2.5260300392556036E-002   3.0414132664456653E-002
  -8.4667924693637167E-002   2.4909548589065453E-002   3.0097093436085590E-002
 -0.10160795436645274        2.9967314567340406E-002   2.3445790866024541E-002
  -9.9141878631640284E-002   2.9202224806478196E-002   2.3174175564287379E-002
  -9.6675802896827867E-002   2.8489760892321660E-002   2.3015744926640012E-002
  -9.4209727162015491E-002   2.7829922824870665E-002   2.2970498953082546E-002
  -9.1743651427203018E-002   2.7222710604125483E-002   2.3038437643614920E-002
 -0.10896163298475306        3.1947156530156409E-002   1.5560814613291929E-002
 -0.10636760531125045        3.1605187212670770E-002   1.5359046629312697E-002
 -0.10377357763774785        3.1089316788347077E-002   1.5299997858623883E-002
 -0.10117954996424529        3.0399545257185346E-002   1.5383668301225570E-002
  -9.8585522290742661E-002   2.9535872619185437E-002   1.5610057957117719E-002
 -0.11619959392982944        3.3926998492972392E-002   8.2122222807078839E-003
 -0.11344807976843609        3.4008149618863365E-002   7.8537746609428152E-003
 -0.11069656560704275        3.3688872684372644E-002   7.6675808036688461E-003
 -0.10794505144564935        3.2969167689499972E-002   7.6536407088859497E-003
 -0.10519353728425601        3.1849034634245460E-002   7.8119543765940496E-003
 -0.12332183720168191        3.5906840455788375E-002   1.4000138682722096E-003
 -0.12038330200319722        3.6411112025055953E-002   6.5835965917751538E-004
 -0.11744476680471251        3.6288428580398081E-002   1.1849376177476556E-004
 -0.11450623160622780        3.5538790121814497E-002  -2.1958382393643880E-004
 -0.11156769640774311        3.4162196649305476E-002  -3.5587309795598321E-004
  -8.4667924693637167E-002   2.4909548589065453E-002   3.0097093436085590E-002
  -8.2268319913055540E-002   2.4609714110475439E-002   2.9307402082030032E-002
  -7.9868715132473955E-002   2.4132561481437571E-002   2.8771215809359742E-002
  -7.7469110351892342E-002   2.3478090701951605E-002   2.8488534618074626E-002
  -7.5069505571310730E-002   2.2646301772017624E-002   2.8459358508174742E-002
  -9.1743651427203018E-002   2.7222710604125483E-002   2.3038437643614920E-002
  -8.9099795628210576E-002   2.6612366244797216E-002   2.2355243959451411E-002
  -8.6455939829218093E-002   2.5943131761597210E-002   2.1907047230724466E-002
  -8.3812084030225636E-002   2.5215007154525550E-002   2.1693847457434044E-002
  -8.1168228231233153E-002   2.4427992423582151E-002   2.1715644639580117E-002
  -9.8585522290742661E-002   2.9535872619185437E-002   1.5610057957117719E-002
  -9.5715923599288003E-002   2.8615018379118853E-002   1.5151789969422638E-002
  -9.2846324907833358E-002   2.7753702041756902E-002   1.4910010811215397E-002
  -8.9976726216378713E-002   2.6951923607099550E-002   1.4884720482496065E-002
  -8.7107127524924055E-002   2.6209683075146803E-002   1.5075918983264373E-002
 -0.10519353728425601        3.1849034634245460E-002   7.8119543765940496E-003
 -0.10211670382628789        3.0617670513440519E-002   7.6970401119436961E-003
  -9.9039870368319766E-002   2.9564272321916652E-002   7.7801065508325707E-003
  -9.5963036910351643E-002   2.8688840059673548E-002   8.0611536932601868E-003
  -9.2886203452383520E-002   2.7991373726711337E-002   8.5401815392273425E-003
 -0.11156769640774311        3.4162196649305476E-002  -3.5587309795598321E-004
 -0.10830213630921026        3.2620322647762268E-002  -9.0056129854187983E-006
 -0.10503657621067730        3.1374842602076278E-002   5.1733444957566266E-004
 -0.10177101611214437        3.0425756512247475E-002   1.2231470897271154E-003
  -9.8505456013611492E-002   2.9773064378275871E-002   2.1084323074689881E-003
  -7.5069505571310730E-002   2.2646301772017624E-002   2.8459358508174742E-002
  -7.2837526489517274E-002   2.1767128083531706E-002   2.8231005425230188E-002
  -7.0605547407723859E-002   2.0970503028389605E-002   2.8155314411097351E-002
  -6.8373568325930445E-002   2.0256426606591479E-002   2.8232285465776046E-002
  -6.6141589244136989E-002   1.9624898818137337E-002   2.8461918589266444E-002
  -8.1168228231233153E-002   2.4427992423582151E-002   2.1715644639580117E-002
  -7.8793055817914792E-002   2.3624146406953164E-002   2.1691534278502525E-002
  -7.6417883404596515E-002   2.2845527942824538E-002   2.1801148511662982E-002
  -7.4042710991278154E-002   2.2092137031196259E-002   2.2044487339061558E-002
  -7.1667538577959877E-002   2.1363973672068437E-002   2.2421550760698322E-002
  -8.7107127524924055E-002   2.6209683075146803E-002   1.5075918983264373E-002
  -8.4607699254654362E-002   2.5481164730374900E-002   1.5198730263210017E-002
  -8.2108270984384737E-002   2.4720552857259357E-002   1.5436328662820357E-002
  -7.9608842714115030E-002   2.3927847455801031E-002   1.5788714182095084E-002
  -7.7109414443845364E-002   2.3103048525999426E-002   1.6255886821034571E-002
  -9.2886203452383520E-002   2.7991373726711337E-002   8.5401815392273425E-003
  -9.0281456799736010E-002   2.7338183053796219E-002   8.7525933793525506E-003
  -8.7676710147088485E-002   2.6595577771694481E-002   9.0608548645690727E-003
  -8.5071963494441002E-002   2.5763557880405890E-002   9.4649659948766156E-003
  -8.2467216841793478E-002   2.4842123379930248E-002   9.9649267702753078E-003
  -9.8505456013611492E-002   2.9773064378275871E-002   2.1084323074689881E-003
  -9.5814328453159625E-002   2.9195201377217900E-002   2.3531236269304645E-003
  -9.3123200892707814E-002   2.8470602686129193E-002   2.6747271169097059E-003
  -9.0432073332255947E-002   2.7599268305010437E-002   3.0732427774060773E-003
  -8.7740945771804135E-002   2.6581198233861403E-002   3.5486706084203457E-003
  -6.6141589244136989E-002   1.9624898818137337E-002   2.8461918589266444E-002
  -6.3505857547388994E-002   1.9009667312800016E-002   2.7997258598034758E-002
  -6.0870125850641013E-002   1.8344479740352457E-002   2.7761382066240625E-002
  -5.8234394153893011E-002   1.7629336100794393E-002   2.7754288993883797E-002
  -5.5598662457145037E-002   1.6864236394126153E-002   2.7975979380964577E-002
  -7.1667538577959877E-002   2.1363973672068437E-002   2.2421550760698322E-002
  -6.8805338608513192E-002   2.0638243666465453E-002   2.2003490594385069E-002
  -6.5943138639066465E-002   1.9892152815412470E-002   2.1809583514031922E-002
  -6.3080938669619779E-002   1.9125701118909131E-002   2.1839829519638573E-002
  -6.0218738700173052E-002   1.8338888576955814E-002   2.2094228611205302E-002
  -7.7109414443845364E-002   2.3103048525999426E-002   1.6255886821034571E-002
  -7.4025376575177437E-002   2.2266820020130945E-002   1.5914021701299921E-002
  -7.0941338706509482E-002   2.1439825890472490E-002   1.5791679294047699E-002
  -6.7857300837841514E-002   2.0622066137023984E-002   1.5888859599277782E-002
  -6.4773262969173573E-002   1.9813540759785420E-002   1.6205562616990840E-002
  -8.2467216841793478E-002   2.4842123379930248E-002   9.9649267702753078E-003
  -7.9165971447381703E-002   2.3895396373796410E-002   9.7288519187791848E-003
  -7.5864726052969983E-002   2.2987498965532923E-002   9.7076694062881979E-003
  -7.2563480658558319E-002   2.2118431155138694E-002   9.9013792328019497E-003
  -6.9262235264146543E-002   2.1288192942614886E-002   1.0309981398321181E-002
  -8.7740945771804135E-002   2.6581198233861403E-002   3.5486706084203457E-003
  -8.4227123225126155E-002   2.5523972727461819E-002   3.4479812468231064E-003
  -8.0713300678448063E-002   2.4535172040592607E-002   3.5575538507534032E-003
  -7.7199478131770055E-002   2.3614796173253565E-002   3.8773884202109865E-003
  -7.3685655585091991E-002   2.2762845125444575E-002   4.4074849551963835E-003
  -5.5598662457145037E-002   1.6864236394126153E-002   2.7975979380964577E-002
  -5.3878547843642710E-002   1.6084397137150264E-002   2.7632122368947964E-002
  -5.2158433230140480E-002   1.5325034846669486E-002   2.7338291349316923E-002
  -5.0438318616638216E-002   1.4586149522683532E-002   2.7094486322071565E-002
  -4.8718204003135923E-002   1.3867741165192904E-002   2.6900707287212000E-002
  -6.0218738700173052E-002   1.8338888576955814E-002   2.2094228611205302E-002
  -5.8403926684898938E-002   1.7553899672095780E-002   2.1882837525668164E-002
  -5.6589114669624810E-002   1.6792918886872440E-002   2.1810815251289362E-002
  -5.4774302654350661E-002   1.6055946221286099E-002   2.1878161788068284E-002
  -5.2959490639076554E-002   1.5342981675336542E-002   2.2084877136005432E-002
  -6.4773262969173573E-002   1.9813540759785420E-002   1.6205562616990840E-002
  -6.2774410733355240E-002   1.9023402207041018E-002   1.6130168611075260E-002
  -6.0775558497536894E-002   1.8260802927075277E-002   1.6283486235090065E-002
  -5.8776706261718596E-002   1.7525742919888385E-002   1.6665515489035266E-002
  -5.6777854025900243E-002   1.6818222185480153E-002   1.7276256372910817E-002
  -6.9262235264146543E-002   2.1288192942614886E-002   1.0309981398321181E-002
  -6.6989999989011617E-002   2.0492904741986284E-002   1.0374115625168902E-002
  -6.4717764713876802E-002   1.9728686967278117E-002   1.0756304300719383E-002
  -6.2445529438741945E-002   1.8995539618490924E-002   1.1456547424972600E-002
  -6.0173294163607047E-002   1.8293462695623666E-002   1.2474844997928464E-002
  -7.3685655585091991E-002   2.2762845125444575E-002   4.4074849551963835E-003
  -7.1050694451868290E-002   2.1962407276931772E-002   4.6146785679493374E-003
  -6.8415733318644423E-002   2.1196571007480958E-002   5.2292694481770596E-003
  -6.5780772185420638E-002   2.0465336317093047E-002   6.2512575958802788E-003
  -6.3145811052196854E-002   1.9768703205767291E-002   7.6806430110581969E-003
  -4.8718204003135923E-002   1.3867741165192904E-002   2.6900707287212000E-002
  -4.5588236804312288E-002   1.3177182688800748E-002   2.6028566473775494E-002
  -4.2458269605488597E-002   1.2521847008109835E-002   2.5117735273988501E-002
  -3.9328302406664864E-002   1.1901734123120667E-002   2.4168213687850923E-002
  -3.6198335207841326E-002   1.1316844033833151E-002   2.3180001715362941E-002
  -5.2959490639076554E-002   1.5342981675336542E-002   2.2084877136005432E-002
  -4.9687787164532829E-002   1.4595571625994591E-002   2.1787248068396464E-002
  -4.6416083689989084E-002   1.3755262450231370E-002   2.1811781938578134E-002
  -4.3144380215445255E-002   1.2822054148046484E-002   2.2158478746550470E-002
  -3.9872676740901503E-002   1.1795946719440176E-002   2.2827338492313110E-002
  -5.6777854025900243E-002   1.6818222185480153E-002   1.7276256372910817E-002
  -5.3003560951495290E-002   1.6013960563188712E-002   1.7425017129006515E-002
  -4.9229267877090373E-002   1.4988677892352788E-002   1.8256794147033607E-002
  -4.5454974802685399E-002   1.3742374172972300E-002   1.9771587426992487E-002
  -4.1680681728280627E-002   1.2275049405047089E-002   2.1969396968883337E-002
  -6.0173294163607047E-002   1.8293462695623666E-002   1.2474844997928464E-002
  -5.5535558165199728E-002   1.7432349500383082E-002   1.2941873655605486E-002
  -5.0897822166792457E-002   1.6222093334474320E-002   1.4452771899354911E-002
  -4.6260086168385291E-002   1.4662694197898004E-002   1.7007539729177186E-002
  -4.1622350169977888E-002   1.2754152090653947E-002   2.0606177145073012E-002
  -6.3145811052196854E-002   1.9768703205767291E-002   7.6806430110581969E-003
  -5.7283778805646057E-002   1.8850738437576897E-002   8.3378176481933575E-003
  -5.1421746559095427E-002   1.7455508776595935E-002   1.0399715195542114E-002
  -4.5559714312544658E-002   1.5583014222824092E-002   1.3866335653105286E-002
  -3.9697682065994000E-002   1.3233254776261028E-002   1.8737679020881970E-002
 </DataArray>
 </PointData>
 </Piece>
 <Piece  NumberOfPoints="          1600 "  NumberOfCells="         1024 ">
 <Points>
 <DataArray  type="Float64" NumberOfComponents="3"  format="ascii" >
  0.50000000000000000        0.0000000000000000        0.0000000000000000     
  0.53125000000000000        0.0000000000000000        0.0000000000000000     
  0.56250000000000000        0.0000000000000000        0.0000000000000000     
  0.59375000000000000        0.0000000000000000        0.0000000000000000     
  0.62500000000000000        0.0000000000000000        0.0000000000000000     
  0.50000000000000000        3.1250000000000000E-002   0.0000000000000000     
  0.53125000000000000        3.1250000000000000E-002   0.0000000000000000     
  0.56250000000000000        3.1250000000000000E-002   0.0000000000000000     
  0.59375000000000000        3.1250000000000000E-002   0.0000000000000000     
  0.62500000000000000        3.1250000000000000E-002   0.0000000000000000     
  0.50000000000000000        6.2500000000000000E-002   0.0000000000000000     
  0.53125000000000000        6.2500000000000000E-002   0.0000000000000000     
  0.56250000000000000        6.2500000000000000E-002   0.0000000000000000     
  0.59375000000000000        6.2500000000000000E-002   0.0000000000000000     
  0.62500000000000000        6.2500000000000000E-002   0.0000000000000000     
  0.50000000000000000        9.3750000000000000E-002   0.0000000000000000     
  0.53125000000000000        9.3750000000000000E-002   0.0000000000000000     
  0.56250000000000000        9.3750000000000000E-002   0.0000000000000000     
  0.59375000000000000        9.3750000000000000E-002   0.0000000000000000     
  0.62500000000000000        9.3750000000000000E-002   0.0000000000000000     
  0.50000000000000000       0.12500000000000000        0.0000000000000000     
  0.53125000000000000       0.12500000000000000        0.0000000000000000     
  0.56250000000000000       0.12500000000000000        0.0000000000000000     
  0.59375000000000000       0.12500000000000000        0.0000000000000000     
  0.62500000000000000       0.12500000000000000        0.0000000000000000     
  0.62500000000000000        0.0000000000000000        0.0000000000000000     
  0.65625000000000000        0.0000000000000000        0.0000000000000000     
  0.68750000000000000        0.0000000000000000        0.0000000000000000     
  0.71875000000000000        0.0000000000000000        0.0000000000000000     
  0.75000000000000000        0.0000000000000000        0.0000000000000000     
  0.62500000000000000        3.1250000000000000E-002   0.0000000000000000     
  0.65625000000000000        3.1250000000000000E-002   0.0000000000000000     
  0.68750000000000000        3.1250000000000000E-002   0.0000000000000000     
  0.71875000000000000        3.1250000000000000E-002   0.0000000000000000     
  0.75000000000000000        3.1250000000000000E-002   0.0000000000000000     
  0.62500000000000000        6.2500000000000000E-002   0.0000000000000000     
  0.65625000000000000        6.2500000000000000E-002   0.0000000000000000     
  0.68750000000000000        6.2500000000000000E-002   0.0000000000000000     
  0.71875000000000000        6.2500000000000000E-002   0.0000000000000000     
  0.75000000000000000        6.2500000000000000E-002   0.0000000000000000     
  0.62500000000000000        9.3750000000000000E-002   0.0000000000000000     
  0.65625000000000000        9.3750000000000000E-002   0.0000000000000000     
  0.68750000000000000        9.3750000000000000E-002   0.0000000000000000     
  0.71875000000000000        9.3750000000000000E-002   0.0000000000000000     
  0.75000000000000000        9.3750000000000000E-002   0.0000000000000000     
  0.62500000000000000       0.12500000000000000        0.0000000000000000     
  0.65625000000000000       0.12500000000000000        0.0000000000000000     
  0.68750000000000000       0.12500000000000000        0.0000000000000000     
  0.71875000000000000       0.12500000000000000        0.0000000000000000     
  0.75000000000000000       0.12500000000000000        0.0000000000000000     
  0.75000000000000000        0.0000000000000000        0.0000000000000000     
  0.78125000000000000        0.0000000000000000        0.0000000000000000     
  0.81250000000000000        0.0000000000000000        0.0000000000000000     
  0.84375000000000000        0.0000000000000000        0.0000000000000000     
  0.87500000000000000        0.0000000000000000        0.0000000000000000     
  0.75000000000000000        3.1250000000000000E-002   0.0000000000000000     
  0.78125000000000000        3.1250000000000000E-002   0.0000000000000000     
  0.81250000000000000        3.1250000000000000E-002   0.0000000000000000     
  0.84375000000000000        3.1250000000000000E-002   0.0000000000000000     
  0.87500000000000000        3.1250000000000000E-002   0.0000000000000000     
  0.75000000000000000        6.2500000000000000E-002   0.0000000000000000     
  0.78125000000000000        6.2500000000000000E-002   0.0000000000000000     
  0.81250000000000000        6.2500000000000000E-002   0.0000000000000000     
  0.84375000000000000        6.2500000000000000E-002   0.0000000000000000     
  0.87500000000000000        6.2500000000000000E-002   0.0000000000000000     
  0.75000000000000000        9.3750000000000000E-002   0.0000000000000000     
  0.78125000000000000        9.3750000000000000E-002   0.0000000000000000     
  0.81250000000000000        9.3750000000000000E-002   0.0000000000000000     
  0.84375000000000000        9.3750000000000000E-002   0.0000000000000000     
  0.87500000000000000        9.3750000000000000E-002   0.0000000000000000     
  0.75000000000000000       0.12500000000000000        0.0000000000000000     
  0.78125000000000000       0.12500000000000000        0.0000000000000000     
  0.81250000000000000       0.12500000000000000        0.0000000000000000     
  0.84375000000000000       0.12500000000000000        0.0000000000000000     
  0.87500000000000000       0.12500000000000000        0.0000000000000000     
  0.87500000000000000        0.0000000000000000        0.0000000000000000     
  0.90625000000000000        0.0000000000000000        0.0000000000000000     
  0.93750000000000000        0.0000000000000000        0.0000000000000000     
  0.96875000000000000        0.0000000000000000        0.0000000000000000     
   1.0000000000000000        0.0000000000000000        0.0000000000000000     
  0.87500000000000000        3.1250000000000000E-002   0.0000000000000000     
  0.90625000000000000        3.1250000000000000E-002   0.0000000000000000     
  0.93750000000000000        3.1250000000000000E-002   0.0000000000000000     
  0.96875000000000000        3.1250000000000000E-002   0.0000000000000000     
   1.0000000000000000        3.1250000000000000E-002   0.0000000000000000     
  0.87500000000000000        6.2500000000000000E-002   0.0000000000000000     
  0.90625000000000000        6.2500000000000000E-002   0.0000000000000000     
  0.93750000000000000        6.2500000000000000E-002   0.0000000000000000     
  0.96875000000000000        6.2500000000000000E-002   0.0000000000000000     
   1.0000000000000000        6.2500000000000000E-002   0.0000000000000000     
  0.87500000000000000        9.3750000000000000E-002   0.0000000000000000     
  0.90625000000000000        9.3750000000000000E-002   0.0000000000000000     
  0.93750000000000000        9.3750000000000000E-002   0.0000000000000000     
  0.96875000000000000        9.3750000000000000E-002   0.0000000000000000     
   1.0000000000000000        9.3750000000000000E-002   0.0000000000000000     
  0.87500000000000000       0.12500000000000000        0.0000000000000000     
  0.90625000000000000       0.12500000000000000        0.0000000000000000     
  0.93750000000000000       0.12500000000000000        0.0000000000000000     
  0.96875000000000000       0.12500000000000000        0.0000000000000000     
   1.0000000000000000       0.12500000000000000        0.0000000000000000     
   1.0000000000000000        0.0000000000000000        0.0000000000000000     
   1.0312500000000000        0.0000000000000000        0.0000000000000000     
   1.0625000000000000        0.0000000000000000        0.0000000000000000     
   1.0937500000000000        0.0000000000000000        0.0000000000000000     
   1.1250000000000000        0.0000000000000000        0.0000000000000000     
   1.0000000000000000        3.1250000000000000E-002   0.0000000000000000     
   1.0312500000000000        3.1250000000000000E-002   0.0000000000000000     
   1.0625000000000000        3.1250000000000000E-002   0.0000000000000000     
   1.0937500000000000        3.1250000000000000E-002   0.0000000000000000     
   1.1250000000000000        3.1250000000000000E-002   0.0000000000000000     
   1.0000000000000000        6.2500000000000000E-002   0.0000000000000000     
   1.0312500000000000        6.2500000000000000E-002   0.0000000000000000     
   1.0625000000000000        6.2500000000000000E-002   0.0000000000000000     
   1.0937500000000000        6.2500000000000000E-002   0.0000000000000000     
   1.1250000000000000        6.2500000000000000E-002   0.0000000000000000     
   1.0000000000000000        9.3750000000000000E-002   0.0000000000000000     
   1.0312500000000000        9.3750000000000000E-002   0.0000000000000000     
   1.0625000000000000        9.3750000000000000E-002   0.0000000000000000     
   1.0937500000000000        9.3750000000000000E-002   0.0000000000000000     
   1.1250000000000000        9.3750000000000000E-002   0.0000000000000000     
   1.0000000000000000       0.12500000000000000        0.0000000000000000     
   1.0312500000000000       0.12500000000000000        0.0000000000000000     
   1.0625000000000000       0.12500000000000000        0.0000000000000000     
   1.0937500000000000       0.12500000000000000        0.0000000000000000     
   1.1250000000000000       0.12500000000000000        0.0000000000000000     
   1.1250000000000000        0.0000000000000000        0.0000000000000000     
   1.1562500000000000        0.0000000000000000        0.0000000000000000     
   1.1875000000000000        0.0000000000000000        0.0000000000000000     
   1.2187500000000000        0.0000000000000000        0.0000000000000000     
   1.2500000000000000        0.0000000000000000        0.0000000000000000     
   1.1250000000000000        3.1250000000000000E-002   0.0000000000000000     
   1.1562500000000000        3.1250000000000000E-002   0.0000000000000000     
   1.1875000000000000        3.1250000000000000E-002   0.0000000000000000     
   1.2187500000000000        3.1250000000000000E-002   0.0000000000000000     
   1.2500000000000000        3.1250000000000000E-002   0.0000000000000000     
   1.1250000000000000        6.2500000000000000E-002   0.0000000000000000     
   1.1562500000000000        6.2500000000000000E-002   0.0000000000000000     
   1.1875000000000000        6.2500000000000000E-002   0.0000000000000000     
   1.2187500000000000        6.2500000000000000E-002   0.0000000000000000     
   1.2500000000000000        6.2500000000000000E-002   0.0000000000000000     
   1.1250000000000000        9.3750000000000000E-002   0.0000000000000000     
   1.1562500000000000        9.3750000000000000E-002   0.0000000000000000     
   1.1875000000000000        9.3750000000000000E-002   0.0000000000000000     
   1.2187500000000000        9.3750000000000000E-002   0.0000000000000000     
   1.2500000000000000        9.3750000000000000E-002   0.0000000000000000     
   1.1250000000000000       0.12500000000000000        0.0000000000000000     
   1.1562500000000000       0.12500000000000000        0.0000000000000000     
   1.1875000000000000       0.12500000000000000        0.0000000000000000     
   1.2187500000000000       0.12500000000000000        0.0000000000000000     
   1.2500000000000000       0.12500000000000000        0.0000000000000000     
   1.2500000000000000        0.0000000000000000        0.0000000000000000     
   1.2812500000000000        0.0000000000000000        0.0000000000000000     
   1.3125000000000000        0.0000000000000000        0.0000000000000000     
   1.3437500000000000        0.0000000000000000        0.0000000000000000     
   1.3750000000000000        0.0000000000000000        0.0000000000000000     
   1.2500000000000000        3.1250000000000000E-002   0.0000000000000000     
   1.2812500000000000        3.1250000000000000E-002   0.0000000000000000     
   1.3125000000000000        3.1250000000000000E-002   0.0000000000000000     
   1.3437500000000000        3.1250000000000000E-002   0.0000000000000000     
   1.3750000000000000        3.1250000000000000E-002   0.0000000000000000     
   1.2500000000000000        6.2500000000000000E-002   0.0000000000000000     
   1.2812500000000000        6.2500000000000000E-002   0.0000000000000000     
   1.3125000000000000        6.2500000000000000E-002   0.0000000000000000     
   1.3437500000000000        6.2500000000000000E-002   0.0000000000000000     
   1.3750000000000000        6.2500000000000000E-002   0.0000000000000000     
   1.2500000000000000        9.3750000000000000E-002   0.0000000000000000     
   1.2812500000000000        9.3750000000000000E-002   0.0000000000000000     
   1.3125000000000000        9.3750000000000000E-002   0.0000000000000000     
   1.3437500000000000        9.3750000000000000E-002   0.0000000000000000     
   1.3750000000000000        9.3750000000000000E-002   0.0000000000000000     
   1.2500000000000000       0.12500000000000000        0.0000000000000000     
   1.2812500000000000       0.12500000000000000        0.0000000000000000     
   1.3125000000000000       0.12500000000000000        0.0000000000000000     
   1.3437500000000000       0.12500000000000000        0.0000000000000000     
   1.3750000000000000       0.12500000000000000        0.0000000000000000     
   1.3750000000000000        0.0000000000000000        0.0000000000000000     
   1.4062500000000000        0.0000000000000000        0.0000000000000000     
   1.4375000000000000        0.0000000000000000        0.0000000000000000     
   1.4687500000000000        0.0000000000000000        0.0000000000000000     
   1.5000000000000000        0.0000000000000000        0.0000000000000000     
   1.3750000000000000        3.1250000000000000E-002   0.0000000000000000     
   1.4062500000000000        3.1250000000000000E-002   0.0000000000000000     
   1.4375000000000000        3.1250000000000000E-002   0.0000000000000000     
   1.4687500000000000        3.1250000000000000E-002   0.0000000000000000     
   1.5000000000000000        3.1250000000000000E-002   0.0000000000000000     
   1.3750000000000000        6.2500000000000000E-002   0.0000000000000000     
   1.4062500000000000        6.2500000000000000E-002   0.0000000000000000     
   1.4375000000000000        6.2500000000000000E-002   0.0000000000000000     
   1.4687500000000000        6.2500000000000000E-002   0.0000000000000000     
   1.5000000000000000        6.2500000000000000E-002   0.0000000000000000     
   1.3750000000000000        9.3750000000000000E-002   0.0000000000000000     
   1.4062500000000000        9.3750000000000000E-002   0.0000000000000000     
   1.4375000000000000        9.3750000000000000E-002   0.0000000000000000     
   1.4687500000000000        9.3750000000000000E-002   0.0000000000000000     
   1.5000000000000000        9.3750000000000000E-002   0.0000000000000000     
   1.3750000000000000       0.12500000000000000        0.0000000000000000     
   1.4062500000000000       0.12500000000000000        0.0000000000000000     
   1.4375000000000000       0.12500000000000000        0.0000000000000000     
   1.4687500000000000       0.12500000000000000        0.0000000000000000     
   1.5000000000000000       0.12500000000000000        0.0000000000000000     
  0.50000000000000000       0.12500000000000000        0.0000000000000000     
  0.53125000000000000       0.12500000000000000        0.0000000000000000     
  0.56250000000000000       0.12500000000000000        0.0000000000000000     
  0.59375000000000000       0.12500000000000000        0.0000000000000000     
  0.62500000000000000       0.12500000000000000        0.0000000000000000     
  0.50000000000000000       0.15625000000000000        0.0000000000000000     
  0.53125000000000000       0.15625000000000000        0.0000000000000000     
  0.56250000000000000       0.15625000000000000        0.0000000000000000     
  0.59375000000000000       0.15625000000000000        0.0000000000000000     
  0.62500000000000000       0.15625000000000000        0.0000000000000000     
  0.50000000000000000       0.18750000000000000        0.0000000000000000     
  0.53125000000000000       0.18750000000000000        0.0000000000000000     
  0.56250000000000000       0.18750000000000000        0.0000000000000000     
  0.59375000000000000       0.18750000000000000        0.0000000000000000     
  0.62500000000000000       0.18750000000000000        0.0000000000000000     
  0.50000000000000000       0.21875000000000000        0.0000000000000000     
  0.53125000000000000       0.21875000000000000        0.0000000000000000     
  0.56250000000000000       0.21875000000000000        0.0000000000000000     
  0.59375000000000000       0.21875000000000000        0.0000000000000000     
  0.62500000000000000       0.21875000000000000        0.0000000000000000     
  0.50000000000000000       0.25000000000000000        0.0000000000000000     
  0.53125000000000000       0.25000000000000000        0.0000000000000000     
  0.56250000000000000       0.25000000000000000        0.0000000000000000     
  0.59375000000000000       0.25000000000000000        0.0000000000000000     
  0.62500000000000000       0.25000000000000000        0.0000000000000000     
  0.62500000000000000       0.12500000000000000        0.0000000000000000     
  0.65625000000000000       0.12500000000000000        0.0000000000000000     
  0.68750000000000000       0.12500000000000000        0.0000000000000000     
  0.71875000000000000       0.12500000000000000        0.0000000000000000     
  0.75000000000000000       0.12500000000000000        0.0000000000000000     
  0.62500000000000000       0.15625000000000000        0.0000000000000000     
  0.65625000000000000       0.15625000000000000        0.0000000000000000     
  0.68750000000000000       0.15625000000000000        0.0000000000000000     
  0.71875000000000000       0.15625000000000000        0.0000000000000000     
  0.75000000000000000       0.15625000000000000        0.0000000000000000     
  0.62500000000000000       0.18750000000000000        0.0000000000000000     
  0.65625000000000000       0.18750000000000000        0.0000000000000000     
  0.68750000000000000       0.18750000000000000        0.0000000000000000     
  0.71875000000000000       0.18750000000000000        0.0000000000000000     
  0.75000000000000000       0.18750000000000000        0.0000000000000000     
  0.62500000000000000       0.21875000000000000        0.0000000000000000     
  0.65625000000000000       0.21875000000000000        0.0000000000000000     
  0.68750000000000000       0.21875000000000000        0.0000000000000000     
  0.71875000000000000       0.21875000000000000        0.0000000000000000     
  0.75000000000000000       0.21875000000000000        0.0000000000000000     
  0.62500000000000000       0.25000000000000000        0.0000000000000000     
  0.65625000000000000       0.25000000000000000        0.0000000000000000     
  0.68750000000000000       0.25000000000000000        0.0000000000000000     
  0.71875000000000000       0.25000000000000000        0.0000000000000000     
  0.75000000000000000       0.25000000000000000        0.0000000000000000     
  0.75000000000000000       0.12500000000000000        0.0000000000000000     
  0.78125000000000000       0.12500000000000000        0.0000000000000000     
  0.81250000000000000       0.12500000000000000        0.0000000000000000     
  0.84375000000000000       0.12500000000000000        0.0000000000000000     
  0.87500000000000000       0.12500000000000000        0.0000000000000000     
  0.75000000000000000       0.15625000000000000        0.0000000000000000     
  0.78125000000000000       0.15625000000000000        0.0000000000000000     
  0.81250000000000000       0.15625000000000000        0.0000000000000000     
  0.84375000000000000       0.15625000000000000        0.0000000000000000     
  0.87500000000000000       0.15625000000000000        0.0000000000000000     
  0.75000000000000000       0.18750000000000000        0.0000000000000000     
  0.78125000000000000       0.18750000000000000        0.0000000000000000     
  0.81250000000000000       0.18750000000000000        0.0000000000000000     
  0.84375000000000000       0.18750000000000000        0.0000000000000000     
  0.87500000000000000       0.18750000000000000        0.0000000000000000     
  0.75000000000000000       0.21875000000000000        0.0000000000000000     
  0.78125000000000000       0.21875000000000000        0.0000000000000000     
  0.81250000000000000       0.21875000000000000        0.0000000000000000     
  0.84375000000000000       0.21875000000000000        0.0000000000000000     
  0.87500000000000000       0.21875000000000000        0.0000000000000000     
  0.75000000000000000       0.25000000000000000        0.0000000000000000     
  0.78125000000000000       0.25000000000000000        0.0000000000000000     
  0.81250000000000000       0.25000000000000000        0.0000000000000000     
  0.84375000000000000       0.25000000000000000        0.0000000000000000     
  0.87500000000000000       0.25000000000000000        0.0000000000000000     
  0.87500000000000000       0.12500000000000000        0.0000000000000000     
  0.90625000000000000       0.12500000000000000        0.0000000000000000     
  0.93750000000000000       0.12500000000000000        0.0000000000000000     
  0.96875000000000000       0.12500000000000000        0.0000000000000000     
   1.0000000000000000       0.12500000000000000        0.0000000000000000     
  0.87500000000000000       0.15625000000000000        0.0000000000000000     
  0.90625000000000000       0.15625000000000000        0.0000000000000000     
  0.93750000000000000       0.15625000000000000        0.0000000000000000     
  0.96875000000000000       0.15625000000000000        0.0000000000000000     
   1.0000000000000000       0.15625000000000000        0.0000000000000000     
  0.87500000000000000       0.18750000000000000        0.0000000000000000     
  0.90625000000000000       0.18750000000000000        0.0000000000000000     
  0.93750000000000000       0.18750000000000000        0.0000000000000000     
  0.96875000000000000       0.18750000000000000        0.0000000000000000     
   1.0000000000000000       0.18750000000000000        0.0000000000000000     
  0.87500000000000000       0.21875000000000000        0.0000000000000000     
  0.90625000000000000       0.21875000000000000        0.0000000000000000     
  0.93750000000000000       0.21875000000000000        0.0000000000000000     
  0.96875000000000000       0.21875000000000000        0.0000000000000000     
   1.0000000000000000       0.21875000000000000        0.0000000000000000     
  0.87500000000000000       0.25000000000000000        0.0000000000000000     
  0.90625000000000000       0.25000000000000000        0.0000000000000000     
  0.93750000000000000       0.25000000000000000        0.0000000000000000     
  0.96875000000000000       0.25000000000000000        0.0000000000000000     
   1.0000000000000000       0.25000000000000000        0.0000000000000000     
   1.0000000000000000       0.12500000000000000        0.0000000000000000     
   1.0312500000000000       0.12500000000000000        0.0000000000000000     
   1.0625000000000000       0.12500000000000000        0.0000000000000000     
   1.0937500000000000       0.12500000000000000        0.0000000000000000     
   1.1250000000000000       0.12500000000000000        0.0000000000000000     
   1.0000000000000000       0.15625000000000000        0.0000000000000000     
   1.0312500000000000       0.15625000000000000        0.0000000000000000     
   1.0625000000000000       0.15625000000000000        0.0000000000000000     
   1.0937500000000000       0.15625000000000000        0.0000000000000000     
   1.1250000000000000       0.15625000000000000        0.0000000000000000     
   1.0000000000000000       0.18750000000000000        0.0000000000000000     
   1.0312500000000000       0.18750000000000000        0.0000000000000000     
   1.0625000000000000       0.18750000000000000        0.0000000000000000     
   1.0937500000000000       0.18750000000000000        0.0000000000000000     
   1.1250000000000000       0.18750000000000000        0.0000000000000000     
   1.0000000000000000       0.21875000000000000        0.0000000000000000     
   1.0312500000000000       0.21875000000000000        0.0000000000000000     
   1.0625000000000000       0.21875000000000000        0.0000000000000000     
   1.0937500000000000       0.21875000000000000        0.0000000000000000     
   1.1250000000000000       0.21875000000000000        0.0000000000000000     
   1.0000000000000000       0.25000000000000000        0.0000000000000000     
   1.0312500000000000       0.25000000000000000        0.0000000000000000     
   1.0625000000000000       0.25000000000000000        0.0000000000000000     
   1.0937500000000000       0.25000000000000000        0.0000000000000000     
   1.1250000000000000       0.25000000000000000        0.0000000000000000     
   1.1250000000000000       0.12500000000000000        0.0000000000000000     
   1.1562500000000000       0.12500000000000000        0.0000000000000000     
   1.1875000000000000       0.12500000000000000        0.0000000000000000     
   1.2187500000000000       0.12500000000000000        0.0000000000000000     
   1.2500000000000000       0.12500000000000000        0.0000000000000000     
   1.1250000000000000       0.15625000000000000        0.0000000000000000     
   1.1562500000000000       0.15625000000000000        0.0000000000000000     
   1.1875000000000000       0.15625000000000000        0.0000000000000000     
   1.2187500000000000       0.15625000000000000        0.0000000000000000     
   1.2500000000000000       0.15625000000000000        0.0000000000000000     
   1.1250000000000000       0.18750000000000000        0.0000000000000000     
   1.1562500000000000       0.18750000000000000        0.0000000000000000     
   1.1875000000000000       0.18750000000000000        0.0000000000000000     
   1.2187500000000000       0.18750000000000000        0.0000000000000000     
   1.2500000000000000       0.18750000000000000        0.0000000000000000     
   1.1250000000000000       0.21875000000000000        0.0000000000000000     
   1.1562500000000000       0.21875000000000000        0.0000000000000000     
   1.1875000000000000       0.21875000000000000        0.0000000000000000     
   1.2187500000000000       0.21875000000000000        0.0000000000000000     
   1.2500000000000000       0.21875000000000000        0.0000000000000000     
   1.1250000000000000       0.25000000000000000        0.0000000000000000     
   1.1562500000000000       0.25000000000000000        0.0000000000000000     
   1.1875000000000000       0.25000000000000000        0.0000000000000000     
   1.2187500000000000       0.25000000000000000        0.0000000000000000     
   1.2500000000000000       0.25000000000000000        0.0000000000000000     
   1.2500000000000000       0.12500000000000000        0.0000000000000000     
   1.2812500000000000       0.12500000000000000        0.0000000000000000     
   1.3125000000000000       0.12500000000000000        0.0000000000000000     
   1.3437500000000000       0.12500000000000000        0.0000000000000000     
   1.3750000000000000       0.12500000000000000        0.0000000000000000     
   1.2500000000000000       0.15625000000000000        0.0000000000000000     
   1.2812500000000000       0.15625000000000000        0.0000000000000000     
   1.3125000000000000       0.15625000000000000        0.0000000000000000     
   1.3437500000000000       0.15625000000000000        0.0000000000000000     
   1.3750000000000000       0.15625000000000000        0.0000000000000000     
   1.2500000000000000       0.18750000000000000        0.0000000000000000     
   1.2812500000000000       0.18750000000000000        0.0000000000000000     
   1.3125000000000000       0.18750000000000000        0.0000000000000000     
   1.3437500000000000       0.18750000000000000        0.0000000000000000     
   1.3750000000000000       0.18750000000000000        0.0000000000000000     
   1.2500000000000000       0.21875000000000000        0.0000000000000000     
   1.2812500000000000       0.21875000000000000        0.0000000000000000     
   1.3125000000000000       0.21875000000000000        0.0000000000000000     
   1.3437500000000000       0.21875000000000000        0.0000000000000000     
   1.3750000000000000       0.21875000000000000        0.0000000000000000     
   1.2500000000000000       0.25000000000000000        0.0000000000000000     
   1.2812500000000000       0.25000000000000000        0.0000000000000000     
   1.3125000000000000       0.25000000000000000        0.0000000000000000     
   1.3437500000000000       0.25000000000000000        0.0000000000000000     
   1.3750000000000000       0.25000000000000000        0.0000000000000000     
   1.3750000000000000       0.12500000000000000        0.0000000000000000     
   1.4062500000000000       0.12500000000000000        0.0000000000000000     
   1.4375000000000000       0.12500000000000000        0.0000000000000000     
   1.4687500000000000       0.12500000000000000        0.0000000000000000     
   1.5000000000000000       0.12500000000000000        0.0000000000000000     
   1.3750000000000000       0.15625000000000000        0.0000000000000000     
   1.4062500000000000       0.15625000000000000        0.0000000000000000     
   1.4375000000000000       0.15625000000000000        0.0000000000000000     
   1.4687500000000000       0.15625000000000000        0.0000000000000000     
   1.5000000000000000       0.15625000000000000        0.0000000000000000     
   1.3750000000000000       0.18750000000000000        0.0000000000000000     
   1.4062500000000000       0.18750000000000000        0.0000000000000000     
   1.4375000000000000       0.18750000000000000        0.0000000000000000     
   1.4687500000000000       0.18750000000000000        0.0000000000000000     
   1.5000000000000000       0.18750000000000000        0.0000000000000000     
   1.3750000000000000       0.21875000000000000        0.0000000000000000     
   1.4062500000000000       0.21875000000000000        0.0000000000000000     
   1.4375000000000000       0.21875000000000000        0.0000000000000000     
   1.4687500000000000       0.21875000000000000        0.0000000000000000     
   1.5000000000000000       0.21875000000000000        0.0000000000000000     
   1.3750000000000000       0.25000000000000000        0.0000000000000000     
   1.4062500000000000       0.25000000000000000        0.0000000000000000     
   1.4375000000000000       0.25000000000000000        0.0000000000000000     
   1.4687500000000000       0.25000000000000000        0.0000000000000000     
   1.5000000000000000       0.25000000000000000        0.0000000000000000     
  0.50000000000000000       0.25000000000000000        0.0000000000000000     
  0.53125000000000000       0.25000000000000000        0.0000000000000000     
  0.56250000000000000       0.25000000000000000        0.0000000000000000     
  0.59375000000000000       0.25000000000000000        0.0000000000000000     
  0.62500000000000000       0.25000000000000000        0.0000000000000000     
  0.50000000000000000       0.28125000000000000        0.0000000000000000     
  0.53125000000000000       0.28125000000000000        0.0000000000000000     
  0.56250000000000000       0.28125000000000000        0.0000000000000000     
  0.59375000000000000       0.28125000000000000        0.0000000000000000     
  0.62500000000000000       0.28125000000000000        0.0000000000000000     
  0.50000000000000000       0.31250000000000000        0.0000000000000000     
  0.53125000000000000       0.31250000000000000        0.0000000000000000     
  0.56250000000000000       0.31250000000000000        0.0000000000000000     
  0.59375000000000000       0.31250000000000000        0.0000000000000000     
  0.62500000000000000       0.31250000000000000        0.0000000000000000     
  0.50000000000000000       0.34375000000000000        0.0000000000000000     
  0.53125000000000000       0.34375000000000000        0.0000000000000000     
  0.56250000000000000       0.34375000000000000        0.0000000000000000     
  0.59375000000000000       0.34375000000000000        0.0000000000000000     
  0.62500000000000000       0.34375000000000000        0.0000000000000000     
  0.50000000000000000       0.37500000000000000        0.0000000000000000     
  0.53125000000000000       0.37500000000000000        0.0000000000000000     
  0.56250000000000000       0.37500000000000000        0.0000000000000000     
  0.59375000000000000       0.37500000000000000        0.0000000000000000     
  0.62500000000000000       0.37500000000000000        0.0000000000000000     
  0.62500000000000000       0.25000000000000000        0.0000000000000000     
  0.65625000000000000       0.25000000000000000        0.0000000000000000     
  0.68750000000000000       0.25000000000000000        0.0000000000000000     
  0.71875000000000000       0.25000000000000000        0.0000000000000000     
  0.75000000000000000       0.25000000000000000        0.0000000000000000     
  0.62500000000000000       0.28125000000000000        0.0000000000000000     
  0.65625000000000000       0.28125000000000000        0.0000000000000000     
  0.68750000000000000       0.28125000000000000        0.0000000000000000     
  0.71875000000000000       0.28125000000000000        0.0000000000000000     
  0.75000000000000000       0.28125000000000000        0.0000000000000000     
  0.62500000000000000       0.31250000000000000        0.0000000000000000     
  0.65625000000000000       0.31250000000000000        0.0000000000000000     
  0.68750000000000000       0.31250000000000000        0.0000000000000000     
  0.71875000000000000       0.31250000000000000        0.0000000000000000     
  0.75000000000000000       0.31250000000000000        0.0000000000000000     
  0.62500000000000000       0.34375000000000000        0.0000000000000000     
  0.65625000000000000       0.34375000000000000        0.0000000000000000     
  0.68750000000000000       0.34375000000000000        0.0000000000000000     
  0.71875000000000000       0.34375000000000000        0.0000000000000000     
  0.75000000000000000       0.34375000000000000        0.0000000000000000     
  0.62500000000000000       0.37500000000000000        0.0000000000000000     
  0.65625000000000000       0.37500000000000000        0.0000000000000000     
  0.68750000000000000       0.37500000000000000        0.0000000000000000     
  0.71875000000000000       0.37500000000000000        0.0000000000000000     
  0.75000000000000000       0.37500000000000000        0.0000000000000000     
  0.75000000000000000       0.25000000000000000        0.0000000000000000     
  0.78125000000000000       0.25000000000000000        0.0000000000000000     
  0.81250000000000000       0.25000000000000000        0.0000000000000000     
  0.84375000000000000       0.25000000000000000        0.0000000000000000     
  0.87500000000000000       0.25000000000000000        0.0000000000000000     
  0.75000000000000000       0.28125000000000000        0.0000000000000000     
  0.78125000000000000       0.28125000000000000        0.0000000000000000     
  0.81250000000000000       0.28125000000000000        0.0000000000000000     
  0.84375000000000000       0.28125000000000000        0.0000000000000000     
  0.87500000000000000       0.28125000000000000        0.0000000000000000     
  0.75000000000000000       0.31250000000000000        0.0000000000000000     
  0.78125000000000000       0.31250000000000000        0.0000000000000000     
  0.81250000000000000       0.31250000000000000        0.0000000000000000     
  0.84375000000000000       0.31250000000000000        0.0000000000000000     
  0.87500000000000000       0.31250000000000000        0.0000000000000000     
  0.75000000000000000       0.34375000000000000        0.0000000000000000     
  0.78125000000000000       0.34375000000000000        0.0000000000000000     
  0.81250000000000000       0.34375000000000000        0.0000000000000000     
  0.84375000000000000       0.34375000000000000        0.0000000000000000     
  0.87500000000000000       0.34375000000000000        0.0000000000000000     
  0.75000000000000000       0.37500000000000000        0.0000000000000000     
  0.78125000000000000       0.37500000000000000        0.0000000000000000     
  0.81250000000000000       0.37500000000000000        0.0000000000000000     
  0.84375000000000000       0.37500000000000000        0.0000000000000000     
  0.87500000000000000       0.37500000000000000        0.0000000000000000     
  0.87500000000000000       0.25000000000000000        0.0000000000000000     
  0.90625000000000000       0.25000000000000000        0.0000000000000000     
  0.93750000000000000       0.25000000000000000        0.0000000000000000     
  0.96875000000000000       0.25000000000000000        0.0000000000000000     
   1.0000000000000000       0.25000000000000000        0.0000000000000000     
  0.87500000000000000       0.28125000000000000        0.0000000000000000     
  0.90625000000000000       0.28125000000000000        0.0000000000000000     
  0.93750000000000000       0.28125000000000000        0.0000000000000000     
  0.96875000000000000       0.28125000000000000        0.0000000000000000     
   1.0000000000000000       0.28125000000000000        0.0000000000000000     
  0.87500000000000000       0.31250000000000000        0.0000000000000000     
  0.90625000000000000       0.31250000000000000        0.0000000000000000     
  0.93750000000000000       0.31250000000000000        0.0000000000000000     
  0.96875000000000000       0.31250000000000000        0.0000000000000000     
   1.0000000000000000       0.31250000000000000        0.0000000000000000     
  0.87500000000000000       0.34375000000000000        0.0000000000000000     
  0.90625000000000000       0.34375000000000000        0.0000000000000000     
  0.93750000000000000       0.34375000000000000        0.0000000000000000     
  0.96875000000000000       0.34375000000000000        0.0000000000000000     
   1.0000000000000000       0.34375000000000000        0.0000000000000000     
  0.87500000000000000       0.37500000000000000        0.0000000000000000     
  0.90625000000000000       0.37500000000000000        0.0000000000000000     
  0.93750000000000000       0.37500000000000000        0.0000000000000000     
  0.96875000000000000       0.37500000000000000        0.0000000000000000     
   1.0000000000000000       0.37500000000000000        0.0000000000000000     
   1.0000000000000000       0.25000000000000000        0.0000000000000000     
   1.0312500000000000       0.25000000000000000        0.0000000000000000     
   1.0625000000000000       0.25000000000000000        0.0000000000000000     
   1.0937500000000000       0.25000000000000000        0.0000000000000000     
   1.1250000000000000       0.25000000000000000        0.0000000000000000     
   1.0000000000000000       0.28125000000000000        0.0000000000000000     
   1.0312500000000000       0.28125000000000000        0.0000000000000000     
   1.0625000000000000       0.28125000000000000        0.0000000000000000     
   1.0937500000000000       0.28125000000000000        0.0000000000000000     
   1.1250000000000000       0.28125000000000000        0.0000000000000000     
   1.0000000000000000       0.31250000000000000        0.0000000000000000     
   1.0312500000000000       0.31250000000000000        0.0000000000000000     
   1.0625000000000000       0.31250000000000000        0.0000000000000000     
   1.0937500000000000       0.31250000000000000        0.0000000000000000     
   1.1250000000000000       0.31250000000000000        0.0000000000000000     
   1.0000000000000000       0.34375000000000000        0.0000000000000000     
   1.0312500000000000       0.34375000000000000        0.0000000000000000     
   1.0625000000000000       0.34375000000000000        0.0000000000000000     
   1.0937500000000000       0.34375000000000000        0.0000000000000000     
   1.1250000000000000       0.34375000000000000        0.0000000000000000     
   1.0000000000000000       0.37500000000000000        0.0000000000000000     
   1.0312500000000000       0.37500000000000000        0.0000000000000000     
   1.0625000000000000       0.37500000000000000        0.0000000000000000     
   1.0937500000000000       0.37500000000000000        0.0000000000000000     
   1.1250000000000000       0.37500000000000000        0.0000000000000000     
   1.1250000000000000       0.25000000000000000        0.0000000000000000     
   1.1562500000000000       0.25000000000000000        0.0000000000000000     
   1.1875000000000000       0.25000000000000000        0.0000000000000000     
   1.2187500000000000       0.25000000000000000        0.0000000000000000     
   1.2500000000000000       0.25000000000000000        0.0000000000000000     
   1.1250000000000000       0.28125000000000000        0.0000000000000000     
   1.1562500000000000       0.28125000000000000        0.0000000000000000     
   1.1875000000000000       0.28125000000000000        0.0000000000000000     
   1.2187500000000000       0.28125000000000000        0.0000000000000000     
   1.2500000000000000       0.28125000000000000        0.0000000000000000     
   1.1250000000000000       0.31250000000000000        0.0000000000000000     
   1.1562500000000000       0.31250000000000000        0.0000000000000000     
   1.1875000000000000       0.31250000000000000        0.0000000000000000     
   1.2187500000000000       0.31250000000000000        0.0000000000000000     
   1.2500000000000000       0.31250000000000000        0.0000000000000000     
   1.1250000000000000       0.34375000000000000        0.0000000000000000     
   1.1562500000000000       0.34375000000000000        0.0000000000000000     
   1.1875000000000000       0.34375000000000000        0.0000000000000000     
   1.2187500000000000       0.34375000000000000        0.0000000000000000     
   1.2500000000000000       0.34375000000000000        0.0000000000000000     
   1.1250000000000000       0.37500000000000000        0.0000000000000000     
   1.1562500000000000       0.37500000000000000        0.0000000000000000     
   1.1875000000000000       0.37500000000000000        0.0000000000000000     
   1.2187500000000000       0.37500000000000000        0.0000000000000000     
   1.2500000000000000       0.37500000000000000        0.0000000000000000     
   1.2500000000000000       0.25000000000000000        0.0000000000000000     
   1.2812500000000000       0.25000000000000000        0.0000000000000000     
   1.3125000000000000       0.25000000000000000        0.0000000000000000     
   1.3437500000000000       0.25000000000000000        0.0000000000000000     
   1.3750000000000000       0.25000000000000000        0.0000000000000000     
   1.2500000000000000       0.28125000000000000        0.0000000000000000     
   1.2812500000000000       0.28125000000000000        0.0000000000000000     
   1.3125000000000000       0.28125000000000000        0.0000000000000000     
   1.3437500000000000       0.28125000000000000        0.0000000000000000     
   1.3750000000000000       0.28125000000000000        0.0000000000000000     
   1.2500000000000000       0.31250000000000000        0.0000000000000000     
   1.2812500000000000       0.31250000000000000        0.0000000000000000     
   1.3125000000000000       0.31250000000000000        0.0000000000000000     
   1.3437500000000000       0.31250000000000000        0.0000000000000000     
   1.3750000000000000       0.31250000000000000        0.0000000000000000     
   1.2500000000000000       0.34375000000000000        0.0000000000000000     
   1.2812500000000000       0.34375000000000000        0.0000000000000000     
   1.3125000000000000       0.34375000000000000        0.0000000000000000     
   1.3437500000000000       0.34375000000000000        0.0000000000000000     
   1.3750000000000000       0.34375000000000000        0.0000000000000000     
   1.2500000000000000       0.37500000000000000        0.0000000000000000     
   1.2812500000000000       0.37500000000000000        0.0000000000000000     
   1.3125000000000000       0.37500000000000000        0.0000000000000000     
   1.3437500000000000       0.37500000000000000        0.0000000000000000     
   1.3750000000000000       0.37500000000000000        0.0000000000000000     
   1.3750000000000000       0.25000000000000000        0.0000000000000000     
   1.4062500000000000       0.25000000000000000        0.0000000000000000     
   1.4375000000000000       0.25000000000000000        0.0000000000000000     
   1.4687500000000000       0.25000000000000000        0.0000000000000000     
   1.5000000000000000       0.25000000000000000        0.0000000000000000     
   1.3750000000000000       0.28125000000000000        0.0000000000000000     
   1.4062500000000000       0.28125000000000000        0.0000000000000000     
   1.4375000000000000       0.28125000000000000        0.0000000000000000     
   1.4687500000000000       0.28125000000000000        0.0000000000000000     
   1.5000000000000000       0.28125000000000000        0.0000000000000000     
   1.3750000000000000       0.31250000000000000        0.0000000000000000     
   1.4062500000000000       0.31250000000000000        0.0000000000000000     
   1.4375000000000000       0.31250000000000000        0.0000000000000000     
   1.4687500000000000       0.31250000000000000        0.0000000000000000     
   1.5000000000000000       0.31250000000000000        0.0000000000000000     
   1.3750000000000000       0.34375000000000000        0.0000000000000000     
   1.4062500000000000       0.34375000000000000        0.0000000000000000     
   1.4375000000000000       0.34375000000000000        0.0000000000000000     
   1.4687500000000000       0.34375000000000000        0.0000000000000000     
   1.5000000000000000       0.34375000000000000        0.0000000000000000     
   1.3750000000000000       0.37500000000000000        0.0000000000000000     
   1.4062500000000000       0.37500000000000000        0.0000000000000000     
   1.4375000000000000       0.37500000000000000        0.0000000000000000     
   1.4687500000000000       0.37500000000000000        0.0000000000000000     
   1.5000000000000000       0.37500000000000000        0.0000000000000000     
  0.50000000000000000       0.37500000000000000        0.0000000000000000     
  0.53125000000000000       0.37500000000000000        0.0000000000000000     
  0.56250000000000000       0.37500000000000000        0.0000000000000000     
  0.59375000000000000       0.37500000000000000        0.0000000000000000     
  0.62500000000000000       0.37500000000000000        0.0000000000000000     
  0.50000000000000000       0.40625000000000000        0.0000000000000000     
  0.53125000000000000       0.40625000000000000        0.0000000000000000     
  0.56250000000000000       0.40625000000000000        0.0000000000000000     
  0.59375000000000000       0.40625000000000000        0.0000000000000000     
  0.62500000000000000       0.40625000000000000        0.0000000000000000     
  0.50000000000000000       0.43750000000000000        0.0000000000000000     
  0.53125000000000000       0.43750000000000000        0.0000000000000000     
  0.56250000000000000       0.43750000000000000        0.0000000000000000     
  0.59375000000000000       0.43750000000000000        0.0000000000000000     
  0.62500000000000000       0.43750000000000000        0.0000000000000000     
  0.50000000000000000       0.46875000000000000        0.0000000000000000     
  0.53125000000000000       0.46875000000000000        0.0000000000000000     
  0.56250000000000000       0.46875000000000000        0.0000000000000000     
  0.59375000000000000       0.46875000000000000        0.0000000000000000     
  0.62500000000000000       0.46875000000000000        0.0000000000000000     
  0.50000000000000000       0.50000000000000000        0.0000000000000000     
  0.53125000000000000       0.50000000000000000        0.0000000000000000     
  0.56250000000000000       0.50000000000000000        0.0000000000000000     
  0.59375000000000000       0.50000000000000000        0.0000000000000000     
  0.62500000000000000       0.50000000000000000        0.0000000000000000     
  0.62500000000000000       0.37500000000000000        0.0000000000000000     
  0.65625000000000000       0.37500000000000000        0.0000000000000000     
  0.68750000000000000       0.37500000000000000        0.0000000000000000     
  0.71875000000000000       0.37500000000000000        0.0000000000000000     
  0.75000000000000000       0.37500000000000000        0.0000000000000000     
  0.62500000000000000       0.40625000000000000        0.0000000000000000     
  0.65625000000000000       0.40625000000000000        0.0000000000000000     
  0.68750000000000000       0.40625000000000000        0.0000000000000000     
  0.71875000000000000       0.40625000000000000        0.0000000000000000     
  0.75000000000000000       0.40625000000000000        0.0000000000000000     
  0.62500000000000000       0.43750000000000000        0.0000000000000000     
  0.65625000000000000       0.43750000000000000        0.0000000000000000     
  0.68750000000000000       0.43750000000000000        0.0000000000000000     
  0.71875000000000000       0.43750000000000000        0.0000000000000000     
  0.75000000000000000       0.43750000000000000        0.0000000000000000     
  0.62500000000000000       0.46875000000000000        0.0000000000000000     
  0.65625000000000000       0.46875000000000000        0.0000000000000000     
  0.68750000000000000       0.46875000000000000        0.0000000000000000     
  0.71875000000000000       0.46875000000000000        0.0000000000000000     
  0.75000000000000000       0.46875000000000000        0.0000000000000000     
  0.62500000000000000       0.50000000000000000        0.0000000000000000     
  0.65625000000000000       0.50000000000000000        0.0000000000000000     
  0.68750000000000000       0.50000000000000000        0.0000000000000000     
  0.71875000000000000       0.50000000000000000        0.0000000000000000     
  0.75000000000000000       0.50000000000000000        0.0000000000000000     
  0.75000000000000000       0.37500000000000000        0.0000000000000000     
  0.78125000000000000       0.37500000000000000        0.0000000000000000     
  0.81250000000000000       0.37500000000000000        0.0000000000000000     
  0.84375000000000000       0.37500000000000000        0.0000000000000000     
  0.87500000000000000       0.37500000000000000        0.0000000000000000     
  0.75000000000000000       0.40625000000000000        0.0000000000000000     
  0.78125000000000000       0.40625000000000000        0.0000000000000000     
  0.81250000000000000       0.40625000000000000        0.0000000000000000     
  0.84375000000000000       0.40625000000000000        0.0000000000000000     
  0.87500000000000000       0.40625000000000000        0.0000000000000000     
  0.75000000000000000       0.43750000000000000        0.0000000000000000     
  0.78125000000000000       0.43750000000000000        0.0000000000000000     
  0.81250000000000000       0.43750000000000000        0.0000000000000000     
  0.84375000000000000       0.43750000000000000        0.0000000000000000     
  0.87500000000000000       0.43750000000000000        0.0000000000000000     
  0.75000000000000000       0.46875000000000000        0.0000000000000000     
  0.78125000000000000       0.46875000000000000        0.0000000000000000     
  0.81250000000000000       0.46875000000000000        0.0000000000000000     
  0.84375000000000000       0.46875000000000000        0.0000000000000000     
  0.87500000000000000       0.46875000000000000        0.0000000000000000     
  0.75000000000000000       0.50000000000000000        0.0000000000000000     
  0.78125000000000000       0.50000000000000000        0.0000000000000000     
  0.81250000000000000       0.50000000000000000        0.0000000000000000     
  0.84375000000000000       0.50000000000000000        0.0000000000000000     
  0.87500000000000000       0.50000000000000000        0.0000000000000000     
  0.87500000000000000       0.37500000000000000        0.0000000000000000     
  0.90625000000000000       0.37500000000000000        0.0000000000000000     
  0.93750000000000000       0.37500000000000000        0.0000000000000000     
  0.96875000000000000       0.37500000000000000        0.0000000000000000     
   1.0000000000000000       0.37500000000000000        0.0000000000000000     
  0.87500000000000000       0.40625000000000000        0.0000000000000000     
  0.90625000000000000       0.40625000000000000        0.0000000000000000     
  0.93750000000000000       0.40625000000000000        0.0000000000000000     
  0.96875000000000000       0.40625000000000000        0.0000000000000000     
   1.0000000000000000       0.40625000000000000        0.0000000000000000     
  0.87500000000000000       0.43750000000000000        0.0000000000000000     
  0.90625000000000000       0.43750000000000000        0.0000000000000000     
  0.93750000000000000       0.43750000000000000        0.0000000000000000     
  0.96875000000000000       0.43750000000000000        0.0000000000000000     
   1.0000000000000000       0.43750000000000000        0.0000000000000000     
  0.87500000000000000       0.46875000000000000        0.0000000000000000     
  0.90625000000000000       0.46875000000000000        0.0000000000000000     
  0.93750000000000000       0.46875000000000000        0.0000000000000000     
  0.96875000000000000       0.46875000000000000        0.0000000000000000     
   1.0000000000000000       0.46875000000000000        0.0000000000000000     
  0.87500000000000000       0.50000000000000000        0.0000000000000000     
  0.90625000000000000       0.50000000000000000        0.0000000000000000     
  0.93750000000000000       0.50000000000000000        0.0000000000000000     
  0.96875000000000000       0.50000000000000000        0.0000000000000000     
   1.0000000000000000       0.50000000000000000        0.0000000000000000     
   1.0000000000000000       0.37500000000000000        0.0000000000000000     
   1.0312500000000000       0.37500000000000000        0.0000000000000000     
   1.0625000000000000       0.37500000000000000        0.0000000000000000     
   1.0937500000000000       0.37500000000000000        0.0000000000000000     
   1.1250000000000000       0.37500000000000000        0.0000000000000000     
   1.0000000000000000       0.40625000000000000        0.0000000000000000     
   1.0312500000000000       0.40625000000000000        0.0000000000000000     
   1.0625000000000000       0.40625000000000000        0.0000000000000000     
   1.0937500000000000       0.40625000000000000        0.0000000000000000     
   1.1250000000000000       0.40625000000000000        0.0000000000000000     
   1.0000000000000000       0.43750000000000000        0.0000000000000000     
   1.0312500000000000       0.43750000000000000        0.0000000000000000     
   1.0625000000000000       0.43750000000000000        0.0000000000000000     
   1.0937500000000000       0.43750000000000000        0.0000000000000000     
   1.1250000000000000       0.43750000000000000        0.0000000000000000     
   1.0000000000000000       0.46875000000000000        0.0000000000000000     
   1.0312500000000000       0.46875000000000000        0.0000000000000000     
   1.0625000000000000       0.46875000000000000        0.0000000000000000     
   1.0937500000000000       0.46875000000000000        0.0000000000000000     
   1.1250000000000000       0.46875000000000000        0.0000000000000000     
   1.0000000000000000       0.50000000000000000        0.0000000000000000     
   1.0312500000000000       0.50000000000000000        0.0000000000000000     
   1.0625000000000000       0.50000000000000000        0.0000000000000000     
   1.0937500000000000       0.50000000000000000        0.0000000000000000     
   1.1250000000000000       0.50000000000000000        0.0000000000000000     
   1.1250000000000000       0.37500000000000000        0.0000000000000000     
   1.1562500000000000       0.37500000000000000        0.0000000000000000     
   1.1875000000000000       0.37500000000000000        0.0000000000000000     
   1.2187500000000000       0.37500000000000000        0.0000000000000000     
   1.2500000000000000       0.37500000000000000        0.0000000000000000     
   1.1250000000000000       0.40625000000000000        0.0000000000000000     
   1.1562500000000000       0.40625000000000000        0.0000000000000000     
   1.1875000000000000       0.40625000000000000        0.0000000000000000     
   1.2187500000000000       0.40625000000000000        0.0000000000000000     
   1.2500000000000000       0.40625000000000000        0.0000000000000000     
   1.1250000000000000       0.43750000000000000        0.0000000000000000     
   1.1562500000000000       0.43750000000000000        0.0000000000000000     
   1.1875000000000000       0.43750000000000000        0.0000000000000000     
   1.2187500000000000       0.43750000000000000        0.0000000000000000     
   1.2500000000000000       0.43750000000000000        0.0000000000000000     
   1.1250000000000000       0.46875000000000000        0.0000000000000000     
   1.1562500000000000       0.46875000000000000        0.0000000000000000     
   1.1875000000000000       0.46875000000000000        0.0000000000000000     
   1.2187500000000000       0.46875000000000000        0.0000000000000000     
   1.2500000000000000       0.46875000000000000        0.0000000000000000     
   1.1250000000000000       0.50000000000000000        0.0000000000000000     
   1.1562500000000000       0.50000000000000000        0.0000000000000000     
   1.1875000000000000       0.50000000000000000        0.0000000000000000     
   1.2187500000000000       0.50000000000000000        0.0000000000000000     
   1.2500000000000000       0.50000000000000000        0.0000000000000000     
   1.2500000000000000       0.37500000000000000        0.0000000000000000     
   1.2812500000000000       0.37500000000000000        0.0000000000000000     
   1.3125000000000000       0.37500000000000000        0.0000000000000000     
   1.3437500000000000       0.37500000000000000        0.0000000000000000     
   1.3750000000000000       0.37500000000000000        0.0000000000000000     
   1.2500000000000000       0.40625000000000000        0.0000000000000000     
   1.2812500000000000       0.40625000000000000        0.0000000000000000     
   1.3125000000000000       0.40625000000000000        0.0000000000000000     
   1.3437500000000000       0.40625000000000000        0.0000000000000000     
   1.3750000000000000       0.40625000000000000        0.0000000000000000     
   1.2500000000000000       0.43750000000000000        0.0000000000000000     
   1.2812500000000000       0.43750000000000000        0.0000000000000000     
   1.3125000000000000       0.43750000000000000        0.0000000000000000     
   1.3437500000000000       0.43750000000000000        0.0000000000000000     
   1.3750000000000000       0.43750000000000000        0.0000000000000000     
   1.2500000000000000       0.46875000000000000        0.0000000000000000     
   1.2812500000000000       0.46875000000000000        0.0000000000000000     
   1.3125000000000000       0.46875000000000000        0.0000000000000000     
   1.3437500000000000       0.46875000000000000        0.0000000000000000     
   1.3750000000000000       0.46875000000000000        0.0000000000000000     
   1.2500000000000000       0.50000000000000000        0.0000000000000000     
   1.2812500000000000       0.50000000000000000        0.0000000000000000     
   1.3125000000000000       0.50000000000000000        0.0000000000000000     
   1.3437500000000000       0.50000000000000000        0.0000000000000000     
   1.3750000000000000       0.50000000000000000        0.0000000000000000     
   1.3750000000000000       0.37500000000000000        0.0000000000000000     
   1.4062500000000000       0.37500000000000000        0.0000000000000000     
   1.4375000000000000       0.37500000000000000        0.0000000000000000     
   1.4687500000000000       0.37500000000000000        0.0000000000000000     
   1.5000000000000000       0.37500000000000000        0.0000000000000000     
   1.3750000000000000       0.40625000000000000        0.0000000000000000     
   1.4062500000000000       0.40625000000000000        0.0000000000000000     
   1.4375000000000000       0.40625000000000000        0.0000000000000000     
   1.4687500000000000       0.40625000000000000        0.0000000000000000     
   1.5000000000000000       0.40625000000000000        0.0000000000000000     
   1.3750000000000000       0.43750000000000000        0.0000000000000000     
   1.4062500000000000       0.43750000000000000        0.0000000000000000     
   1.4375000000000000       0.43750000000000000        0.0000000000000000     
   1.4687500000000000       0.43750000000000000        0.0000000000000000     
   1.5000000000000000       0.43750000000000000        0.0000000000000000     
   1.3750000000000000       0.46875000000000000        0.0000000000000000     
   1.4062500000000000       0.46875000000000000        0.0000000000000000     
   1.4375000000000000       0.46875000000000000        0.0000000000000000     
   1.4687500000000000       0.46875000000000000        0.0000000000000000     
   1.5000000000000000       0.46875000000000000        0.0000000000000000     
   1.3750000000000000       0.50000000000000000        0.0000000000000000     
   1.4062500000000000       0.50000000000000000        0.0000000000000000     
   1.4375000000000000       0.50000000000000000        0.0000000000000000     
   1.4687500000000000       0.50000000000000000        0.0000000000000000     
   1.5000000000000000       0.50000000000000000        0.0000000000000000     
  0.50000000000000000       0.50000000000000000        0.0000000000000000     
  0.53125000000000000       0.50000000000000000        0.0000000000000000     
  0.56250000000000000       0.50000000000000000        0.0000000000000000     
  0.59375000000000000       0.50000000000000000        0.0000000000000000     
  0.62500000000000000       0.50000000000000000        0.0000000000000000     
  0.50000000000000000       0.53125000000000000        0.0000000000000000     
  0.53125000000000000       0.53125000000000000        0.0000000000000000     
  0.56250000000000000       0.53125000000000000        0.0000000000000000     
  0.59375000000000000       0.53125000000000000        0.0000000000000000     
  0.62500000000000000       0.53125000000000000        0.0000000000000000     
  0.50000000000000000       0.56250000000000000        0.0000000000000000     
  0.53125000000000000       0.56250000000000000        0.0000000000000000     
  0.56250000000000000       0.56250000000000000        0.0000000000000000     
  0.59375000000000000       0.56250000000000000        0.0000000000000000     
  0.62500000000000000       0.56250000000000000        0.0000000000000000     
  0.50000000000000000       0.59375000000000000        0.0000000000000000     
  0.53125000000000000       0.59375000000000000        0.0000000000000000     
  0.56250000000000000       0.59375000000000000        0.0000000000000000     
  0.59375000000000000       0.59375000000000000        0.0000000000000000     
  0.62500000000000000       0.59375000000000000        0.0000000000000000     
  0.50000000000000000       0.62500000000000000        0.0000000000000000     
  0.53125000000000000       0.62500000000000000        0.0000000000000000     
  0.56250000000000000       0.62500000000000000        0.0000000000000000     
  0.59375000000000000       0.62500000000000000        0.0000000000000000     
  0.62500000000000000       0.62500000000000000        0.0000000000000000     
  0.62500000000000000       0.50000000000000000        0.0000000000000000     
  0.65625000000000000       0.50000000000000000        0.0000000000000000     
  0.68750000000000000       0.50000000000000000        0.0000000000000000     
  0.71875000000000000       0.50000000000000000        0.0000000000000000     
  0.75000000000000000       0.50000000000000000        0.0000000000000000     
  0.62500000000000000       0.53125000000000000        0.0000000000000000     
  0.65625000000000000       0.53125000000000000        0.0000000000000000     
  0.68750000000000000       0.53125000000000000        0.0000000000000000     
  0.71875000000000000       0.53125000000000000        0.0000000000000000     
  0.75000000000000000       0.53125000000000000        0.0000000000000000     
  0.62500000000000000       0.56250000000000000        0.0000000000000000     
  0.65625000000000000       0.56250000000000000        0.0000000000000000     
  0.68750000000000000       0.56250000000000000        0.0000000000000000     
  0.71875000000000000       0.56250000000000000        0.0000000000000000     
  0.75000000000000000       0.56250000000000000        0.0000000000000000     
  0.62500000000000000       0.59375000000000000        0.0000000000000000     
  0.65625000000000000       0.59375000000000000        0.0000000000000000     
  0.68750000000000000       0.59375000000000000        0.0000000000000000     
  0.71875000000000000       0.59375000000000000        0.0000000000000000     
  0.75000000000000000       0.59375000000000000        0.0000000000000000     
  0.62500000000000000       0.62500000000000000        0.0000000000000000     
  0.65625000000000000       0.62500000000000000        0.0000000000000000     
  0.68750000000000000       0.62500000000000000        0.0000000000000000     
  0.71875000000000000       0.62500000000000000        0.0000000000000000     
  0.75000000000000000       0.62500000000000000        0.0000000000000000     
  0.75000000000000000       0.50000000000000000        0.0000000000000000     
  0.78125000000000000       0.50000000000000000        0.0000000000000000     
  0.81250000000000000       0.50000000000000000        0.0000000000000000     
  0.84375000000000000       0.50000000000000000        0.0000000000000000     
  0.87500000000000000       0.50000000000000000        0.0000000000000000     
  0.75000000000000000       0.53125000000000000        0.0000000000000000     
  0.78125000000000000       0.53125000000000000        0.0000000000000000     
  0.81250000000000000       0.53125000000000000        0.0000000000000000     
  0.84375000000000000       0.53125000000000000        0.0000000000000000     
  0.87500000000000000       0.53125000000000000        0.0000000000000000     
  0.75000000000000000       0.56250000000000000        0.0000000000000000     
  0.78125000000000000       0.56250000000000000        0.0000000000000000     
  0.81250000000000000       0.56250000000000000        0.0000000000000000     
  0.84375000000000000       0.56250000000000000        0.0000000000000000     
  0.87500000000000000       0.56250000000000000        0.0000000000000000     
  0.75000000000000000       0.59375000000000000        0.0000000000000000     
  0.78125000000000000       0.59375000000000000        0.0000000000000000     
  0.81250000000000000       0.59375000000000000        0.0000000000000000     
  0.84375000000000000       0.59375000000000000        0.0000000000000000     
  0.87500000000000000       0.59375000000000000        0.0000000000000000     
  0.75000000000000000       0.62500000000000000        0.0000000000000000     
  0.78125000000000000       0.62500000000000000        0.0000000000000000     
  0.81250000000000000       0.62500000000000000        0.0000000000000000     
  0.84375000000000000       0.62500000000000000        0.0000000000000000     
  0.87500000000000000       0.62500000000000000        0.0000000000000000     
  0.87500000000000000       0.50000000000000000        0.0000000000000000     
  0.90625000000000000       0.50000000000000000        0.0000000000000000     
  0.93750000000000000       0.50000000000000000        0.0000000000000000     
  0.96875000000000000       0.50000000000000000        0.0000000000000000     
   1.0000000000000000       0.50000000000000000        0.0000000000000000     
  0.87500000000000000       0.53125000000000000        0.0000000000000000     
  0.90625000000000000       0.53125000000000000        0.0000000000000000     
  0.93750000000000000       0.53125000000000000        0.0000000000000000     
  0.96875000000000000       0.53125000000000000        0.0000000000000000     
   1.0000000000000000       0.53125000000000000        0.0000000000000000     
  0.87500000000000000       0.56250000000000000        0.0000000000000000     
  0.90625000000000000       0.56250000000000000        0.0000000000000000     
  0.93750000000000000       0.56250000000000000        0.0000000000000000     
  0.96875000000000000       0.56250000000000000        0.0000000000000000     
   1.0000000000000000       0.56250000000000000        0.0000000000000000     
  0.87500000000000000       0.59375000000000000        0.0000000000000000     
  0.90625000000000000       0.59375000000000000        0.0000000000000000     
  0.93750000000000000       0.59375000000000000        0.0000000000000000     
  0.96875000000000000       0.59375000000000000        0.0000000000000000     
   1.0000000000000000       0.59375000000000000        0.0000000000000000     
  0.87500000000000000       0.62500000000000000        0.0000000000000000     
  0.90625000000000000       0.62500000000000000        0.0000000000000000     
  0.93750000000000000       0.62500000000000000        0.0000000000000000     
  0.96875000000000000       0.62500000000000000        0.0000000000000000     
   1.0000000000000000       0.62500000000000000        0.0000000000000000     
   1.0000000000000000       0.50000000000000000        0.0000000000000000     
   1.0312500000000000       0.50000000000000000        0.0000000000000000     
   1.0625000000000000       0.50000000000000000        0.0000000000000000     
   1.0937500000000000       0.50000000000000000        0.0000000000000000     
   1.1250000000000000       0.50000000000000000        0.0000000000000000     
   1.0000000000000000       0.53125000000000000        0.0000000000000000     
   1.0312500000000000       0.53125000000000000        0.0000000000000000     
   1.0625000000000000       0.53125000000000000        0.0000000000000000     
   1.0937500000000000       0.53125000000000000        0.0000000000000000     
   1.1250000000000000       0.53125000000000000        0.0000000000000000     
   1.0000000000000000       0.56250000000000000        0.0000000000000000     
   1.0312500000000000       0.56250000000000000        0.0000000000000000     
   1.0625000000000000       0.56250000000000000        0.0000000000000000     
   1.0937500000000000       0.56250000000000000        0.0000000000000000     
   1.1250000000000000       0.56250000000000000        0.0000000000000000     
   1.0000000000000000       0.59375000000000000        0.0000000000000000     
   1.0312500000000000       0.59375000000000000        0.0000000000000000     
   1.0625000000000000       0.59375000000000000        0.0000000000000000     
   1.0937500000000000       0.59375000000000000        0.0000000000000000     
   1.1250000000000000       0.59375000000000000        0.0000000000000000     
   1.0000000000000000       0.62500000000000000        0.0000000000000000     
   1.0312500000000000       0.62500000000000000        0.0000000000000000     
   1.0625000000000000       0.62500000000000000        0.0000000000000000     
   1.0937500000000000       0.62500000000000000        0.0000000000000000     
   1.1250000000000000       0.62500000000000000        0.0000000000000000     
   1.1250000000000000       0.50000000000000000        0.0000000000000000     
   1.1562500000000000       0.50000000000000000        0.0000000000000000     
   1.1875000000000000       0.50000000000000000        0.0000000000000000     
   1.2187500000000000       0.50000000000000000        0.0000000000000000     
   1.2500000000000000       0.50000000000000000        0.0000000000000000     
   1.1250000000000000       0.53125000000000000        0.0000000000000000     
   1.1562500000000000       0.53125000000000000        0.0000000000000000     
   1.1875000000000000       0.53125000000000000        0.0000000000000000     
   1.2187500000000000       0.53125000000000000        0.0000000000000000     
   1.2500000000000000       0.53125000000000000        0.0000000000000000     
   1.1250000000000000       0.56250000000000000        0.0000000000000000     
   1.1562500000000000       0.56250000000000000        0.0000000000000000     
   1.1875000000000000       0.56250000000000000        0.0000000000000000     
   1.2187500000000000       0.56250000000000000        0.0000000000000000     
   1.2500000000000000       0.56250000000000000        0.0000000000000000     
   1.1250000000000000       0.59375000000000000        0.0000000000000000     
   1.1562500000000000       0.59375000000000000        0.0000000000000000     
   1.1875000000000000       0.59375000000000000        0.0000000000000000     
   1.2187500000000000       0.59375000000000000        0.0000000000000000     
   1.2500000000000000       0.59375000000000000        0.0000000000000000     
   1.1250000000000000       0.62500000000000000        0.0000000000000000     
   1.1562500000000000       0.62500000000000000        0.0000000000000000     
   1.1875000000000000       0.62500000000000000        0.0000000000000000     
   1.2187500000000000       0.62500000000000000        0.0000000000000000     
   1.2500000000000000       0.62500000000000000        0.0000000000000000     
   1.2500000000000000       0.50000000000000000        0.0000000000000000     
   1.2812500000000000       0.50000000000000000        0.0000000000000000     
   1.3125000000000000       0.50000000000000000        0.0000000000000000     
   1.3437500000000000       0.50000000000000000        0.0000000000000000     
   1.3750000000000000       0.50000000000000000        0.0000000000000000     
   1.2500000000000000       0.53125000000000000        0.0000000000000000     
   1.2812500000000000       0.53125000000000000        0.0000000000000000     
   1.3125000000000000       0.53125000000000000        0.0000000000000000     
   1.3437500000000000       0.53125000000000000        0.0000000000000000     
   1.3750000000000000       0.53125000000000000        0.0000000000000000     
   1.2500000000000000       0.56250000000000000        0.0000000000000000     
   1.2812500000000000       0.56250000000000000        0.0000000000000000     
   1.3125000000000000       0.56250000000000000        0.0000000000000000     
   1.3437500000000000       0.56250000000000000        0.0000000000000000     
   1.3750000000000000       0.56250000000000000        0.0000000000000000     
   1.2500000000000000       0.59375000000000000        0.0000000000000000     
   1.2812500000000000       0.59375000000000000        0.0000000000000000     
   1.3125000000000000       0.59375000000000000        0.0000000000000000     
   1.3437500000000000       0.59375000000000000        0.0000000000000000     
   1.3750000000000000       0.59375000000000000        0.0000000000000000     
   1.2500000000000000       0.62500000000000000        0.0000000000000000     
   1.2812500000000000       0.62500000000000000        0.0000000000000000     
   1.3125000000000000       0.62500000000000000        0.0000000000000000     
   1.3437500000000000       0.62500000000000000        0.0000000000000000     
   1.3750000000000000       0.62500000000000000        0.0000000000000000     
   1.3750000000000000       0.50000000000000000        0.0000000000000000     
   1.4062500000000000       0.50000000000000000        0.0000000000000000     
   1.4375000000000000       0.50000000000000000        0.0000000000000000     
   1.4687500000000000       0.50000000000000000        0.0000000000000000     
   1.5000000000000000       0.50000000000000000        0.0000000000000000     
   1.3750000000000000       0.53125000000000000        0.0000000000000000     
   1.4062500000000000       0.53125000000000000        0.0000000000000000     
   1.4375000000000000       0.53125000000000000        0.0000000000000000     
   1.4687500000000000       0.53125000000000000        0.0000000000000000     
   1.5000000000000000       0.53125000000000000        0.0000000000000000     
   1.3750000000000000       0.56250000000000000        0.0000000000000000     
   1.4062500000000000       0.56250000000000000        0.0000000000000000     
   1.4375000000000000       0.56250000000000000        0.0000000000000000     
   1.4687500000000000       0.56250000000000000        0.0000000000000000     
   1.5000000000000000       0.56250000000000000        0.0000000000000000     
   1.3750000000000000       0.59375000000000000        0.0000000000000000     
   1.4062500000000000       0.59375000000000000        0.0000000000000000     
   1.4375000000000000       0.59375000000000000        0.0000000000000000     
   1.4687500000000000       0.59375000000000000        0.0000000000000000     
   1.5000000000000000       0.59375000000000000        0.0000000000000000     
   1.3750000000000000       0.62500000000000000        0.0000000000000000     
   1.4062500000000000       0.62500000000000000        0.0000000000000000     
   1.4375000000000000       0.62500000000000000        0.0000000000000000     
   1.4687500000000000       0.62500000000000000        0.0000000000000000     
   1.5000000000000000       0.62500000000000000        0.0000000000000000     
  0.50000000000000000       0.62500000000000000        0.0000000000000000     
  0.53125000000000000       0.62500000000000000        0.0000000000000000     
  0.56250000000000000       0.62500000000000000        0.0000000000000000     
  0.59375000000000000       0.62500000000000000        0.0000000000000000     
  0.62500000000000000       0.62500000000000000        0.0000000000000000     
  0.50000000000000000       0.65625000000000000        0.0000000000000000     
  0.53125000000000000       0.65625000000000000        0.0000000000000000     
  0.56250000000000000       0.65625000000000000        0.0000000000000000     
  0.59375000000000000       0.65625000000000000        0.0000000000000000     
  0.62500000000000000       0.65625000000000000        0.0000000000000000     
  0.50000000000000000       0.68750000000000000        0.0000000000000000     
  0.53125000000000000       0.68750000000000000        0.0000000000000000     
  0.56250000000000000       0.68750000000000000        0.0000000000000000     
  0.59375000000000000       0.68750000000000000        0.0000000000000000     
  0.62500000000000000       0.68750000000000000        0.0000000000000000     
  0.50000000000000000       0.71875000000000000        0.0000000000000000     
  0.53125000000000000       0.71875000000000000        0.0000000000000000     
  0.56250000000000000       0.71875000000000000        0.0000000000000000     
  0.59375000000000000       0.71875000000000000        0.0000000000000000     
  0.62500000000000000       0.71875000000000000        0.0000000000000000     
  0.50000000000000000       0.75000000000000000        0.0000000000000000     
  0.53125000000000000       0.75000000000000000        0.0000000000000000     
  0.56250000000000000       0.75000000000000000        0.0000000000000000     
  0.59375000000000000       0.75000000000000000        0.0000000000000000     
  0.62500000000000000       0.75000000000000000        0.0000000000000000     
  0.62500000000000000       0.62500000000000000        0.0000000000000000     
  0.65625000000000000       0.62500000000000000        0.0000000000000000     
  0.68750000000000000       0.62500000000000000        0.0000000000000000     
  0.71875000000000000       0.62500000000000000        0.0000000000000000     
  0.75000000000000000       0.62500000000000000        0.0000000000000000     
  0.62500000000000000       0.65625000000000000        0.0000000000000000     
  0.65625000000000000       0.65625000000000000        0.0000000000000000     
  0.68750000000000000       0.65625000000000000        0.0000000000000000     
  0.71875000000000000       0.65625000000000000        0.0000000000000000     
  0.75000000000000000       0.65625000000000000        0.0000000000000000     
  0.62500000000000000       0.68750000000000000        0.0000000000000000     
  0.65625000000000000       0.68750000000000000        0.0000000000000000     
  0.68750000000000000       0.68750000000000000        0.0000000000000000     
  0.71875000000000000       0.68750000000000000        0.0000000000000000     
  0.75000000000000000       0.68750000000000000        0.0000000000000000     
  0.62500000000000000       0.71875000000000000        0.0000000000000000     
  0.65625000000000000       0.71875000000000000        0.0000000000000000     
  0.68750000000000000       0.71875000000000000        0.0000000000000000     
  0.71875000000000000       0.71875000000000000        0.0000000000000000     
  0.75000000000000000       0.71875000000000000        0.0000000000000000     
  0.62500000000000000       0.75000000000000000        0.0000000000000000     
  0.65625000000000000       0.75000000000000000        0.0000000000000000     
  0.68750000000000000       0.75000000000000000        0.0000000000000000     
  0.71875000000000000       0.75000000000000000        0.0000000000000000     
  0.75000000000000000       0.75000000000000000        0.0000000000000000     
  0.75000000000000000       0.62500000000000000        0.0000000000000000     
  0.78125000000000000       0.62500000000000000        0.0000000000000000     
  0.81250000000000000       0.62500000000000000        0.0000000000000000     
  0.84375000000000000       0.62500000000000000        0.0000000000000000     
  0.87500000000000000       0.62500000000000000        0.0000000000000000     
  0.75000000000000000       0.65625000000000000        0.0000000000000000     
  0.78125000000000000       0.65625000000000000        0.0000000000000000     
  0.81250000000000000       0.65625000000000000        0.0000000000000000     
  0.84375000000000000       0.65625000000000000        0.0000000000000000     
  0.87500000000000000       0.65625000000000000        0.0000000000000000     
  0.75000000000000000       0.68750000000000000        0.0000000000000000     
  0.78125000000000000       0.68750000000000000        0.0000000000000000     
  0.81250000000000000       0.68750000000000000        0.0000000000000000     
  0.84375000000000000       0.68750000000000000        0.0000000000000000     
  0.87500000000000000       0.68750000000000000        0.0000000000000000     
  0.75000000000000000       0.71875000000000000        0.0000000000000000     
  0.78125000000000000       0.71875000000000000        0.0000000000000000     
  0.81250000000000000       0.71875000000000000        0.0000000000000000     
  0.84375000000000000       0.71875000000000000        0.0000000000000000     
  0.87500000000000000       0.71875000000000000        0.0000000000000000     
  0.75000000000000000       0.75000000000000000        0.0000000000000000     
  0.78125000000000000       0.75000000000000000        0.0000000000000000     
  0.81250000000000000       0.75000000000000000        0.0000000000000000     
  0.84375000000000000       0.75000000000000000        0.0000000000000000     
  0.87500000000000000       0.75000000000000000        0.0000000000000000     
  0.87500000000000000       0.62500000000000000        0.0000000000000000     
  0.90625000000000000       0.62500000000000000        0.0000000000000000     
  0.93750000000000000       0.62500000000000000        0.0000000000000000     
  0.96875000000000000       0.62500000000000000        0.0000000000000000     
   1.0000000000000000       0.62500000000000000        0.0000000000000000     
  0.87500000000000000       0.65625000000000000        0.0000000000000000     
  0.90625000000000000       0.65625000000000000        0.0000000000000000     
  0.93750000000000000       0.65625000000000000        0.0000000000000000     
  0.96875000000000000       0.65625000000000000        0.0000000000000000     
   1.0000000000000000       0.65625000000000000        0.0000000000000000     
  0.87500000000000000       0.68750000000000000        0.0000000000000000     
  0.90625000000000000       0.68750000000000000        0.0000000000000000     
  0.93750000000000000       0.68750000000000000        0.0000000000000000     
  0.96875000000000000       0.68750000000000000        0.0000000000000000     
   1.0000000000000000       0.68750000000000000        0.0000000000000000     
  0.87500000000000000       0.71875000000000000        0.0000000000000000     
  0.90625000000000000       0.71875000000000000        0.0000000000000000     
  0.93750000000000000       0.71875000000000000        0.0000000000000000     
  0.96875000000000000       0.71875000000000000        0.0000000000000000     
   1.0000000000000000       0.71875000000000000        0.0000000000000000     
  0.87500000000000000       0.75000000000000000        0.0000000000000000     
  0.90625000000000000       0.75000000000000000        0.0000000000000000     
  0.93750000000000000       0.75000000000000000        0.0000000000000000     
  0.96875000000000000       0.75000000000000000        0.0000000000000000     
   1.0000000000000000       0.75000000000000000        0.0000000000000000     
   1.0000000000000000       0.62500000000000000        0.0000000000000000     
   1.0312500000000000       0.62500000000000000        0.0000000000000000     
   1.0625000000000000       0.62500000000000000        0.0000000000000000     
   1.0937500000000000       0.62500000000000000        0.0000000000000000     
   1.1250000000000000       0.62500000000000000        0.0000000000000000     
   1.0000000000000000       0.65625000000000000        0.0000000000000000     
   1.0312500000000000       0.65625000000000000        0.0000000000000000     
   1.0625000000000000       0.65625000000000000        0.0000000000000000     
   1.0937500000000000       0.65625000000000000        0.0000000000000000     
   1.1250000000000000       0.65625000000000000        0.0000000000000000     
   1.0000000000000000       0.68750000000000000        0.0000000000000000     
   1.0312500000000000       0.68750000000000000        0.0000000000000000     
   1.0625000000000000       0.68750000000000000        0.0000000000000000     
   1.0937500000000000       0.68750000000000000        0.0000000000000000     
   1.1250000000000000       0.68750000000000000        0.0000000000000000     
   1.0000000000000000       0.71875000000000000        0.0000000000000000     
   1.0312500000000000       0.71875000000000000        0.0000000000000000     
   1.0625000000000000       0.71875000000000000        0.0000000000000000     
   1.0937500000000000       0.71875000000000000        0.0000000000000000     
   1.1250000000000000       0.71875000000000000        0.0000000000000000     
   1.0000000000000000       0.75000000000000000        0.0000000000000000     
   1.0312500000000000       0.75000000000000000        0.0000000000000000     
   1.0625000000000000       0.75000000000000000        0.0000000000000000     
   1.0937500000000000       0.75000000000000000        0.0000000000000000     
   1.1250000000000000       0.75000000000000000        0.0000000000000000     
   1.1250000000000000       0.62500000000000000        0.0000000000000000     
   1.1562500000000000       0.62500000000000000        0.0000000000000000     
   1.1875000000000000       0.62500000000000000        0.0000000000000000     
   1.2187500000000000       0.62500000000000000        0.0000000000000000     
   1.2500000000000000       0.62500000000000000        0.0000000000000000     
   1.1250000000000000       0.65625000000000000        0.0000000000000000     
   1.1562500000000000       0.65625000000000000        0.0000000000000000     
   1.1875000000000000       0.65625000000000000        0.0000000000000000     
   1.2187500000000000       0.65625000000000000        0.0000000000000000     
   1.2500000000000000       0.65625000000000000        0.0000000000000000     
   1.1250000000000000       0.68750000000000000        0.0000000000000000     
   1.1562500000000000       0.68750000000000000        0.0000000000000000     
   1.1875000000000000       0.68750000000000000        0.0000000000000000     
   1.2187500000000000       0.68750000000000000        0.0000000000000000     
   1.2500000000000000       0.68750000000000000        0.0000000000000000     
   1.1250000000000000       0.71875000000000000        0.0000000000000000     
   1.1562500000000000       0.71875000000000000        0.0000000000000000     
   1.1875000000000000       0.71875000000000000        0.0000000000000000     
   1.2187500000000000       0.71875000000000000        0.0000000000000000     
   1.2500000000000000       0.71875000000000000        0.0000000000000000     
   1.1250000000000000       0.75000000000000000        0.0000000000000000     
   1.1562500000000000       0.75000000000000000        0.0000000000000000     
   1.1875000000000000       0.75000000000000000        0.0000000000000000     
   1.2187500000000000       0.75000000000000000        0.0000000000000000     
   1.2500000000000000       0.75000000000000000        0.0000000000000000     
   1.2500000000000000       0.62500000000000000        0.0000000000000000     
   1.2812500000000000       0.62500000000000000        0.0000000000000000     
   1.3125000000000000       0.62500000000000000        0.0000000000000000     
   1.3437500000000000       0.62500000000000000        0.0000000000000000     
   1.3750000000000000       0.62500000000000000        0.0000000000000000     
   1.2500000000000000       0.65625000000000000        0.0000000000000000     
   1.2812500000000000       0.65625000000000000        0.0000000000000000     
   1.3125000000000000       0.65625000000000000        0.0000000000000000     
   1.3437500000000000       0.65625000000000000        0.0000000000000000     
   1.3750000000000000       0.65625000000000000        0.0000000000000000     
   1.2500000000000000       0.68750000000000000        0.0000000000000000     
   1.2812500000000000       0.68750000000000000        0.0000000000000000     
   1.3125000000000000       0.68750000000000000        0.0000000000000000     
   1.3437500000000000       0.68750000000000000        0.0000000000000000     
   1.3750000000000000       0.68750000000000000        0.0000000000000000     
   1.2500000000000000       0.71875000000000000        0.0000000000000000     
   1.2812500000000000       0.71875000000000000        0.0000000000000000     
   1.3125000000000000       0.71875000000000000        0.0000000000000000     
   1.3437500000000000       0.71875000000000000        0.0000000000000000     
   1.3750000000000000       0.71875000000000000        0.0000000000000000     
   1.2500000000000000       0.75000000000000000        0.0000000000000000     
   1.2812500000000000       0.75000000000000000        0.0000000000000000     
   1.3125000000000000       0.75000000000000000        0.0000000000000000     
   1.3437500000000000       0.75000000000000000        0.0000000000000000     
   1.3750000000000000       0.75000000000000000        0.0000000000000000     
   1.3750000000000000       0.62500000000000000        0.0000000000000000     
   1.4062500000000000       0.62500000000000000        0.0000000000000000     
   1.4375000000000000       0.62500000000000000        0.0000000000000000     
   1.4687500000000000       0.62500000000000000        0.0000000000000000     
   1.5000000000000000       0.62500000000000000        0.0000000000000000     
   1.3750000000000000       0.65625000000000000        0.0000000000000000     
   1.4062500000000000       0.65625000000000000        0.0000000000000000     
   1.4375000000000000       0.65625000000000000        0.0000000000000000     
   1.4687500000000000       0.65625000000000000        0.0000000000000000     
   1.5000000000000000       0.65625000000000000        0.0000000000000000     
   1.3750000000000000       0.68750000000000000        0.0000000000000000     
   1.4062500000000000       0.68750000000000000        0.0000000000000000     
   1.4375000000000000       0.68750000000000000        0.0000000000000000     
   1.4687500000000000       0.68750000000000000        0.0000000000000000     
   1.5000000000000000       0.68750000000000000        0.0000000000000000     
   1.3750000000000000       0.71875000000000000        0.0000000000000000     
   1.4062500000000000       0.71875000000000000        0.0000000000000000     
   1.4375000000000000       0.71875000000000000        0.0000000000000000     
   1.4687500000000000       0.71875000000000000        0.0000000000000000     
   1.5000000000000000       0.71875000000000000        0.0000000000000000     
   1.3750000000000000       0.75000000000000000        0.0000000000000000     
   1.4062500000000000       0.75000000000000000        0.0000000000000000     
   1.4375000000000000       0.75000000000000000        0.0000000000000000     
   1.4687500000000000       0.75000000000000000        0.0000000000000000     
   1.5000000000000000       0.75000000000000000        0.0000000000000000     
  0.50000000000000000       0.75000000000000000        0.0000000000000000     
  0.53125000000000000       0.75000000000000000        0.0000000000000000     
  0.56250000000000000       0.75000000000000000        0.0000000000000000     
  0.59375000000000000       0.75000000000000000        0.0000000000000000     
  0.62500000000000000       0.75000000000000000        0.0000000000000000     
  0.50000000000000000       0.78125000000000000        0.0000000000000000     
  0.53125000000000000       0.78125000000000000        0.0000000000000000     
  0.56250000000000000       0.78125000000000000        0.0000000000000000     
  0.59375000000000000       0.78125000000000000        0.0000000000000000     
  0.62500000000000000       0.78125000000000000        0.0000000000000000     
  0.50000000000000000       0.81250000000000000        0.0000000000000000     
  0.53125000000000000       0.81250000000000000        0.0000000000000000     
  0.56250000000000000       0.81250000000000000        0.0000000000000000     
  0.59375000000000000       0.81250000000000000        0.0000000000000000     
  0.62500000000000000       0.81250000000000000        0.0000000000000000     
  0.50000000000000000       0.84375000000000000        0.0000000000000000     
  0.53125000000000000       0.84375000000000000        0.0000000000000000     
  0.56250000000000000       0.84375000000000000        0.0000000000000000     
  0.59375000000000000       0.84375000000000000        0.0000000000000000     
  0.62500000000000000       0.84375000000000000        0.0000000000000000     
  0.50000000000000000       0.87500000000000000        0.0000000000000000     
  0.53125000000000000       0.87500000000000000        0.0000000000000000     
  0.56250000000000000       0.87500000000000000        0.0000000000000000     
  0.59375000000000000       0.87500000000000000        0.0000000000000000     
  0.62500000000000000       0.87500000000000000        0.0000000000000000     
  0.62500000000000000       0.75000000000000000        0.0000000000000000     
  0.65625000000000000       0.75000000000000000        0.0000000000000000     
  0.68750000000000000       0.75000000000000000        0.0000000000000000     
  0.71875000000000000       0.75000000000000000        0.0000000000000000     
  0.75000000000000000       0.75000000000000000        0.0000000000000000     
  0.62500000000000000       0.78125000000000000        0.0000000000000000     
  0.65625000000000000       0.78125000000000000        0.0000000000000000     
  0.68750000000000000       0.78125000000000000        0.0000000000000000     
  0.71875000000000000       0.78125000000000000        0.0000000000000000     
  0.75000000000000000       0.78125000000000000        0.0000000000000000     
  0.62500000000000000       0.81250000000000000        0.0000000000000000     
  0.65625000000000000       0.81250000000000000        0.0000000000000000     
  0.68750000000000000       0.81250000000000000        0.0000000000000000     
  0.71875000000000000       0.81250000000000000        0.0000000000000000     
  0.75000000000000000       0.81250000000000000        0.0000000000000000     
  0.62500000000000000       0.84375000000000000        0.0000000000000000     
  0.65625000000000000       0.84375000000000000        0.0000000000000000     
  0.68750000000000000       0.84375000000000000        0.0000000000000000     
  0.71875000000000000       0.84375000000000000        0.0000000000000000     
  0.75000000000000000       0.84375000000000000        0.0000000000000000     
  0.62500000000000000       0.87500000000000000        0.0000000000000000     
  0.65625000000000000       0.87500000000000000        0.0000000000000000     
  0.68750000000000000       0.87500000000000000        0.0000000000000000     
  0.71875000000000000       0.87500000000000000        0.0000000000000000     
  0.75000000000000000       0.87500000000000000        0.0000000000000000     
  0.75000000000000000       0.75000000000000000        0.0000000000000000     
  0.78125000000000000       0.75000000000000000        0.0000000000000000     
  0.81250000000000000       0.75000000000000000        0.0000000000000000     
  0.84375000000000000       0.75000000000000000        0.0000000000000000     
  0.87500000000000000       0.75000000000000000        0.0000000000000000     
  0.75000000000000000       0.78125000000000000        0.0000000000000000     
  0.78125000000000000       0.78125000000000000        0.0000000000000000     
  0.81250000000000000       0.78125000000000000        0.0000000000000000     
  0.84375000000000000       0.78125000000000000        0.0000000000000000     
  0.87500000000000000       0.78125000000000000        0.0000000000000000     
  0.75000000000000000       0.81250000000000000        0.0000000000000000     
  0.78125000000000000       0.81250000000000000        0.0000000000000000     
  0.81250000000000000       0.81250000000000000        0.0000000000000000     
  0.84375000000000000       0.81250000000000000        0.0000000000000000     
  0.87500000000000000       0.81250000000000000        0.0000000000000000     
  0.75000000000000000       0.84375000000000000        0.0000000000000000     
  0.78125000000000000       0.84375000000000000        0.0000000000000000     
  0.81250000000000000       0.84375000000000000        0.0000000000000000     
  0.84375000000000000       0.84375000000000000        0.0000000000000000     
  0.87500000000000000       0.84375000000000000        0.0000000000000000     
  0.75000000000000000       0.87500000000000000        0.0000000000000000     
  0.78125000000000000       0.87500000000000000        0.0000000000000000     
  0.81250000000000000       0.87500000000000000        0.0000000000000000     
  0.84375000000000000       0.87500000000000000        0.0000000000000000     
  0.87500000000000000       0.87500000000000000        0.0000000000000000     
  0.87500000000000000       0.75000000000000000        0.0000000000000000     
  0.90625000000000000       0.75000000000000000        0.0000000000000000     
  0.93750000000000000       0.75000000000000000        0.0000000000000000     
  0.96875000000000000       0.75000000000000000        0.0000000000000000     
   1.0000000000000000       0.75000000000000000        0.0000000000000000     
  0.87500000000000000       0.78125000000000000        0.0000000000000000     
  0.90625000000000000       0.78125000000000000        0.0000000000000000     
  0.93750000000000000       0.78125000000000000        0.0000000000000000     
  0.96875000000000000       0.78125000000000000        0.0000000000000000     
   1.0000000000000000       0.78125000000000000        0.0000000000000000     
  0.87500000000000000       0.81250000000000000        0.0000000000000000     
  0.90625000000000000       0.81250000000000000        0.0000000000000000     
  0.93750000000000000       0.81250000000000000        0.0000000000000000     
  0.96875000000000000       0.81250000000000000        0.0000000000000000     
   1.0000000000000000       0.81250000000000000        0.0000000000000000     
  0.87500000000000000       0.84375000000000000        0.0000000000000000     
  0.90625000000000000       0.84375000000000000        0.0000000000000000     
  0.93750000000000000       0.84375000000000000        0.0000000000000000     
  0.96875000000000000       0.84375000000000000        0.0000000000000000     
   1.0000000000000000       0.84375000000000000        0.0000000000000000     
  0.87500000000000000       0.87500000000000000        0.0000000000000000     
  0.90625000000000000       0.87500000000000000        0.0000000000000000     
  0.93750000000000000       0.87500000000000000        0.0000000000000000     
  0.96875000000000000       0.87500000000000000        0.0000000000000000     
   1.0000000000000000       0.87500000000000000        0.0000000000000000     
   1.0000000000000000       0.75000000000000000        0.0000000000000000     
   1.0312500000000000       0.75000000000000000        0.0000000000000000     
   1.0625000000000000       0.75000000000000000        0.0000000000000000     
   1.0937500000000000       0.75000000000000000        0.0000000000000000     
   1.1250000000000000       0.75000000000000000        0.0000000000000000     
   1.0000000000000000       0.78125000000000000        0.0000000000000000     
   1.0312500000000000       0.78125000000000000        0.0000000000000000     
   1.0625000000000000       0.78125000000000000        0.0000000000000000     
   1.0937500000000000       0.78125000000000000        0.0000000000000000     
   1.1250000000000000       0.78125000000000000        0.0000000000000000     
   1.0000000000000000       0.81250000000000000        0.0000000000000000     
   1.0312500000000000       0.81250000000000000        0.0000000000000000     
   1.0625000000000000       0.81250000000000000        0.0000000000000000     
   1.0937500000000000       0.81250000000000000        0.0000000000000000     
   1.1250000000000000       0.81250000000000000        0.0000000000000000     
   1.0000000000000000       0.84375000000000000        0.0000000000000000     
   1.0312500000000000       0.84375000000000000        0.0000000000000000     
   1.0625000000000000       0.84375000000000000        0.0000000000000000     
   1.0937500000000000       0.84375000000000000        0.0000000000000000     
   1.1250000000000000       0.84375000000000000        0.0000000000000000     
   1.0000000000000000       0.87500000000000000        0.0000000000000000     
   1.0312500000000000       0.87500000000000000        0.0000000000000000     
   1.0625000000000000       0.87500000000000000        0.0000000000000000     
   1.0937500000000000       0.87500000000000000        0.0000000000000000     
   1.1250000000000000       0.87500000000000000        0.0000000000000000     
   1.1250000000000000       0.75000000000000000        0.0000000000000000     
   1.1562500000000000       0.75000000000000000        0.0000000000000000     
   1.1875000000000000       0.75000000000000000        0.0000000000000000     
   1.2187500000000000       0.75000000000000000        0.0000000000000000     
   1.2500000000000000       0.75000000000000000        0.0000000000000000     
   1.1250000000000000       0.78125000000000000        0.0000000000000000     
   1.1562500000000000       0.78125000000000000        0.0000000000000000     
   1.1875000000000000       0.78125000000000000        0.0000000000000000     
   1.2187500000000000       0.78125000000000000        0.0000000000000000     
   1.2500000000000000       0.78125000000000000        0.0000000000000000     
   1.1250000000000000       0.81250000000000000        0.0000000000000000     
   1.1562500000000000       0.81250000000000000        0.0000000000000000     
   1.1875000000000000       0.81250000000000000        0.0000000000000000     
   1.2187500000000000       0.81250000000000000        0.0000000000000000     
   1.2500000000000000       0.81250000000000000        0.0000000000000000     
   1.1250000000000000       0.84375000000000000        0.0000000000000000     
   1.1562500000000000       0.84375000000000000        0.0000000000000000     
   1.1875000000000000       0.84375000000000000        0.0000000000000000     
   1.2187500000000000       0.84375000000000000        0.0000000000000000     
   1.2500000000000000       0.84375000000000000        0.0000000000000000     
   1.1250000000000000       0.87500000000000000        0.0000000000000000     
   1.1562500000000000       0.87500000000000000        0.0000000000000000     
   1.1875000000000000       0.87500000000000000        0.0000000000000000     
   1.2187500000000000       0.87500000000000000        0.0000000000000000     
   1.2500000000000000       0.87500000000000000        0.0000000000000000     
   1.2500000000000000       0.75000000000000000        0.0000000000000000     
   1.2812500000000000       0.75000000000000000        0.0000000000000000     
   1.3125000000000000       0.75000000000000000        0.0000000000000000     
   1.3437500000000000       0.75000000000000000        0.0000000000000000     
   1.3750000000000000       0.75000000000000000        0.0000000000000000     
   1.2500000000000000       0.78125000000000000        0.0000000000000000     
   1.2812500000000000       0.78125000000000000        0.0000000000000000     
   1.3125000000000000       0.78125000000000000        0.0000000000000000     
   1.3437500000000000       0.78125000000000000        0.0000000000000000     
   1.3750000000000000       0.78125000000000000        0.0000000000000000     
   1.2500000000000000       0.81250000000000000        0.0000000000000000     
   1.2812500000000000       0.81250000000000000        0.0000000000000000     
   1.3125000000000000       0.81250000000000000        0.0000000000000000     
   1.3437500000000000       0.81250000000000000        0.0000000000000000     
   1.3750000000000000       0.81250000000000000        0.0000000000000000     
   1.2500000000000000       0.84375000000000000        0.0000000000000000     
   1.2812500000000000       0.84375000000000000        0.0000000000000000     
   1.3125000000000000       0.84375000000000000        0.0000000000000000     
   1.3437500000000000       0.84375000000000000        0.0000000000000000     
   1.3750000000000000       0.84375000000000000        0.0000000000000000     
   1.2500000000000000       0.87500000000000000        0.0000000000000000     
   1.2812500000000000       0.87500000000000000        0.0000000000000000     
   1.3125000000000000       0.87500000000000000        0.0000000000000000     
   1.3437500000000000       0.87500000000000000        0.0000000000000000     
   1.3750000000000000       0.87500000000000000        0.0000000000000000     
   1.3750000000000000       0.75000000000000000        0.0000000000000000     
   1.4062500000000000       0.75000000000000000        0.0000000000000000     
   1.4375000000000000       0.75000000000000000        0.0000000000000000     
   1.4687500000000000       0.75000000000000000        0.0000000000000000     
   1.5000000000000000       0.75000000000000000        0.0000000000000000     
   1.3750000000000000       0.78125000000000000        0.0000000000000000     
   1.4062500000000000       0.78125000000000000        0.0000000000000000     
   1.4375000000000000       0.78125000000000000        0.0000000000000000     
   1.4687500000000000       0.78125000000000000        0.0000000000000000     
   1.5000000000000000       0.78125000000000000        0.0000000000000000     
   1.3750000000000000       0.81250000000000000        0.0000000000000000     
   1.4062500000000000       0.81250000000000000        0.0000000000000000     
   1.4375000000000000       0.81250000000000000        0.0000000000000000     
   1.4687500000000000       0.81250000000000000        0.0000000000000000     
   1.5000000000000000       0.81250000000000000        0.0000000000000000     
   1.3750000000000000       0.84375000000000000        0.0000000000000000     
   1.4062500000000000       0.84375000000000000        0.0000000000000000     
   1.4375000000000000       0.84375000000000000        0.0000000000000000     
   1.4687500000000000       0.84375000000000000        0.0000000000000000     
   1.5000000000000000       0.84375000000000000        0.0000000000000000     
   1.3750000000000000       0.87500000000000000        0.0000000000000000     
   1.4062500000000000       0.87500000000000000        0.0000000000000000     
   1.4375000000000000       0.87500000000000000        0.0000000000000000     
   1.4687500000000000       0.87500000000000000        0.0000000000000000     
   1.5000000000000000       0.87500000000000000        0.0000000000000000     
  0.50000000000000000       0.87500000000000000        0.0000000000000000     
  0.53125000000000000       0.87500000000000000        0.0000000000000000     
  0.56250000000000000       0.87500000000000000        0.0000000000000000     
  0.59375000000000000       0.87500000000000000        0.0000000000000000     
  0.62500000000000000       0.87500000000000000        0.0000000000000000     
  0.50000000000000000       0.90625000000000000        0.0000000000000000     
  0.53125000000000000       0.90625000000000000        0.0000000000000000     
  0.56250000000000000       0.90625000000000000        0.0000000000000000     
  0.59375000000000000       0.90625000000000000        0.0000000000000000     
  0.62500000000000000       0.90625000000000000        0.0000000000000000     
  0.50000000000000000       0.93750000000000000        0.0000000000000000     
  0.53125000000000000       0.93750000000000000        0.0000000000000000     
  0.56250000000000000       0.93750000000000000        0.0000000000000000     
  0.59375000000000000       0.93750000000000000        0.0000000000000000     
  0.62500000000000000       0.93750000000000000        0.0000000000000000     
  0.50000000000000000       0.96875000000000000        0.0000000000000000     
  0.53125000000000000       0.96875000000000000        0.0000000000000000     
  0.56250000000000000       0.96875000000000000        0.0000000000000000     
  0.59375000000000000       0.96875000000000000        0.0000000000000000     
  0.62500000000000000       0.96875000000000000        0.0000000000000000     
  0.50000000000000000        1.0000000000000000        0.0000000000000000     
  0.53125000000000000        1.0000000000000000        0.0000000000000000     
  0.56250000000000000        1.0000000000000000        0.0000000000000000     
  0.59375000000000000        1.0000000000000000        0.0000000000000000     
  0.62500000000000000        1.0000000000000000        0.0000000000000000     
  0.62500000000000000       0.87500000000000000        0.0000000000000000     
  0.65625000000000000       0.87500000000000000        0.0000000000000000     
  0.68750000000000000       0.87500000000000000        0.0000000000000000     
  0.71875000000000000       0.87500000000000000        0.0000000000000000     
  0.75000000000000000       0.87500000000000000        0.0000000000000000     
  0.62500000000000000       0.90625000000000000        0.0000000000000000     
  0.65625000000000000       0.90625000000000000        0.0000000000000000     
  0.68750000000000000       0.90625000000000000        0.0000000000000000     
  0.71875000000000000       0.90625000000000000        0.0000000000000000     
  0.75000000000000000       0.90625000000000000        0.0000000000000000     
  0.62500000000000000       0.93750000000000000        0.0000000000000000     
  0.65625000000000000       0.93750000000000000        0.0000000000000000     
  0.68750000000000000       0.93750000000000000        0.0000000000000000     
  0.71875000000000000       0.93750000000000000        0.0000000000000000     
  0.75000000000000000       0.93750000000000000        0.0000000000000000     
  0.62500000000000000       0.96875000000000000        0.0000000000000000     
  0.65625000000000000       0.96875000000000000        0.0000000000000000     
  0.68750000000000000       0.96875000000000000        0.0000000000000000     
  0.71875000000000000       0.96875000000000000        0.0000000000000000     
  0.75000000000000000       0.96875000000000000        0.0000000000000000     
  0.62500000000000000        1.0000000000000000        0.0000000000000000     
  0.65625000000000000        1.0000000000000000        0.0000000000000000     
  0.68750000000000000        1.0000000000000000        0.0000000000000000     
  0.71875000000000000        1.0000000000000000        0.0000000000000000     
  0.75000000000000000        1.0000000000000000        0.0000000000000000     
  0.75000000000000000       0.87500000000000000        0.0000000000000000     
  0.78125000000000000       0.87500000000000000        0.0000000000000000     
  0.81250000000000000       0.87500000000000000        0.0000000000000000     
  0.84375000000000000       0.87500000000000000        0.0000000000000000     
  0.87500000000000000       0.87500000000000000        0.0000000000000000     
  0.75000000000000000       0.90625000000000000        0.0000000000000000     
  0.78125000000000000       0.90625000000000000        0.0000000000000000     
  0.81250000000000000       0.90625000000000000        0.0000000000000000     
  0.84375000000000000       0.90625000000000000        0.0000000000000000     
  0.87500000000000000       0.90625000000000000        0.0000000000000000     
  0.75000000000000000       0.93750000000000000        0.0000000000000000     
  0.78125000000000000       0.93750000000000000        0.0000000000000000     
  0.81250000000000000       0.93750000000000000        0.0000000000000000     
  0.84375000000000000       0.93750000000000000        0.0000000000000000     
  0.87500000000000000       0.93750000000000000        0.0000000000000000     
  0.75000000000000000       0.96875000000000000        0.0000000000000000     
  0.78125000000000000       0.96875000000000000        0.0000000000000000     
  0.81250000000000000       0.96875000000000000        0.0000000000000000     
  0.84375000000000000       0.96875000000000000        0.0000000000000000     
  0.87500000000000000       0.96875000000000000        0.0000000000000000     
  0.75000000000000000        1.0000000000000000        0.0000000000000000     
  0.78125000000000000        1.0000000000000000        0.0000000000000000     
  0.81250000000000000        1.0000000000000000        0.0000000000000000     
  0.84375000000000000        1.0000000000000000        0.0000000000000000     
  0.87500000000000000        1.0000000000000000        0.0000000000000000     
  0.87500000000000000       0.87500000000000000        0.0000000000000000     
  0.90625000000000000       0.87500000000000000        0.0000000000000000     
  0.93750000000000000       0.87500000000000000        0.0000000000000000     
  0.96875000000000000       0.87500000000000000        0.0000000000000000     
   1.0000000000000000       0.87500000000000000        0.0000000000000000     
  0.87500000000000000       0.90625000000000000        0.0000000000000000     
  0.90625000000000000       0.90625000000000000        0.0000000000000000     
  0.93750000000000000       0.90625000000000000        0.0000000000000000     
  0.96875000000000000       0.90625000000000000        0.0000000000000000     
   1.0000000000000000       0.90625000000000000        0.0000000000000000     
  0.87500000000000000       0.93750000000000000        0.0000000000000000     
  0.90625000000000000       0.93750000000000000        0.0000000000000000     
  0.93750000000000000       0.93750000000000000        0.0000000000000000     
  0.96875000000000000       0.93750000000000000        0.0000000000000000     
   1.0000000000000000       0.93750000000000000        0.0000000000000000     
  0.87500000000000000       0.96875000000000000        0.0000000000000000     
  0.90625000000000000       0.96875000000000000        0.0000000000000000     
  0.93750000000000000       0.96875000000000000        0.0000000000000000     
  0.96875000000000000       0.96875000000000000        0.0000000000000000     
   1.0000000000000000       0.96875000000000000        0.0000000000000000     
  0.87500000000000000        1.0000000000000000        0.0000000000000000     
  0.90625000000000000        1.0000000000000000        0.0000000000000000     
  0.93750000000000000        1.0000000000000000        0.0000000000000000     
  0.96875000000000000        1.0000000000000000        0.0000000000000000     
   1.0000000000000000        1.0000000000000000        0.0000000000000000     
   1.0000000000000000       0.87500000000000000        0.0000000000000000     
   1.0312500000000000       0.87500000000000000        0.0000000000000000     
   1.0625000000000000       0.87500000000000000        0.0000000000000000     
   1.0937500000000000       0.87500000000000000        0.0000000000000000     
   1.1250000000000000       0.87500000000000000        0.0000000000000000     
   1.0000000000000000       0.90625000000000000        0.0000000000000000     
   1.0312500000000000       0.90625000000000000        0.0000000000000000     
   1.0625000000000000       0.90625000000000000        0.0000000000000000     
   1.0937500000000000       0.90625000000000000        0.0000000000000000     
   1.1250000000000000       0.90625000000000000        0.0000000000000000     
   1.0000000000000000       0.93750000000000000        0.0000000000000000     
   1.0312500000000000       0.93750000000000000        0.0000000000000000     
   1.0625000000000000       0.93750000000000000        0.0000000000000000     
   1.0937500000000000       0.93750000000000000        0.0000000000000000     
   1.1250000000000000       0.93750000000000000        0.0000000000000000     
   1.0000000000000000       0.96875000000000000        0.0000000000000000     
   1.0312500000000000       0.96875000000000000        0.0000000000000000     
   1.0625000000000000       0.96875000000000000        0.0000000000000000     
   1.0937500000000000       0.96875000000000000        0.0000000000000000     
   1.1250000000000000       0.96875000000000000        0.0000000000000000     
   1.0000000000000000        1.0000000000000000        0.0000000000000000     
   1.0312500000000000        1.0000000000000000        0.0000000000000000     
   1.0625000000000000        1.0000000000000000        0.0000000000000000     
   1.0937500000000000        1.0000000000000000        0.0000000000000000     
   1.1250000000000000        1.0000000000000000        0.0000000000000000     
   1.1250000000000000       0.87500000000000000        0.0000000000000000     
   1.1562500000000000       0.87500000000000000        0.0000000000000000     
   1.1875000000000000       0.87500000000000000        0.0000000000000000     
   1.2187500000000000       0.87500000000000000        0.0000000000000000     
   1.2500000000000000       0.87500000000000000        0.0000000000000000     
   1.1250000000000000       0.90625000000000000        0.0000000000000000     
   1.1562500000000000       0.90625000000000000        0.0000000000000000     
   1.1875000000000000       0.90625000000000000        0.0000000000000000     
   1.2187500000000000       0.90625000000000000        0.0000000000000000     
   1.2500000000000000       0.90625000000000000        0.0000000000000000     
   1.1250000000000000       0.93750000000000000        0.0000000000000000     
   1.1562500000000000       0.93750000000000000        0.0000000000000000     
   1.1875000000000000       0.93750000000000000        0.0000000000000000     
   1.2187500000000000       0.93750000000000000        0.0000000000000000     
   1.2500000000000000       0.93750000000000000        0.0000000000000000     
   1.1250000000000000       0.96875000000000000        0.0000000000000000     
   1.1562500000000000       0.96875000000000000        0.0000000000000000     
   1.1875000000000000       0.96875000000000000        0.0000000000000000     
   1.2187500000000000       0.96875000000000000        0.0000000000000000     
   1.2500000000000000       0.96875000000000000        0.0000000000000000     
   1.1250000000000000        1.0000000000000000        0.0000000000000000     
   1.1562500000000000        1.0000000000000000        0.0000000000000000     
   1.1875000000000000        1.0000000000000000        0.0000000000000000     
   1.2187500000000000        1.0000000000000000        0.0000000000000000     
   1.2500000000000000        1.0000000000000000        0.0000000000000000     
   1.2500000000000000       0.87500000000000000        0.0000000000000000     
   1.2812500000000000       0.87500000000000000        0.0000000000000000     
   1.3125000000000000       0.87500000000000000        0.0000000000000000     
   1.3437500000000000       0.87500000000000000        0.0000000000000000     
   1.3750000000000000       0.87500000000000000        0.0000000000000000     
   1.2500000000000000       0.90625000000000000        0.0000000000000000     
   1.2812500000000000       0.90625000000000000        0.0000000000000000     
   1.3125000000000000       0.90625000000000000        0.0000000000000000     
   1.3437500000000000       0.90625000000000000        0.0000000000000000     
   1.3750000000000000       0.90625000000000000        0.0000000000000000     
   1.2500000000000000       0.93750000000000000        0.0000000000000000     
   1.2812500000000000       0.93750000000000000        0.0000000000000000     
   1.3125000000000000       0.93750000000000000        0.0000000000000000     
   1.3437500000000000       0.93750000000000000        0.0000000000000000     
   1.3750000000000000       0.93750000000000000        0.0000000000000000     
   1.2500000000000000       0.96875000000000000        0.0000000000000000     
   1.2812500000000000       0.96875000000000000        0.0000000000000000     
   1.3125000000000000       0.96875000000000000        0.0000000000000000     
   1.3437500000000000       0.96875000000000000        0.0000000000000000     
   1.3750000000000000       0.96875000000000000        0.0000000000000000     
   1.2500000000000000        1.0000000000000000        0.0000000000000000     
   1.2812500000000000        1.0000000000000000        0.0000000000000000     
   1.3125000000000000        1.0000000000000000        0.0000000000000000     
   1.3437500000000000        1.0000000000000000        0.0000000000000000     
   1.3750000000000000        1.0000000000000000        0.0000000000000000     
   1.3750000000000000       0.87500000000000000        0.0000000000000000     
   1.4062500000000000       0.87500000000000000        0.0000000000000000     
   1.4375000000000000       0.87500000000000000        0.0000000000000000     
   1.4687500000000000       0.87500000000000000        0.0000000000000000     
   1.5000000000000000       0.87500000000000000        0.0000000000000000     
   1.3750000000000000       0.90625000000000000        0.0000000000000000     
   1.4062500000000000       0.90625000000000000        0.0000000000000000     
   1.4375000000000000       0.90625000000000000        0.0000000000000000     
   1.4687500000000000       0.90625000000000000        0.0000000000000000     
   1.5000000000000000       0.90625000000000000        0.0000000000000000     
   1.3750000000000000       0.93750000000000000        0.0000000000000000     
   1.4062500000000000       0.93750000000000000        0.0000000000000000     
   1.4375000000000000       0.93750000000000000        0.0000000000000000     
   1.4687500000000000       0.93750000000000000        0.0000000000000000     
   1.5000000000000000       0.93750000000000000        0.0000000000000000     
   1.3750000000000000       0.96875000000000000        0.0000000000000000     
   1.4062500000000000       0.96875000000000000        0.0000000000000000     
   1.4375000000000000       0.96875000000000000        0.0000000000000000     
   1.4687500000000000       0.96875000000000000        0.0000000000000000     
   1.5000000000000000       0.96875000000000000        0.0000000000000000     
   1.3750000000000000        1.0000000000000000        0.0000000000000000     
   1.4062500000000000        1.0000000000000000        0.0000000000000000     
   1.4375000000000000        1.0000000000000000        0.0000000000000000     
   1.4687500000000000        1.0000000000000000        0.0000000000000000     
   1.5000000000000000        1.0000000000000000        0.0000000000000000     
 </DataArray>
 </Points>
 <Cells>
 <DataArray  type="Int32"  Name="connectivity"  format="ascii">
           0           1           6           5
           1           2           7           6
           2           3           8           7
           3           4           9           8
           5           6          11          10
           6           7          12          11
           7           8          13          12
           8           9          14          13
          10          11          16          15
          11          12          17          16
          12          13          18          17
          13          14          19          18
          15          16          21          20
          16          17          22          21
          17          18          23          22
          18          19          24          23
          25          26          31          30
          26          27          32          31
          27          28          33          32
          28          29          34          33
          30          31          36          35
          31          32          37          36
          32          33          38          37
          33          34          39          38
          35          36          41          40
          36          37          42          41
          37          38          43          42
          38          39          44          43
          40          41          46          45
          41          42          47          46
          42          43          48          47
          43          44          49          48
          50          51          56          55
          51          52          57          56
          52          53          58          57
          53          54          59          58
          55          56          61          60
          56          57          62          61
          57          58          63          62
          58          59          64          63
          60          61          66          65
          61          62          67          66
          62          63          68          67
          63          64          69          68
          65          66          71          70
          66          67          72          71
          67          68          73          72
          68          69          74          73
          75          76          81          80
          76          77          82          81
          77          78          83          82
          78          79          84          83
          80          81          86          85
          81          82          87          86
          82          83          88          87
          83          84          89          88
          85          86          91          90
          86          87          92          91
          87          88          93          92
          88          89          94          93
          90          91          96          95
          91          92          97          96
          92          93          98          97
          93          94          99          98
         100         101         106         105
         101         102         107         106
         102         103         108         107
         103         104         109         108
         105         106         111         110
         106         107         112         111
         107         108         113         112
         108         109         114         113
         110         111         116         115
         111         112         117         116
         112         113         118         117
         113         114         119         118
         115         116         121         120
         116         117         122         121
         117         118         123         122
         118         119         124         123
         125         126         131         130
         126         127         132         131
         127         128         133         132
         128         129         134         133
         130         131         136         135
         131         132         137         136
         132         133         138         137
         133         134         139         138
         135         136         141         140
         136         137         142         141
         137         138         143         142
         138         139         144         143
         140         141         146         145
         141         142         147         146
         142         143         148         147
         143         144         149         148
         150         151         156         155
         151         152         157         156
         152         153         158         157
         153         154         159         158
         155         156         161         160
         156         157         162         161
         157         158         163         162
         158         159         164         163
         160         161         166         165
         161         162         167         166
         162         163         168         167
         163         164         169         168
         165         166         171         170
         166         167         172         171
         167         168         173         172
         168         169         174         173
         175         176         181         180
         176         177         182         181
         177         178         183         182
         178         179         184         183
         180         181         186         185
         181         182         187         186
         182         183         188         187
         183         184         189         188
         185         186         191         190
         186         187         192         191
         187         188         193         192
         188         189         194         193
         190         191         196         195
         191         192         197         196
         192         193         198         197
         193         194         199         198
         200         201         206         205
         201         202         207         206
         202         203         208         207
         203         204         209         208
         205         206         211         210
         206         207         212         211
         207         208         213         212
         208         209         214         213
         210         211         216         215
         211         212         217         216
         212         213         218         217
         213         214         219         218
         215         216         221         220
         216         217         222         221
         217         218         223         222
         218         219         224         223
         225         226         231         230
         226         227         232         231
         227         228         233         232
         228         229         234         233
         230         231         236         235
         231         232         237         236
         232         233         238         237
         233         234         239         238
         235         236         241         240
         236         237         242         241
         237         238         243         242
         238         239         244         243
         240         241         246         245
         241         242         247         246
         242         243         248         247
         243         244         249         248
         250         251         256         255
         251         252         257         256
         252         253         258         257
         253         254         259         258
         255         256         261         260
         256         257         262         261
         257         258         263         262
         258         259         264         263
         260         261         266         265
         261         262         267         266
         262         263         268         267
         263         264         269         268
         265         266         271         270
         266         267         272         271
         267         268         273         272
         268         269         274         273
         275         276         281         280
         276         277         282         281
         277         278         283         282
         278         279         284         283
         280         281         286         285
         281         282         287         286
         282         283         288         287
         283         284         289         288
         285         286         291         290
         286         287         292         291
         287         288         293         292
         288         289         294         293
         290         291         296         295
         291         292         297         296
         292         293         298         297
         293         294         299         298
         300         301         306         305
         301         302         307         306
         302         303         308         307
         303         304         309         308
         305         306         311         310
         306         307         312         311
         307         308         313         312
         308         309         314         313
         310         311         316         315
         311         312         317         316
         312         313         318         317
         313         314         319         318
         315         316         321         320
         316         317         322         321
         317         318         323         322
         318         319         324         323
         325         326         331         330
         326         327         332         331
         327         328         333         332
         328         329         334         333
         330         331         336         335
         331         332         337         336
         332         333         338         337
         333         334         339         338
         335         336         341         340
         336         337         342         341
         337         338         343         342
         338         339         344         343
         340         341         346         345
         341         342         347         346
         342         343         348         347
         343         344         349         348
         350         351         356         355
         351         352         357         356
         352         353         358         357
         353         354         359         358
         355         356         361         360
         356         357         362         361
         357         358         363         362
         358         359         364         363
         360         361         366         365
         361         362         367         366
         362         363         368         367
         363         364         369         368
         365         366         371         370
         366         367         372         371
         367         368         373         372
         368         369         374         373
         375         376         381         380
         376         377         382         381
         377         378         383         382
         378         379         384         383
         380         381         386         385
         381         382         387         386
         382         383         388         387
         383         384         389         388
         385         386         391         390
         386         387         392         391
         387         388         393         392
         388         389         394         393
         390         391         396         395
         391         392         397         396
         392         393         398         397
         393         394         399         398
         400         401         406         405
         401         402         407         406
         402         403         408         407
         403         404         409         408
         405         406         411         410
         406         407         412         411
         407         408         413         412
         408         409         414         413
         410         411         416         415
         411         412         417         416
         412         413         418         417
         413         414         419         418
         415         416         421         420
         416         417         422         421
         417         418         423         422
         418         419         424         423
         425         426         431         430
         426         427         432         431
         427         428         433         432
         428         429         434         433
         430         431         436         435
         431         432         437         436
         432         433         438         437
         433         434         439         438
         435         436         441         440
         436         437         442         441
         437         438         443         442
         438         439         444         443
         440         441         446         445
         441         442         447         446
         442         443         448         447
         443         444         449         448
         450         451         456         455
         451         452         457         456
         452         453         458         457
         453         454         459         458
         455         456         461         460
         456         457         462         461
         457         458         463         462
         458         459         464         463
         460         461         466         465
         461         462         467         466
         462         463         468         467
         463         464         469         468
         465         466         471         470
         466         467         472         471
         467         468         473         472
         468         469         474         473
         475         476         481         480
         476         477         482         481
         477         478         483         482
         478         479         484         483
         480         481         486         485
         481         482         487         486
         482         483         488         487
         483         484         489         488
         485         486         491         490
         486         487         492         491
         487         488         493         492
         488         489         494         493
         490         491         496         495
         491         492         497         496
         492         493         498         497
         493         494         499         498
         500         501         506         505
         501         502         507         506
         502         503         508         507
         503         504         509         508
         505         506         511         510
         506         507         512         511
         507         508         513         512
         508         509         514         513
         510         511         516         515
         511         512         517         516
         512         513         518         517
         513         514         519         518
         515         516         521         520
         516         517         522         521
         517         518         523         522
         518         519         524         523
         525         526         531         530
         526         527         532         531
         527         528         533         532
         528         529         534         533
         530         531         536         535
         531         532         537         536
         532         533         538         537
         533         534         539         538
         535         536         541         540
         536         537         542         541
         537         538         543         542
         538         539         544         543
         540         541         546         545
         541         542         547         546
         542         543         548         547
         543         544         549         548
         550         551         556         555
         551         552         557         556
         552         553         558         557
         553         554         559         558
         555         556         561         560
         556         557         562         561
         557         558         563         562
         558         559         564         563
         560         561         566         565
         561         562         567         566
         562         563         568         567
         563         564         569         568
         565         566         571         570
         566         567         572         571
         567         568         573         572
         568         569         574         573
         575         576         581         580
         576         577         582         581
         577         578         583         582
         578         579         584         583
         580         581         586         585
         581         582         587         586
         582         583         588         587
         583         584         589         588
         585         586         591         590
         586         587         592         591
         587         588         593         592
         588         589         594         593
         590         591         596         595
         591         592         597         596
         592         593         598         597
         593         594         599         598
         600         601         606         605
         601         602         607         606
         602         603         608         607
         603         604         609         608
         605         606         611         610
         606         607         612         611
         607         608         613         612
         608         609         614         613
         610         611         616         615
         611         612         617         616
         612         613         618         617
         613         614         619         618
         615         616         621         620
         616         617         622         621
         617         618         623         622
         618         619         624         623
         625         626         631         630
         626         627         632         631
         627         628         633         632
         628         629         634         633
         630         631         636         635
         631         632         637         636
         632         633         638         637
         633         634         639         638
         635         636         641         640
         636         637         642         641
         637         638         643         642
         638         639         644         643
         640         641         646         645
         641         642         647         646
         642         643         648         647
         643         644         649         648
         650         651         656         655
         651         652         657         656
         652         653         658         657
         653         654         659         658
         655         656         661         660
         656         657         662         661
         657         658         663         662
         658         659         664         663
         660         661         666         665
         661         662         667         666
         662         663         668         667
         663         664         669         668
         665         666         671         670
         666         667         672         671
         667         668         673         672
         668         669         674         673
         675         676         681         680
         676         677         682         681
         677         678         683         682
         678         679         684         683
         680         681         686         685
         681         682         687         686
         682         683         688         687
         683         684         689         688
         685         686         691         690
         686         687         692         691
         687         688         693         692
         688         689         694         693
         690         691         696         695
         691         692         697         696
         692         693         698         697
         693         694         699         698
         700         701         706         705
         701         702         707         706
         702         703         708         707
         703         704         709         708
         705         706         711         710
         706         707         712         711
         707         708         713         712
         708         709         714         713
         710         711         716         715
         711         712         717         716
         712         713         718         717
         713         714         719         718
         715         716         721         720
         716         717         722         721
         717         718         723         722
         718         719         724         723
         725         726         731         730
         726         727         732         731
         727         728         733         732
         728         729         734         733
         730         731         736         735
         731         732         737         736
         732         733         738         737
         733         734         739         738
         735         736         741         740
         736         737         742         741
         737         738         743         742
         738         739         744         743
         740         741         746         745
         741         742         747         746
         742         743         748         747
         743         744         749         748
         750         751         756         755
         751         752         757         756
         752         753         758         757
         753         754         759         758
         755         756         761         760
         756         757         762         761
         757         758         763         762
         758         759         764         763
         760         761         766         765
         761         762         767         766
         762         763         768         767
         763         764         769         768
         765         766         771         770
         766         767         772         771
         767         768         773         772
         768         769         774         773
         775         776         781         780
         776         777         782         781
         777         778         783         782
         778         779         784         783
         780         781         786         785
         781         782         787         786
         782         783         788         787
         783         784         789         788
         785         786         791         790
         786         787         792         791
         787         788         793         792
         788         789         794         793
         790         791         796         795
         791         792         797         796
         792         793         798         797
         793         794         799         798
         800         801         806         805
         801         802         807         806
         802         803         808         807
         803         804         809         808
         805         806         811         810
         806         807         812         811
         807         808         813         812
         808         809         814         813
         810         811         816         815
         811         812         817         816
         812         813         818         817
         813         814         819         818
         815         816         821         820
         816         817         822         821
         817         818         823         822
         818         819         824         823
         825         826         831         830
         826         827         832         831
         827         828         833         832
         828         829         834         833
         830         831         836         835
         831         832         837         836
         832         833         838         837
         833         834         839         838
         835         836         841         840
         836         837         842         841
         837         838         843         842
         838         839         844         843
         840         841         846         845
         841         842         847         846
         842         843         848         847
         843         844         849         848
         850         851         856         855
         851         852         857         856
         852         853         858         857
         853         854         859         858
         855         856         861         860
         856         857         862         861
         857         858         863         862
         858         859         864         863
         860         861         866         865
         861         862         867         866
         862         863         868         867
         863         864         869         868
         865         866         871         870
         866         867         872         871
         867         868         873         872
         868         869         874         873
         875         876         881         880
         876         877         882         881
         877         878         883         882
         878         879         884         883
         880         881         886         885
         881         882         887         886
         882         883         888         887
         883         884         889         888
         885         886         891         890
         886         887         892         891
         887         888         893         892
         888         889         894         893
         890         891         896         895
         891         892         897         896
         892         893         898         897
         893         894         899         898
         900         901         906         905
         901         902         907         906
         902         903         908         907
         903         904         909         908
         905         906         911         910
         906         907         912         911
         907         908         913         912
         908         909         914         913
         910         911         916         915
         911         912         917         916
         912         913         918         917
         913         914         919         918
         915         916         921         920
         916         917         922         921
         917         918         923         922
         918         919         924         923
         925         926         931         930
         926         927         932         931
         927         928         933         932
         928         929         934         933
         930         931         936         935
         931         932         937         936
         932         933         938         937
         933         934         939         938
         935         936         941         940
         936         937         942         941
         937         938         943         942
         938         939         944         943
         940         941         946         945
         941         942         947         946
         942         943         948         947
         943         944         949         948
         950         951         956         955
         951         952         957         956
         952         953         958         957
         953         954         959         958
         955         956         961         960
         956         957         962         961
         957         958         963         962
         958         959         964         963
         960         961         966         965
         961         962         967         966
         962         963         968         967
         963         964         969         968
         965         966         971         970
         966         967         972         971
         967         968         973         972
         968         969         974         973
         975         976         981         980
         976         977         982         981
         977         978         983         982
         978         979         984         983
         980         981         986         985
         981         982         987         986
         982         983         988         987
         983         984         989         988
         985         986         991         990
         986         987         992         991
         987         988         993         992
         988         989         994         993
         990         991         996         995
         991         992         997         996
         992         993         998         997
         993         994         999         998
        1000        1001        1006        1005
        1001        1002        1007        1006
        1002        1003        1008        1007
        1003        1004        1009        1008
        1005        1006        1011        1010
        1006        1007        1012        1011
        1007        1008        1013        1012
        1008        1009        1014        1013
        1010        1011        1016        1015
        1011        1012        1017        1016
        1012        1013        1018        1017
        1013        1014        1019        1018
        1015        1016        1021        1020
        1016        1017        1022        1021
        1017        1018        1023        1022
        1018        1019        1024        1023
        1025        1026        1031        1030
        1026        1027        1032        1031
        1027        1028        1033        1032
        1028        1029        1034        1033
        1030        1031        1036        1035
        1031        1032        1037        1036
        1032        1033        1038        1037
        1033        1034        1039        1038
        1035        1036        1041        1040
        1036        1037        1042        1041
        1037        1038        1043        1042
        1038        1039        1044        1043
        1040        1041        1046        1045
        1041        1042        1047        1046
        1042        1043        1048        1047
        1043        1044        1049        1048
        1050        1051        1056        1055
        1051        1052        1057        1056
        1052        1053        1058        1057
        1053        1054        1059        1058
        1055        1056        1061        1060
        1056        1057        1062        1061
        1057        1058        1063        1062
        1058        1059        1064        1063
        1060        1061        1066        1065
        1061        1062        1067        1066
        1062        1063        1068        1067
        1063        1064        1069        1068
        1065        1066        1071        1070
        1066        1067        1072        1071
        1067        1068        1073        1072
        1068        1069        1074        1073
        1075        1076        1081        1080
        1076        1077        1082        1081
        1077        1078        1083        1082
        1078        1079        1084        1083
        1080        1081        1086        1085
        1081        1082        1087        1086
        1082        1083        1088        1087
        1083        1084        1089        1088
        1085        1086        1091        1090
        1086        1087        1092        1091
        1087        1088        1093        1092
        1088        1089        1094        1093
        1090        1091        1096        1095
        1091        1092        1097        1096
        1092        1093        1098        1097
        1093        1094        1099        1098
        1100        1101        1106        1105
        1101        1102        1107        1106
        1102        1103        1108        1107
        1103        1104        1109        1108
        1105        1106        1111        1110
        1106        1107        1112        1111
        1107        1108        1113        1112
        1108        1109        1114        1113
        1110        1111        1116        1115
        1111        1112        1117        1116
        1112        1113        1118        1117
        1113        1114        1119        1118
        1115        1116        1121        1120
        1116        1117        1122        1121
        1117        1118        1123        1122
        1118        1119        1124        1123
        1125        1126        1131        1130
        1126        1127        1132        1131
        1127        1128        1133        1132
        1128        1129        1134        1133
        1130        1131        1136        1135
        1131        1132        1137        1136
        1132        1133        1138        1137
        1133        1134        1139        1138
        1135        1136        1141        1140
        1136        1137        1142        1141
        1137        1138        1143        1142
        1138        1139        1144        1143
        1140        1141        1146        1145
        1141        1142        1147        1146
        1142        1143        1148        1147
        1143        1144        1149        1148
        1150        1151        1156        1155
        1151        1152        1157        1156
        1152        1153        1158        1157
        1153        1154        1159        1158
        1155        1156        1161        1160
        1156        1157        1162        1161
        1157        1158        1163        1162
        1158        1159        1164        1163
        1160        1161        1166        1165
        1161        1162        1167        1166
        1162        1163        1168        1167
        1163        1164        1169        1168
        1165        1166        1171        1170
        1166        1167        1172        1171
        1167        1168        1173        1172
        1168        1169        1174        1173
        1175        1176        1181        1180
        1176        1177        1182        1181
        1177        1178        1183        1182
        1178        1179        1184        1183
        1180        1181        1186        1185
        1181        1182        1187        1186
        1182        1183        1188        1187
        1183        1184        1189        1188
        1185        1186        1191        1190
        1186        1187        1192        1191
        1187        1188        1193        1192
        1188        1189        1194        1193
        1190        1191        1196        1195
        1191        1192        1197        1196
        1192        1193        1198        1197
        1193        1194        1199        1198
        1200        1201        1206        1205
        1201        1202        1207        1206
        1202        1203        1208        1207
        1203        1204        1209        1208
        1205        1206        1211        1210
        1206        1207        1212        1211
        1207        1208        1213        1212
        1208        1209        1214        1213
        1210        1211        1216        1215
        1211        1212        1217        1216
        1212        1213        1218        1217
        1213        1214        1219        1218
        1215        1216        1221        1220
        1216        1217        1222        1221
        1217        1218        1223        1222
        1218        1219        1224        1223
        1225        1226        1231        1230
        1226        1227        1232        1231
        1227        1228        1233        1232
        1228        1229        1234        1233
        1230        1231        1236        1235
        1231        1232        1237        1236
        1232        1233        1238        1237
        1233        1234        1239        1238
        1235        1236        1241        1240
        1236        1237        1242        1241
        1237        1238        1243        1242
        1238        1239        1244        1243
        1240        1241        1246        1245
        1241        1242        1247        1246
        1242        1243        1248        1247
        1243        1244        1249        1248
        1250        1251        1256        1255
        1251        1252        1257        1256
        1252        1253        1258        1257
        1253        1254        1259        1258
        1255        1256        1261        1260
        1256        1257        1262        1261
        1257        1258        1263        1262
        1258        1259        1264        1263
        1260        1261        1266        1265
        1261        1262        1267        1266
        1262        1263        1268        1267
        1263        1264        1269        1268
        1265        1266        1271        1270
        1266        1267        1272        1271
        1267        1268        1273        1272
        1268        1269        1274        1273
        1275        1276        1281        1280
        1276        1277        1282        1281
        1277        1278        1283        1282
        1278        1279        1284        1283
        1280        1281        1286        1285
        1281        1282        1287        1286
        1282        1283        1288        1287
        1283        1284        1289        1288
        1285        1286        1291        1290
        1286        1287        1292        1291
        1287        1288        1293        1292
        1288        1289        1294        1293
        1290        1291        1296        1295
        1291        1292        1297        1296
        1292        1293        1298        1297
        1293        1294        1299        1298
        1300        1301        1306        1305
        1301        1302        1307        1306
        1302        1303        1308        1307
        1303        1304        1309        1308
        1305        1306        1311        1310
        1306        1307        1312        1311
        1307        1308        1313        1312
        1308        1309        1314        1313
        1310        1311        1316        1315
        1311        1312        1317        1316
        1312        1313        1318        1317
        1313        1314        1319        1318
        1315        1316        1321        1320
        1316        1317        1322        1321
        1317        1318        1323        1322
        1318        1319        1324        1323
        1325        1326        1331        1330
        1326        1327        1332        1331
        1327        1328        1333        1332
        1328        1329        1334        1333
        1330        1331        1336        1335
        1331        1332        1337        1336
        1332        1333        1338        1337
        1333        1334        1339        1338
        1335        1336        1341        1340
        1336        1337        1342        1341
        1337        1338        1343        1342
        1338        1339        1344        1343
        1340        1341        1346        1345
        1341        1342        1347        1346
        1342        1343        1348        1347
        1343        1344        1349        1348
        1350        1351        1356        1355
        1351        1352        1357        1356
        1352        1353        1358        1357
        1353        1354        1359        1358
        1355        1356        1361        1360
        1356        1357        1362        1361
        1357        1358        1363        1362
        1358        1359        1364        1363
        1360        1361        1366        1365
        1361        1362        1367        1366
        1362        1363        1368        1367
        1363        1364        1369        1368
        1365        1366        1371        1370
        1366        1367        1372        1371
        1367        1368        1373        1372
        1368        1369        1374        1373
        1375        1376        1381        1380
        1376        1377        1382        1381
        1377        1378        1383        1382
        1378        1379        1384        1383
        1380        1381        1386        1385
        1381        1382        1387        1386
        1382        1383        1388        1387
        1383        1384        1389        1388
        1385        1386        1391        1390
        1386        1387        1392        1391
        1387        1388        1393        1392
        1388        1389        1394        1393
        1390        1391        1396        1395
        1391        1392        1397        1396
        1392        1393        1398        1397
        1393        1394        1399        1398
        1400        1401        1406        1405
        1401        1402        1407        1406
        1402        1403        1408        1407
        1403        1404        1409        1408
        1405        1406        1411        1410
        1406        1407        1412        1411
        1407        1408        1413        1412
        1408        1409        1414        1413
        1410        1411        1416        1415
        1411        1412        1417        1416
        1412        1413        1418        1417
        1413        1414        1419        1418
        1415        1416        1421        1420
        1416        1417        1422        1421
        1417        1418        1423        1422
        1418        1419        1424        1423
        1425        1426        1431        1430
        1426        1427        1432        1431
        1427        1428        1433        1432
        1428        1429        1434        1433
        1430        1431        1436        1435
        1431        1432        1437        1436
        1432        1433        1438        1437
        1433        1434        1439        1438
        1435        1436        1441        1440
        1436        1437        1442        1441
        1437        1438        1443        1442
        1438        1439        1444        1443
        1440        1441        1446        1445
        1441        1442        1447        1446
        1442        1443        1448        1447
        1443        1444        1449        1448
        1450        1451        1456        1455
        1451        1452        1457        1456
        1452        1453        1458        1457
        1453        1454        1459        1458
        1455        1456        1461        1460
        1456        1457        1462        1461
        1457        1458        1463        1462
        1458        1459        1464        1463
        1460        1461        1466        1465
        1461        1462        1467        1466
        1462        1463        1468        1467
        1463        1464        1469        1468
        1465        1466        1471        1470
        1466        1467        1472        1471
        1467        1468        1473        1472
        1468        1469        1474        1473
        1475        1476        1481        1480
        1476        1477        1482        1481
        1477        1478        1483        1482
        1478        1479        1484        1483
        1480        1481        1486        1485
        1481        1482        1487        1486
        1482        1483        1488        1487
        1483        1484        1489        1488
        1485        1486        1491        1490
        1486        1487        1492        1491
        1487        1488        1493        1492
        1488        1489        1494        1493
        1490        1491        1496        1495
        1491        1492        1497        1496
        1492        1493        1498        1497
        1493        1494        1499        1498
        1500        1501        1506        1505
        1501        1502        1507        1506
        1502        1503        1508        1507
        1503        1504        1509        1508
        1505        1506        1511        1510
        1506        1507        1512        1511
        1507        1508        1513        1512
        1508        1509        1514        1513
        1510        1511        1516        1515
        1511        1512        1517        1516
        1512        1513        1518        1517
        1513        1514        1519        1518
        1515        1516        1521        1520
        1516        1517        1522        1521
        1517        1518        1523        1522
        1518        1519        1524        1523
        1525        1526        1531        1530
        1526        1527        1532        1531
        1527        1528        1533        1532
        1528        1529        1534        1533
        1530        1531        1536        1535
        1531        1532        1537        1536
        1532        1533        1538        1537
        1533        1534        1539        1538
        1535        1536        1541        1540
        1536        1537        1542        1541
        1537        1538        1543        1542
        1538        1539        1544        1543
        1540        1541        1546        1545
        1541        1542        1547        1546
        1542        1543        1548        1547
        1543        1544        1549        1548
        1550        1551        1556        1555
        1551        1552        1557        1556
        1552        1553        1558        1557
        1553        1554        1559        1558
        1555        1556        1561        1560
        1556        1557        1562        1561
        1557        1558        1563        1562
        1558        1559        1564        1563
        1560        1561        1566        1565
        1561        1562        1567        1566
        1562        1563        1568        1567
        1563        1564        1569        1568
        1565        1566        1571        1570
        1566        1567        1572        1571
        1567        1568        1573        1572
        1568        1569        1574        1573
        1575        1576        1581        1580
        1576        1577        1582        1581
        1577        1578        1583        1582
        1578        1579        1584        1583
        1580        1581        1586        1585
        1581        1582        1587        1586
        1582        1583        1588        1587
        1583        1584        1589        1588
        1585        1586        1591        1590
        1586        1587        1592        1591
        1587        1588        1593        1592
        1588        1589        1594        1593
        1590        1591        1596        1595
        1591        1592        1597        1596
        1592        1593        1598        1597
        1593        1594        1599        1598
 </DataArray>
 <DataArray  type="Int32"  Name="offsets"  format="ascii"> 
           4
           8
          12
          16
          20
          24
          28
          32
          36
          40
          44
          48
          52
          56
          60
          64
          68
          72
          76
          80
          84
          88
          92
          96
         100
         104
         108
         112
         116
         120
         124
         128
         132
         136
         140
         144
         148
         152
         156
         160
         164
         168
         172
         176
         180
         184
         188
         192
         196
         200
         204
         208
         212
         216
         220
         224
         228
         232
         236
         240
         244
         248
         252
         256
         260
         264
         268
         272
         276
         280
         284
         288
         292
         296
         300
         304
         308
         312
         316
         320
         324
         328
         332
         336
         340
         344
         348
         352
         356
         360
         364
         368
         372
         376
         380
         384
         388
         392
         396
         400
         404
         408
         412
         416
         420
         424
         428
         432
         436
         440
         444
         448
         452
         456
         460
         464
         468
         472
         476
         480
         484
         488
         492
         496
         500
         504
         508
         512
         516
         520
         524
         528
         532
         536
         540
         544
         548
         552
         556
         560
         564
         568
         572
         576
         580
         584
         588
         592
         596
         600
         604
         608
         612
         616
         620
         624
         628
         632
         636
         640
         644
         648
         652
         656
         660
         664
         668
         672
         676
         680
         684
         688
         692
         696
         700
         704
         708
         712
         716
         720
         724
         728
         732
         736
         740
         744
         748
         752
         756
         760
         764
         768
         772
         776
         780
         784
         788
         792
         796
         800
         804
         808
         812
         816
         820
         824
         828
         832
         836
         840
         844
         848
         852
         856
         860
         864
         868
         872
         876
         880
         884
         888
         892
         896
         900
         904
         908
         912
         916
         920
         924
         928
         932
         936
         940
         944
         948
         952
         956
         960
         964
         968
         972
         976
         980
         984
         988
         992
         996
        1000
        1004
        1008
        1012
        1016
        1020
        1024
        1028
        1032
        1036
        1040
        1044
        1048
        1052
        1056
        1060
        1064
        1068
        1072
        1076
        1080
        1084
        1088
        1092
        1096
        1100
        1104
        1108
        1112
        1116
        1120
        1124
        1128
        1132
        1136
        1140
        1144
        1148
        1152
        1156
        1160
        1164
        1168
        1172
        1176
        1180
        1184
        1188
        1192
        1196
        1200
        1204
        1208
        1212
        1216
        1220
        1224
        1228
        1232
        1236
        1240
        1244
        1248
        1252
        1256
        1260
        1264
        1268
        1272
        1276
        1280
        1284
        1288
        1292
        1296
        1300
        1304
        1308
        1312
        1316
        1320
        1324
        1328
        1332
        1336
        1340
        1344
        1348
        1352
        1356
        1360
        1364
        1368
        1372
        1376
        1380
        1384
        1388
        1392
        1396
        1400
        1404
        1408
        1412
        1416
        1420
        1424
        1428
        1432
        1436
        1440
        1444
        1448
        1452
        1456
        1460
        1464
        1468
        1472
        1476
        1480
        1484
        1488
        1492
        1496
        1500
        1504
        1508
        1512
        1516
        1520
        1524
        1528
        1532
        1536
        1540
        1544
        1548
        1552
        1556
        1560
        1564
        1568
        1572
        1576
        1580
        1584
        1588
        1592
        1596
        1600
        1604
        1608
        1612
        1616
        1620
        1624
        1628
        1632
        1636
        1640
        1644
        1648
        1652
        1656
        1660
        1664
        1668
        1672
        1676
        1680
        1684
        1688
        1692
        1696
        1700
        1704
        1708
        1712
        1716
        1720
        1724
        1728
        1732
        1736
        1740
        1744
        1748
        1752
        1756
        1760
        1764
        1768
        1772
        1776
        1780
        1784
        1788
        1792
        1796
        1800
        1804
        1808
        1812
        1816
        1820
        1824
        1828
        1832
        1836
        1840
        1844
        1848
        1852
        1856
        1860
        1864
        1868
        1872
        1876
        1880
        1884
        1888
        1892
        1896
        1900
        1904
        1908
        1912
        1916
        1920
        1924
        1928
        1932
        1936
        1940
        1944
        1948
        1952
        1956
        1960
        1964
        1968
        1972
        1976
        1980
        1984
        1988
        1992
        1996
        2000
        2004
        2008
        2012
        2016
        2020
        2024
        2028
        2032
        2036
        2040
        2044
        2048
        2052
        2056
        2060
        2064
        2068
        2072
        2076
        2080
        2084
        2088
        2092
        2096
        2100
        2104
        2108
        2112
        2116
        2120
        2124
        2128
        2132
        2136
        2140
        2144
        2148
        2152
        2156
        2160
        2164
        2168
        2172
        2176
        2180
        2184
        2188
        2192
        2196
        2200
        2204
        2208
        2212
        2216
        2220
        2224
        2228
        2232
        2236
        2240
        2244
        2248
        2252
        2256
        2260
        2264
        2268
        2272
        2276
        2280
        2284
        2288
        2292
        2296
        2300
        2304
        2308
        2312
        2316
        2320
        2324
        2328
        2332
        2336
        2340
        2344
        2348
        2352
        2356
        2360
        2364
        2368
        2372
        2376
        2380
        2384
        2388
        2392
        2396
        2400
        2404
        2408
        2412
        2416
        2420
        2424
        2428
        2432
        2436
        2440
        2444
        2448
        2452
        2456
        2460
        2464
        2468
        2472
        2476
        2480
        2484
        2488
        2492
        2496
        2500
        2504
        2508
        2512
        2516
        2520
        2524
        2528
        2532
        2536
        2540
        2544
        2548
        2552
        2556
        2560
        2564
        2568
        2572
        2576
        2580
        2584
        2588
        2592
        2596
        2600
        2604
        2608
        2612
        2616
        2620
        2624
        2628
        2632
        2636
        2640
        2644
        2648
        2652
        2656
        2660
        2664
        2668
        2672
        2676
        2680
        2684
        2688
        2692
        2696
        2700
        2704
        2708
        2712
        2716
        2720
        2724
        2728
        2732
        2736
        2740
        2744
        2748
        2752
        2756
        2760
        2764
        2768
        2772
        2776
        2780
        2784
        2788
        2792
        2796
        2800
        2804
        2808
        2812
        2816
        2820
        2824
        2828
        2832
        2836
        2840
        2844
        2848
        2852
        2856
        2860
        2864
        2868
        2872
        2876
        2880
        2884
        2888
        2892
        2896
        2900
        2904
        2908
        2912
        2916
        2920
        2924
        2928
        2932
        2936
        2940
        2944
        2948
        2952
        2956
        2960
        2964
        2968
        2972
        2976
        2980
        2984
        2988
        2992
        2996
        3000
        3004
        3008
        3012
        3016
        3020
        3024
        3028
        3032
        3036
        3040
        3044
        3048
        3052
        3056
        3060
        3064
        3068
        3072
        3076
        3080
        3084
        3088
        3092
        3096
        3100
        3104
        3108
        3112
        3116
        3120
        3124
        3128
        3132
        3136
        3140
        3144
        3148
        3152
        3156
        3160
        3164
        3168
        3172
        3176
        3180
        3184
        3188
        3192
        3196
        3200
        3204
        3208
        3212
        3216
        3220
        3224
        3228
        3232
        3236
        3240
        3244
        3248
        3252
        3256
        3260
        3264
        3268
        3272
        3276
        3280
        3284
        3288
        3292
        3296
        3300
        3304
        3308
        3312
        3316
        3320
        3324
        3328
        3332
        3336
        3340
        3344
        3348
        3352
        3356
        3360
        3364
        3368
        3372
        3376
        3380
        3384
        3388
        3392
        3396
        3400
        3404
        3408
        3412
        3416
        3420
        3424
        3428
        3432
        3436
        3440
        3444
        3448
        3452
        3456
        3460
        3464
        3468
        3472
        3476
        3480
        3484
        3488
        3492
        3496
        3500
        3504
        3508
        3512
        3516
        3520
        3524
        3528
        3532
        3536
        3540
        3544
        3548
        3552
        3556
        3560
        3564
        3568
        3572
        3576
        3580
        3584
        3588
        3592
        3596
        3600
        3604
        3608
        3612
        3616
        3620
        3624
        3628
        3632
        3636
        3640
        3644
        3648
        3652
        3656
        3660
        3664
        3668
        3672
        3676
        3680
        3684
        3688
        3692
        3696
        3700
        3704
        3708
        3712
        3716
        3720
        3724
        3728
        3732
        3736
        3740
        3744
        3748
        3752
        3756
        3760
        3764
        3768
        3772
        3776
        3780
        3784
        3788
        3792
        3796
        3800
        3804
        3808
        3812
        3816
        3820
        3824
        3828
        3832
        3836
        3840
        3844
        3848
        3852
        3856
        3860
        3864
        3868
        3872
        3876
        3880
        3884
        3888
        3892
        3896
        3900
        3904
        3908
        3912
        3916
        3920
        3924
        3928
        3932
        3936
        3940
        3944
        3948
        3952
        3956
        3960
        3964
        3968
        3972
        3976
        3980
        3984
        3988
        3992
        3996
        4000
        4004
        4008
        4012
        4016
        4020
        4024
        4028
        4032
        4036
        4040
        4044
        4048
        4052
        4056
        4060
        4064
        4068
        4072
        4076
        4080
        4084
        4088
        4092
        4096
 </DataArray>
 <DataArray  type="UInt8"  Name="types"  format="ascii">
 9
 9
 9
 9
 9
 9
 9
 9
 9
 9
 9
 9
 9
 9
 9
 9
 9
 9
 9
 9
 9
 9
 9
 9
 9
 9
 9
 9
 9
 9
 9
 9
 9
 9
 9
 9
 9
 9
 9
 9
 9
 9
 9
 9
 9
 9
 9
 9
 9
 9
 9
 9
 9
 9
 9
 9
 9
 9
 9
 9
 9
 9
 9
 9
 9
 9
 9
 9
 9
 9
 9
 9
 9
 9
 9
 9
 9
 9
 9
 9
 9
 9
 9
 9
 9
 9
 9
 9
 9
 9
 9
 9
 9
 9
 9
 9
 9
 9
 9
 9
 9
 9
 9
 9
 9
 9
 9
 9
 9
 9
 9
 9
 9
 9
 9
 9
 9
 9
 9
 9
 9
 9
 9
 9
 9
 9
 9
 9
 9
 9
 9
 9
 9
 9
 9
 9
 9
 9
 9
 9
 9
 9
 9
 9
 9
 9
 9
 9
 9
 9
 9
 9
 9
 9
 9
 9
 9
 9
 9
 9
 9
 9
 9
 9
 9
 9
 9
 9
 9
 9
 9
 9
 9
 9
 9
 9
 9
 9
 9
 9
 9
 9
 9
 9
 9
 9
 9
 9
 9
 9
 9
 9
 9
 9
 9
 9
 9
 9
 9
 9
 9
 9
 9
 9
 9
 9
 9
 9
 9
 9
 9
 9
 9
 9
 9
 9
 9
 9
 9
 9
 9
 9
 9
 9
 9
 9
 9
 9
 9
 9
 9
 9
 9
 9
 9
 9
 9
 9
 9
 9
 9
 9
 9
 9
 9
 9
 9
 9
 9
 9
 9
 9
 9
 9
 9
 9
 9
 9
 9
 9
 9
 9
 9
 9
 9
 9
 9
 9
 9
 9
 9
 9
 9
 9
 9
 9
 9
 9
 9
 9
 9
 9
 9
 9
 9
 9
 9
 9
 9
 9
 9
 9
 9
 9
 9
 9
 9
 9
 9
 9
 9
 9
 9
 9
 9
 9
 9
 9
 9
 9
 9
 9
 9
 9
 9
 9
 9
 9
 9
 9
 9
 9
 9
 9
 9
 9
 9
 9
 9
 9
 9
 9
 9
 9
 9
 9
 9
 9
 9
 9
 9
 9
 9
 9
 9
 9
 9
 9
 9
 9
 9
 9
 9
 9
 9
 9
 9
 9
 9
 9
 9
 9
 9
 9
 9
 9
 9
 9
 9
 9
 9
 9
 9
 9
 9
 9
 9
 9
 9
 9
 9
 9
 9
 9
 9
 9
 9
 9
 9
 9
 9
 9
 9
 9
 9
 9
 9
 9
 9
 9
 9
 9
 9
 9
 9
 9
 9
 9
 9
 9
 9
 9
 9
 9
 9
 9
 9
 9
 9
 9
 9
 9
 9
 9
 9
 9
 9
 9
 9
 9
 9
 9
 9
 9
 9
 9
 9
 9
 9
 9
 9
 9
 9
 9
 9
 9
 9
 9
 9
 9
 9
 9
 9
 9
 9
 9
 9
 9
 9
 9
 9
 9
 9
 9
 9
 9
 9
 9
 9
 9
 9
 9
 9
 9
 9
 9
 9
 9
 9
 9
 9
 9
 9
 9
 9
 9
 9
 9
 9
 9
 9
 9
 9
 9
 9
 9
 9
 9
 9
 9
 9
 9
 9
 9
 9
 9
 9
 9
 9
 9
 9
 9
 9
 9
 9
 9
 9
 9
 9
 9
 9
 9
 9
 9
 9
 9
 9
 9
 9
 9
 9
 9
 9
 9
 9
 9
 9
 9
 9
 9
 9
 9
 9
 9
 9
 9
 9
 9
 9
 9
 9
 9
 9
 9
 9
 9
 9
 9
 9
 9
 9
 9
 9
 9
 9
 9
 9
 9
 9
 9
 9
 9
 9
 9
 9
 9
 9
 9
 9
 9
 9
 9
 9
 9
 9
 9
 9
 9
 9
 9
 9
 9
 9
 9
 9
 9
 9
 9
 9
 9
 9
 9
 9
 9
 9
 9
 9
 9
 9
 9
 9
 9
 9
 9
 9
 9
 9
 9
 9
 9
 9
 9
 9
 9
 9
 9
 9
 9
 9
 9
 9
 9
 9
 9
 9
 9
 9
 9
 9
 9
 9
 9
 9
 9
 9
 9
 9
 9
 9
 9
 9
 9
 9
 9
 9
 9
 9
 9
 9
 9
 9
 9
 9
 9
 9
 9
 9
 9
 9
 9
 9
 9
 9
 9
 9
 9
 9
 9
 9
 9
 9
 9
 9
 9
 9
 9
 9
 9
 9
 9
 9
 9
 9
 9
 9
 9
 9
 9
 9
 9
 9
 9
 9
 9
 9
 9
 9
 9
 9
 9
 9
 9
 9
 9
 9
 9
 9
 9
 9
 9
 9
 9
 9
 9
 9
 9
 9
 9
 9
 9
 9
 9
 9
 9
 9
 9
 9
 9
 9
 9
 9
 9
 9
 9
 9
 9
 9
 9
 9
 9
 9
 9
 9
 9
 9
 9
 9
 9
 9
 9
 9
 9
 9
 9
 9
 9
 9
 9
 9
 9
 9
 9
 9
 9
 9
 9
 9
 9
 9
 9
 9
 9
 9
 9
 9
 9
 9
 9
 9
 9
 9
 9
 9
 9
 9
 9
 9
 9
 9
 9
 9
 9
 9
 9
 9
 9
 9
 9
 9
 9
 9
 9
 9
 9
 9
 9
 9
 9
 9
 9
 9
 9
 9
 9
 9
 9
 9
 9
 9
 9
 9
 9
 9
 9
 9
 9
 9
 9
 9
 9
 9
 9
 9
 9
 9
 9
 9
 9
 9
 9
 9
 9
 9
 9
 9
 9
 9
 9
 9
 9
 9
 9
 9
 9
 9
 9
 9
 9
 9
 9
 9
 9
 9
 9
 9
 9
 9
 9
 9
 9
 9
 9
 9
 9
 9
 9
 9
 9
 9
 9
 9
 9
 9
 9
 9
 9
 9
 9
 9
 9
 9
 9
 9
 9
 9
 9
 9
 9
 9
 9
 9
 9
 9
 9
 9
 9
 9
 9
 9
 9
 9
 9
 9
 9
 9
 9
 9
 9
 9
 9
 9
 9
 9
 9
 9
 9
 9
 9
 9
 9
 9
 9
 9
 9
 9
 9
 9
 9
 9
 9
 9
 9
 9
 9
 9
 9
 9
 9
 9
 9
 9
 9
 9
 9
 9
 9
 9
 9
 9
 9
 9
 9
 9
 9
 9
 9
 9
 9
 9
 9
 9
 9
 9
 9
 9
 9
 9
 9
 9
 9
 9
 9
 9
 9
 9
 9
 9
 9
 9
 9
 9
 9
 9
 9
 9
 9
 9
 9
 9
 9
 9
 9
 9
 9
 9
 9
 9
 9
 9
 9
 9
 9
 9
 9
 </DataArray>
 </Cells> 
 <PointData>
 <DataArray  type="Float64" Name="disp" NumberOfComponents="3" format="ascii">
   6.6810922849966994E-002   6.2058287915580726E-002   0.0000000000000000     
   6.9484970177595279E-002   6.7752227599744447E-002   0.0000000000000000     
   7.2137898421690161E-002   7.3536742112411527E-002   0.0000000000000000     
   7.4769707582251710E-002   7.9411831453581966E-002   0.0000000000000000     
   7.7380397659279870E-002   8.5377495623255778E-002   0.0000000000000000     
   6.0515891458717191E-002   6.1655409177133219E-002   0.0000000000000000     
   6.3341464507930378E-002   6.7168164988642781E-002   0.0000000000000000     
   6.6069820699690723E-002   7.2831539265903258E-002   0.0000000000000000     
   6.8700960033998254E-002   7.8645532008914637E-002   0.0000000000000000     
   7.1234882510852957E-002   8.4610143217676931E-002   0.0000000000000000     
   5.4831012653152919E-002   6.1125793566350506E-002   0.0000000000000000     
   5.7680789516140973E-002   6.6531558863507922E-002   0.0000000000000000     
   6.0388135085742041E-002   7.2126401420052388E-002   0.0000000000000000     
   6.2953049361956143E-002   7.7910321235983862E-002   0.0000000000000000     
   6.5375532344783258E-002   8.3883318311302399E-002   0.0000000000000000     
   4.9756286433274198E-002   6.0469441083232579E-002   0.0000000000000000     
   5.2502945202227036E-002   6.5842409224339871E-002   0.0000000000000000     
   5.5092841579844086E-002   7.1421328574858903E-002   0.0000000000000000     
   5.7525975566125348E-002   7.7206199134789683E-002   0.0000000000000000     
   5.9802347161070808E-002   8.3197020904132210E-002   0.0000000000000000     
   4.5291712799081021E-002   5.9686351727779446E-002   0.0000000000000000     
   4.7807931566188594E-002   6.5100716071138626E-002   0.0000000000000000     
   5.0183940181996879E-002   7.0716320730322829E-002   0.0000000000000000     
   5.2419738646505863E-002   7.6533165705332071E-002   0.0000000000000000     
   5.4515326959715574E-002   8.2551250996166323E-002   0.0000000000000000     
   7.7380397659279870E-002   8.5377495623255778E-002   0.0000000000000000     
   7.9948482251295999E-002   9.1469898424723584E-002   0.0000000000000000     
   8.2452474956821398E-002   9.7725203661275975E-002   0.0000000000000000     
   8.4892375775856094E-002  0.10414341133291302        0.0000000000000000     
   8.7268184708400059E-002  0.11072452143963464        0.0000000000000000     
   7.1234882510852957E-002   8.4610143217676931E-002   0.0000000000000000     
   7.3686690919516781E-002   9.0730636824070704E-002   0.0000000000000000     
   7.6071488049251693E-002   9.7012276759976604E-002   0.0000000000000000     
   7.8389273900057690E-002  0.10345506302539458        0.0000000000000000     
   8.0640048471934789E-002  0.11005899562032465        0.0000000000000000     
   6.5375532344783258E-002   8.3883318311302399E-002   0.0000000000000000     
   6.7693256102086388E-002   9.0030710410610892E-002   0.0000000000000000     
   6.9943892701728433E-002   9.6337815298512333E-002   0.0000000000000000     
   7.2127442143709433E-002  0.10280463297500668        0.0000000000000000     
   7.4243904428029348E-002  0.10943116344009393        0.0000000000000000     
   5.9802347161070808E-002   8.3197020904132210E-002   0.0000000000000000     
   6.1968177799004792E-002   8.9370119184344121E-002   0.0000000000000000     
   6.4069688914251632E-002   9.5701819276883149E-002   0.0000000000000000     
   6.6106880506811266E-002  0.10219212118174928        0.0000000000000000     
   6.8079752576683764E-002  0.10884102489894247        0.0000000000000000     
   5.4515326959715574E-002   8.2551250996166323E-002   0.0000000000000000     
   5.6511456010272021E-002   8.8748863145270390E-002   0.0000000000000000     
   5.8448876686821243E-002   9.5104288695089093E-002   0.0000000000000000     
   6.0327588989363239E-002  0.10161752764562237        0.0000000000000000     
   6.2147592917898016E-002  0.10828857999687029        0.0000000000000000     
   8.7268184708400059E-002  0.11072452143963464        0.0000000000000000     
   8.9560946921438317E-002  0.11745075751787162        0.0000000000000000     
   9.1751707581955930E-002  0.12430434310405465        0.0000000000000000     
   9.3840466689952828E-002  0.13128527819818378        0.0000000000000000     
   9.5827224245429068E-002  0.13839356280025897        0.0000000000000000     
   8.0640048471934789E-002  0.11005899562032465        0.0000000000000000     
   8.2807611158357469E-002  0.11680815186874330        0.0000000000000000     
   8.4875761352800227E-002  0.12368660909462705        0.0000000000000000     
   8.6844499055263091E-002  0.13069436729797587        0.0000000000000000     
   8.8713824265746033E-002  0.13783142647878979        0.0000000000000000     
   7.4243904428029348E-002  0.10943116344009393        0.0000000000000000     
   7.6279038555337284E-002  0.11620299914298232        0.0000000000000000     
   7.8218603526282252E-002  0.12310573253288008        0.0000000000000000     
   8.0062599340864293E-002  0.13013936360978723        0.0000000000000000     
   8.1811025999083381E-002  0.13730389237370372        0.0000000000000000     
   6.8079752576683764E-002  0.10884102489894247        0.0000000000000000     
   6.9975229112377774E-002  0.11563529934058868        0.0000000000000000     
   7.1780234102402016E-002  0.12256171341881378        0.0000000000000000     
   7.3494767546756462E-002  0.12962026713361777        0.0000000000000000     
   7.5118829445441127E-002  0.13681096048500072        0.0000000000000000     
   6.2147592917898016E-002  0.10828857999687029        0.0000000000000000     
   6.3896182829478954E-002  0.11510505246156236        0.0000000000000000     
   6.5560653081159478E-002  0.12205455175242810        0.0000000000000000     
   6.7141003672939584E-002  0.12913707786946760        0.0000000000000000     
   6.8637234604819256E-002  0.13635263081268079        0.0000000000000000     
   9.5827224245429068E-002  0.13839356280025897        0.0000000000000000     
   9.7718642812894496E-002  0.14562304069295900        0.0000000000000000     
   9.9521384956858999E-002  0.15296755565896267        0.0000000000000000     
  0.10123545067732258       0.16042710769826998        0.0000000000000000     
  0.10286083997428523       0.16800169681088092        0.0000000000000000     
   8.8713824265746033E-002  0.13783142647878979        0.0000000000000000     
   9.0492302009190395E-002  0.14508959517782249        0.0000000000000000     
   9.2188497310537590E-002  0.15246068193582765        0.0000000000000000     
   9.3802410169787534E-002  0.15994468675280532        0.0000000000000000     
   9.5334040586940283E-002  0.16754160962875542        0.0000000000000000     
   8.1811025999083381E-002  0.13730389237370372        0.0000000000000000     
   8.3473324320138570E-002  0.14458955271026833        0.0000000000000000     
   8.5058935123228888E-002  0.15198657850511982        0.0000000000000000     
   8.6567858408354362E-002  0.15949496975825819        0.0000000000000000     
   8.8000094175514978E-002  0.16711472646968339        0.0000000000000000     
   7.5118829445441127E-002  0.13681096048500072        0.0000000000000000     
   7.6661709745738979E-002  0.14412291329029650        0.0000000000000000     
   7.8132698394932948E-002  0.15154524536683908        0.0000000000000000     
   7.9531795393023033E-002  0.15907795671462857        0.0000000000000000     
   8.0859000740009290E-002  0.16672104733366483        0.0000000000000000     
   6.8637234604819256E-002  0.13635263081268079        0.0000000000000000     
   7.0057458285991608E-002  0.14368967691790702        0.0000000000000000     
   7.1409787125649729E-002  0.15113668252098558        0.0000000000000000     
   7.2694221123793590E-002  0.15869364762191648        0.0000000000000000     
   7.3910760280423232E-002  0.16636057222069975        0.0000000000000000     
  0.10286083997428523       0.16800169681088092        0.0000000000000000     
  0.10439969383343829       0.17567680911918554        0.0000000000000000     
  0.10585415324047308       0.18343793074557369        0.0000000000000000     
  0.10722421819538960       0.19128506169004550        0.0000000000000000     
  0.10850988869818785       0.19921820195260093        0.0000000000000000     
   9.5334040586940283E-002  0.16754160962875542        0.0000000000000000     
   9.6782253014871464E-002  0.17523896073119952        0.0000000000000000     
   9.8145911906456690E-002  0.18302425022765900        0.0000000000000000     
   9.9425017261696003E-002  0.19089747811813404        0.0000000000000000     
  0.10061956908058936       0.19885864440262443        0.0000000000000000     
   8.8000094175514978E-002  0.16711472646968339        0.0000000000000000     
   8.9352339762331617E-002  0.17483474671293364        0.0000000000000000     
   9.0621292506425172E-002  0.18264392856154715        0.0000000000000000     
   9.1806952407795642E-002  0.19054227201552382        0.0000000000000000     
   9.2909319466443041E-002  0.19852977707486372        0.0000000000000000     
   8.0859000740009290E-002  0.16672104733366483        0.0000000000000000     
   8.2109954075818753E-002  0.17446416706438800        0.0000000000000000     
   8.3280295040378496E-002  0.18229696574723800        0.0000000000000000     
   8.4370023633688576E-002  0.19021944338221494        0.0000000000000000     
   8.5379139855748909E-002  0.19823159996931874        0.0000000000000000     
   7.3910760280423232E-002  0.16636057222069975        0.0000000000000000     
   7.5055095955332857E-002  0.17412722178556242        0.0000000000000000     
   7.6122919508316678E-002  0.18198336178473165        0.0000000000000000     
   7.7114230939374737E-002  0.18992899221820733        0.0000000000000000     
   7.8029030248506978E-002  0.19796411308598949        0.0000000000000000     
  0.10850988869818785       0.19921820195260093        0.0000000000000000     
  0.10971599353542003       0.20723569609346895        0.0000000000000000     
  0.11084736149363836       0.21533588867287859        0.0000000000000000     
  0.11190399257284279       0.22351877969082984        0.0000000000000000     
  0.11288588677303338       0.23178436914732270        0.0000000000000000     
  0.10061956908058936       0.19885864440262443        0.0000000000000000     
  0.10173543894357374       0.20690279640990070        0.0000000000000000     
  0.10277849843108618       0.21502498146873308        0.0000000000000000     
  0.10374874754312664       0.22322519957912157        0.0000000000000000     
  0.10464618627969514       0.23150345074106621        0.0000000000000000     
   9.2909319466443041E-002  0.19852977707486372        0.0000000000000000     
   9.3934083882045535E-002  0.20659946651388503        0.0000000000000000     
   9.4886935854281332E-002  0.21474436310690584        0.0000000000000000     
   9.5767875383150444E-002  0.22296446685392621        0.0000000000000000     
   9.6576902468652859E-002  0.23125977775494616        0.0000000000000000     
   8.5379139855748909E-002  0.19823159996931874        0.0000000000000000     
   8.6311928350835398E-002  0.20632570640542192        0.0000000000000000     
   8.7172673763223824E-002  0.21449403358739691        0.0000000000000000     
   8.7961376092914198E-002  0.22273658151524375        0.0000000000000000     
   8.8678035339906522E-002  0.23105335018896245        0.0000000000000000     
   7.8029030248506978E-002  0.19796411308598949        0.0000000000000000     
   7.8868972349943320E-002  0.20608151608451139        0.0000000000000000     
   7.9635712157913624E-002  0.21427399291020632        0.0000000000000000     
   8.0329249672417877E-002  0.22254154356307421        0.0000000000000000     
   8.0949584893456120E-002  0.23088416804311512        0.0000000000000000     
  0.11288588677303338       0.23178436914732270        0.0000000000000000     
  0.11382084725080069       0.24014860612679184        0.0000000000000000     
  0.11473667716273536       0.24862743971367196        0.0000000000000000     
  0.11563337650883737       0.25722086990796317        0.0000000000000000     
  0.11651094528910674       0.26592889670966530        0.0000000000000000     
  0.10464618627969514       0.23150345074106621        0.0000000000000000     
  0.10547564040478752       0.23988293359650831        0.0000000000000000     
  0.10624193568239962       0.24838684678738929        0.0000000000000000     
  0.10694507211253147       0.25701519031370901        0.0000000000000000     
  0.10758504969518302       0.26576796417546761        0.0000000000000000     
   9.6576902468652859E-002  0.23125977775494616        0.0000000000000000     
   9.7304776079911198E-002  0.23965671804682118        0.0000000000000000     
   9.7942255186048058E-002  0.24818170996640693        0.0000000000000000     
   9.8489339787063479E-002  0.25683475351370338        0.0000000000000000     
   9.8946029882957406E-002  0.26561584868871041        0.0000000000000000     
   8.8678035339906522E-002  0.23105335018896245        0.0000000000000000     
   8.9308254276171700E-002  0.23946995947773037        0.0000000000000000     
   8.9837635673680666E-002  0.24801202925072485        0.0000000000000000     
   9.0266179532433377E-002  0.25667955950794596        0.0000000000000000     
   9.0593885852429876E-002  0.26547255024939370        0.0000000000000000     
   8.0949584893456120E-002  0.23088416804311512        0.0000000000000000     
   8.1486074993569052E-002  0.23932265788923585        0.0000000000000000     
   8.1928077145297415E-002  0.24787780464034312        0.0000000000000000     
   8.2275591348641222E-002  0.25654960829643703        0.0000000000000000     
   8.2528617603600432E-002  0.26533806885751754        0.0000000000000000     
  0.11651094528910674       0.26592889670966530        0.0000000000000000     
  0.11730981679626391       0.27491634441510954        0.0000000000000000     
  0.11797042432302933       0.28434803732062686        0.0000000000000000     
  0.11849276786940295       0.29422397542621731        0.0000000000000000     
  0.11887684743538482       0.30454415873188084        0.0000000000000000     
  0.10758504969518302       0.26576796417546761        0.0000000000000000     
  0.10814290963744252       0.27477737718184625        0.0000000000000000     
  0.10859969314639810       0.28417563814202618        0.0000000000000000     
  0.10895540022204979       0.29396274705600756        0.0000000000000000     
  0.10921003086439759       0.30413870392379017        0.0000000000000000     
   9.8946029882957406E-002  0.26561584868871041        0.0000000000000000     
   9.9323328241845935E-002  0.27462324870172217        0.0000000000000000     
   9.9632237631845047E-002  0.28395520676303254        0.0000000000000000     
   9.9872758052954785E-002  0.29361172287264165        0.0000000000000000     
  0.10004488950517515       0.30359279703054942        0.0000000000000000     
   9.0593885852429876E-002  0.26547255024939370        0.0000000000000000     
   9.0851072609474129E-002  0.27445395897473729        0.0000000000000000     
   9.1068057779370173E-002  0.28368674318364590        0.0000000000000000     
   9.1244841362117926E-002  0.29317090287611974        0.0000000000000000     
   9.1381423357717456E-002  0.30290643805215850        0.0000000000000000     
   8.2528617603600432E-002  0.26533806885751754        0.0000000000000000     
   8.2726142740327149E-002  0.27426950800089167        0.0000000000000000     
   8.2907153588973395E-002  0.28337024740386635        0.0000000000000000     
   8.3071650149539211E-002  0.29264028706644163        0.0000000000000000     
   8.3219632422024542E-002  0.30207962698861746        0.0000000000000000     
   4.5291712799081021E-002   5.9686351727779446E-002   0.0000000000000000     
   4.7807931566188594E-002   6.5100716071138626E-002   0.0000000000000000     
   5.0183940181996879E-002   7.0716320730322829E-002   0.0000000000000000     
   5.2419738646505863E-002   7.6533165705332071E-002   0.0000000000000000     
   5.4515326959715574E-002   8.2551250996166323E-002   0.0000000000000000     
   4.1154761894344374E-002   5.8891425380697623E-002   0.0000000000000000     
   4.3391405739775686E-002   6.4374553075581764E-002   0.0000000000000000     
   4.5516366775004063E-002   7.0045849548277278E-002   0.0000000000000000     
   4.7529645000029513E-002   7.5905314798784151E-002   0.0000000000000000     
   4.9431240414852022E-002   8.1952948827102412E-002   0.0000000000000000     
   3.7062903862835249E-002   5.8199561922693592E-002   0.0000000000000000     
   3.9049024854738365E-002   6.3731993909346862E-002   0.0000000000000000     
   4.0945057241669289E-002   6.9444386690555387E-002   0.0000000000000000     
   4.2751001023628027E-002   7.5336740266319105E-002   0.0000000000000000     
   4.4466856200614593E-002   8.1409054636638112E-002   0.0000000000000000     
   3.3016138704553645E-002   5.7610761353767387E-002   0.0000000000000000     
   3.4780788911076617E-002   6.3173038572433962E-002   0.0000000000000000     
   3.6470011581992548E-002   6.8911932157157157E-002   0.0000000000000000     
   3.8083806717301445E-002   7.4827442107936945E-002   0.0000000000000000     
   3.9622174317003295E-002   8.0919568424773380E-002   0.0000000000000000     
   2.9014466419499573E-002   5.7125023673918973E-002   0.0000000000000000     
   3.0586697908790456E-002   6.2697687064843008E-002   0.0000000000000000     
   3.2091229795973848E-002   6.8448485948082560E-002   0.0000000000000000     
   3.3528062081049727E-002   7.4377420323637658E-002   0.0000000000000000     
   3.4897194764018119E-002   8.0484490191508273E-002   0.0000000000000000     
   5.4515326959715574E-002   8.2551250996166323E-002   0.0000000000000000     
   5.6511456010272021E-002   8.8748863145270390E-002   0.0000000000000000     
   5.8448876686821243E-002   9.5104288695089093E-002   0.0000000000000000     
   6.0327588989363239E-002  0.10161752764562237        0.0000000000000000     
   6.2147592917898016E-002  0.10828857999687029        0.0000000000000000     
   4.9431240414852022E-002   8.1952948827102412E-002   0.0000000000000000     
   5.1250948787056612E-002   8.8173323899380637E-002   0.0000000000000000     
   5.3018565884228284E-002   9.4551012281767433E-002   0.0000000000000000     
   5.4734091706367040E-002  0.10108601397426283        0.0000000000000000     
   5.6397526253472871E-002  0.10777832897686677        0.0000000000000000     
   4.4466856200614593E-002   8.1409054636638112E-002   0.0000000000000000     
   4.6114514180527116E-002   8.7649883052665731E-002   0.0000000000000000     
   4.7715866371263703E-002   9.4047778765555493E-002   0.0000000000000000     
   4.9270912772824381E-002  0.10060274177530736        0.0000000000000000     
   5.0779653385209116E-002  0.10731477208192139        0.0000000000000000     
   3.9622174317003295E-002   8.0919568424773380E-002   0.0000000000000000     
   4.1102152190683507E-002   8.7178540605125726E-002   0.0000000000000000     
   4.2540778147927505E-002   9.3594588146453273E-002   0.0000000000000000     
   4.3938052188735248E-002  0.10016771104875605        0.0000000000000000     
   4.5293974313106743E-002  0.10689790931203405        0.0000000000000000     
   3.4897194764018119E-002   8.0484490191508273E-002   0.0000000000000000     
   3.6213862817525824E-002   8.6759296556760596E-002   0.0000000000000000     
   3.7493301214219663E-002   9.3191440424460800E-002   0.0000000000000000     
   3.8735509954099634E-002   9.9780921794608873E-002   0.0000000000000000     
   3.9940489037165752E-002  0.10652774066720483        0.0000000000000000     
   6.2147592917898016E-002  0.10828857999687029        0.0000000000000000     
   6.3896182829478954E-002  0.11510505246156236        0.0000000000000000     
   6.5560653081159478E-002  0.12205455175242810        0.0000000000000000     
   6.7141003672939584E-002  0.12913707786946760        0.0000000000000000     
   6.8637234604819256E-002  0.13635263081268079        0.0000000000000000     
   5.6397526253472871E-002  0.10777832897686677        0.0000000000000000     
   5.7996311551503768E-002  0.11461614505188360        0.0000000000000000     
   5.9517889626417686E-002  0.12158764996161758        0.0000000000000000     
   6.0962260478214625E-002  0.12869284370606873        0.0000000000000000     
   6.2329424106894585E-002  0.13593172628523700        0.0000000000000000     
   5.0779653385209116E-002  0.10731477208192139        0.0000000000000000     
   5.2230027123315134E-002  0.11417246365753271        0.0000000000000000     
   5.3609972902039608E-002  0.12116441047427666        0.0000000000000000     
   5.4919490721382531E-002  0.12829061253215324        0.0000000000000000     
   5.6158580581343917E-002  0.13555106983116236        0.0000000000000000     
   4.5293974313106743E-002  0.10689790931203405        0.0000000000000000     
   4.6597329544913059E-002  0.11377400827850968        0.0000000000000000     
   4.7836902908025260E-002  0.12078483329040537        0.0000000000000000     
   4.9012694402443317E-002  0.12793038434772111        0.0000000000000000     
   5.0124704028167238E-002  0.13521066145045690        0.0000000000000000     
   3.9940489037165752E-002  0.10652774066720483        0.0000000000000000     
   4.1098218816297556E-002  0.11342077891481450        0.0000000000000000     
   4.2198679644374626E-002  0.12044891841000370        0.0000000000000000     
   4.3241871521396961E-002  0.12761215915277241        0.0000000000000000     
   4.4227794447364563E-002  0.13491050114312061        0.0000000000000000     
   6.8637234604819256E-002  0.13635263081268079        0.0000000000000000     
   7.0057458285991608E-002  0.14368967691790702        0.0000000000000000     
   7.1409787125649729E-002  0.15113668252098558        0.0000000000000000     
   7.2694221123793590E-002  0.15869364762191648        0.0000000000000000     
   7.3910760280423232E-002  0.16636057222069975        0.0000000000000000     
   6.2329424106894585E-002  0.13593172628523700        0.0000000000000000     
   6.3625955861139422E-002  0.14329238915799081        0.0000000000000000     
   6.4858431089630950E-002  0.15076292378319855        0.0000000000000000     
   6.6026849792369183E-002  0.15834333016086027        0.0000000000000000     
   6.7131211969354135E-002  0.16603360829097591        0.0000000000000000     
   5.6158580581343917E-002  0.13555106983116236        0.0000000000000000     
   5.7332588391425326E-002  0.14293359557543886        0.0000000000000000     
   5.8446860061128370E-002  0.15042600296911746        0.0000000000000000     
   5.9501395590453039E-002  0.15802829201219817        0.0000000000000000     
   6.0496194979399329E-002  0.16574046270468104        0.0000000000000000     
   5.0124704028167238E-002  0.13521066145045690        0.0000000000000000     
   5.1177355876849358E-002  0.14261329617025115        0.0000000000000000     
   5.2175074040142003E-002  0.15012592007874229        0.0000000000000000     
   5.3117858518045152E-002  0.15774853317593027        0.0000000000000000     
   5.4005709310558835E-002  0.16548113546181512        0.0000000000000000     
   4.4227794447364563E-002  0.13491050114312061        0.0000000000000000     
   4.5160258317411488E-002  0.14233149094242770        0.0000000000000000     
   4.6043073026671807E-002  0.14986267511207296        0.0000000000000000     
   4.6876238575145529E-002  0.15750405365205647        0.0000000000000000     
   4.7659754962832639E-002  0.16525562656237816        0.0000000000000000     
   7.3910760280423232E-002  0.16636057222069975        0.0000000000000000     
   7.5055095955332857E-002  0.17412722178556242        0.0000000000000000     
   7.6122919508316678E-002  0.18198336178473165        0.0000000000000000     
   7.7114230939374737E-002  0.18992899221820733        0.0000000000000000     
   7.8029030248506978E-002  0.19796411308598949        0.0000000000000000     
   6.7131211969354135E-002  0.16603360829097591        0.0000000000000000     
   6.8167718706682090E-002  0.17382334497017116        0.0000000000000000     
   6.9132571090449429E-002  0.18170212699507171        0.0000000000000000     
   7.0025769120656084E-002  0.18966995436567757        0.0000000000000000     
   7.0847312797302109E-002  0.19772682708198874        0.0000000000000000     
   6.0496194979399329E-002  0.16574046270468104        0.0000000000000000     
   6.1427775635674649E-002  0.17355197071192821        0.0000000000000000     
   6.2292654966986397E-002  0.18145227169930200        0.0000000000000000     
   6.3090832973334565E-002  0.18944136566680239        0.0000000000000000     
   6.3822309654719175E-002  0.19751925261442937        0.0000000000000000     
   5.4005709310558835E-002  0.16548113546181512        0.0000000000000000     
   5.4835266742310498E-002  0.17331309901083358        0.0000000000000000     
   5.5603171137927607E-002  0.18123379589742242        0.0000000000000000     
   5.6309422497410166E-002  0.18924322612158168        0.0000000000000000     
   5.6954020820758178E-002  0.19734138968331130        0.0000000000000000     
   4.7659754962832639E-002  0.16525562656237816        0.0000000000000000     
   4.8390192026589646E-002  0.17310672986688727        0.0000000000000000     
   4.9064119603273060E-002  0.18104669958943304        0.0000000000000000     
   4.9681537692882895E-002  0.18907553573001548        0.0000000000000000     
   5.0242446295419123E-002  0.19719323828863455        0.0000000000000000     
   7.8029030248506978E-002  0.19796411308598949        0.0000000000000000     
   7.8868972349943320E-002  0.20608151608451139        0.0000000000000000     
   7.9635712157913624E-002  0.21427399291020632        0.0000000000000000     
   8.0329249672417877E-002  0.22254154356307421        0.0000000000000000     
   8.0949584893456120E-002  0.23088416804311512        0.0000000000000000     
   7.0847312797302109E-002  0.19772682708198874        0.0000000000000000     
   7.1596198161492916E-002  0.20586631008125739        0.0000000000000000     
   7.2271421254333959E-002  0.21408196830073570        0.0000000000000000     
   7.2872982075825224E-002  0.22237380174042359        0.0000000000000000     
   7.3400880625966725E-002  0.23074181040032116        0.0000000000000000     
   6.3822309654719175E-002  0.19751925261442937        0.0000000000000000     
   6.4484588067607804E-002  0.20567950292576381        0.0000000000000000     
   6.5075171268468041E-002  0.21391568698438670        0.0000000000000000     
   6.5594059257299914E-002  0.22222780479029791        0.0000000000000000     
   6.6041252034103368E-002  0.23061585634349749        0.0000000000000000     
   5.6954020820758178E-002  0.19734138968331130        0.0000000000000000     
   5.7534142068287983E-002  0.20552109461803073        0.0000000000000000     
   5.8046962200315889E-002  0.21377514896115934        0.0000000000000000     
   5.8492481216841918E-002  0.22210355271269713        0.0000000000000000     
   5.8870699117866063E-002  0.23050630587264415        0.0000000000000000     
   5.0242446295419123E-002  0.19719323828863455        0.0000000000000000     
   5.0744860163533426E-002  0.20539108515805804        0.0000000000000000     
   5.1186794049877471E-002  0.21366035423105367        0.0000000000000000     
   5.1568247954451259E-002  0.22200104550762131        0.0000000000000000     
   5.1889221877254789E-002  0.23041315898776116        0.0000000000000000     
   8.0949584893456120E-002  0.23088416804311512        0.0000000000000000     
   8.1486074993569052E-002  0.23932265788923585        0.0000000000000000     
   8.1928077145297415E-002  0.24787780464034312        0.0000000000000000     
   8.2275591348641222E-002  0.25654960829643703        0.0000000000000000     
   8.2528617603600432E-002  0.26533806885751754        0.0000000000000000     
   7.3400880625966725E-002  0.23074181040032116        0.0000000000000000     
   7.3851794718067978E-002  0.23919983922554164        0.0000000000000000     
   7.4222402165438572E-002  0.24776173316119840        0.0000000000000000     
   7.4512702968078451E-002  0.25642749220729139        0.0000000000000000     
   7.4722697125987669E-002  0.26519711636382060        0.0000000000000000     
   6.6041252034103368E-002  0.23061585634349749        0.0000000000000000     
   6.6418969935633260E-002  0.23908652943085185        0.0000000000000000     
   6.6729433298644336E-002  0.24764651183922731        0.0000000000000000     
   6.6972642123136653E-002  0.25629580356862386        0.0000000000000000     
   6.7148596409110167E-002  0.26503440461904149        0.0000000000000000     
   5.8870699117866063E-002  0.23050630587264415        0.0000000000000000     
   5.9187600646264833E-002  0.23898272850516636        0.0000000000000000     
   5.9449170544914727E-002  0.24753214067442983        0.0000000000000000     
   5.9655408813815758E-002  0.25615454238043450        0.0000000000000000     
   5.9806315452967933E-002  0.26484993362318043        0.0000000000000000     
   5.1889221877254789E-002  0.23041315898776116        0.0000000000000000     
   5.2157686849962713E-002  0.23888843644848529        0.0000000000000000     
   5.2381613904249717E-002  0.24741861966680601        0.0000000000000000     
   5.2561003040115795E-002  0.25600370864272332        0.0000000000000000     
   5.2695854257560945E-002  0.26464370337623722        0.0000000000000000     
   8.2528617603600432E-002  0.26533806885751754        0.0000000000000000     
   8.2726142740327149E-002  0.27426950800089167        0.0000000000000000     
   8.2907153588973395E-002  0.28337024740386635        0.0000000000000000     
   8.3071650149539211E-002  0.29264028706644163        0.0000000000000000     
   8.3219632422024542E-002  0.30207962698861746        0.0000000000000000     
   7.4722697125987669E-002  0.26519711636382060        0.0000000000000000     
   7.4893375027480516E-002  0.27406422632229227        0.0000000000000000     
   7.5065727060871321E-002  0.28302244277421273        0.0000000000000000     
   7.5239753226160055E-002  0.29207176571958210        0.0000000000000000     
   7.5415453523346776E-002  0.30121219515840009        0.0000000000000000     
   6.7148596409110167E-002  0.26503440461904149        0.0000000000000000     
   6.7297605864009805E-002  0.27383244448104638        0.0000000000000000     
   6.7459980195280406E-002  0.28266005264520444        0.0000000000000000     
   6.7635719402921970E-002  0.29151722911151562        0.0000000000000000     
   6.7824823486934513E-002  0.30040397387998002        0.0000000000000000     
   5.9806315452967933E-002  0.26484993362318043        0.0000000000000000     
   5.9938835249914980E-002  0.27357416247715383        0.0000000000000000     
   6.0089912992200629E-002  0.28228307701684113        0.0000000000000000     
   6.0259548679824887E-002  0.29097667724224230        0.0000000000000000     
   6.0447742312787767E-002  0.29965496315335727        0.0000000000000000     
   5.2695854257560945E-002  0.26464370337623722        0.0000000000000000     
   5.2817063185196057E-002  0.27328938031061478        0.0000000000000000     
   5.2955525451632027E-002  0.28189151588912303        0.0000000000000000     
   5.3111241056868853E-002  0.29045011011176214        0.0000000000000000     
   5.3284210000906530E-002  0.29896516297853187        0.0000000000000000     
   2.9014466419499573E-002   5.7125023673918973E-002   0.0000000000000000     
   3.0586697908790456E-002   6.2697687064843008E-002   0.0000000000000000     
   3.2091229795973848E-002   6.8448485948082560E-002   0.0000000000000000     
   3.3528062081049727E-002   7.4377420323637658E-002   0.0000000000000000     
   3.4897194764018119E-002   8.0484490191508273E-002   0.0000000000000000     
   2.5090118936230761E-002   5.6715725970014105E-002   0.0000000000000000     
   2.6481103799154439E-002   6.2289816113319685E-002   0.0000000000000000     
   2.7809399695314947E-002   6.8045542375374204E-002   0.0000000000000000     
   2.9075006624712289E-002   7.3982904756177664E-002   0.0000000000000000     
   3.0277924587346461E-002   8.0101903255730078E-002   0.0000000000000000     
   2.1275328183304951E-002   5.6356245328918517E-002   0.0000000000000000     
   2.2478358533443103E-002   6.1933302444609650E-002   0.0000000000000000     
   2.3625209091717614E-002   6.7694595751074629E-002   0.0000000000000000     
   2.4715879858128488E-002   7.3640125248313440E-002   0.0000000000000000     
   2.5750370832675722E-002   7.9769890936326165E-002   0.0000000000000000     
   1.7570094160722145E-002   5.6046581750632200E-002   0.0000000000000000     
   1.8578462111656452E-002   6.1628146058712890E-002   0.0000000000000000     
   1.9538657985181843E-002   6.7395646075183821E-002   0.0000000000000000     
   2.0450681781298333E-002   7.3349081800045027E-002   0.0000000000000000     
   2.1314533500005901E-002   7.9488453233296480E-002   0.0000000000000000     
   1.3974416868482336E-002   5.5786735235155163E-002   0.0000000000000000     
   1.4781414533794487E-002   6.1374346955629405E-002   0.0000000000000000     
   1.5549746375707649E-002   6.7148693347701793E-002   0.0000000000000000     
   1.6279412394221815E-002   7.3109774411372341E-002   0.0000000000000000     
   1.6970412589336993E-002   7.9257590146641049E-002   0.0000000000000000     
   3.4897194764018119E-002   8.0484490191508273E-002   0.0000000000000000     
   3.6213862817525824E-002   8.6759296556760596E-002   0.0000000000000000     
   3.7493301214219663E-002   9.3191440424460800E-002   0.0000000000000000     
   3.8735509954099634E-002   9.9780921794608873E-002   0.0000000000000000     
   3.9940489037165752E-002  0.10652774066720483        0.0000000000000000     
   3.0277924587346461E-002   8.0101903255730078E-002   0.0000000000000000     
   3.1432822240289086E-002   8.6390562351891964E-002   0.0000000000000000     
   3.2554368240611802E-002   9.2836906522523799E-002   0.0000000000000000     
   3.3642562588314592E-002   9.9440935767625610E-002   0.0000000000000000     
   3.4697405283397459E-002  0.10620265008719740        0.0000000000000000     
   2.5750370832675722E-002   7.9769890936326165E-002   0.0000000000000000     
   2.6742206638208373E-002   8.6070749434841456E-002   0.0000000000000000     
   2.7704911897575502E-002   9.2529557363588075E-002   0.0000000000000000     
   2.8638486610777111E-002   9.9146314722566062E-002   0.0000000000000000     
   2.9542930777813201E-002  0.10592102151177538        0.0000000000000000     
   2.1314533500005901E-002   7.9488453233296480E-002   0.0000000000000000     
   2.2142016011283672E-002   8.5799857805609073E-002   0.0000000000000000     
   2.2944932185110775E-002   9.2269392947653642E-002   0.0000000000000000     
   2.3723282021487210E-002   9.8897058659430229E-002   0.0000000000000000     
   2.4477065520412972E-002  0.10568285494093878        0.0000000000000000     
   1.6970412589336993E-002   7.9257590146641049E-002   0.0000000000000000     
   1.7632250359514989E-002   8.5577887464194799E-002   0.0000000000000000     
   1.8274429103217617E-002   9.2056413274720486E-002   0.0000000000000000     
   1.8896948820444879E-002   9.8693167578218111E-002   0.0000000000000000     
   1.9499809511196776E-002  0.10548815037468763        0.0000000000000000     
   3.9940489037165752E-002  0.10652774066720483        0.0000000000000000     
   4.1098218816297556E-002  0.11342077891481450        0.0000000000000000     
   4.2198679644374626E-002  0.12044891841000370        0.0000000000000000     
   4.3241871521396961E-002  0.12761215915277241        0.0000000000000000     
   4.4227794447364563E-002  0.13491050114312061        0.0000000000000000     
   3.4697405283397459E-002  0.10620265008719740        0.0000000000000000     
   3.5710214920691527E-002  0.11311092319333525        0.0000000000000000     
   3.6672310095027909E-002  0.12015462879813535        0.0000000000000000     
   3.7583690806406604E-002  0.12733376690159764        0.0000000000000000     
   3.8444357054827620E-002  0.13464833750372215        0.0000000000000000     
   2.9542930777813201E-002  0.10592102151177538        0.0000000000000000     
   3.0410837841317880E-002  0.11284258874096002        0.0000000000000000     
   3.1234801243925265E-002  0.11989992741986409        0.0000000000000000     
   3.2014820985635357E-002  0.12709303754848750        0.0000000000000000     
   3.2750897066448167E-002  0.13442191912683027        0.0000000000000000     
   2.4477065520412972E-002  0.10568285494093878        0.0000000000000000     
   2.5200087578176621E-002  0.11261577555768885        0.0000000000000000     
   2.5886153091066701E-002  0.11968481427518986        0.0000000000000000     
   2.6535262059083221E-002  0.12688997109344191        0.0000000000000000     
   2.7147414482226184E-002  0.13423124601244485        0.0000000000000000     
   1.9499809511196776E-002  0.10548815037468763        0.0000000000000000     
   2.0077964131267740E-002  0.11243048364352165        0.0000000000000000     
   2.0626365636452218E-002  0.11950928936411273        0.0000000000000000     
   2.1145014026750196E-002  0.12672456753646083        0.0000000000000000     
   2.1633909302161684E-002  0.13407631816056603        0.0000000000000000     
   4.4227794447364563E-002  0.13491050114312061        0.0000000000000000     
   4.5160258317411488E-002  0.14233149094242770        0.0000000000000000     
   4.6043073026671807E-002  0.14986267511207296        0.0000000000000000     
   4.6876238575145529E-002  0.15750405365205647        0.0000000000000000     
   4.7659754962832639E-002  0.16525562656237816        0.0000000000000000     
   3.8444357054827620E-002  0.13464833750372215        0.0000000000000000     
   3.9257648612981769E-002  0.14208584351930134        0.0000000000000000     
   4.0026905253559855E-002  0.14963378786312756        0.0000000000000000     
   4.0752126976561880E-002  0.15729217053520081        0.0000000000000000     
   4.1433313781987856E-002  0.16506099153552115        0.0000000000000000     
   3.2750897066448167E-002  0.13442191912683027        0.0000000000000000     
   3.3445879663430253E-002  0.14187401752820494        0.0000000000000000     
   3.4102618953648189E-002  0.14943677812592390        0.0000000000000000     
   3.4721114937101977E-002  0.15711020091998731        0.0000000000000000     
   3.5301367613791615E-002  0.16489428591039504        0.0000000000000000     
   2.7147414482226184E-002  0.13423124601244485        0.0000000000000000     
   2.7724951468756930E-002  0.14169601296913845        0.0000000000000000     
   2.8270214126936796E-002  0.14927164590046216        0.0000000000000000     
   2.8783202456765793E-002  0.15695814480641593        0.0000000000000000     
   2.9263916458243916E-002  0.16475550968699984        0.0000000000000000     
   2.1633909302161684E-002  0.13407631816056603        0.0000000000000000     
   2.2094864028961807E-002  0.14155182984210191        0.0000000000000000     
   2.2529690773425697E-002  0.14913839118674213        0.0000000000000000     
   2.2938389535553345E-002  0.15683600219448668        0.0000000000000000     
   2.3320960315344752E-002  0.16464466286533555        0.0000000000000000     
   4.7659754962832639E-002  0.16525562656237816        0.0000000000000000     
   4.8390192026589646E-002  0.17310672986688727        0.0000000000000000     
   4.9064119603273060E-002  0.18104669958943304        0.0000000000000000     
   4.9681537692882895E-002  0.18907553573001548        0.0000000000000000     
   5.0242446295419123E-002  0.19719323828863455        0.0000000000000000     
   4.1433313781987856E-002  0.16506099153552115        0.0000000000000000     
   4.2066977261616387E-002  0.17292953430836100        0.0000000000000000     
   4.2649629007226075E-002  0.18088708229799277        0.0000000000000000     
   4.3181269018816942E-002  0.18893363550441652        0.0000000000000000     
   4.3661897296388967E-002  0.19706919392763228        0.0000000000000000     
   3.5301367613791615E-002  0.16489428591039504        0.0000000000000000     
   3.5840048220494990E-002  0.17277818336352638        0.0000000000000000     
   3.6333827993989952E-002  0.18075104354576060        0.0000000000000000     
   3.6782706934276523E-002  0.18881286645709761        0.0000000000000000     
   3.7186685041354674E-002  0.19696365209753752        0.0000000000000000     
   2.9263916458243916E-002  0.16475550968699984        0.0000000000000000     
   2.9709404903225451E-002  0.17265267703238349        0.0000000000000000     
   3.0116716563564690E-002  0.18063858333273647        0.0000000000000000     
   3.0485851439261621E-002  0.18871322858805872        0.0000000000000000     
   3.0816809530316264E-002  0.19687661279835028        0.0000000000000000     
   2.3320960315344752E-002  0.16464466286533555        0.0000000000000000     
   2.3675047309807781E-002  0.17255301531493231        0.0000000000000000     
   2.3998294715950282E-002  0.18054970165892040        0.0000000000000000     
   2.4290702533772260E-002  0.18863472189729982        0.0000000000000000     
   2.4552270763273709E-002  0.19680807603007061        0.0000000000000000     
   5.0242446295419123E-002  0.19719323828863455        0.0000000000000000     
   5.0744860163533426E-002  0.20539108515805804        0.0000000000000000     
   5.1186794049877471E-002  0.21366035423105367        0.0000000000000000     
   5.1568247954451259E-002  0.22200104550762131        0.0000000000000000     
   5.1889221877254789E-002  0.23041315898776116        0.0000000000000000     
   4.3661897296388967E-002  0.19706919392763228        0.0000000000000000     
   4.4090776253881275E-002  0.20528317417212785        0.0000000000000000     
   4.4467168305232965E-002  0.21356499284239119        0.0000000000000000     
   4.4791073450444051E-002  0.22191464993842216        0.0000000000000000     
   4.5062491689514532E-002  0.23033214546022096        0.0000000000000000     
   3.7186685041354674E-002  0.19696365209753752        0.0000000000000000     
   3.7545924239868619E-002  0.20519106128652218        0.0000000000000000     
   3.7860586454462539E-002  0.21348275484349349        0.0000000000000000     
   3.8130671685136425E-002  0.22183873276845145        0.0000000000000000     
   3.8356179931890277E-002  0.23025899506139610        0.0000000000000000     
   3.0816809530316264E-002  0.19687661279835028        0.0000000000000000     
   3.1110304121495486E-002  0.20511474650124098        0.0000000000000000     
   3.1367048497566184E-002  0.21341364023436060        0.0000000000000000     
   3.1587042658528373E-002  0.22177329399770909        0.0000000000000000     
   3.1770286604382025E-002  0.23019370779128656        0.0000000000000000     
   2.4552270763273709E-002  0.19680807603007061        0.0000000000000000     
   2.4783915898761853E-002  0.20505422981628427        0.0000000000000000     
   2.4986554434543909E-002  0.21335764901499249        0.0000000000000000     
   2.5160186370619883E-002  0.22171833362619517        0.0000000000000000     
   2.5304811706989769E-002  0.23013628364989239        0.0000000000000000     
   5.1889221877254789E-002  0.23041315898776116        0.0000000000000000     
   5.2157686849962713E-002  0.23888843644848529        0.0000000000000000     
   5.2381613904249717E-002  0.24741861966680601        0.0000000000000000     
   5.2561003040115795E-002  0.25600370864272332        0.0000000000000000     
   5.2695854257560945E-002  0.26464370337623722        0.0000000000000000     
   4.5062491689514532E-002  0.23033214546022096        0.0000000000000000     
   4.5290106026108001E-002  0.23880226155805268        0.0000000000000000     
   4.5482599463888038E-002  0.24730978038218254        0.0000000000000000     
   4.5639972002854662E-002  0.25585470193261051        0.0000000000000000     
   4.5762223643007853E-002  0.26443702620933662        0.0000000000000000     
   3.8356179931890277E-002  0.23025899506139610        0.0000000000000000     
   3.8545735654081717E-002  0.23872281213111257        0.0000000000000000     
   3.8707963311068364E-002  0.24720945438638589        0.0000000000000000     
   3.8842862902850217E-002  0.25571892182721623        0.0000000000000000     
   3.8950434429427271E-002  0.26425121445360333        0.0000000000000000     
   3.1770286604382025E-002  0.23019370779128656        0.0000000000000000     
   3.1924575733883902E-002  0.23865008816766492        0.0000000000000000     
   3.2057705445790716E-002  0.24711764167941624        0.0000000000000000     
   3.2169675740102495E-002  0.25559636832654042        0.0000000000000000     
   3.2260486616819212E-002  0.26408626810903740        0.0000000000000000     
   2.5304811706989769E-002  0.23013628364989239        0.0000000000000000     
   2.5426626265514521E-002  0.23858408966770986        0.0000000000000000     
   2.5531825868055087E-002  0.24703434226127344        0.0000000000000000     
   2.5620410514611468E-002  0.25548704143058304        0.0000000000000000     
   2.5692380205183663E-002  0.26394218717563878        0.0000000000000000     
   5.2695854257560945E-002  0.26464370337623722        0.0000000000000000     
   5.2817063185196057E-002  0.27328938031061478        0.0000000000000000     
   5.2955525451632027E-002  0.28189151588912303        0.0000000000000000     
   5.3111241056868853E-002  0.29045011011176214        0.0000000000000000     
   5.3284210000906530E-002  0.29896516297853187        0.0000000000000000     
   4.5762223643007853E-002  0.26443702620933662        0.0000000000000000     
   4.5873538782169980E-002  0.27300680812064243        0.0000000000000000     
   4.5998101818163405E-002  0.28151410257480936        0.0000000000000000     
   4.6135912750988120E-002  0.28995890957183756        0.0000000000000000     
   4.6286971580644112E-002  0.29834122911172678        0.0000000000000000     
   3.8950434429427271E-002  0.26425121445360333        0.0000000000000000     
   3.9049511153153679E-002  0.27275515604645018        0.0000000000000000     
   3.9158926336383570E-002  0.28117957038665947        0.0000000000000000     
   3.9278679979116958E-002  0.28952445747423100        0.0000000000000000     
   3.9408772081353835E-002  0.29778981730916493        0.0000000000000000     
   3.2260486616819212E-002  0.26408626810903740        0.0000000000000000     
   3.2344980298147141E-002  0.27253442408803813        0.0000000000000000     
   3.2437999006292531E-002  0.28088791932467316        0.0000000000000000     
   3.2539542741255367E-002  0.28914675381894261        0.0000000000000000     
   3.2649611503035678E-002  0.29731092757084637        0.0000000000000000     
   2.5692380205183663E-002  0.26394218717563878        0.0000000000000000     
   2.5759946217150366E-002  0.27234461224540613        0.0000000000000000     
   2.5835319827890262E-002  0.28063914938885060        0.0000000000000000     
   2.5918501037403365E-002  0.28882579860597224        0.0000000000000000     
   2.6009489845689657E-002  0.29690455989677111        0.0000000000000000     
   1.3974416868482336E-002   5.5786735235155163E-002   0.0000000000000000     
   1.4781414533794487E-002   6.1374346955629405E-002   0.0000000000000000     
   1.5549746375707649E-002   6.7148693347701793E-002   0.0000000000000000     
   1.6279412394221815E-002   7.3109774411372341E-002   0.0000000000000000     
   1.6970412589336993E-002   7.9257590146641049E-002   0.0000000000000000     
   1.0445341595412674E-002   5.5581164503384559E-002   0.0000000000000000     
   1.1048358743043694E-002   6.1174741554823248E-002   0.0000000000000000     
   1.1622818322147193E-002   6.6955358378864585E-002   0.0000000000000000     
   1.2168720332723168E-002   7.2923014975508529E-002   0.0000000000000000     
   1.2686064774771619E-002   7.9077711344755094E-002   0.0000000000000000     
   6.9399136303402954E-003   5.5434328276217526E-002   0.0000000000000000     
   7.3404376825905544E-003   6.1032166275758491E-002   0.0000000000000000     
   7.7222178833526592E-003   6.6817261978908193E-002   0.0000000000000000     
   8.0852542326266073E-003   7.2789615385666653E-002   0.0000000000000000     
   8.4295467304124037E-003   7.8949226496033822E-002   0.0000000000000000     
   3.4581329732652037E-003   5.5346226553654086E-002   0.0000000000000000     
   3.6576513524350703E-003   6.0946621118435136E-002   0.0000000000000000     
   3.8479450593240485E-003   6.6734404147832688E-002   0.0000000000000000     
   4.0290140939321390E-003   7.2709575641846699E-002   0.0000000000000000     
   4.2008584562593402E-003   7.8872135600477247E-002   0.0000000000000000     
  -3.7581260412672401E-010   5.5316859335694218E-002   0.0000000000000000     
  -2.4742275958090920E-010   6.0918106082853155E-002   0.0000000000000000     
  -1.4993863832815646E-010   6.6706784885637985E-002   0.0000000000000000     
  -8.3360242645290350E-011   7.2682895744048709E-002   0.0000000000000000     
  -4.7687569388124573E-011   7.8846438658085313E-002   0.0000000000000000     
   1.6970412589336993E-002   7.9257590146641049E-002   0.0000000000000000     
   1.7632250359514989E-002   8.5577887464194799E-002   0.0000000000000000     
   1.8274429103217617E-002   9.2056413274720486E-002   0.0000000000000000     
   1.8896948820444879E-002   9.8693167578218111E-002   0.0000000000000000     
   1.9499809511196776E-002  0.10548815037468763        0.0000000000000000     
   1.2686064774771619E-002   7.9077711344755094E-002   0.0000000000000000     
   1.3181819836988120E-002   8.5405066484344302E-002   0.0000000000000000     
   1.3662953708068236E-002   9.1890699392016190E-002   0.0000000000000000     
   1.4129466388011965E-002   9.8534610067770756E-002   0.0000000000000000     
   1.4581357876819311E-002  0.10533679851160799        0.0000000000000000     
   8.4295467304124037E-003   7.8949226496033822E-002   0.0000000000000000     
   8.7596345977888710E-003   8.5281622939803223E-002   0.0000000000000000     
   9.0800570558348410E-003   9.1772332346768404E-002   0.0000000000000000     
   9.3908141045503102E-003   9.8421354716929282E-002   0.0000000000000000     
   9.6919057439352821E-003  0.10522869005028593        0.0000000000000000     
   4.2008584562593402E-003   7.8872135600477247E-002   0.0000000000000000     
   4.3656946419172423E-003   8.5207556830571574E-002   0.0000000000000000     
   4.5257391465174327E-003   9.1701312138977059E-002   0.0000000000000000     
   4.6809919700599150E-003   9.8353401525693718E-002   0.0000000000000000     
   4.8314531125446848E-003  0.10516382499072149        0.0000000000000000     
  -4.7687569388124573E-011   7.8846438658085313E-002   0.0000000000000000     
  -3.0626767831901103E-011   8.5182868156649327E-002   0.0000000000000000     
  -1.9883986221869848E-011   9.1677638768642211E-002   0.0000000000000000     
  -1.5459223053700295E-011   9.8330750494063979E-002   0.0000000000000000     
  -1.7352478395155080E-011  0.10514220333291463        0.0000000000000000     
   1.9499809511196776E-002  0.10548815037468763        0.0000000000000000     
   2.0077964131267740E-002  0.11243048364352165        0.0000000000000000     
   2.0626365636452218E-002  0.11950928936411273        0.0000000000000000     
   2.1145014026750196E-002  0.12672456753646083        0.0000000000000000     
   2.1633909302161684E-002  0.13407631816056603        0.0000000000000000     
   1.4581357876819311E-002  0.10533679851160799        0.0000000000000000     
   1.5014733842662796E-002  0.11228651877826859        0.0000000000000000     
   1.5425699953714934E-002  0.11937302492249323        0.0000000000000000     
   1.5814256209975727E-002  0.12659631694428189        0.0000000000000000     
   1.6180402611445183E-002  0.13395639484363470        0.0000000000000000     
   9.6919057439352821E-003  0.10522869005028593        0.0000000000000000     
   9.9806630544333180E-003  0.11218368674173969        0.0000000000000000     
   1.0254417116487981E-002  0.11927569318619193        0.0000000000000000     
   1.0513167930099271E-002  0.12650470938364261        0.0000000000000000     
   1.0756915495267187E-002  0.13387073533409177        0.0000000000000000     
   4.8314531125446848E-003  0.10516382499072149        0.0000000000000000     
   4.9757517665793101E-003  0.11212198753393499        0.0000000000000000     
   5.1125171247713552E-003  0.11921729415520881        0.0000000000000000     
   5.2417491871208201E-003  0.12644974485454291        0.0000000000000000     
   5.3634479536277049E-003  0.13381933963193729        0.0000000000000000     
  -1.7352478395155080E-011  0.10514220333291463        0.0000000000000000     
  -2.0899227010443000E-011  0.11210142115485450        0.0000000000000000     
  -2.1434940844847206E-011  0.11919782782954388        0.0000000000000000     
  -1.8959621904141716E-011  0.12643142335698282        0.0000000000000000     
  -1.3473268074132294E-011  0.13380220773717133        0.0000000000000000     
   2.1633909302161684E-002  0.13407631816056603        0.0000000000000000     
   2.2094864028961807E-002  0.14155182984210191        0.0000000000000000     
   2.2529690773425697E-002  0.14913839118674213        0.0000000000000000     
   2.2938389535553345E-002  0.15683600219448668        0.0000000000000000     
   2.3320960315344752E-002  0.16464466286533555        0.0000000000000000     
   1.6180402611445183E-002  0.13395639484363470        0.0000000000000000     
   1.6525434729938029E-002  0.14144046648257166        0.0000000000000000     
   1.6850648137269008E-002  0.14903573972311304        0.0000000000000000     
   1.7156042833438120E-002  0.15674221456525880        0.0000000000000000     
   1.7441618818445366E-002  0.16455989100900897        0.0000000000000000     
   1.0756915495267187E-002  0.13387073533409177        0.0000000000000000     
   1.0986480957578725E-002  0.14136092122602401        0.0000000000000000     
   1.1202685462620871E-002  0.14896241724792389        0.0000000000000000     
   1.1405529010393626E-002  0.15667522339979156        0.0000000000000000     
   1.1595011600896994E-002  0.16449933968162680        0.0000000000000000     
   5.3634479536277049E-003  0.13381933963193729        0.0000000000000000     
   5.4780027118838956E-003  0.14131319407245896        0.0000000000000000     
   5.5858027494812817E-003  0.14891842376117484        0.0000000000000000     
   5.6868480664198622E-003  0.15663502869808485        0.0000000000000000     
   5.7811386626996381E-003  0.16446300888318910        0.0000000000000000     
  -1.3473268074132294E-011  0.13380220773717133        0.0000000000000000     
  -7.1464542183291568E-012  0.14129728502187652        0.0000000000000000     
  -2.1497570433862134E-012  0.14890375926286570        0.0000000000000000     
   1.5168278688203890E-012  0.15662163046013880        0.0000000000000000     
   3.8532948533342992E-012  0.16445089861369586        0.0000000000000000     
   2.3320960315344752E-002  0.16464466286533555        0.0000000000000000     
   2.3675047309807781E-002  0.17255301531493231        0.0000000000000000     
   2.3998294715950282E-002  0.18054970165892040        0.0000000000000000     
   2.4290702533772260E-002  0.18863472189729982        0.0000000000000000     
   2.4552270763273709E-002  0.19680807603007061        0.0000000000000000     
   1.7441618818445366E-002  0.16455989100900897        0.0000000000000000     
   1.7705695804642665E-002  0.17247711833030863        0.0000000000000000     
   1.7946593504381936E-002  0.18048224580510289        0.0000000000000000     
   1.8164311917663177E-002  0.18857527343339184        0.0000000000000000     
   1.8358851044486393E-002  0.19675620121517534        0.0000000000000000     
   1.1595011600896994E-002  0.16449933968162680        0.0000000000000000     
   1.1770070752130792E-002  0.17242290619764833        0.0000000000000000     
   1.1929643982094838E-002  0.18043406305207457        0.0000000000000000     
   1.2073731290789137E-002  0.18853281024490562        0.0000000000000000     
   1.2202332678213679E-002  0.19671914777614138        0.0000000000000000     
   5.7811386626996381E-003  0.16446300888318910        0.0000000000000000     
   5.8681721522721633E-003  0.17239037891695133        0.0000000000000000     
   5.9474461490889941E-003  0.18040515339983540        0.0000000000000000     
   6.0189606531501315E-003  0.18850733233184119        0.0000000000000000     
   6.0827156644555755E-003  0.19669691571296874        0.0000000000000000     
   3.8532948533342992E-012  0.16445089861369586        0.0000000000000000     
   5.0667777265478442E-012  0.17237953648821774        0.0000000000000000     
   5.3644007638742330E-012  0.18039551684838528        0.0000000000000000     
   4.7461670010795487E-012  0.18849883969419853        0.0000000000000000     
   3.2120747034403152E-012  0.19668950502565746        0.0000000000000000     
   2.4552270763273709E-002  0.19680807603007061        0.0000000000000000     
   2.4783915898761853E-002  0.20505422981628427        0.0000000000000000     
   2.4986554434543909E-002  0.21335764901499249        0.0000000000000000     
   2.5160186370619883E-002  0.22171833362619517        0.0000000000000000     
   2.5304811706989769E-002  0.23013628364989239        0.0000000000000000     
   1.8358851044486393E-002  0.19675620121517534        0.0000000000000000     
   1.8531091948994338E-002  0.20500818938594048        0.0000000000000000     
   1.8681915695329780E-002  0.21331439818117442        0.0000000000000000     
   1.8811322283492717E-002  0.22167482760087695        0.0000000000000000     
   1.8919311713483149E-002  0.23008947764504828        0.0000000000000000     
   1.2202332678213679E-002  0.19671914777614138        0.0000000000000000     
   1.2316164649519568E-002  0.20497530336449798        0.0000000000000000     
   1.2415943709857883E-002  0.21328350472869143        0.0000000000000000     
   1.2501669859228634E-002  0.22164375186872184        0.0000000000000000     
   1.2573343097631813E-002  0.23005604478458908        0.0000000000000000     
   6.0827156644555755E-003  0.19669691571296874        0.0000000000000000     
   6.1391340003375339E-003  0.20495557175195675        0.0000000000000000     
   6.1886384781282182E-003  0.21326496865754377        0.0000000000000000     
   6.2312290978276267E-003  0.22162510642972974        0.0000000000000000     
   6.2669058594357592E-003  0.23003598506851480        0.0000000000000000     
   3.2120747034403152E-012  0.19668950502565746        0.0000000000000000     
   1.4482412664940103E-012  0.20494899454831675        0.0000000000000000     
   1.4078224263441852E-013  0.21325878996773123        0.0000000000000000     
  -7.1030185314242822E-013  0.22161889128390075        0.0000000000000000     
  -1.1050136500267982E-012  0.23002929849682541        0.0000000000000000     
   2.5304811706989769E-002  0.23013628364989239        0.0000000000000000     
   2.5426626265514521E-002  0.23858408966770986        0.0000000000000000     
   2.5531825868055087E-002  0.24703434226127344        0.0000000000000000     
   2.5620410514611468E-002  0.25548704143058304        0.0000000000000000     
   2.5692380205183663E-002  0.26394218717563878        0.0000000000000000     
   1.8919311713483149E-002  0.23008947764504828        0.0000000000000000     
   1.9010203942000092E-002  0.23852928337055460        0.0000000000000000     
   1.9088318925742559E-002  0.24696517983426219        0.0000000000000000     
   1.9153656664710556E-002  0.25539716703617121        0.0000000000000000     
   1.9206217158904075E-002  0.26382524497628135        0.0000000000000000     
   1.2573343097631813E-002  0.23005604478458908        0.0000000000000000     
   1.2633625456367118E-002  0.23849013601550648        0.0000000000000000     
   1.2685178966734229E-002  0.24691577810068729        0.0000000000000000     
   1.2728003628733156E-002  0.25533297104013147        0.0000000000000000     
   1.2762099442363891E-002  0.26374171483383907        0.0000000000000000     
   6.2669058594357592E-003  0.23003598506851480        0.0000000000000000     
   6.2968908086155915E-003  0.23846664760256553        0.0000000000000000     
   6.3224059910300928E-003  0.24688613706054863        0.0000000000000000     
   6.3434514066792675E-003  0.25529445344246421        0.0000000000000000     
   6.3600270555631113E-003  0.26369159674831205        0.0000000000000000     
  -1.1050136500267982E-012  0.23002929849682541        0.0000000000000000     
  -1.2544858814939053E-012  0.23845881813173170        0.0000000000000000     
  -1.3698503052370081E-012  0.24687625671384625        0.0000000000000000     
  -1.4511109056990906E-012  0.25528161424316903        0.0000000000000000     
  -1.4982646200090155E-012  0.26367489071970007        0.0000000000000000     
   2.5692380205183663E-002  0.26394218717563878        0.0000000000000000     
   2.5759946217150366E-002  0.27234461224540613        0.0000000000000000     
   2.5835319827890262E-002  0.28063914938885060        0.0000000000000000     
   2.5918501037403365E-002  0.28882579860597224        0.0000000000000000     
   2.6009489845689657E-002  0.29690455989677111        0.0000000000000000     
   1.9206217158904075E-002  0.26382524497628135        0.0000000000000000     
   1.9255985307990116E-002  0.27219205443373568        0.0000000000000000     
   1.9312946011635683E-002  0.28044023618767677        0.0000000000000000     
   1.9377099269840766E-002  0.28856979023810492        0.0000000000000000     
   1.9448445082605369E-002  0.29658071658501989        0.0000000000000000     
   1.2762099442363891E-002  0.26374171483383907        0.0000000000000000     
   1.2794673968493157E-002  0.27208308456820818        0.0000000000000000     
   1.2832934767987665E-002  0.28029815532963703        0.0000000000000000     
   1.2876881840847421E-002  0.28838692711812536        0.0000000000000000     
   1.2926515187072425E-002  0.29634939993367349        0.0000000000000000     
   6.3600270555631113E-003  0.26369159674831205        0.0000000000000000     
   6.3760121986594798E-003  0.27201770264882386        0.0000000000000000     
   6.3952860969462193E-003  0.28021290681473099        0.0000000000000000     
   6.4178487504233314E-003  0.28827720924603378        0.0000000000000000     
   6.4437001590908153E-003  0.29621060994273185        0.0000000000000000     
  -1.4982646200090155E-012  0.26367489071970007        0.0000000000000000     
  -1.5109157414788799E-012  0.27199590867558238        0.0000000000000000     
  -1.4886643350323081E-012  0.28018449064295892        0.0000000000000000     
  -1.4315098856732683E-012  0.28824063662182992        0.0000000000000000     
  -1.3394545889111598E-012  0.29616434661219504        0.0000000000000000     
  -3.7581260412672401E-010   5.5316859335694218E-002   0.0000000000000000     
  -2.4742275958090920E-010   6.0918106082853155E-002   0.0000000000000000     
  -1.4993863832815646E-010   6.6706784885637985E-002   0.0000000000000000     
  -8.3360242645290350E-011   7.2682895744048709E-002   0.0000000000000000     
  -4.7687569388124573E-011   7.8846438658085313E-002   0.0000000000000000     
  -3.4581336875126535E-003   5.5346226598060495E-002   0.0000000000000000     
  -3.6576518208784195E-003   6.0946621154687131E-002   0.0000000000000000     
  -3.8479453413624771E-003   6.6734404184620122E-002   0.0000000000000000     
  -4.0290142489648306E-003   7.2709575687859504E-002   0.0000000000000000     
  -4.2008585436854751E-003   7.8872135664405235E-002   0.0000000000000000     
  -6.9399142324544708E-003   5.5434328316475497E-002   0.0000000000000000     
  -7.3404380718273959E-003   6.1032166319611600E-002   0.0000000000000000     
  -7.7222181118745438E-003   6.6817262037075054E-002   0.0000000000000000     
  -8.0852543525959247E-003   7.2789615468865879E-002   0.0000000000000000     
  -8.4295467939915301E-003   7.8949226614984089E-002   0.0000000000000000     
  -1.0445342010638058E-002   5.5581164490939208E-002   0.0000000000000000     
  -1.1048359000269686E-002   6.1174741577626569E-002   0.0000000000000000     
  -1.1622818461474843E-002   6.6955358443002794E-002   0.0000000000000000     
  -1.2168720394253523E-002   7.2923015087067888E-002   0.0000000000000000     
  -1.2686064798605734E-002   7.9077711509821860E-002   0.0000000000000000     
  -1.3974417022063416E-002   5.5786735121451644E-002   0.0000000000000000     
  -1.4781414606205294E-002   6.1374346928732046E-002   0.0000000000000000     
  -1.5549746390163361E-002   6.7148693402403328E-002   0.0000000000000000     
  -1.6279412373937624E-002   7.3109774542465533E-002   0.0000000000000000     
  -1.6970412557528083E-002   7.9257590348918605E-002   0.0000000000000000     
  -4.7687569388124573E-011   7.8846438658085313E-002   0.0000000000000000     
  -3.0626767831901103E-011   8.5182868156649327E-002   0.0000000000000000     
  -1.9883986221869848E-011   9.1677638768642211E-002   0.0000000000000000     
  -1.5459223053700295E-011   9.8330750494063979E-002   0.0000000000000000     
  -1.7352478395155080E-011  0.10514220333291463        0.0000000000000000     
  -4.2008585436854751E-003   7.8872135664405235E-002   0.0000000000000000     
  -4.3656946974386891E-003   8.5207556912219151E-002   0.0000000000000000     
  -4.5257391821387459E-003   9.1701312229263032E-002   0.0000000000000000     
  -4.6809919977856447E-003   9.8353401615536906E-002   0.0000000000000000     
  -4.8314531443793898E-003  0.10516382507104075        0.0000000000000000     
  -8.4295467939915301E-003   7.8949226614984089E-002   0.0000000000000000     
  -8.7596346361140508E-003   8.5281623091463685E-002   0.0000000000000000     
  -9.0800570790161728E-003   9.1772332514338723E-002   0.0000000000000000     
  -9.3908141226978960E-003   9.8421354883609272E-002   0.0000000000000000     
  -9.6919057671592257E-003  0.10522869019927525        0.0000000000000000     
  -1.2686064798605734E-002   7.9077711509821860E-002   0.0000000000000000     
  -1.3181819846652851E-002   8.5405066694382942E-002   0.0000000000000000     
  -1.3662953710516269E-002   9.1890699623869337E-002   0.0000000000000000     
  -1.4129466390195982E-002   9.8534610298281061E-002   0.0000000000000000     
  -1.4581357885691986E-002  0.10533679871761807        0.0000000000000000     
  -1.6970412557528083E-002   7.9257590348918605E-002   0.0000000000000000     
  -1.7632250329055098E-002   8.5577887720976922E-002   0.0000000000000000     
  -1.8274429076639034E-002   9.2056413557854821E-002   0.0000000000000000     
  -1.8896948800279895E-002   9.8693167859552289E-002   0.0000000000000000     
  -1.9499809499977677E-002  0.10548815062606932        0.0000000000000000     
  -1.7352478395155080E-011  0.10514220333291463        0.0000000000000000     
  -2.0899227010443000E-011  0.11210142115485450        0.0000000000000000     
  -2.1434940844847206E-011  0.11919782782954388        0.0000000000000000     
  -1.8959621904141716E-011  0.12643142335698282        0.0000000000000000     
  -1.3473268074132294E-011  0.13380220773717133        0.0000000000000000     
  -4.8314531443793898E-003  0.10516382507104075        0.0000000000000000     
  -4.9757518056320130E-003  0.11212198759977859        0.0000000000000000     
  -5.1125171652555562E-003  0.11921729420575450        0.0000000000000000     
  -5.2417492232500204E-003  0.12644974488896846        0.0000000000000000     
  -5.3634479796154030E-003  0.13381933964942044        0.0000000000000000     
  -9.6919057671592257E-003  0.10522869019927525        0.0000000000000000     
  -9.9806630852487688E-003  0.11218368686398776        0.0000000000000000     
  -1.0254417149815143E-002  0.11927569328039797        0.0000000000000000     
  -1.0513167960858345E-002  0.12650470944850586        0.0000000000000000     
  -1.0756915518378376E-002  0.13387073536831143        0.0000000000000000     
  -1.4581357885691986E-002  0.10533679871761807        0.0000000000000000     
  -1.5014733859749491E-002  0.11228651894748200        0.0000000000000000     
  -1.5425699975113694E-002  0.11937302505347432        0.0000000000000000     
  -1.5814256231784587E-002  0.12659631703559504        0.0000000000000000     
  -1.6180402629762187E-002  0.13395639489384420        0.0000000000000000     
  -1.9499809499977677E-002  0.10548815062606932        0.0000000000000000     
  -2.0077964129134183E-002  0.11243048385026128        0.0000000000000000     
  -2.0626365641151213E-002  0.11950928952498351        0.0000000000000000     
  -2.1145014036028760E-002  0.12672456765023601        0.0000000000000000     
  -2.1633909313766828E-002  0.13407631822601884        0.0000000000000000     
  -1.3473268074132294E-011  0.13380220773717133        0.0000000000000000     
  -7.1464542183291568E-012  0.14129728502187652        0.0000000000000000     
  -2.1497570433862134E-012  0.14890375926286570        0.0000000000000000     
   1.5168278688203890E-012  0.15662163046013880        0.0000000000000000     
   3.8532948533342992E-012  0.16445089861369586        0.0000000000000000     
  -5.3634479796154030E-003  0.13381933964942044        0.0000000000000000     
  -5.4780027260600836E-003  0.14131319407529974        0.0000000000000000     
  -5.5858027542924392E-003  0.14891842375479564        0.0000000000000000     
  -5.6868480643124698E-003  0.15663502868790802        0.0000000000000000     
  -5.7811386561201763E-003  0.16446300887463700        0.0000000000000000     
  -1.0756915518378376E-002  0.13387073536831143        0.0000000000000000     
  -1.0986480971404745E-002  0.14136092123375166        0.0000000000000000     
  -1.1202685468966959E-002  0.14896241723876358        0.0000000000000000     
  -1.1405529011065020E-002  0.15667522338334719        0.0000000000000000     
  -1.1595011597698929E-002  0.16449933966750246        0.0000000000000000     
  -1.6180402629762187E-002  0.13395639489384420        0.0000000000000000     
  -1.6525434743180439E-002  0.14144046649723224        0.0000000000000000     
  -1.6850648146173319E-002  0.14903573971476961        0.0000000000000000     
  -1.7156042838740823E-002  0.15674221454645632        0.0000000000000000     
  -1.7441618820882951E-002  0.16455989099229226        0.0000000000000000     
  -2.1633909313766828E-002  0.13407631822601884        0.0000000000000000     
  -2.2094864041387167E-002  0.14155182986574152        0.0000000000000000     
  -2.2529690785911514E-002  0.14913839118281366        0.0000000000000000     
  -2.2938389547339875E-002  0.15683600217723531        0.0000000000000000     
  -2.3320960325672248E-002  0.16464466284900639        0.0000000000000000     
   3.8532948533342992E-012  0.16445089861369586        0.0000000000000000     
   5.0667777265478442E-012  0.17237953648821774        0.0000000000000000     
   5.3644007638742330E-012  0.18039551684838528        0.0000000000000000     
   4.7461670010795487E-012  0.18849883969419853        0.0000000000000000     
   3.2120747034403152E-012  0.19668950502565746        0.0000000000000000     
  -5.7811386561201763E-003  0.16446300887463700        0.0000000000000000     
  -5.8681721433120979E-003  0.17239037891225109        0.0000000000000000     
  -5.9474461394847652E-003  0.18040515339801885        0.0000000000000000     
  -6.0189606446381817E-003  0.18850733233194025        0.0000000000000000     
  -6.0827156587723464E-003  0.19669691571401537        0.0000000000000000     
  -1.1595011597698929E-002  0.16449933966750246        0.0000000000000000     
  -1.1770070746691192E-002  0.17242290618985506        0.0000000000000000     
  -1.1929643975864327E-002  0.18043406304903056        0.0000000000000000     
  -1.2073731285218336E-002  0.18853281024502902        0.0000000000000000     
  -1.2202332674753220E-002  0.19671914777785038        0.0000000000000000     
  -1.7441618820882951E-002  0.16455989099229226        0.0000000000000000     
  -1.7705695805070500E-002  0.17247711832102963        0.0000000000000000     
  -1.7946593503774283E-002  0.18048224580142047        0.0000000000000000     
  -1.8164311916994299E-002  0.18857527343346478        0.0000000000000000     
  -1.8358851044730538E-002  0.19675620121716250        0.0000000000000000     
  -2.3320960325672248E-002  0.16464466284900639        0.0000000000000000     
  -2.3675047318450038E-002  0.17255301530577488        0.0000000000000000     
  -2.3998294723214644E-002  0.18054970165518858        0.0000000000000000     
  -2.4290702539966069E-002  0.18863472189724750        0.0000000000000000     
  -2.4552270768704306E-002  0.19680807603195175        0.0000000000000000     
   3.2120747034403152E-012  0.19668950502565746        0.0000000000000000     
   1.4482412664940103E-012  0.20494899454831675        0.0000000000000000     
   1.4078224263441852E-013  0.21325878996773123        0.0000000000000000     
  -7.1030185314242822E-013  0.22161889128390075        0.0000000000000000     
  -1.1050136500267982E-012  0.23002929849682541        0.0000000000000000     
  -6.0827156587723464E-003  0.19669691571401537        0.0000000000000000     
  -6.1391339979263906E-003  0.20495557175333862        0.0000000000000000     
  -6.1886384781394410E-003  0.21326496865900449        0.0000000000000000     
  -6.2312290994115029E-003  0.22162510643101294        0.0000000000000000     
  -6.2669058617425694E-003  0.23003598506936401        0.0000000000000000     
  -1.2202332674753220E-002  0.19671914777785038        0.0000000000000000     
  -1.2316164648564441E-002  0.20497530336678269        0.0000000000000000     
  -1.2415943710747475E-002  0.21328350473111404        0.0000000000000000     
  -1.2501669861302321E-002  0.22164375187084440        0.0000000000000000     
  -1.2573343100228973E-002  0.23005604478597372        0.0000000000000000     
  -1.8358851044730538E-002  0.19675620121716250        0.0000000000000000     
  -1.8531091950465907E-002  0.20500818938864912        0.0000000000000000     
  -1.8681915697683314E-002  0.21331439818406001        0.0000000000000000     
  -1.8811322286382756E-002  0.22167482760339516        0.0000000000000000     
  -1.8919311716564226E-002  0.23008947764665458        0.0000000000000000     
  -2.4552270768704306E-002  0.19680807603195175        0.0000000000000000     
  -2.4783915903630795E-002  0.20505422981893778        0.0000000000000000     
  -2.4986554438946963E-002  0.21335764901784229        0.0000000000000000     
  -2.5160186374652810E-002  0.22171833362866519        0.0000000000000000     
  -2.5304811710748318E-002  0.23013628365140654        0.0000000000000000     
  -1.1050136500267982E-012  0.23002929849682541        0.0000000000000000     
  -1.2544858814939053E-012  0.23845881813173170        0.0000000000000000     
  -1.3698503052370081E-012  0.24687625671384625        0.0000000000000000     
  -1.4511109056990906E-012  0.25528161424316903        0.0000000000000000     
  -1.4982646200090155E-012  0.26367489071970007        0.0000000000000000     
  -6.2669058617425694E-003  0.23003598506936401        0.0000000000000000     
  -6.2968908111888638E-003  0.23846664760291994        0.0000000000000000     
  -6.3224059938066053E-003  0.24688613706054310        0.0000000000000000     
  -6.3434514095957887E-003  0.25529445344223334        0.0000000000000000     
  -6.3600270585564226E-003  0.26369159674799081        0.0000000000000000     
  -1.2573343100228973E-002  0.23005604478597372        0.0000000000000000     
  -1.2633625459133307E-002  0.23849013601604524        0.0000000000000000     
  -1.2685178969621173E-002  0.24691577810060206        0.0000000000000000     
  -1.2728003631692589E-002  0.25533297103964414        0.0000000000000000     
  -1.2762099445347544E-002  0.26374171483317160        0.0000000000000000     
  -1.8919311716564226E-002  0.23008947764665458        0.0000000000000000     
  -1.9010203945087803E-002  0.23852928337110749        0.0000000000000000     
  -1.9088318928813561E-002  0.24696517983402314        0.0000000000000000     
  -1.9153656667741509E-002  0.25539716703540144        0.0000000000000000     
  -1.9206217161871632E-002  0.26382524497524246        0.0000000000000000     
  -2.5304811710748318E-002  0.23013628365140654        0.0000000000000000     
  -2.5426626269052361E-002  0.23858408966810676        0.0000000000000000     
  -2.5531825871383761E-002  0.24703434226080634        0.0000000000000000     
  -2.5620410517742540E-002  0.25548704142950529        0.0000000000000000     
  -2.5692380208128682E-002  0.26394218717420348        0.0000000000000000     
  -1.4982646200090155E-012  0.26367489071970007        0.0000000000000000     
  -1.5109157414788799E-012  0.27199590867558238        0.0000000000000000     
  -1.4886643350323081E-012  0.28018449064295892        0.0000000000000000     
  -1.4315098856732683E-012  0.28824063662182992        0.0000000000000000     
  -1.3394545889111598E-012  0.29616434661219504        0.0000000000000000     
  -6.3600270585564226E-003  0.26369159674799081        0.0000000000000000     
  -6.3760122016648171E-003  0.27201770264846226        0.0000000000000000     
  -6.3952860998972875E-003  0.28021290681429456        0.0000000000000000     
  -6.4178487532538381E-003  0.28827720924548778        0.0000000000000000     
  -6.4437001617344697E-003  0.29621060994204185        0.0000000000000000     
  -1.2762099445347544E-002  0.26374171483317160        0.0000000000000000     
  -1.2794673971449013E-002  0.27208308456744162        0.0000000000000000     
  -1.2832934770859962E-002  0.28029815532871161        0.0000000000000000     
  -1.2876881843580396E-002  0.28838692711698150        0.0000000000000000     
  -1.2926515189610310E-002  0.29634939993225123        0.0000000000000000     
  -1.9206217161871632E-002  0.26382524497524246        0.0000000000000000     
  -1.9255985310863501E-002  0.27219205443252054        0.0000000000000000     
  -1.9312946014376685E-002  0.28044023618621000        0.0000000000000000     
  -1.9377099272411179E-002  0.28856979023631080        0.0000000000000000     
  -1.9448445084966983E-002  0.29658071658282303        0.0000000000000000     
  -2.5692380208128682E-002  0.26394218717420348        0.0000000000000000     
  -2.5759946219908292E-002  0.27234461224369899        0.0000000000000000     
  -2.5835319830447460E-002  0.28063914938678980        0.0000000000000000     
  -2.5918501039746186E-002  0.28882579860347596        0.0000000000000000     
  -2.6009489847804476E-002  0.29690455989375736        0.0000000000000000     
  -1.3974417022063416E-002   5.5786735121451644E-002   0.0000000000000000     
  -1.4781414606205294E-002   6.1374346928732046E-002   0.0000000000000000     
  -1.5549746390163361E-002   6.7148693402403328E-002   0.0000000000000000     
  -1.6279412373937624E-002   7.3109774542465533E-002   0.0000000000000000     
  -1.6970412557528083E-002   7.9257590348918605E-002   0.0000000000000000     
  -1.7570094054337463E-002   5.6046581517039264E-002   0.0000000000000000     
  -1.8578462003733184E-002   6.1628145969441668E-002   0.0000000000000000     
  -1.9538657880868088E-002   6.7395646110538776E-002   0.0000000000000000     
  -2.0450681685742187E-002   7.3349081940330588E-002   0.0000000000000000     
  -2.1314533418355479E-002   7.9488453458817110E-002   0.0000000000000000     
  -2.1275327895067118E-002   5.6356244986728553E-002   0.0000000000000000     
  -2.2478358306952318E-002   6.1933302296269102E-002   0.0000000000000000     
  -2.3625208916517003E-002   6.7694595762671242E-002   0.0000000000000000     
  -2.4715879723761169E-002   7.3640125385934938E-002   0.0000000000000000     
  -2.5750370728684809E-002   7.9769891166060217E-002   0.0000000000000000     
  -2.5090118544252381E-002   5.6715725530519505E-002   0.0000000000000000     
  -2.6481103515862706E-002   6.2289815909214341E-002   0.0000000000000000     
  -2.7809399497110098E-002   6.8045542358800698E-002   0.0000000000000000     
  -2.9075006487994551E-002   7.3982904879278569E-002   0.0000000000000000     
  -3.0277924488516076E-002   8.0101903470647939E-002   0.0000000000000000     
  -2.9014466001893262E-002   5.7125023148412127E-002   0.0000000000000000     
  -3.0586697630464340E-002   6.2697686808277392E-002   0.0000000000000000     
  -3.2091229622647370E-002   6.8448485898927172E-002   0.0000000000000000     
  -3.3528061978442353E-002   7.4377420420361468E-002   0.0000000000000000     
  -3.4897194697849285E-002   8.0484490372580250E-002   0.0000000000000000     
  -1.6970412557528083E-002   7.9257590348918605E-002   0.0000000000000000     
  -1.7632250329055098E-002   8.5577887720976922E-002   0.0000000000000000     
  -1.8274429076639034E-002   9.2056413557854821E-002   0.0000000000000000     
  -1.8896948800279895E-002   9.8693167859552289E-002   0.0000000000000000     
  -1.9499809499977677E-002  0.10548815062606932        0.0000000000000000     
  -2.1314533418355479E-002   7.9488453458817110E-002   0.0000000000000000     
  -2.2142015945199045E-002   8.5799858090966546E-002   0.0000000000000000     
  -2.2944932132763985E-002   9.2269393261747101E-002   0.0000000000000000     
  -2.3723281981050288E-002   9.8897058971158774E-002   0.0000000000000000     
  -2.4477065490057969E-002  0.10568285521920157        0.0000000000000000     
  -2.5750370728684809E-002   7.9769891166060217E-002   0.0000000000000000     
  -2.6742206556962952E-002   8.6070749724072734E-002   0.0000000000000000     
  -2.7704911834270627E-002   9.2529557680998104E-002   0.0000000000000000     
  -2.8638486560607822E-002   9.9146315036836338E-002   0.0000000000000000     
  -2.9542930735974544E-002  0.10592102179158742        0.0000000000000000     
  -3.0277924488516076E-002   8.0101903470647939E-002   0.0000000000000000     
  -3.1432822164346834E-002   8.6390562620295458E-002   0.0000000000000000     
  -3.2554368181158970E-002   9.2836906815607828E-002   0.0000000000000000     
  -3.3642562538952488E-002   9.9440936056584980E-002   0.0000000000000000     
  -3.4697405237727401E-002  0.10620265034322694        0.0000000000000000     
  -3.4897194697849285E-002   8.0484490372580250E-002   0.0000000000000000     
  -3.6213862767350669E-002   8.6759296779634773E-002   0.0000000000000000     
  -3.7493301173429000E-002   9.3191440665576275E-002   0.0000000000000000     
  -3.8735509916084293E-002   9.9780922030404687E-002   0.0000000000000000     
  -3.9940488995316541E-002  0.10652774087412012        0.0000000000000000     
  -1.9499809499977677E-002  0.10548815062606932        0.0000000000000000     
  -2.0077964129134183E-002  0.11243048385026128        0.0000000000000000     
  -2.0626365641151213E-002  0.11950928952498351        0.0000000000000000     
  -2.1145014036028760E-002  0.12672456765023601        0.0000000000000000     
  -2.1633909313766828E-002  0.13407631822601884        0.0000000000000000     
  -2.4477065490057969E-002  0.10568285521920157        0.0000000000000000     
  -2.5200087556816297E-002  0.11261577578658666        0.0000000000000000     
  -2.5886153078354561E-002  0.11968481445402526        0.0000000000000000     
  -2.6535262054672749E-002  0.12688997122151741        0.0000000000000000     
  -2.7147414485770866E-002  0.13423124608906306        0.0000000000000000     
  -2.9542930735974544E-002  0.10592102179158742        0.0000000000000000     
  -3.0410837806209300E-002  0.11284258897071912        0.0000000000000000     
  -3.1234801217150603E-002  0.11989992759969927        0.0000000000000000     
  -3.2014820968798451E-002  0.12709303767852773        0.0000000000000000     
  -3.2750897061152841E-002  0.13442191920720464        0.0000000000000000     
  -3.4697405237727401E-002  0.10620265034322694        0.0000000000000000     
  -3.5710214877313184E-002  0.11311092340265877        0.0000000000000000     
  -3.6672310057539341E-002  0.12015462896200547        0.0000000000000000     
  -3.7583690778405857E-002  0.12733376702126706        0.0000000000000000     
  -3.8444357039912745E-002  0.13464833758044356        0.0000000000000000     
  -3.9940488995316541E-002  0.10652774087412012        0.0000000000000000     
  -4.1098218770127967E-002  0.11342077908240553        0.0000000000000000     
  -4.2198679599520776E-002  0.12044891854094392        0.0000000000000000     
  -4.3241871483494988E-002  0.12761215924973537        0.0000000000000000     
  -4.4227794422050604E-002  0.13491050120877981        0.0000000000000000     
  -2.1633909313766828E-002  0.13407631822601884        0.0000000000000000     
  -2.2094864041387167E-002  0.14155182986574152        0.0000000000000000     
  -2.2529690785911514E-002  0.14913839118281366        0.0000000000000000     
  -2.2938389547339875E-002  0.15683600217723531        0.0000000000000000     
  -2.3320960325672248E-002  0.16464466284900639        0.0000000000000000     
  -2.7147414485770866E-002  0.13423124608906306        0.0000000000000000     
  -2.7724951478987327E-002  0.14169601300125767        0.0000000000000000     
  -2.8270214141660564E-002  0.14927164590269662        0.0000000000000000     
  -2.8783202473790570E-002  0.15695814479337994        0.0000000000000000     
  -2.9263916475377346E-002  0.16475550967330763        0.0000000000000000     
  -3.2750897061152841E-002  0.13442191920720464        0.0000000000000000     
  -3.3445879668943329E-002  0.14187401756575885        0.0000000000000000     
  -3.4102618966899478E-002  0.14943677813421921        0.0000000000000000     
  -3.4721114955021289E-002  0.15711020091258585        0.0000000000000000     
  -3.5301367633308753E-002  0.16489428590085869        0.0000000000000000     
  -3.8444357039912745E-002  0.13464833758044356        0.0000000000000000     
  -3.9257648611255164E-002  0.14208584355924500        0.0000000000000000     
  -4.0026905261628248E-002  0.14963378787738149        0.0000000000000000     
  -4.0752126991032020E-002  0.15729217053485303        0.0000000000000000     
  -4.1433313799466479E-002  0.16506099153165960        0.0000000000000000     
  -4.4227794422050604E-002  0.13491050120877981        0.0000000000000000     
  -4.5160258305922830E-002  0.14233149098171621        0.0000000000000000     
  -4.6043073025846884E-002  0.14986267513218340        0.0000000000000000     
  -4.6876238581822785E-002  0.15750405366018147        0.0000000000000000     
  -4.7659754973850520E-002  0.16525562656571036        0.0000000000000000     
  -2.3320960325672248E-002  0.16464466284900639        0.0000000000000000     
  -2.3675047318450038E-002  0.17255301530577488        0.0000000000000000     
  -2.3998294723214644E-002  0.18054970165518858        0.0000000000000000     
  -2.4290702539966069E-002  0.18863472189724750        0.0000000000000000     
  -2.4552270768704306E-002  0.19680807603195175        0.0000000000000000     
  -2.9263916475377346E-002  0.16475550967330763        0.0000000000000000     
  -2.9709404919182926E-002  0.17265267702463469        0.0000000000000000     
  -3.0116716577969358E-002  0.18063858332951616        0.0000000000000000     
  -3.0485851451736632E-002  0.18871322858795203        0.0000000000000000     
  -3.0816809540484762E-002  0.19687661279994234        0.0000000000000000     
  -3.5301367633308753E-002  0.16489428590085869        0.0000000000000000     
  -3.5840048239622314E-002  0.17277818335815315        0.0000000000000000     
  -3.6333828011822403E-002  0.18075104354358462        0.0000000000000000     
  -3.6782706949909004E-002  0.18881286645715314        0.0000000000000000     
  -3.7186685053882125E-002  0.19696365209885866        0.0000000000000000     
  -4.1433313799466479E-002  0.16506099153165960        0.0000000000000000     
  -4.2066977279768193E-002  0.17292953430633023        0.0000000000000000     
  -4.2649629024773761E-002  0.18088708229739398        0.0000000000000000     
  -4.3181269034483147E-002  0.18893363550485079        0.0000000000000000     
  -4.3661897308896400E-002  0.19706919392870065        0.0000000000000000     
  -4.7659754973850520E-002  0.16525562656571036        0.0000000000000000     
  -4.8390192039620583E-002  0.17310672986916600        0.0000000000000000     
  -4.9064119616823436E-002  0.18104669959094416        0.0000000000000000     
  -4.9681537705459120E-002  0.18907553573104494        0.0000000000000000     
  -5.0242446305527586E-002  0.19719323828946830        0.0000000000000000     
  -2.4552270768704306E-002  0.19680807603195175        0.0000000000000000     
  -2.4783915903630795E-002  0.20505422981893778        0.0000000000000000     
  -2.4986554438946963E-002  0.21335764901784229        0.0000000000000000     
  -2.5160186374652810E-002  0.22171833362866519        0.0000000000000000     
  -2.5304811710748318E-002  0.23013628365140654        0.0000000000000000     
  -3.0816809540484762E-002  0.19687661279994234        0.0000000000000000     
  -3.1110304129423363E-002  0.20511474650355135        0.0000000000000000     
  -3.1367048503762075E-002  0.21341364023684331        0.0000000000000000     
  -3.1587042663500896E-002  0.22177329399981813        0.0000000000000000     
  -3.1770286608639821E-002  0.23019370779247597        0.0000000000000000     
  -3.7186685053882125E-002  0.19696365209885866        0.0000000000000000     
  -3.7545924249207850E-002  0.20519106128839237        0.0000000000000000     
  -3.7860586461352291E-002  0.21348275484544535        0.0000000000000000     
  -3.8130671690315428E-002  0.22183873277001764        0.0000000000000000     
  -3.8356179936097273E-002  0.23025899506210923        0.0000000000000000     
  -4.3661897308896400E-002  0.19706919392870065        0.0000000000000000     
  -4.4090776262984285E-002  0.20528317417346079        0.0000000000000000     
  -4.4467168311717618E-002  0.21356499284364852        0.0000000000000000     
  -4.4791073455096420E-002  0.22191464993926366        0.0000000000000000     
  -4.5062491693120675E-002  0.23033214546030634        0.0000000000000000     
  -5.0242446305527586E-002  0.19719323828946830        0.0000000000000000     
  -5.0744860170752651E-002  0.20539108515875670        0.0000000000000000     
  -5.1186794054858084E-002  0.21366035423145269        0.0000000000000000     
  -5.1568247957843878E-002  0.22200104550755617        0.0000000000000000     
  -5.1889221879710033E-002  0.23041315898706721        0.0000000000000000     
  -2.5304811710748318E-002  0.23013628365140654        0.0000000000000000     
  -2.5426626269052361E-002  0.23858408966810676        0.0000000000000000     
  -2.5531825871383761E-002  0.24703434226080634        0.0000000000000000     
  -2.5620410517742540E-002  0.25548704142950529        0.0000000000000000     
  -2.5692380208128682E-002  0.26394218717420348        0.0000000000000000     
  -3.1770286608639821E-002  0.23019370779247597        0.0000000000000000     
  -3.1924575737703631E-002  0.23865008816776948        0.0000000000000000     
  -3.2057705449217128E-002  0.24711764167865144        0.0000000000000000     
  -3.2169675743180290E-002  0.25559636832512184        0.0000000000000000     
  -3.2260486619593125E-002  0.26408626810718061        0.0000000000000000     
  -3.8356179936097273E-002  0.23025899506210923        0.0000000000000000     
  -3.8545735657718294E-002  0.23872281213082214        0.0000000000000000     
  -3.8707963314198991E-002  0.24720945438525818        0.0000000000000000     
  -3.8842862905539365E-002  0.25571892182541750        0.0000000000000000     
  -3.8950434431739407E-002  0.26425121445130006        0.0000000000000000     
  -4.5062491693120675E-002  0.23033214546030634        0.0000000000000000     
  -4.5290106029096319E-002  0.23880226155726461        0.0000000000000000     
  -4.5482599466329363E-002  0.24730978038062662        0.0000000000000000     
  -4.5639972004819757E-002  0.25585470193039234        0.0000000000000000     
  -4.5762223644567522E-002  0.26443702620656179        0.0000000000000000     
  -5.1889221879710033E-002  0.23041315898706721        0.0000000000000000     
  -5.2157686851837755E-002  0.23888843644709701        0.0000000000000000     
  -5.2381613905608221E-002  0.24741861966475667        0.0000000000000000     
  -5.2561003041021466E-002  0.25600370864004623        0.0000000000000000     
  -5.2695854258077456E-002  0.26464370337296578        0.0000000000000000     
  -2.5692380208128682E-002  0.26394218717420348        0.0000000000000000     
  -2.5759946219908292E-002  0.27234461224369899        0.0000000000000000     
  -2.5835319830447460E-002  0.28063914938678980        0.0000000000000000     
  -2.5918501039746186E-002  0.28882579860347596        0.0000000000000000     
  -2.6009489847804476E-002  0.29690455989375736        0.0000000000000000     
  -3.2260486619593125E-002  0.26408626810718061        0.0000000000000000     
  -3.2344980300644970E-002  0.27253442408580880        0.0000000000000000     
  -3.2437999008525141E-002  0.28088791932198720        0.0000000000000000     
  -3.2539542743233632E-002  0.28914675381571603        0.0000000000000000     
  -3.2649611504770457E-002  0.29731092756699495        0.0000000000000000     
  -3.8950434431739407E-002  0.26425121445130006        0.0000000000000000     
  -3.9049511155135143E-002  0.27275515604368172        0.0000000000000000     
  -3.9158926338062582E-002  0.28117957038333841        0.0000000000000000     
  -3.9278679980521716E-002  0.28952445747027006        0.0000000000000000     
  -3.9408772082512575E-002  0.29778981730447679        0.0000000000000000     
  -4.5762223644567522E-002  0.26443702620656179        0.0000000000000000     
  -4.5873538783378812E-002  0.27300680811731781        0.0000000000000000     
  -4.5998101819059785E-002  0.28151410257084319        0.0000000000000000     
  -4.6135912751610463E-002  0.28995890956713827        0.0000000000000000     
  -4.6286971581030824E-002  0.29834122910620270        0.0000000000000000     
  -5.2695854258077456E-002  0.26464370337296578        0.0000000000000000     
  -5.2817063185375976E-002  0.27328938030671701        0.0000000000000000     
  -5.2955525451516772E-002  0.28189151588450195        0.0000000000000000     
  -5.3111241056499864E-002  0.29045011010632055        0.0000000000000000     
  -5.3284210000325224E-002  0.29896516297217279        0.0000000000000000     
  -2.9014466001893262E-002   5.7125023148412127E-002   0.0000000000000000     
  -3.0586697630464340E-002   6.2697686808277392E-002   0.0000000000000000     
  -3.2091229622647370E-002   6.8448485898927172E-002   0.0000000000000000     
  -3.3528061978442353E-002   7.4377420420361468E-002   0.0000000000000000     
  -3.4897194697849285E-002   8.0484490372580250E-002   0.0000000000000000     
  -3.3016138313992957E-002   5.7610760795375651E-002   0.0000000000000000     
  -3.4780788674899359E-002   6.3173038290666575E-002   0.0000000000000000     
  -3.6470011458689097E-002   6.8911932082986849E-002   0.0000000000000000     
  -3.8083806665362194E-002   7.4827442172336431E-002   0.0000000000000000     
  -3.9622174294918620E-002   8.0919568558715363E-002   0.0000000000000000     
  -3.7062903526554655E-002   5.8199561426379338E-002   0.0000000000000000     
  -3.9049024673309882E-002   6.3731993653590252E-002   0.0000000000000000     
  -4.0945057170795551E-002   6.9444386610915926E-002   0.0000000000000000     
  -4.2751001019011685E-002   7.5336740298356339E-002   0.0000000000000000     
  -4.4466856217958262E-002   8.1409054715911477E-002   0.0000000000000000     
  -4.1154761639578367E-002   5.8891425041423175E-002   0.0000000000000000     
  -4.3391405625695913E-002   6.4374552897048409E-002   0.0000000000000000     
  -4.5516366758966732E-002   7.0045849482714403E-002   0.0000000000000000     
  -4.7529645039390847E-002   7.5905314798421122E-002   0.0000000000000000     
  -4.9431240466968236E-002   8.1952948844168566E-002   0.0000000000000000     
  -4.5291712653064087E-002   5.9686351640507160E-002   0.0000000000000000     
  -4.7807931532057452E-002   6.5100716021041061E-002   0.0000000000000000     
  -5.0183940223202633E-002   7.0716320698382296E-002   0.0000000000000000     
  -5.2419738726499666E-002   7.6533165672530823E-002   0.0000000000000000     
  -5.4515327041948530E-002   8.2551250943486684E-002   0.0000000000000000     
  -3.4897194697849285E-002   8.0484490372580250E-002   0.0000000000000000     
  -3.6213862767350669E-002   8.6759296779634773E-002   0.0000000000000000     
  -3.7493301173429000E-002   9.3191440665576275E-002   0.0000000000000000     
  -3.8735509916084293E-002   9.9780922030404687E-002   0.0000000000000000     
  -3.9940488995316541E-002  0.10652774087412012        0.0000000000000000     
  -3.9622174294918620E-002   8.0919568558715363E-002   0.0000000000000000     
  -4.1102152174701645E-002   8.7178540765766643E-002   0.0000000000000000     
  -4.2540778132054549E-002   9.3594588317133340E-002   0.0000000000000000     
  -4.3938052166977312E-002  0.10016771121281545        0.0000000000000000     
  -4.5293974279469941E-002  0.10689790945281294        0.0000000000000000     
  -4.4466856217958262E-002   8.1409054715911477E-002   0.0000000000000000     
  -4.6114514195126959E-002   8.7649883142367102E-002   0.0000000000000000     
  -4.7715866378009418E-002   9.4047778856508973E-002   0.0000000000000000     
  -4.9270912766605633E-002  0.10060274185833706        0.0000000000000000     
  -5.0779653360915611E-002  0.10731477214785141        0.0000000000000000     
  -4.9431240466968236E-002   8.1952948844168566E-002   0.0000000000000000     
  -5.1250948828626595E-002   8.8173323909436149E-002   0.0000000000000000     
  -5.3018565911293607E-002   9.4551012283703148E-002   0.0000000000000000     
  -5.4734091714969242E-002  0.10108601396696962        0.0000000000000000     
  -5.6397526239653530E-002  0.10777832895923553        0.0000000000000000     
  -5.4515327041948530E-002   8.2551250943486684E-002   0.0000000000000000     
  -5.6511456075200549E-002   8.8748863066973729E-002   0.0000000000000000     
  -5.8448876731907101E-002   9.5104288598715864E-002   0.0000000000000000     
  -6.0327589012068153E-002  0.10161752753871305        0.0000000000000000     
  -6.2147592915683711E-002  0.10828857988696532        0.0000000000000000     
  -3.9940488995316541E-002  0.10652774087412012        0.0000000000000000     
  -4.1098218770127967E-002  0.11342077908240553        0.0000000000000000     
  -4.2198679599520776E-002  0.12044891854094392        0.0000000000000000     
  -4.3241871483494988E-002  0.12761215924973537        0.0000000000000000     
  -4.4227794422050604E-002  0.13491050120877981        0.0000000000000000     
  -4.5293974279469941E-002  0.10689790945281294        0.0000000000000000     
  -4.6597329500048322E-002  0.11377400838977288        0.0000000000000000     
  -4.7836902859228307E-002  0.12078483337634230        0.0000000000000000     
  -4.9012694357009917E-002  0.12793038441252125        0.0000000000000000     
  -5.0124703993393145E-002  0.13521066149830968        0.0000000000000000     
  -5.0779653360915611E-002  0.10731477214785141        0.0000000000000000     
  -5.2230027082468967E-002  0.11417246370457435        0.0000000000000000     
  -5.3609972852795347E-002  0.12116441050802834        0.0000000000000000     
  -5.4919490671894715E-002  0.12829061255821333        0.0000000000000000     
  -5.6158580539767106E-002  0.13555106985512935        0.0000000000000000     
  -5.6397526239653530E-002  0.10777832895923553        0.0000000000000000     
  -5.7996311517389931E-002  0.11461614502680999        0.0000000000000000     
  -5.9517889580221882E-002  0.12158764993600202        0.0000000000000000     
  -6.0962260428149416E-002  0.12869284368681169        0.0000000000000000     
  -6.2329424061172506E-002  0.13593172627923891        0.0000000000000000     
  -6.2147592915683711E-002  0.10828857988696532        0.0000000000000000     
  -6.3896182804811172E-002  0.11510505235647972        0.0000000000000000     
  -6.5560653041507932E-002  0.12205455166026334        0.0000000000000000     
  -6.7141003625773979E-002  0.12913707779831621        0.0000000000000000     
  -6.8637234557609325E-002  0.13635263077063828        0.0000000000000000     
  -4.4227794422050604E-002  0.13491050120877981        0.0000000000000000     
  -4.5160258305922830E-002  0.14233149098171621        0.0000000000000000     
  -4.6043073025846884E-002  0.14986267513218340        0.0000000000000000     
  -4.6876238581822785E-002  0.15750405366018147        0.0000000000000000     
  -4.7659754973850520E-002  0.16525562656571036        0.0000000000000000     
  -5.0124703993393145E-002  0.13521066149830968        0.0000000000000000     
  -5.1177355855123598E-002  0.14261329620461466        0.0000000000000000     
  -5.2175074028946881E-002  0.15012592010234321        0.0000000000000000     
  -5.3117858514863017E-002  0.15774853319149540        0.0000000000000000     
  -5.4005709312871984E-002  0.16548113547207113        0.0000000000000000     
  -5.6158580539767106E-002  0.13555106985512935        0.0000000000000000     
  -5.7332588361034692E-002  0.14293359559938257        0.0000000000000000     
  -5.8446860040319709E-002  0.15042600299157904        0.0000000000000000     
  -5.9501395577622129E-002  0.15802829203171889        0.0000000000000000     
  -6.0496194972941952E-002  0.16574046271980206        0.0000000000000000     
  -6.2329424061172506E-002  0.13593172627923891        0.0000000000000000     
  -6.3625955823656155E-002  0.14329238916601994        0.0000000000000000     
  -6.4858431059965360E-002  0.15076292379989098        0.0000000000000000     
  -6.6026849770100121E-002  0.15834333018085206        0.0000000000000000     
  -6.7131211954060452E-002  0.16603360830890312        0.0000000000000000     
  -6.8637234557609325E-002  0.13635263077063828        0.0000000000000000     
  -7.0057458242987952E-002  0.14368967690452678        0.0000000000000000     
  -7.1409787087883855E-002  0.15113668252727896        0.0000000000000000     
  -7.2694221092297007E-002  0.15869364763889485        0.0000000000000000     
  -7.3910760256227448E-002  0.16636057223937437        0.0000000000000000     
  -4.7659754973850520E-002  0.16525562656571036        0.0000000000000000     
  -4.8390192039620583E-002  0.17310672986916600        0.0000000000000000     
  -4.9064119616823436E-002  0.18104669959094416        0.0000000000000000     
  -4.9681537705459120E-002  0.18907553573104494        0.0000000000000000     
  -5.0242446305527586E-002  0.19719323828946830        0.0000000000000000     
  -5.4005709312871984E-002  0.16548113547207113        0.0000000000000000     
  -5.4835266748052870E-002  0.17331309901754863        0.0000000000000000     
  -5.5603171145484777E-002  0.18123379590140590        0.0000000000000000     
  -5.6309422505167697E-002  0.18924322612364303        0.0000000000000000     
  -5.6954020827101638E-002  0.19734138968425990        0.0000000000000000     
  -6.0496194972941952E-002  0.16574046271980206        0.0000000000000000     
  -6.1427775633938510E-002  0.17355197072236644        0.0000000000000000     
  -6.2292654968271126E-002  0.18145227170594980        0.0000000000000000     
  -6.3090832975939773E-002  0.18944136567055225        0.0000000000000000     
  -6.3822309656944493E-002  0.19751925261617370        0.0000000000000000     
  -6.7131211954060452E-002  0.16603360830890312        0.0000000000000000     
  -6.8167718697277488E-002  0.17382334498361934        0.0000000000000000     
  -6.9132571085182476E-002  0.18170212700457589        0.0000000000000000     
  -7.0025769117775347E-002  0.18966995437177261        0.0000000000000000     
  -7.0847312795056128E-002  0.19772682708520969        0.0000000000000000     
  -7.3910760256227448E-002  0.16636057223937437        0.0000000000000000     
  -7.5055095938069832E-002  0.17412722180130746        0.0000000000000000     
  -7.6122919496218813E-002  0.18198336179728411        0.0000000000000000     
  -7.7114230930674404E-002  0.18992899222730425        0.0000000000000000     
  -7.8029030241436592E-002  0.19796411309136794        0.0000000000000000     
  -5.0242446305527586E-002  0.19719323828946830        0.0000000000000000     
  -5.0744860170752651E-002  0.20539108515875670        0.0000000000000000     
  -5.1186794054858084E-002  0.21366035423145269        0.0000000000000000     
  -5.1568247957843878E-002  0.22200104550755617        0.0000000000000000     
  -5.1889221879710033E-002  0.23041315898706721        0.0000000000000000     
  -5.6954020827101638E-002  0.19734138968425990        0.0000000000000000     
  -5.7534142072623945E-002  0.20552109461829776        0.0000000000000000     
  -5.8046962203072039E-002  0.21377514896079752        0.0000000000000000     
  -5.8492481218445878E-002  0.22210355271175933        0.0000000000000000     
  -5.8870699118745491E-002  0.23050630587118315        0.0000000000000000     
  -6.3822309656944493E-002  0.19751925261617370        0.0000000000000000     
  -6.4484588068709200E-002  0.20567950292610146        0.0000000000000000     
  -6.5075171268657889E-002  0.21391568698362262        0.0000000000000000     
  -6.5594059256790557E-002  0.22222780478873719        0.0000000000000000     
  -6.6041252033107192E-002  0.23061585634144521        0.0000000000000000     
  -7.0847312795056128E-002  0.19772682708520969        0.0000000000000000     
  -7.1596198159008390E-002  0.20586631008216785        0.0000000000000000     
  -7.2271421251615620E-002  0.21408196829992784        0.0000000000000000     
  -7.2872982072877901E-002  0.22237380173848975        0.0000000000000000     
  -7.3400880622795137E-002  0.23074181039785349        0.0000000000000000     
  -7.8029030241436592E-002  0.19796411309136794        0.0000000000000000     
  -7.8868972343521526E-002  0.20608151608649700        0.0000000000000000     
  -7.9635712151945287E-002  0.21427399290971333        0.0000000000000000     
  -8.0329249666707889E-002  0.22254154356101699        0.0000000000000000     
  -8.0949584887809359E-002  0.23088416804040790        0.0000000000000000     
  -5.1889221879710033E-002  0.23041315898706721        0.0000000000000000     
  -5.2157686851837755E-002  0.23888843644709701        0.0000000000000000     
  -5.2381613905608221E-002  0.24741861966475667        0.0000000000000000     
  -5.2561003041021466E-002  0.25600370864004623        0.0000000000000000     
  -5.2695854258077456E-002  0.26464370337296578        0.0000000000000000     
  -5.8870699118745491E-002  0.23050630587118315        0.0000000000000000     
  -5.9187600646659004E-002  0.23898272850319041        0.0000000000000000     
  -5.9449170544874572E-002  0.24753214067190277        0.0000000000000000     
  -5.9655408813392166E-002  0.25615454237732010        0.0000000000000000     
  -5.9806315452211815E-002  0.26484993361944253        0.0000000000000000     
  -6.6041252033107192E-002  0.23061585634144521        0.0000000000000000     
  -6.6418969934276539E-002  0.23908652942841613        0.0000000000000000     
  -6.6729433296967317E-002  0.24764651183631931        0.0000000000000000     
  -6.6972642121179524E-002  0.25629580356515486        0.0000000000000000     
  -6.7148596406913161E-002  0.26503440461492273        0.0000000000000000     
  -7.3400880622795137E-002  0.23074181039785349        0.0000000000000000     
  -7.3851794714690375E-002  0.23919983922277402        0.0000000000000000     
  -7.4222402161886511E-002  0.24776173315800637        0.0000000000000000     
  -7.4512702964383531E-002  0.25642749220355043        0.0000000000000000     
  -7.4722697122181506E-002  0.26519711635940618        0.0000000000000000     
  -8.0949584887809359E-002  0.23088416804040790        0.0000000000000000     
  -8.1486074987900503E-002  0.23932265788626417        0.0000000000000000     
  -8.1928077139632127E-002  0.24787780463696377        0.0000000000000000     
  -8.2275591343004231E-002  0.25654960829250678        0.0000000000000000     
  -8.2528617598016843E-002  0.26533806885289307        0.0000000000000000     
  -5.2695854258077456E-002  0.26464370337296578        0.0000000000000000     
  -5.2817063185375976E-002  0.27328938030671701        0.0000000000000000     
  -5.2955525451516772E-002  0.28189151588450195        0.0000000000000000     
  -5.3111241056499864E-002  0.29045011010632055        0.0000000000000000     
  -5.3284210000325224E-002  0.29896516297217279        0.0000000000000000     
  -5.9806315452211815E-002  0.26484993361944253        0.0000000000000000     
  -5.9938835248869539E-002  0.27357416247272309        0.0000000000000000     
  -6.0089912990901377E-002  0.28228307701161498        0.0000000000000000     
  -6.0259548678307330E-002  0.29097667723611803        0.0000000000000000     
  -6.0447742311087405E-002  0.29965496314623247        0.0000000000000000     
  -6.7148596406913161E-002  0.26503440461492273        0.0000000000000000     
  -6.7297605861602411E-002  0.27383244447617977        0.0000000000000000     
  -6.7459980192681471E-002  0.28266005263948285        0.0000000000000000     
  -6.7635719400150340E-002  0.29151722910483191        0.0000000000000000     
  -6.7824823484009006E-002  0.30040397387222728        0.0000000000000000     
  -7.4722697122181506E-002  0.26519711635940618        0.0000000000000000     
  -7.4893375023574599E-002  0.27406422631708693        0.0000000000000000     
  -7.5065727056857059E-002  0.28302244276810568        0.0000000000000000     
  -7.5239753222028874E-002  0.29207176571246241        0.0000000000000000     
  -7.5415453519090056E-002  0.30121219515015718        0.0000000000000000     
  -8.2528617598016843E-002  0.26533806885289307        0.0000000000000000     
  -8.2726142734786096E-002  0.27426950799544464        0.0000000000000000     
  -8.2907153583428136E-002  0.28337024739748334        0.0000000000000000     
  -8.3071650143942938E-002  0.29264028705900919        0.0000000000000000     
  -8.3219632416330527E-002  0.30207962698002216        0.0000000000000000     
  -4.5291712653064087E-002   5.9686351640507160E-002   0.0000000000000000     
  -4.7807931532057452E-002   6.5100716021041061E-002   0.0000000000000000     
  -5.0183940223202633E-002   7.0716320698382296E-002   0.0000000000000000     
  -5.2419738726499666E-002   7.6533165672530823E-002   0.0000000000000000     
  -5.4515327041948530E-002   8.2551250943486684E-002   0.0000000000000000     
  -4.9756286364468161E-002   6.0469441262667081E-002   0.0000000000000000     
  -5.2502945217050644E-002   6.5842409312577663E-002   0.0000000000000000     
  -5.5092841649529184E-002   7.1421328583536975E-002   0.0000000000000000     
  -5.7525975661903789E-002   7.7206199075544990E-002   0.0000000000000000     
  -5.9802347254174437E-002   8.3197020788601722E-002   0.0000000000000000     
  -5.4831012571246868E-002   6.1125793946938699E-002   0.0000000000000000     
  -5.7680789505331648E-002   6.6531559058667700E-002   0.0000000000000000     
  -6.0388135123972307E-002   7.2126401463795856E-002   0.0000000000000000     
  -6.2953049427168853E-002   7.7910321162323187E-002   0.0000000000000000     
  -6.5375532414921292E-002   8.3883318154249653E-002   0.0000000000000000     
  -6.0515891273400270E-002   6.1655409693322012E-002   0.0000000000000000     
  -6.3341464396900457E-002   6.7168165259311158E-002   0.0000000000000000     
  -6.6069820646531982E-002   7.2831539339158938E-002   0.0000000000000000     
  -6.8700960022294866E-002   7.8645531932865387E-002   0.0000000000000000     
  -7.1234882524189067E-002   8.4610143040430463E-002   0.0000000000000000     
  -6.6810922470928305E-002   6.2058288501817042E-002   0.0000000000000000     
  -6.9484969891757078E-002   6.7752227914508037E-002   0.0000000000000000     
  -7.2137898217208243E-002   7.3536742209626221E-002   0.0000000000000000     
  -7.4769707447281800E-002   7.9411831387171603E-002   0.0000000000000000     
  -7.7380397581977761E-002   8.5377495447144153E-002   0.0000000000000000     
  -5.4515327041948530E-002   8.2551250943486684E-002   0.0000000000000000     
  -5.6511456075200549E-002   8.8748863066973729E-002   0.0000000000000000     
  -5.8448876731907101E-002   9.5104288598715864E-002   0.0000000000000000     
  -6.0327589012068153E-002  0.10161752753871305        0.0000000000000000     
  -6.2147592915683711E-002  0.10828857988696532        0.0000000000000000     
  -5.9802347254174437E-002   8.3197020788601722E-002   0.0000000000000000     
  -6.1968177874141980E-002   8.9370119026043637E-002   0.0000000000000000     
  -6.4069688969607241E-002   9.5701819091207216E-002   0.0000000000000000     
  -6.6106880540570248E-002  0.10219212098409244        0.0000000000000000     
  -6.8079752587030959E-002  0.10884102470469931        0.0000000000000000     
  -6.5375532414921292E-002   8.3883318154249653E-002   0.0000000000000000     
  -6.7693256164744003E-002   9.0030710197709585E-002   0.0000000000000000     
  -6.9943892754151360E-002   9.6337815050837314E-002   0.0000000000000000     
  -7.2127442183143403E-002  0.10280463271363278        0.0000000000000000     
  -7.4243904451720119E-002  0.10943116318609604        0.0000000000000000     
  -7.1234882524189067E-002   8.4610143040430463E-002   0.0000000000000000     
  -7.3686690947006583E-002   9.0730636581971585E-002   0.0000000000000000     
  -7.6071488085539443E-002   9.7012276477606144E-002   0.0000000000000000     
  -7.8389273939787618E-002  0.10345506272733412        0.0000000000000000     
  -8.0640048509751136E-002  0.11005899533115555        0.0000000000000000     
  -7.7380397581977761E-002   8.5377495447144153E-002   0.0000000000000000     
  -7.9948482220929762E-002   9.1469898178829626E-002   0.0000000000000000     
  -8.2452474963771477E-002   9.7725203371513719E-002   0.0000000000000000     
  -8.4892375810502921E-002  0.10414341102519643        0.0000000000000000     
  -8.7268184761124051E-002  0.11072452113987777        0.0000000000000000     
  -6.2147592915683711E-002  0.10828857988696532        0.0000000000000000     
  -6.3896182804811172E-002  0.11510505235647972        0.0000000000000000     
  -6.5560653041507932E-002  0.12205455166026334        0.0000000000000000     
  -6.7141003625773979E-002  0.12913707779831621        0.0000000000000000     
  -6.8637234557609325E-002  0.13635263077063828        0.0000000000000000     
  -6.8079752587030959E-002  0.10884102470469931        0.0000000000000000     
  -6.9975229101269007E-002  0.11563529916203009        0.0000000000000000     
  -7.1780234075563942E-002  0.12256171326508707        0.0000000000000000     
  -7.3494767509915779E-002  0.12962026701387017        0.0000000000000000     
  -7.5118829404324503E-002  0.13681096040837953        0.0000000000000000     
  -7.4243904451720119E-002  0.10943116318609604        0.0000000000000000     
  -7.6279038563299692E-002  0.11620299891190758        0.0000000000000000     
  -7.8218603521300362E-002  0.12310573233474782        0.0000000000000000     
  -8.0062599325722114E-002  0.13013936345461682        0.0000000000000000     
  -8.1811025976564949E-002  0.13730389227151463        0.0000000000000000     
  -8.0640048509751136E-002  0.11005899533115555        0.0000000000000000     
  -8.2807611190903255E-002  0.11680815160611213        0.0000000000000000     
  -8.4875761378717177E-002  0.12368660886924565        0.0000000000000000     
  -8.6844499073193013E-002  0.13069436712055613        0.0000000000000000     
  -8.8713824274330666E-002  0.13783142636004361        0.0000000000000000     
  -8.7268184761124051E-002  0.11072452113987777        0.0000000000000000     
  -8.9560946984079667E-002  0.11745075724464381        0.0000000000000000     
  -9.1751707647814457E-002  0.12430434286858059        0.0000000000000000     
  -9.3840466752328461E-002  0.13128527801168813        0.0000000000000000     
  -9.5827224297621652E-002  0.13839356267396641        0.0000000000000000     
  -6.8637234557609325E-002  0.13635263077063828        0.0000000000000000     
  -7.0057458242987952E-002  0.14368967690452678        0.0000000000000000     
  -7.1409787087883855E-002  0.15113668252727896        0.0000000000000000     
  -7.2694221092297007E-002  0.15869364763889485        0.0000000000000000     
  -7.3910760256227448E-002  0.16636057223937437        0.0000000000000000     
  -7.5118829404324503E-002  0.13681096040837953        0.0000000000000000     
  -7.6661709704291245E-002  0.14412291325537957        0.0000000000000000     
  -7.8132698355317151E-002  0.15154524536163491        0.0000000000000000     
  -7.9531795357402207E-002  0.15907795672714559        0.0000000000000000     
  -8.0859000710546400E-002  0.16672104735191151        0.0000000000000000     
  -8.1811025976564949E-002  0.13730389227151463        0.0000000000000000     
  -8.3473324292827208E-002  0.14458955265905471        0.0000000000000000     
  -8.5058935093507260E-002  0.15198657849085070        0.0000000000000000     
  -8.6567858378605103E-002  0.15949496976690258        0.0000000000000000     
  -8.8000094148120725E-002  0.16711472648721037        0.0000000000000000     
  -8.8713824274330666E-002  0.13783142636004361        0.0000000000000000     
  -9.0492302008595829E-002  0.14508959511555222        0.0000000000000000     
  -9.2188497302454181E-002  0.15246068191492632        0.0000000000000000     
  -9.3802410155905708E-002  0.15994468675816589        0.0000000000000000     
  -9.5334040568950396E-002  0.16754160964527090        0.0000000000000000     
  -9.5827224297621652E-002  0.13839356267396641        0.0000000000000000     
  -9.7718642851597121E-002  0.14562304062487208        0.0000000000000000     
  -9.9521384982157901E-002  0.15296755563386177        0.0000000000000000     
 -0.10123545068930401       0.16042710770093546        0.0000000000000000     
 -0.10286083997303544       0.16800169682609317        0.0000000000000000     
  -7.3910760256227448E-002  0.16636057223937437        0.0000000000000000     
  -7.5055095938069832E-002  0.17412722180130746        0.0000000000000000     
  -7.6122919496218813E-002  0.18198336179728411        0.0000000000000000     
  -7.7114230930674404E-002  0.18992899222730425        0.0000000000000000     
  -7.8029030241436592E-002  0.19796411309136794        0.0000000000000000     
  -8.0859000710546400E-002  0.16672104735191151        0.0000000000000000     
  -8.2109954052889442E-002  0.17446416708177334        0.0000000000000000     
  -8.3280295022570963E-002  0.18229696576257176        0.0000000000000000     
  -8.4370023619591006E-002  0.19021944339430663        0.0000000000000000     
  -8.5379139843949556E-002  0.19823159997697809        0.0000000000000000     
  -8.8000094148120725E-002  0.16711472648721037        0.0000000000000000     
  -8.9352339738310207E-002  0.17483474673135965        0.0000000000000000     
  -9.0621292485429744E-002  0.18264392857893597        0.0000000000000000     
  -9.1806952389479238E-002  0.19054227202993940        0.0000000000000000     
  -9.2909319450458744E-002  0.19852977708436997        0.0000000000000000     
  -9.5334040568950396E-002  0.16754160964527090        0.0000000000000000     
  -9.6782252994332227E-002  0.17523896075006629        0.0000000000000000     
  -9.8145911884795101E-002  0.18302425024637686        0.0000000000000000     
  -9.9425017240339100E-002  0.19089747813420260        0.0000000000000000     
 -0.10061956906096416       0.19885864441354351        0.0000000000000000     
 -0.10286083997303544       0.16800169682609317        0.0000000000000000     
 -0.10439969382095540       0.17567680913789330        0.0000000000000000     
 -0.10585415322066713       0.18343793076489429        0.0000000000000000     
 -0.10722421817217057       0.19128506170709611        0.0000000000000000     
 -0.10850988867546577       0.19921820196449885        0.0000000000000000     
  -7.8029030241436592E-002  0.19796411309136794        0.0000000000000000     
  -7.8868972343521526E-002  0.20608151608649700        0.0000000000000000     
  -7.9635712151945287E-002  0.21427399290971333        0.0000000000000000     
  -8.0329249666707889E-002  0.22254154356101699        0.0000000000000000     
  -8.0949584887809359E-002  0.23088416804040790        0.0000000000000000     
  -8.5379139843949556E-002  0.19823159997697809        0.0000000000000000     
  -8.6311928340457325E-002  0.20632570640865797        0.0000000000000000     
  -8.7172673753924956E-002  0.21449403358741814        0.0000000000000000     
  -8.7961376084352505E-002  0.22273658151325873        0.0000000000000000     
  -8.8678035331739929E-002  0.23105335018617962        0.0000000000000000     
  -9.2909319450458744E-002  0.19852977708436997        0.0000000000000000     
  -9.3934083868024529E-002  0.20659946651821987        0.0000000000000000     
  -9.4886935841832803E-002  0.21474436310748143        0.0000000000000000     
  -9.5767875371883623E-002  0.22296446685215474        0.0000000000000000     
  -9.6576902458176933E-002  0.23125977775223971        0.0000000000000000     
 -0.10061956906096416       0.19885864441354351        0.0000000000000000     
 -0.10173543892622312       0.20690279641518272        0.0000000000000000     
 -0.10277849841566880       0.21502498146990326        0.0000000000000000     
 -0.10374874752930123       0.22322519957770506        0.0000000000000000     
 -0.10464618626712040       0.23150345073858816        0.0000000000000000     
 -0.10850988867546577       0.19921820196449885        0.0000000000000000     
 -0.10971599351505311       0.20723569609954659        0.0000000000000000     
 -0.11084736147543299       0.21533588867468353        0.0000000000000000     
 -0.11190399255660539       0.22351877968990969        0.0000000000000000     
 -0.11288588675857034       0.23178436914522502        0.0000000000000000     
  -8.0949584887809359E-002  0.23088416804040790        0.0000000000000000     
  -8.1486074987900503E-002  0.23932265788626417        0.0000000000000000     
  -8.1928077139632127E-002  0.24787780463696377        0.0000000000000000     
  -8.2275591343004231E-002  0.25654960829250678        0.0000000000000000     
  -8.2528617598016843E-002  0.26533806885289307        0.0000000000000000     
  -8.8678035331739929E-002  0.23105335018617962        0.0000000000000000     
  -8.9308254268225959E-002  0.23946995947467906        0.0000000000000000     
  -8.9837635665949420E-002  0.24801202924725521        0.0000000000000000     
  -9.0266179524910242E-002  0.25667955950390808        0.0000000000000000     
  -9.0593885845108482E-002  0.26547255024463762        0.0000000000000000     
  -9.6576902458176933E-002  0.23125977775223971        0.0000000000000000     
  -9.7304776069985929E-002  0.23965671804381125        0.0000000000000000     
  -9.7942255176583712E-002  0.24818170996294411        0.0000000000000000     
  -9.8489339777970294E-002  0.25683475350963836        0.0000000000000000     
  -9.8946029874145677E-002  0.26561584868389398        0.0000000000000000     
 -0.10464618626712040       0.23150345073858816        0.0000000000000000     
 -0.10547564039318028       0.23988293359366061        0.0000000000000000     
 -0.10624193567153496       0.24838684678403050        0.0000000000000000     
 -0.10694507210218432       0.25701519030969766        0.0000000000000000     
 -0.10758504968512847       0.26576796417066234        0.0000000000000000     
 -0.11288588675857034       0.23178436914522502        0.0000000000000000     
 -0.11382084723780915       0.24014860612422734        0.0000000000000000     
 -0.11473667715080316       0.24862743971051438        0.0000000000000000     
 -0.11563337649755240       0.25722086990408610        0.0000000000000000     
 -0.11651094527805683       0.26592889670494257        0.0000000000000000     
  -8.2528617598016843E-002  0.26533806885289307        0.0000000000000000     
  -8.2726142734786096E-002  0.27426950799544464        0.0000000000000000     
  -8.2907153583428136E-002  0.28337024739748334        0.0000000000000000     
  -8.3071650143942938E-002  0.29264028705900919        0.0000000000000000     
  -8.3219632416330527E-002  0.30207962698002216        0.0000000000000000     
  -9.0593885845108482E-002  0.26547255024463762        0.0000000000000000     
  -9.0851072602313190E-002  0.27445395896913150        0.0000000000000000     
  -9.1068057772293473E-002  0.28368674317707776        0.0000000000000000     
  -9.1244841355049372E-002  0.29317090286847602        0.0000000000000000     
  -9.1381423350580859E-002  0.30290643804332651        0.0000000000000000     
  -9.8946029874145677E-002  0.26561584868389398        0.0000000000000000     
  -9.9323328233232144E-002  0.27462324869602633        0.0000000000000000     
  -9.9632237623351910E-002  0.28395520675635050        0.0000000000000000     
  -9.9872758044505017E-002  0.29361172286486648        0.0000000000000000     
 -0.10004488949669142       0.30359279702157438        0.0000000000000000     
 -0.10758504968512847       0.26576796417066234        0.0000000000000000     
 -0.10814290962754297       0.27477737717612871        0.0000000000000000     
 -0.10859969313660342       0.28417563813530150        0.0000000000000000     
 -0.10895540021230987       0.29396274704818059        0.0000000000000000     
 -0.10921003085466227       0.30413870391476594        0.0000000000000000     
 -0.11651094527805683       0.26592889670494257        0.0000000000000000     
 -0.11730981678524566       0.27491634440943913        0.0000000000000000     
 -0.11797042431204802       0.28434803731393105        0.0000000000000000     
 -0.11849276785846391       0.29422397541841833        0.0000000000000000     
 -0.11887684742449336       0.30454415872290097        0.0000000000000000     
 </DataArray>
 <DataArray  type="Float64" Name="stress" NumberOfComponents="3" format="ascii">
   5449326653.9836187        982938215.81766355       -702613228.93332255     
   5266603315.2760878        509022554.73949409       -476820118.29211628     
   5128716866.6946011        184563194.08139920       -318625365.49369872     
   5035667308.2391176        9560133.8433547020       -228028970.53808129     
   4987454639.9096479       -15986625.974648714       -205030933.42526534     
   5769087983.5887127        835531819.81559587       -408006291.52461731     
   5472768654.1741590        469988609.46518445       -231895596.06803927     
   5207623720.4678383        208360051.47557235       -100577101.17277698     
   4973653182.4697609        50646145.846758842       -14050806.838853488     
   4770857040.1799183       -3153107.4212617874        27683286.933741439     
   5787633854.4452209        597760786.18895197       -50640624.190217122     
   5442878983.6992435        360138161.37897539        59848079.261001989     
   5115636014.2437305        180888540.87054253        148350739.43235901     
   4805904946.0786753        60011924.663650990        214867356.32385430     
   4513685779.2040825       -2491687.2417137623        259397929.93548748     
   5504964266.5531273        269625114.93772793        369483773.06989193     
   5176934303.8513584        179471210.48087406        398410907.69500172     
   4852753748.0222664        102148662.26630545        428158156.32172221     
   4532422599.0658588        37657470.294013500        458725518.95004100     
   4215940856.9821334       -14002365.435999632        490112995.57997006     
   4921079219.9124432       -148875193.93807364        852366900.25569272     
   4674934614.6304951       -72012243.229117155        783792889.23395681     
   4418976921.8034458       -27859584.337137699        738845149.49530005     
   4153206141.4313092       -16417217.262139082        717523681.03971255     
   3877622273.5140772       -37685142.004114389        719828483.86719596     
   4987454639.9096479       -15986625.974648714       -205030933.42526534     
   4870385703.0244265        3971657.9485237598       -164023805.49675423     
   4752103122.8096046        19884464.106377363       -126222449.35252333     
   4632606899.2651834        31751792.498881340       -91626864.992582262     
   4511897032.3911629        39573643.126075268       -60237052.416922674     
   4770857040.1799183       -3153107.4212617874        27683286.933741439     
   4646873811.8663111        12441650.011738300        54242729.756327450     
   4521881113.0146656        24671505.651295424        79696226.300639167     
   4395878943.6249990        33536459.497422457        104043776.56666186     
   4268867303.6972923        39036511.550113678        127285380.55441155     
   4513685779.2040825       -2491687.2417137623        259397929.93548748     
   4388787760.9078016        10539394.134809494        271747889.24231756     
   4263084444.8650661        20886149.689815521        285091727.77686614     
   4136575831.0758605        28548579.423250437        299429445.53913999     
   4009261919.5401974        33526683.335171223        314761042.52913743     
   4215940856.9821334       -14002365.435999632        490112995.57997006     
   4096127550.1489110       -1735109.6822147369        488491672.96120375     
   3975713118.3607969        8528396.2219276428        489964055.07616776     
   3854697561.6177883        16788152.276418209        494530141.92485029     
   3733080879.9198833        23044158.481266260        502189933.50725639     
   3877622273.5140772       -37685142.004114389        719828483.86719596     
   3768893179.5896301       -24381861.439362288        704474080.91299677     
   3659767133.5018630       -12401754.752353668        694313208.19853020     
   3550244135.2507672       -1744821.9431037903        689345865.72378826     
   3440324184.8363476        7588936.9884049892        689572053.48877311     
   4511897032.3911629        39573643.126075268       -60237052.416922674     
   4311268860.2043257        23623005.302312851       -55980192.665499710     
   4111988179.5731735        12164005.997498512       -50274528.235180110     
   3914054990.4977231        5196645.2116873264       -43120059.125964507     
   3717469292.9779568        2720922.9448268414       -34516785.337861225     
   4268867303.6972923        39036511.550113678        127285380.55441155     
   4073549399.6293550        24216779.995090246        127644963.02819292     
   3879354435.7484808        13140182.396944761        130379584.08328314     
   3686282412.0546827        5806718.7557153702        135489243.71970624     
   3494333328.5479426        2216389.0713558197        142973941.93743753     
   4009261919.5401974        33526683.335171223        314761042.52913743     
   3821900666.1695118        20631772.822405815        310961371.12854904     
   3635437801.6172605        10731491.704425812        310462972.21169353     
   3449873325.8834572        3825839.9812672138        313265845.77857995     
   3265207238.9680901       -85182.347096920013        319369991.82920754     
   3733080879.9198833        23044158.481266260        502189933.50725639     
   3556322659.8247957        12867983.784252644        493969031.63556862     
   3380238277.1795201        4937933.9199542999        489975636.15003294     
   3204827731.9840660       -745991.11160683632        490209747.05066508     
   3030091024.2384200       -4183791.3104797602        494671364.33745730     
   3440324184.8363476        7588936.9884049892        689572053.48877311     
   3276815380.5952063        925412.88064622879        676667944.54924655     
   3113755862.4352579       -4240490.9564667940        668917575.89830971     
   2951145630.3564963       -7908774.5229660273        666320947.53595412     
   2788984684.3589263       -10079437.818812966        668878059.46218693     
   3717469292.9779568        2720922.9448268414       -34516785.337861225     
   3548911635.7696648        8391175.9897711277       -31772995.700938791     
   3378833451.7650304        8993006.3802411556       -24012460.188771456     
   3207234740.9640455        4526414.1162198782       -11235178.801361147     
   3034115503.3667164       -5008600.8023037910        6558848.4613004606     
   3494333328.5479426        2216389.0713558197        142973941.93743753     
   3338507235.1483274        9403707.1614534855        141761340.65794593     
   3181519136.1170349        12717673.145960212        144975412.19176891     
   3023369031.4540672        12158287.024884582        152616156.53891224     
   2864056921.1594143        7725548.7981894016        164683573.69937655     
   3265207238.9680901       -85182.347096920013        319369991.82920754     
   3120426786.3430877        8113423.8779819012        314619274.32540596     
   2974842849.2510605        13633748.546318293        313705156.57299274     
   2828455427.6920166        16475791.657933950        316627638.57196903     
   2681264521.6659579        16639553.212823153        323386720.32233924     
   3030091024.2384200       -4183791.3104797602        494671364.33745730     
   2894670289.3539414        4520326.1393300295        486800805.30145639     
   2758804591.1670995        11741232.581270576        482176772.95490897     
   2622493929.6779089        17478928.015369654        480799267.29782611     
   2485738304.8863592        21733412.441627502        482668288.33020586     
   2788984684.3589263       -10079437.818812966        668878059.46218693     
   2661237744.1808887       -1375586.0544973612        658305933.58608496     
   2533404361.8651490        7040125.2508169413        650390261.33751106     
   2405484537.4117289        15167696.097185016        645131042.71647966     
   2277478270.8206105        23007126.484566808        642528277.72297311     
   3034115503.3667164       -5008600.8023037910        6558848.4613004606     
   2869992709.4296541       -11960087.035596371        5104516.2580271456     
   2707314351.4672737       -14096786.686616421        3008480.8033510493     
   2546080429.4795561       -11418699.755427957        270742.09727089124     
   2386290943.4665184       -3925826.2419705391       -3108699.8602146101     
   2864056921.1594143        7725548.7981894016        164683573.69937655     
   2699870872.2365050        1581351.6691695452        160721179.49425918     
   2536682470.2768102       -1237355.5824627876        157165533.37351856     
   2374491715.2803326       -730572.95670044422        154016635.33715978     
   2213298607.2470603        3101699.5464104414        151274485.38516748     
   2681264521.6659579        16639553.212823153        323386720.32233924     
   2520010793.0022655        12201317.761588573        316395010.26868814     
   2359307922.2903414        9599275.4829159975        310858499.63518935     
   2199155909.5301609        8833426.3767154217        306777188.42183793     
   2039554754.7217352        9903770.4430313110        304151076.62864399     
   2485738304.8863592        21733412.441627502        482668288.33020586     
   2330412471.7269621        19899811.241724968        472126008.58131665     
   2175190707.5078549        18413106.509462833        464087379.58835489     
   2020073012.2290530        17273298.244864225        458552401.35131663     
   1865059385.8905227        16480386.447872639        455521073.87020200     
   2277478270.8206105        23007126.484566808        642528277.72297311     
   2131075908.4105713        24676832.109511852        627914174.43214047     
   1984330825.9293723        25204137.497242451        616852173.23301017     
   1837243023.3769934        24589042.647708416        609342274.12558234     
   1689812500.7534473        22831547.560961843        605384477.10984671     
   2386290943.4665184       -3925826.2419705391       -3108699.8602146101     
   2245832491.2989254        6195358.8881387711       -8352736.1475535305     
   2101838834.8904996        4532529.8821702003       -11794343.442751175     
   1954309974.2412548       -8914313.2598718405       -13433521.745787047     
   1803245909.3511956       -34145170.537972689       -13270271.056656022     
   2213298607.2470603        3101699.5464104414        151274485.38516748     
   2076195667.6448104        12078303.892835617        141942429.31720746     
   1936721859.9677246        13152014.656483769        133653241.79588185     
   1794877184.2157750        6322831.8372484446        126406922.82121181     
   1650661640.3889918       -8409244.5647664070        120203472.39320055     
   2039554754.7217352        9903770.4430313110        304151076.62864399     
   1903637154.9833839        17084742.195382237        292089392.97369295     
   1766513023.3361626        20243940.918161154        280311017.41988301     
   1628182359.7800527        19381366.611309230        268815949.96719807     
   1488645164.3150716        14497019.274891496        257604190.61566958     
   1865059385.8905227        16480386.447872639        455521073.87020200     
   1728156953.3146193        21214673.795712590        442088154.82190114     
   1591212324.9958055        25808308.667186856        428178983.42921746     
   1454225500.9340856        30261291.062303245        413793559.69217372     
   1317196481.1294553        34573620.981057286        398931883.61074847     
   1689812500.7534473        22831547.560961843        605384477.10984671     
   1549755062.6385224        24468098.693829834        591938714.86181712     
   1410819764.9466689        29845117.903591752        577257139.82390916     
   1273006607.6778667        38962605.190208256        561339751.99611437     
   1136315590.8321314        51820560.553704023        544186551.37844241     
   1803245909.3511956       -34145170.537972689       -13270271.056656022     
   1771832732.1526122       -16420139.870975018       -8007008.0543636326     
   1748610114.1207690        28606754.685157180       -41457291.132667847     
   1733578055.2556353        100935513.13033122       -113621120.29159941     
   1726736555.5572600        200566135.46467859       -224498495.53115830     
   1650661640.3889918       -8409244.5647664070        120203472.39320055     
   1527753472.0491843       -13886515.157069564        135627646.31392515     
   1409103595.8481808       -5169478.6200278401        124738981.11263332     
   1294712011.7859883        17741865.046385348        87537476.789319277     
   1184578719.8625727        54847515.842053652        24023133.343972128     
   1488645164.3150716        14497019.274891496        257604190.61566958     
   1309672596.1443176       -3553375.1835892797        278601630.58890259     
   1131026053.0844297       -20517019.272521675        285686938.39870572     
   952705535.13540030       -36393912.991922855        278860114.04507607     
   774711042.29724073       -51184056.341757923        258121157.52800050     
   1317196481.1294553        34573620.981057286        398931883.61074847     
   1117590104.4380121        14579280.049456120        420914944.77056319     
   914377485.82950282       -17435867.272374868        441386580.72553265     
   707558625.30391204       -61471820.984461129        460346791.47567064     
   497133522.86126268       -117528581.08676669        477795577.02096367     
   1136315590.8321314        51820560.553704023        544186551.37844241     
   951505996.93026555        40511450.542062521        562567588.85891306     
   759157894.08339655        4073977.3804163933        591837908.09313333     
   559271282.29151726       -57491858.931275129        631997509.08110654     
   351846161.55463159       -144186058.39297140        683046391.82283056     
   1726736555.5572600        200566135.46467859       -224498495.53115830     
   1456506797.0350752        184689748.23137432       -96738265.811467335     
   1154026787.9699802        61312525.855023324        60145106.129415847     
   819296528.36197329       -169565531.66432714        246151620.29153609     
   452316018.21109337       -507944424.32665485        461281276.67483062     
   1184578719.8625727        54847515.842053652        24023133.343972128     
   977633129.35264456        11918053.953898013        155514613.71346143     
   732808528.17125690       -157274776.83911178        312806098.32998055     
   450104916.31837100       -452730976.53709394        495897587.19352955     
   129522293.79403132       -874450545.13995504        704789080.30410326     
   774711042.29724073       -51184056.341757923        258121157.52800050     
   621554939.87336695       -124014996.86256567        386777001.73063326     
   424891066.64944476       -341871840.05021518        537909712.20611107     
   184719422.62546319       -704754585.90468597        711519288.95443797     
  -98959992.198542953       -1212663234.4259889        907605731.97563756     
   497133522.86126268       -117528581.08676669        477795577.02096367     
   388272228.59722924       -223109404.21812075        597048898.24004054     
   230274403.40457383       -492478663.77821535        735455947.75781131     
   23140047.283291221       -925636359.76705372        893016725.57426572     
  -233130839.76660299       -1522582492.1846015        1069731231.6894081     
   351846161.55463159       -144186058.39297140        683046391.82283056     
   277784995.52422297       -285365168.11274964        786330303.24170363     
   148958538.43662325       -609095248.02315950        905444804.98509622     
  -34633209.708167434       -1115376298.1242056        1040389897.0529944     
  -272990248.91015023       -1804208318.4158874        1191165579.4453993     
   4921079219.9124432       -148875193.93807364        852366900.25569272     
   4674934614.6304951       -72012243.229117155        783792889.23395681     
   4418976921.8034458       -27859584.337137699        738845149.49530005     
   4153206141.4313092       -16417217.262139082        717523681.03971255     
   3877622273.5140772       -37685142.004114389        719828483.86719596     
   4366347491.3826494       -117413965.46762228        941271757.18565893     
   4168075497.6233892       -63550626.033062696        884498753.03240073     
   3963068886.1435719       -32136012.333672285        846232165.98454225     
   3751327656.9432039       -23170124.369465113        826471996.04207432     
   3532851810.0222898       -36652962.140415430        825218243.20500290     
   3880226511.5069876       -65369512.400930882        1014011072.8469924     
   3715198974.4770436       -38894230.678782701        972630623.69085145     
   3546515289.5510874       -24606108.609998941        944636737.46242440     
   3374175456.7291245       -22505146.194578648        930029414.16171026     
   3198179476.0111532       -32591343.432519436        928808653.78871679     
   3462716280.2854519        7258165.2619972229        1070584847.2397022     
   3316305045.1914635        1956942.8337273598        1048188501.2093054     
   3169316132.0260010       -5269873.1661019325        1034058863.9289424     
   3021749540.7890739       -14422282.737484217        1028195935.3986232     
   2873605271.4806814       -25500285.880424857        1030599715.6183332     
   3113816797.7180514        100469067.52116776        1110993080.3637829     
   2971393709.7666440        59002894.504467607        1111172385.5877681     
   2831471413.5683050        25872693.998014688        1114498545.3841019     
   2694049909.1230450        1078466.0018142462        1120971559.7527997     
   2559129196.4308619       -15379789.484130979        1130591428.6938536     
   3877622273.5140772       -37685142.004114389        719828483.86719596     
   3768893179.5896301       -24381861.439362288        704474080.91299677     
   3659767133.5018630       -12401754.752353668        694313208.19853020     
   3550244135.2507672       -1744821.9431037903        689345865.72378826     
   3440324184.8363476        7588936.9884049892        689572053.48877311     
   3532851810.0222898       -36652962.140415430        825218243.20500290     
   3436622180.1440287       -24034234.857272863        812721830.73973250     
   3340156420.6948729       -12202606.143783331        804804834.21217501     
   3243454531.6748161       -1158075.9999705553        801467253.62233233     
   3146516513.0838637        9099355.5742003918        802709088.97019994     
   3198179476.0111532       -32591343.432519436        928808653.78871679     
   3112694697.8876109       -21183553.118424773        919357858.17020297     
   3027134612.7855997       -10026786.065900683        913872364.18738949     
   2941499220.7051172        878957.72505223751        912352171.84027255     
   2855788521.6461616        11533678.254435062        914797281.12885189     
   2873605271.4806814       -25500285.880424857        1030599715.6183332     
   2797110732.8203840       -15829816.222822785        1024382163.2044113     
   2720701709.7740445       -5874294.5187015533        1021515798.1241716     
   2644378202.3416605        4366279.2319415808        1022000620.3776171     
   2568140210.5232310        14891905.029097319        1025836629.9647430     
   2559129196.4308619       -15379789.484130979        1130591428.6938536     
   2489870284.9423423       -7973024.1704620123        1127794745.8423543     
   2420857711.6602058        254868.49781107903        1127735136.0225208     
   2352091476.5844541        9303888.5207071304        1130412599.2343578     
   2283571579.7150836        19174035.898201108        1135827135.4778616     
   3440324184.8363476        7588936.9884049892        689572053.48877311     
   3276815380.5952063        925412.88064622879        676667944.54924655     
   3113755862.4352579       -4240490.9564667940        668917575.89830971     
   2951145630.3564963       -7908774.5229660273        666320947.53595412     
   2788984684.3589263       -10079437.818812966        668878059.46218693     
   3146516513.0838637        9099355.5742003918        802709088.97019994     
   2996662925.7873464        3713625.8677715063        791322564.40134799     
   2847198111.5767140       -376193.55235993862        784991436.94716239     
   2698122070.4519668       -3170102.6862124205        783715706.60763919     
   2549434802.4131126       -4668101.5337579250        787495373.38277638     
   2855788521.6461616        11533678.254435062        914797281.12885189     
   2719309170.7973347        7341448.8002339602        904857742.43616092     
   2583158080.0391059        4243419.6480113268        899875257.68420887     
   2447335249.3714576        2239590.7977372408        899849826.87300324     
   2311840678.7944055        1329962.2494376898        904781450.00253773     
   2568140210.5232310        14891905.029097319        1025836629.9647430     
   2444754115.6251903        11808881.678063512        1017273478.6536908     
   2321635767.8224411        9618348.6446774006        1013569038.1094574     
   2198785167.1149750        8320305.9289032221        1014723308.3320502     
   2076202313.5028040        7914753.5307672024        1020736289.3214545     
   2283571579.7150836        19174035.898201108        1135827135.4778616     
   2172997760.2709050        17115924.501254439        1128569773.0539322     
   2062631174.9267161        15748593.437617540        1126072778.2229044     
   1952471823.6825144        15072042.707263947        1128336150.9847763     
   1842519706.5383024        15086272.310213685        1135359891.3395431     
   2788984684.3589263       -10079437.818812966        668878059.46218693     
   2661237744.1808887       -1375586.0544973612        658305933.58608496     
   2533404361.8651490        7040125.2508169413        650390261.33751106     
   2405484537.4117289        15167696.097185016        645131042.71647966     
   2277478270.8206105        23007126.484566808        642528277.72297311     
   2549434802.4131126       -4668101.5337579250        787495373.38277638     
   2428676128.3473473        2764749.7347904444        777720961.25365329     
   2307892816.5302896        10115475.165702224        770958992.62084401     
   2187084866.9619584        17384074.759020686        767209467.48435163     
   2066252279.6423340        24570548.514714360        766472385.84417760     
   2311840678.7944055        1329962.2494376898        904781450.00253773     
   2199087384.7517185        7796947.1954468489        895876856.73786354     
   2086371257.3441591        14387820.925199151        890340696.83829522     
   1973692296.5717249        21102583.438704252        888172970.30382168     
   1861050502.4344101        27941234.735950947        889373677.13445628     
   2076202313.5028040        7914753.5307672024        1020736289.3214545     
   1972471513.3940153        13721006.327483535        1012773620.0387169     
   1868839684.3067613        19857162.529322505        1008535373.9898560     
   1765306826.2410407        26323222.136262894        1008021551.1748862     
   1661872939.1968443        33119185.148296714        1011232151.5938010     
   1842519706.5383024        15086272.310213685        1135359891.3395431     
   1748828514.2742276        20536927.130898118        1128411251.1562071     
   1655298097.4180925        26523499.978059769        1125543024.0755405     
   1561928455.9698970        33045990.851677239        1126755210.0975378     
   1468719589.9296401        40104399.751757503        1132047809.2222056     
   2277478270.8206105        23007126.484566808        642528277.72297311     
   2131075908.4105713        24676832.109511852        627914174.43214047     
   1984330825.9293723        25204137.497242451        616852173.23301017     
   1837243023.3769934        24589042.647708416        609342274.12558234     
   1689812500.7534473        22831547.560961843        605384477.10984671     
   2066252279.6423340        24570548.514714360        766472385.84417760     
   1929266425.3239720        26538896.908324599        753673249.63850129     
   1792059838.2541645        27771469.463784456        744496561.54195082     
   1654632518.4329278        28268266.181141317        738942321.55454016     
   1516984465.8602452        28029287.060355842        737010529.67624509     
   1861050502.4344101        27941234.735950947        889373677.13445628     
   1733682144.8289583        30268522.484604716        878531826.55361199     
   1606215041.7917891        32266658.794210553        871382770.09933507     
   1478649193.3229160        33935643.664803863        867926507.77161515     
   1350984599.4223251        35275477.096337855        868163039.57044947     
   1661872939.1968443        33119185.148296714        1011232151.5938010     
   1544323066.9255288        35865708.838354170        1002489905.1774776     
   1426796436.5422273        38689705.488470256        997510798.90515184     
   1309293048.0469480        41591175.098659456        996294832.77680874     
   1191812901.4396858        44570117.668895781        998842006.79246569     
   1468719589.9296401        40104399.751757503        1132047809.2222056     
   1361189191.6136928        43330455.969595075        1125547485.5100956     
   1253804022.5054832        47040609.546563506        1122880647.9594007     
   1146564082.6050396        51234860.482750058        1124047296.5701280     
   1039469371.9123330        55913208.778052926        1129047431.3422766     
   1689812500.7534473        22831547.560961843        605384477.10984671     
   1549755062.6385224        24468098.693829834        591938714.86181712     
   1410819764.9466689        29845117.903591752        577257139.82390916     
   1273006607.6778667        38962605.190208256        561339751.99611437     
   1136315590.8321314        51820560.553704023        544186551.37844241     
   1516984465.8602452        28029287.060355842        737010529.67624509     
   1375125636.2981033        26605058.491756797        727664099.59805548     
   1233538957.2779803        26087998.396546960        718874130.35838783     
   1092224428.7998624        26478106.774681985        710640621.95723319     
   951182050.86375320        27775383.626196504        702963574.39458239     
   1350984599.4223251        35275477.096337855        868163039.57044947     
   1212445160.2083905        32326703.364902258        861924286.80087852     
   1073327881.6554168        27451798.503346205        858034268.49821198     
   933632763.76339829        20650762.511637688        856492984.66245723     
   793359806.53233731        11923595.389794230        857300435.29361773     
   1191812901.4396858        44570117.668895781        998842006.79246569     
   1061713634.3693776        41633033.313267827        994719276.47027218     
   930186538.07897472        33936518.223985195        994737554.24339414     
   797231612.56847847        21480572.401050001        998896840.11182272     
   662848857.83788419        4265195.8444659114        1007197134.0755587     
   1039469371.9123330        55913208.778052926        1129047431.3422766     
   922931058.78106117        54524048.336812198        1126049068.6062453     
   804114926.54865003        45542157.558442742        1128983987.5939243     
   683020975.21509469        28967536.442918986        1137852188.3053017     
   559649204.78039467        4800184.9902466238        1152653670.7403889     
   1136315590.8321314        51820560.553704023        544186551.37844241     
   951505996.93026555        40511450.542062521        562567588.85891306     
   759157894.08339655        4073977.3804163933        591837908.09313333     
   559271282.29151726       -57491858.931275129        631997509.08110654     
   351846161.55463159       -144186058.39297140        683046391.82283056     
   951182050.86375320        27775383.626196504        702963574.39458239     
   791929320.74547398        10895476.175005972        721040382.62452412     
   624021531.08647501       -34834629.745270193        749172603.72799420     
   447458681.88675481       -109414934.13461366        787360237.70497024     
   262240773.14629698       -212845436.99306899        835603284.55546820     
   793359806.53233731        11923595.389794230        857300435.29361773     
   657281457.68270326       -11241854.255440950        873770371.91136599     
   511431498.69662124       -66979337.688815564        899461852.52240181     
   355809929.57409829       -155288854.91034013        934374877.12672019     
   190416750.31512398       -276170405.92001808        978509445.72433352     
   662848857.83788419        4265195.8444659114        1007197134.0755587     
   547562407.74193943       -25900540.749274135        1020757556.7194444     
   421387796.91381580       -92360146.450276881        1042705654.4763703     
   284325025.35355103       -195113621.25841731        1073041427.3463669     
   136374093.06110737       -334160965.17382026        1111764875.3294113     
   559649204.78039467        4800184.9902466238        1152653670.7403889     
   462772170.92317969       -33080583.306532800        1162001937.0487323     
   353890425.73808777       -110977056.02956831        1178904009.5898993     
   233003969.22511339       -228889233.17887330        1203359888.3638859     
   100112801.38425598       -386817114.75446624        1235369573.3706934     
   351846161.55463159       -144186058.39297140        683046391.82283056     
   277784995.52422297       -285365168.11274964        786330303.24170363     
   148958538.43662325       -609095248.02315950        905444804.98509622     
  -34633209.708167434       -1115376298.1242056        1040389897.0529944     
  -272990248.91015023       -1804208318.4158874        1191165579.4453993     
   262240773.14629698       -212845436.99306899        835603284.55546820     
   223554333.81632429       -352514678.90656424        884968443.35071516     
   140645033.22827753       -639593458.34697032        945365909.02033949     
   13512871.382148862       -1074081775.3143137        1016795681.5643264     
  -157842151.72204965       -1655979629.8085759        1099257760.9827020     
   190416750.31512398       -276170405.92001808        978509445.72433352     
   173395656.39949062       -418442594.41305268        986255353.32823801     
   122694131.02489367       -672982887.76930618        1000235284.3563923     
   38312174.191327035       -1039791285.9887698        1020449238.8087828     
  -79750214.101197422       -1518867789.0714521        1046897216.6854076     
   136374093.06110737       -334160965.17382026        1111764875.3294113     
   127308963.27371699       -483148914.63222641        1090191033.1742766     
   95105831.826475173       -709263536.29016566        1070052930.9932561     
   39764698.719389141       -1012504830.1475573        1051350568.7863417     
  -38714436.047548831       -1392872796.2044828        1034083946.5535424     
   100112801.38425598       -386817114.75446624        1235369573.3706934     
   85294254.439012945       -546633639.56407917        1196775482.8888378     
   57880135.633027583       -748435403.90950537        1154818848.9309416     
   17870444.966314375       -992222407.79068851        1109499671.4970233     
  -34734817.561143339       -1277994651.2076867        1060817950.5870836     
   3113816797.7180514        100469067.52116776        1110993080.3637829     
   2971393709.7666440        59002894.504467607        1111172385.5877681     
   2831471413.5683050        25872693.998014688        1114498545.3841019     
   2694049909.1230450        1078466.0018142462        1120971559.7527997     
   2559129196.4308619       -15379789.484130979        1130591428.6938536     
   2757652946.7538137        89268672.825705886        1191657574.7695754     
   2626776657.2457242        54223761.749692202        1189468441.8508589     
   2497831138.2387352        25614752.343995214        1191532777.3298821     
   2370816389.7328424        3441644.6086305380        1197850581.2066350     
   2245732411.7280502       -12295561.456410170        1208421853.4811213     
   2385755315.6839042        73348144.098542571        1273791974.8060768     
   2269587578.4059305        45673021.099249125        1268569378.9506891     
   2154780590.3770747        22533728.930352330        1268706865.3184218     
   2041334351.5973394        3930267.5918536186        1274204433.9092591     
   1929248862.0667250       -10137362.916244984        1285062084.7232015     
   1998123904.5083363        52707481.339682460        1357396280.4732897     
   1899826473.2472591        33350672.553145409        1348475196.8872664     
   1802319769.9833283        16629623.757081509        1346020809.3497264     
   1705603794.7165358        2544334.9514880180        1350033117.8606718     
   1609678547.4468865       -8905193.8636297584        1360512122.4201016     
   1594758713.2270980        27346684.549119473        1442470491.7712138     
   1517493341.7697144        17256716.111381412        1429185895.6605763     
   1440448677.0574884        7902436.8241803646        1423474609.4237947     
   1363624719.0904288       -716153.31246924400        1425336633.0608771     
   1287021467.8685341       -8599054.2985752821        1434771966.5718184     
   2559129196.4308619       -15379789.484130979        1130591428.6938536     
   2489870284.9423423       -7973024.1704620123        1127794745.8423543     
   2420857711.6602058        254868.49781107903        1127735136.0225208     
   2352091476.5844541        9303888.5207071304        1130412599.2343578     
   2283571579.7150836        19174035.898201108        1135827135.4778616     
   2245732411.7280502       -12295561.456410170        1208421853.4811213     
   2183609160.4637513       -5922488.9032498598        1204928155.3758500     
   2121679574.2561977        1096133.8390648365        1204424898.1253524     
   2059943653.1053839        8760306.7705131769        1206912081.7296243     
   1998401397.0113158        17070029.891103506        1212389706.1886683     
   1929248862.0667250       -10137362.916244984        1285062084.7232015     
   1874985179.0926602       -4580810.7037776709        1280809919.3562481     
   1820862488.0256996        1445714.5323649645        1279801562.6671686     
   1766880788.8658400        7942212.7921806574        1282037014.6559646     
   1713040081.6130831        14908684.075664878        1287516275.3226416     
   1609678547.4468865       -8905193.8636297584        1360512122.4201016     
   1563998340.8290675       -3947989.5720609426        1355440037.7835486     
   1518406452.9687119        1303610.5777213573        1353865129.6479716     
   1472902883.8658168        6849606.5857059956        1355787398.0133796     
   1427487633.5203800        12689998.451881051        1361206842.8797624     
   1287021467.8685341       -8599054.2985752821        1434771966.5718184     
   1250648645.6729743       -4024025.5080927610        1428818510.6577477     
   1214311469.0852368        669821.97513419390        1426615599.0677664     
   1178009938.1053157        5482488.1510785222        1428163231.8018656     
   1141744052.7332170        10413973.019769192        1433461408.8600521     
   2283571579.7150836        19174035.898201108        1135827135.4778616     
   2172997760.2709050        17115924.501254439        1128569773.0539322     
   2062631174.9267161        15748593.437617540        1126072778.2229044     
   1952471823.6825144        15072042.707263947        1128336150.9847763     
   1842519706.5383024        15086272.310213685        1135359891.3395431     
   1998401397.0113158        17070029.891103506        1212389706.1886683     
   1900428405.5990596        15065954.779423475        1205389933.2769046     
   1802667522.1167784        13768906.101000190        1203310267.5001974     
   1705118746.5644753        13178883.855830550        1206150708.8585451     
   1607782078.9421439        13295888.043904960        1213911257.3519526     
   1713040081.6130831        14908684.075664878        1287516275.3226416     
   1628124316.9246297        13095564.856820226        1280779778.0580182     
   1543425533.9961369        12005718.171178877        1279123127.4706111     
   1458943732.8276062        11639144.018741727        1282546323.5604196     
   1374678913.4190369        11995842.399511576        1291049366.3274453     
   1427487633.5203800        12689998.451881051        1361206842.8797624     
   1356085494.2476096        11204754.733433425        1354739307.3972735     
   1284905210.5647833        10459029.648140311        1353511358.1341569     
   1213946782.4719071        10452823.196010411        1357522995.0904090     
   1143210209.9689760        11186135.377028823        1366774218.2660322     
   1141744052.7332170        10413973.019769192        1433461408.8600521     
   1084311937.5680065        9393524.4092816710        1427268521.2946734     
   1027106551.8227233        9128840.5318905711        1426474959.4908237     
   970127895.49738073        9619921.3876294494        1431080723.4485025     
   913375968.59196520        10866766.976464450        1441085813.1677132     
   1842519706.5383024        15086272.310213685        1135359891.3395431     
   1748828514.2742276        20536927.130898118        1128411251.1562071     
   1655298097.4180925        26523499.978059769        1125543024.0755405     
   1561928455.9698970        33045990.851677239        1126755210.0975378     
   1468719589.9296401        40104399.751757503        1132047809.2222056     
   1607782078.9421439        13295888.043904960        1213911257.3519526     
   1524718601.6338243        18241102.836270988        1207780322.0027580     
   1441803183.5450373        23679848.360414982        1205860778.9080086     
   1359035824.6757855        29612124.616343558        1208152628.0677102     
   1276416525.0260615        36037931.604028046        1214655869.4818549     
   1374678913.4190369        11995842.399511576        1291049366.3274453     
   1302617377.2144010        16547885.007935941        1285721300.2592568     
   1230691184.0408936        21551071.053456306        1284735605.5972879     
   1158900333.8985112        27005400.536054134        1288092282.3415482     
   1087244826.7872500        32910873.455732167        1295791330.4920211     
   1143210209.9689760        11186135.377028823        1366774218.2660322     
   1082524841.0159602        15457273.645903349        1362234185.9257097     
   1021962098.9056617        20137168.057168067        1362167504.1433814     
   961521983.63808155        25225818.610828221        1366574172.9190533     
   901204495.21321774        30723225.306874871        1375454192.2527180     
   913375968.59196520        10866766.976464450        1441085813.1677132     
   864440993.03849304        14969268.750146091        1437318979.0021117     
   815615928.13933456        19438139.371540576        1438156474.5462797     
   766900773.89448690        24273378.840638429        1443598299.8002250     
   718295530.30394900        29474987.157433420        1453644454.7639394     
   1468719589.9296401        40104399.751757503        1132047809.2222056     
   1361189191.6136928        43330455.969595075        1125547485.5100956     
   1253804022.5054832        47040609.546563506        1122880647.9594007     
   1146564082.6050396        51234860.482750058        1124047296.5701280     
   1039469371.9123330        55913208.778052926        1129047431.3422766     
   1276416525.0260615        36037931.604028046        1214655869.4818549     
   1179166179.4074273        38345210.595780253        1209580414.6622679     
   1081946314.6536982        40754092.470546365        1208791232.0390594     
   984756930.76486504        43264577.228304863        1212288321.6122308     
   887598027.74094379        45876664.869100124        1220071683.3817818     
   1087244826.7872500        32910873.455732167        1295791330.4920211     
   1001568208.2515204        34687477.537069738        1292006871.4983175     
   915807322.23785520        36183190.025284410        1292961470.7359433     
   829962168.74624729        37398010.920359999        1298655128.2049069     
   744032747.77669883        38331940.222297281        1309087843.9052014     
   901204495.21321774        30723225.306874871        1375454192.2527180     
   828395278.14598739        32357256.793489724        1372826856.0182376     
   755387045.25796878        33327902.210809797        1375391364.0500479     
   682179796.54916847        33635161.558860153        1383147716.3481495     
   608773532.01958179        33279034.837622792        1396095912.9125481     
   718295530.30394900        29474987.157433420        1453644454.7639394     
   659647389.09080696        31354548.364995450        1452040368.2220311     
   600685483.71403611        32188229.027128011        1456080911.9813790     
   541409814.17363906        31976029.143836796        1465766086.0419669     
   481820380.46960574        30717948.715097278        1481095890.4038095     
   1039469371.9123330        55913208.778052926        1129047431.3422766     
   922931058.78106117        54524048.336812198        1126049068.6062453     
   804114926.54865003        45542157.558442742        1128983987.5939243     
   683020975.21509469        28967536.442918986        1137852188.3053017     
   559649204.78039467        4800184.9902466238        1152653670.7403889     
   887598027.74094379        45876664.869100124        1220071683.3817818     
   786212410.42626941        43840806.453420579        1217303258.2501242     
   682567785.80543041        34274923.683864027        1220406709.2477832     
   576664153.87843049        17179016.560429990        1229382036.3747628     
   468501514.64527172       -7446914.9168559611        1244229239.6310468     
   744032747.77669883        38331940.222297281        1309087843.9052014     
   657624381.72321582        35596750.465558738        1306571303.4720633     
   568975820.15855026        25394242.338202119        1309865233.5738530     
   478087063.08270627        7724415.8402567208        1318969634.2105608     
   384958110.49567640       -17412729.028310254        1333884505.3821986     
   608773532.01958179        33279034.837622792        1396095912.9125481     
   537166972.67189682        29791880.373216450        1393853204.2720656     
   463339029.60799861        18900113.521438003        1397359560.5721281     
   387289702.82790911        603734.28235134482        1406614981.8127215     
   309018992.33160919       -25097257.344101071        1421619467.9938459     
   481820380.46960574        30717948.715097278        1481095890.4038095     
   424840183.27230728        26426196.176379636        1479148960.6501374     
   365657414.15377843        14792537.233563259        1482889690.2426102     
   304272073.11403853       -4183028.1132885516        1492318079.1812251     
   240684160.15307254       -30500499.864232764        1507434127.4659872     
   559649204.78039467        4800184.9902466238        1152653670.7403889     
   462772170.92317969       -33080583.306532800        1162001937.0487323     
   353890425.73808777       -110977056.02956831        1178904009.5898993     
   233003969.22511339       -228889233.17887330        1203359888.3638859     
   100112801.38425598       -386817114.75446624        1235369573.3706934     
   468501514.64527172       -7446914.9168559611        1244229239.6310468     
   390773252.74198210       -41767368.855261311        1242713991.1682048     
   302892018.58878773       -109931063.62668236        1247553150.0466993     
   204857812.18566811       -211937999.23118901        1258746716.2665377     
   96670633.532642037       -347788175.66871446        1276294689.8277164     
   384958110.49567640       -17412729.028310254        1333884505.3821986     
   322951766.57065749       -49200924.801021233        1323666104.4058003     
   252644189.47369349       -108659897.81354132        1318602711.8792541     
   174035379.20477980       -195789648.06589770        1318694327.8025711     
   87125335.763916463       -310590175.55808616        1323940952.1757486     
   309018992.33160919       -25097257.344101071        1421619467.9938459     
   259307712.40919951       -55381251.143814534        1404858276.7615123     
   203146938.39280367       -107163558.59014563        1392052695.0875587     
   140536670.28243607       -180444179.68305632        1383202722.9719808     
   71476908.078073785       -275223114.42260474        1378308360.4147909     
   240684160.15307254       -30500499.864232764        1507434127.4659872     
   199841090.25760305       -60308347.883672699        1486290508.2353489     
   154400265.34612554       -105442045.95647809        1467903099.6716135     
   104361685.41863567       -165901594.08265820        1452271901.7747724     
   49725350.475122526       -241686992.26224917        1439396914.5448275     
   100112801.38425598       -386817114.75446624        1235369573.3706934     
   85294254.439012945       -546633639.56407917        1196775482.8888378     
   57880135.633027583       -748435403.90950537        1154818848.9309416     
   17870444.966314375       -992222407.79068851        1109499671.4970233     
  -34734817.561143339       -1277994651.2076867        1060817950.5870836     
   96670633.532642037       -347788175.66871446        1276294689.8277164     
   79765340.736197442       -488925691.37710989        1221978215.4204295     
   51471104.786677897       -668026350.92909145        1165108554.8110502     
   11787925.684098423       -885090154.32461846        1105685707.9995751     
  -39284196.571558893       -1140117101.5637217        1043709674.9859641     
   87125335.763916463       -310590175.55808616        1323940952.1757486     
   70445746.470328838       -432354947.35905647        1255309827.3353369     
   43583842.731335163       -588060767.31137609        1184934873.5667317     
   6539624.5469407439       -777707635.41503096        1112816090.8699565     
  -40686908.082855940       -1001295551.6700212        1038953479.2449895     
   71476908.078073785       -275223114.42260474        1378308360.4147909     
   57335471.641402543       -376921407.50992703        1296770318.6335089     
   34218349.466995329       -508538653.05636626        1214297805.1979718     
   2125541.5548542142       -670074851.06191540        1130890820.1081870     
  -38942952.095017105       -861530001.52657986        1046549363.3641051     
   49725350.475122526       -241686992.26224917        1439396914.5448275     
   40434516.249424651       -322625071.82970643        1346359689.3149755     
   23374624.993666291       -429460008.16403478        1253197349.7047791     
  -1454323.2921693623       -562191801.26529288        1159909895.7142401     
  -34052328.608061552       -720820451.13340354        1066497327.3433733     
   1594758713.2270980        27346684.549119473        1442470491.7712138     
   1517493341.7697144        17256716.111381412        1429185895.6605763     
   1440448677.0574884        7902436.8241803646        1423474609.4237947     
   1363624719.0904288       -716153.31246924400        1425336633.0608771     
   1287021467.8685341       -8599054.2985752821        1434771966.5718184     
   1190895587.9823523        18957995.814573944        1464225634.0182450     
   1133878705.3432045        11670158.926892221        1452264747.4250207     
   1077027353.7140014        4934092.0723561645        1447659665.8450274     
   1020341533.0947365       -1250204.7490524650        1450410389.2782662     
   963821243.48541164       -6882731.5373241901        1460516917.7247391     
   790481481.56785572        11604012.729101568        1484754340.9202754     
   753091645.28801036        6931874.6538035870        1474052792.1533751     
   715812164.28288162        2627587.4942351282        1470489543.5390794     
   678643038.55247295       -1308848.7496053278        1474064595.0773847     
   641584268.09678185       -4877434.0777187347        1484777946.7682955     
   393516393.98360854        5284735.2927031219        1504056612.4773099     
   375132161.60412288        3041863.2921048850        1494550029.8456423     
   356803108.76413411        982923.08982758224        1491964242.5059476     
   338529235.46364093       -892085.31412954628        1496299250.4582300     
   320310541.70264328       -2583161.9197675437        1507555053.7024834     
   325.22961210592837        163.50538322541141        1522132448.6893501     
   254.29154651942545        124.84179784266868        1513756460.5018198     
   187.15775687480709        98.859133653986504        1512083762.7456369     
   123.82823889435954        85.557375012540405        1517114355.4207997     
   64.302994614000042        84.936527316942289        1528848238.5273066     
   1287021467.8685341       -8599054.2985752821        1434771966.5718184     
   1250648645.6729743       -4024025.5080927610        1428818510.6577477     
   1214311469.0852368        669821.97513419390        1426615599.0677664     
   1178009938.1053157        5482488.1510785222        1428163231.8018656     
   1141744052.7332170        10413973.019769192        1433461408.8600521     
   963821243.48541164       -6882731.5373241901        1460516917.7247391     
   936801310.92305362       -3373550.1389904618        1454906690.0436864     
   909808111.79416442        224742.70423871279        1452986413.3084314     
   882841646.09874773        3912146.9923787713        1454756087.5189717     
   855901913.83680308        7688662.7254227400        1460215712.6753125     
   641584268.09678185       -4877434.0777187347        1484777946.7682955     
   623744101.22966051       -2486037.2529307306        1479500549.7835164     
   605921755.62165916       -35236.231076270342        1477852510.3662465     
   588117231.27278125        2474968.9878564179        1479833828.5164897     
   570330528.18302643        5044578.4038674533        1485444504.2342405     
   320310541.70264328       -2583161.9197675437        1507555053.7024834     
   311477016.59279573       -1361486.8499120921        1502600089.8772399     
   302652400.56771874       -110114.83082365990        1501213890.2412193     
   293836693.62742007        1170954.1375271529        1503396454.7944202     
   285029895.77188790        2481720.0550986677        1509147783.5368474     
   64.302994614000042        84.936527316942289        1528848238.5273066     
   57.012459313993794        101.07006335337974        1524205310.3248563     
   46.632341715197704        106.90499380885252        1523070552.9333413     
   33.162654250432105        102.44135717706521        1525443966.3527627     
   16.603391463896358        87.679135792432703        1531325550.5831201     
   1141744052.7332170        10413973.019769192        1433461408.8600521     
   1084311937.5680065        9393524.4092816710        1427268521.2946734     
   1027106551.8227233        9128840.5318905711        1426474959.4908237     
   970127895.49738073        9619921.3876294494        1431080723.4485025     
   913375968.59196520        10866766.976464450        1441085813.1677132     
   855901913.83680308        7688662.7254227400        1460215712.6753125     
   812627347.36988235        6863178.5002860725        1454372431.0341454     
   769522827.88925493        6604517.5627922118        1453975253.9258239     
   726588355.39492285        6912679.9129532278        1459024181.3503487     
   683823929.88688850        7787665.5507704616        1469519213.3077128     
   570330528.18302643        5044578.4038674533        1485444504.2342405     
   541347164.04672456        4454154.6537804604        1479884699.0113804     
   512477164.46307790        4241612.7458774745        1479817777.0926774     
   483720529.43209010        4406952.6801710427        1485243738.4781318     
   455077258.95376211        4950174.4566632211        1496162583.1677485     
   285029895.77188790        2481720.0550986677        1509147783.5368474     
   270471387.59853214        2166452.8697610497        1503805325.2263789     
   255969561.54419512        2040126.0811528563        1504002528.9913826     
   241524417.60887715        2102739.6892748624        1509739394.8318617     
   227135955.79257903        2354293.6941281706        1521015922.7478096     
   16.603391463896358        87.679135792432703        1531325550.5831201     
   18.025307437140118        73.148238656704578        1526134309.6791334     
   19.132605573106769        57.568615396719444        1526529509.6219366     
   19.925283881630047        40.940259378589722        1532511150.4115243     
   20.403351078265700        23.263199654167909        1544079232.0479021     
   913375968.59196520        10866766.976464450        1441085813.1677132     
   864440993.03849304        14969268.750146091        1437318979.0021117     
   815615928.13933456        19438139.371540576        1438156474.5462797     
   766900773.89448690        24273378.840638429        1443598299.8002250     
   718295530.30394900        29474987.157433420        1453644454.7639394     
   683823929.88688850        7787665.5507704616        1469519213.3077128     
   646652772.92355680        10723560.442277521        1466201282.9890220     
   609564049.42906356        13934233.563250721        1467597331.1565475     
   572557759.40340936        17419684.913686037        1473707357.8102963     
   535633902.84659201        21179914.493575335        1484531362.9502673     
   455077258.95376211        4950174.4566632211        1496162583.1677485     
   429983202.79898828        6813447.1315109730        1493261499.9795794     
   404944102.92758501        8859907.4175923914        1495184044.0540814     
   379959959.33954567        11089555.314887911        1501930215.3912487     
   355030772.03487200        13502390.823401719        1513500013.9910879     
   227135955.79257903        2354293.6941281706        1521015922.7478096     
   214432282.66479483        3238928.8178677410        1518499629.9737828     
   201756088.63489822        4215160.9345680326        1520916613.2388704     
   189107373.70289829        5282990.0442562848        1528266872.5430775     
   176486137.86879101        6442416.1469197720        1540550407.8863986     
   20.403351078265700        23.263199654167909        1544079232.0479021     
   12.520965857538627        5.5013172131299415        1541915672.9716320     
   6.5510096431769176       -5.8858018733568276        1544795038.7109234     
   2.4934685040166498       -10.898203001671362        1552717329.2657816     
  0.34834799879810818       -9.5358707651816470        1565682544.6361992     
   718295530.30394900        29474987.157433420        1453644454.7639394     
   659647389.09080696        31354548.364995450        1452040368.2220311     
   600685483.71403611        32188229.027128011        1456080911.9813790     
   541409814.17363906        31976029.143836796        1465766086.0419669     
   481820380.46960574        30717948.715097278        1481095890.4038095     
   535633902.84659201        21179914.493575335        1484531362.9502673     
   491543156.83661401        22558194.458362520        1483339657.2616487     
   447217087.61329722        23152063.712018982        1487816997.8687022     
   402655695.17664295        22961522.254550517        1497963384.7714224     
   357858979.52665085        21986570.085957438        1513778817.9698148     
   355030772.03487200        13502390.823401719        1513500013.9910879     
   325567181.21212244        14400317.540640026        1512812203.5977607     
   295946708.12632316        14775303.381046072        1517817855.4945242     
   266169352.77747679        14627348.344629839        1528516969.6813812     
   236235115.16557890        13956452.431372494        1544909546.1583283     
   176486137.86879101        6442416.1469197720        1540550407.8863986     
   161719462.21733114        6880917.6118276045        1540458007.2303643     
   146874345.25310963        7057948.0341980234        1546083484.8588479     
   131950786.97613071        6973507.4140435457        1557426840.7718470     
   116948787.38639286        6627595.7513583153        1574488074.9693546     
  0.34834799879810818       -9.5358707651816470        1565682544.6361992     
 -0.14776366943212293       -5.3280858662803130        1566277068.1594701     
  -1.0063435432957415       -2.3285269317114876        1572613885.9616725     
  -2.2273853091618108      -0.53717499770688937        1584692998.0428109     
  -3.8109071759079600        4.5909933364109756E-002   1602514404.4028873     
   481820380.46960574        30717948.715097278        1481095890.4038095     
   424840183.27230728        26426196.176379636        1479148960.6501374     
   365657414.15377843        14792537.233563259        1482889690.2426102     
   304272073.11403853       -4183028.1132885516        1492318079.1812251     
   240684160.15307254       -30500499.864232764        1507434127.4659872     
   357858979.52665085        21986570.085957438        1513778817.9698148     
   315836534.82988602        18981566.734105125        1510318418.4948075     
   272162161.16895497        10470133.501701295        1512379381.0155520     
   226835858.54385787       -3547729.6112564355        1519961705.5320601     
   179857626.95459005       -23072022.604782015        1533065392.0443292     
   236235115.16557890        13956452.431372494        1544909546.1583283     
   208695287.68254507        12095657.680364691        1540578093.7452066     
   180054174.19239980        6563909.5723181739        1541601705.9774613     
   150311774.69513690       -2638791.8927868605        1547980382.8550901     
   119468089.19076538       -15512446.714920610        1559714124.3780999     
   116948787.38639286        6627595.7513583153        1574488074.9693546     
   103416441.83028281        5768469.0151528828        1569927986.4013500     
   89333453.224105403        3073865.4453907795        1570556665.1283391     
   74699821.567878187       -1456214.9578717202        1576374111.1503210     
   59515546.861589588       -7821772.1946712025        1587380324.4673002     
  -3.8109071759079600        4.5909933364109756E-002   1602514404.4028873     
  -2.7269066126035755       0.73844959451315051        1598368096.4632285     
  -1.7359052839860145        1.1209918067061140        1599244258.4681816     
 -0.83792004927991592        1.1934807194722310        1605142890.4177475     
  -3.2933271494510530E-002  0.95597408194664646        1616063992.3119242     
   240684160.15307254       -30500499.864232764        1507434127.4659872     
   199841090.25760305       -60308347.883672699        1486290508.2353489     
   154400265.34612554       -105442045.95647809        1467903099.6716135     
   104361685.41863567       -165901594.08265820        1452271901.7747724     
   49725350.475122526       -241686992.26224917        1439396914.5448275     
   179857626.95459005       -23072022.604782015        1533065392.0443292     
   148558540.58732057       -45627943.939044237        1507458971.1014860     
   113811137.97059458       -79678252.771497414        1484764343.7399440     
   75615419.104404807       -125222949.10216331        1464981509.9596841     
   33971383.988748774       -182262032.93104720        1448110469.7607174     
   119468089.19076538       -15512446.714920610        1559714124.3780999     
   98157508.964245737       -30683084.580245167        1530985913.6173666     
   74548051.254819572       -53516647.388590768        1505325079.3523211     
   48639716.062482536       -84013135.139976025        1482731621.5829604     
   20432503.387237929       -122172547.83438306        1463205540.3092794     
   59515546.861589588       -7821772.1946712025        1587380324.4673002     
   48637995.388375685       -15473769.807282161        1556871335.7829835     
   36611005.198797584       -26957229.807771135        1529585306.5087466     
   23434576.292879894       -42272152.196059443        1505522236.6445935     
   9108708.6705838330       -61418536.972276874        1484682126.1905138     
  -3.2933271494510530E-002  0.95597408194664646        1616063992.3119242     
 -0.14029574205672893       0.37982378231615643        1585115237.5983403     
 -0.19746233036966376       -2.9006215927331484E-002   1557545025.2092266     
 -0.20442912472719121      -0.27050391459749001        1533353355.1445827     
 -0.16120035709207683      -0.34468307329217585        1512540227.4044113     
   49725350.475122526       -241686992.26224917        1439396914.5448275     
   40434516.249424651       -322625071.82970643        1346359689.3149755     
   23374624.993666291       -429460008.16403478        1253197349.7047791     
  -1454323.2921693623       -562191801.26529288        1159909895.7142401     
  -34052328.608061552       -720820451.13340354        1066497327.3433733     
   33971383.988748774       -182262032.93104720        1448110469.7607174     
   29823876.471817479       -242119407.16841489        1347588540.0879872     
   19849576.179234043       -321399423.99129242        1246283351.8030787     
   4048483.1109902859       -420102083.39970654        1144194904.9060087     
  -17579402.732906044       -538227385.39362228        1041323199.3967837     
   20432503.387237929       -122172547.83438306        1463205540.3092794     
   19547910.488139763       -161513340.36894786        1357464881.1571383     
   14778789.067805558       -213802561.30763483        1250282819.1610017     
   6125139.1262204647       -279040210.65048867        1141659354.3208759     
  -6413039.3366096020       -357226288.39749867        1031594486.6367546     
   9108708.6705838330       -61418536.972276874        1484682126.1905138     
   9606618.2983986512       -80806871.431278154        1375988712.5224419     
   8162263.6593786255       -106669420.11306384        1265195751.7785630     
   4775644.7535146400       -139006183.01766342        1152303243.9588521     
  -553238.41918205470       -177817160.14503568        1037311189.0633278     
 -0.16120035709207683      -0.34468307329217585        1512540227.4044113     
  -9.7422527920345656E-002 -0.35546579416220592        1403160034.1838982     
  -4.6062284023670227E-002 -0.40763699650213658        1291022149.6557355     
  -7.1227593420445101E-003 -0.50121094317026149        1176126573.8199227     
   1.9384128002364692E-002 -0.63623117763211712        1058473306.6764705     
   325.22961210592837        163.50538322541141        1522132448.6893501     
   254.29154651942545        124.84179784266868        1513756460.5018198     
   187.15775687480709        98.859133653986504        1512083762.7456369     
   123.82823889435954        85.557375012540405        1517114355.4207997     
   64.302994614000042        84.936527316942289        1528848238.5273066     
  -393515799.96010995       -5284518.4380026311        1504056658.4510808     
  -375131691.76857322       -3041680.2424710989        1494550066.0264559     
  -356802759.72426236       -982762.53769336641        1491964272.4565389     
  -338529003.82717627        892234.67633651197        1496299277.7413270     
  -320310424.07731670        2583311.3996094763        1507555081.8808229     
  -790480995.38426960       -11603921.451714784        1484754450.0256324     
  -753091255.42495823       -6931770.6056237519        1474052876.7538278     
  -715811871.56437135       -2627473.4219435453        1470489610.7600965     
  -678642843.80250835        1308970.0993197560        1474064652.0444303     
  -641584172.13937187        4877559.9581651986        1484778000.6068311     
  -1190895261.0428669       -18958045.535762370        1464225823.4130063     
  -1133878436.6776066       -11670146.247655869        1452264892.6839406     
  -1077027148.3625712       -4934033.7936262488        1447659777.6563127     
  -1020341396.0977572        1250291.8263295293        1450410478.3301079     
  -963821179.88316894        6882830.6121966243        1460516994.7053325     
  -1594758596.9359014       -27346890.690137744        1442470778.6131988     
  -1517493235.5265188       -17256807.168558896        1429186113.8167989     
  -1440448590.1188581       -7902443.6527267098        1423474773.1451857     
  -1363624660.7129214        716199.85736346245        1425336756.5983615     
  -1287021447.3087080        8599123.3617088795        1434772064.1763275     
   64.302994614000042        84.936527316942289        1528848238.5273066     
   57.012459313993794        101.07006335337974        1524205310.3248563     
   46.632341715197704        106.90499380885252        1523070552.9333413     
   33.162654250432105        102.44135717706521        1525443966.3527627     
   16.603391463896358        87.679135792432703        1531325550.5831201     
  -320310424.07731670        2583311.3996094763        1507555081.8808229     
  -311476913.94352138        1361663.2387258261        1502600108.0752711     
  -302652318.21151280        110300.40521869063        1501213899.3915951     
  -293836636.88129300       -1170777.1009179205        1503396455.8297958     
  -285029869.95285934       -2481569.2796736956        1509147777.3898752     
  -641584172.13937187        4877559.9581651986        1484778000.6068311     
  -623744017.97855318        2486185.4836821258        1479500584.6672616     
  -605921689.53173447        35391.962530553341        1477852528.1605113     
  -588117186.79891551       -2474820.6052855253        1479833831.0865781     
  -570330509.78009820       -5044452.2197746038        1485444493.4454622     
  -963821179.88316894        6882830.6121966243        1460516994.7053325     
  -936801255.09263623        3373667.8049284816        1454906740.1008332     
  -909808067.32832146       -224618.42306244373        1452986439.2400913     
  -882841616.59021974       -3912028.0717660189        1454756092.1231081     
  -855901902.87833035       -7688561.1411776543        1460215698.7498841     
  -1287021447.3087080        8599123.3617088795        1434772064.1763275     
  -1250648625.2857809        4024110.2024397254        1428818574.3759804     
  -1214311451.6012778       -669730.75157451630        1426615632.6303351     
  -1178009926.2552025       -5482399.5003504753        1428163238.9393866     
  -1141744049.2475510       -10413896.043870509        1433461393.3031387     
   16.603391463896358        87.679135792432703        1531325550.5831201     
   18.025307437140118        73.148238656704578        1526134309.6791334     
   19.132605573106769        57.568615396719444        1526529509.6219366     
   19.925283881630047        40.940259378589722        1532511150.4115243     
   20.403351078265700        23.263199654167909        1544079232.0479021     
  -285029869.95285934       -2481569.2796736956        1509147777.3898752     
  -270471358.03377610       -2166326.6421810389        1503805318.2883241     
  -255969528.64539483       -2040025.7736911625        1504002520.9143331     
  -241524381.78771520       -2102666.6742087603        1509739385.2678998     
  -227135917.46073106       -2354249.3437125832        1521015911.3490248     
  -570330509.78009820       -5044452.2197746038        1485444493.4454622     
  -541347141.99022114       -4454048.8018058836        1479884686.8942513     
  -512477138.94712669       -4241527.8731134236        1479817762.9513681     
  -483720500.65081686       -4406889.4337042272        1485243721.6168129     
  -455077227.10128981       -4950133.4835678339        1496162562.8905866     
  -855901902.87833035       -7688561.1411776543        1460215698.7498841     
  -812627333.84402859       -6863093.3306444287        1454372415.4969146     
  -769522811.77258921       -6604448.7296501100        1453975235.7330427     
  -726588336.66402102       -6912627.3382254839        1459024159.4582720     
  -683823908.51832223       -7787629.1563684940        1469519186.6725957     
  -1141744049.2475510       -10413896.043870509        1433461393.3031387     
  -1084311933.5951953       -9393460.2286807299        1427268504.0963142     
  -1027106547.1217895       -9128788.3433205485        1426474939.2593586     
  -970127889.82733488       -9619880.3877977729        1431080698.7922709     
  -913375961.71182609       -10866736.362097204        1441085782.6950517     
   20.403351078265700        23.263199654167909        1544079232.0479021     
   12.520965857538627        5.5013172131299415        1541915672.9716320     
   6.5510096431769176       -5.8858018733568276        1544795038.7109234     
   2.4934685040166498       -10.898203001671362        1552717329.2657816     
  0.34834799879810818       -9.5358707651816470        1565682544.6361992     
  -227135917.46073106       -2354249.3437125832        1521015911.3490248     
  -214432257.87903479       -3238913.9635997713        1518499621.3354580     
  -201756074.35572013       -4215165.4447628781        1520916607.6767037     
  -189107366.89079198       -5283003.7872112617        1528266870.3727548     
  -176486135.48424456       -6442428.9909294546        1540550409.4236138     
  -455077227.10128981       -4950133.4835678339        1496162562.8905866     
  -429983181.37195802       -6813429.3563885391        1493261484.3071265     
  -404944089.67181909       -8859905.3265154809        1495184033.6177168     
  -379959952.00087142       -11089561.393948779        1501930210.8223546     
  -355030768.35911381       -13502397.558681160        1513500015.9210441     
  -683823908.51832223       -7787629.1563684940        1469519186.6725957     
  -646652757.95780897       -10723540.677064776        1466201261.8866324     
  -609564039.39729381       -13934225.531087071        1467597316.5339577     
  -572557752.83677721       -17419683.718439072        1473707350.6145754     
  -535633898.27625334       -21179915.239098936        1484531364.1284876     
  -913375961.71182609       -10866736.362097204        1441085782.6950517     
  -864440987.63658023       -14969247.925603867        1437318954.0739751     
  -815615923.53214514       -19438126.058478266        1438156456.4254305     
  -766900769.39850950       -24273370.760683984        1443598289.7494242     
  -718295525.23567283       -29474982.032220721        1453644454.0459521     
  0.34834799879810818       -9.5358707651816470        1565682544.6361992     
 -0.14776366943212293       -5.3280858662803130        1566277068.1594701     
  -1.0063435432957415       -2.3285269317114876        1572613885.9616725     
  -2.2273853091618108      -0.53717499770688937        1584692998.0428109     
  -3.8109071759079600        4.5909933364109756E-002   1602514404.4028873     
  -176486135.48424456       -6442428.9909294546        1540550409.4236138     
  -161719461.49280587       -6880924.8760087416        1540458007.9841998     
  -146874346.68922138       -7057951.3872690052        1546083484.9700124     
  -131950791.07351445       -6973508.5247863606        1557426840.3810542     
  -116948794.64566249       -6627596.2884865887        1574488074.2173195     
  -355030768.35911381       -13502397.558681160        1513500015.9210441     
  -325567179.46215230       -14400321.411224544        1512812204.2226629     
  -295946708.57844907       -14775305.307963490        1517817855.0957961     
  -266169355.70799708       -14627349.248873979        1528516968.5404403     
  -236235120.85080558       -13956453.233986109        1544909544.5566025     
  -535633898.27625334       -21179915.239098936        1484531364.1284876     
  -491543154.05580795       -22558194.933748931        1483339656.8748462     
  -447217086.67400533       -23152064.090542778        1487816996.3390052     
  -402655696.13084775       -22961522.709486932        1497963382.5209720     
  -357858982.42634130       -21986570.790600106        1513778815.4207394     
  -718295525.23567283       -29474982.032220721        1453644454.0459521     
  -659647385.27375686       -31354545.443534672        1452040365.9407561     
  -600685480.97588992       -32188227.735005587        1456080908.6996529     
  -541409812.34205723       -31976028.906592071        1465766082.3226452     
  -481820379.37227368       -30717948.958346412        1481095886.8097332     
  -3.8109071759079600        4.5909933364109756E-002   1602514404.4028873     
  -2.7269066126035755       0.73844959451315051        1598368096.4632285     
  -1.7359052839860145        1.1209918067061140        1599244258.4681816     
 -0.83792004927991592        1.1934807194722310        1605142890.4177475     
  -3.2933271494510530E-002  0.95597408194664646        1616063992.3119242     
  -116948794.64566249       -6627596.2884865887        1574488074.2173195     
  -103416447.11453399       -5768468.4070744067        1569927985.8374424     
  -89333456.671917528       -3073864.1540339515        1570556664.6594679     
  -74699823.317844644        1456216.4705278836        1576374110.6833963     
  -59515547.052282117        7821773.4667201526        1587380323.9092185     
  -236235120.85080558       -13956453.233986109        1544909544.5566025     
  -208695291.85171464       -12095657.657427736        1540578092.5750682     
  -180054176.93666613       -6563909.0276789516        1541601705.0527241     
  -150311776.10567090        2638792.6552249417        1547980381.9895711     
  -119468089.35871166        15512447.391342007        1559714123.3856072     
  -357858982.42634130       -21986570.790600106        1513778815.4207394     
  -315836536.93846607       -18981567.012670636        1510318416.6761074     
  -272162162.53015125       -10470133.499942422        1512379379.6479576     
  -226835859.20140162        3547729.7475671172        1519961704.3362885     
  -179857626.95222297        23072022.729842678        1533065390.7410924     
  -481820379.37227368       -30717948.958346412        1481095886.8097332     
  -424840182.37478083       -26426196.472779199        1479148958.1405602     
  -365657413.45237380       -14792537.570828781        1482889688.4451568     
  -304272072.60505641        4183027.7474866956        1492318077.7235231     
  -240684159.83281708        30500499.482211828        1507434125.9756639     
  -3.2933271494510530E-002  0.95597408194664646        1616063992.3119242     
 -0.14029574205672893       0.37982378231615643        1585115237.5983403     
 -0.19746233036966376       -2.9006215927331484E-002   1557545025.2092266     
 -0.20442912472719121      -0.27050391459749001        1533353355.1445827     
 -0.16120035709207683      -0.34468307329217585        1512540227.4044113     
  -59515547.052282117        7821773.4667201526        1587380323.9092185     
  -48637995.713386551        15473770.226957701        1556871335.3724062     
  -36611005.587895006        26957229.609181136        1529585306.2383046     
  -23434576.675819740        42272151.613350153        1505522236.5069165     
  -9108708.9771534614        61418536.239490248        1484682126.1782410     
  -119468089.35871166        15512447.391342007        1559714123.3856072     
  -98157509.207146719        30683084.697892472        1530985912.8846874     
  -74548051.532595843        53516647.081059739        1505325078.8647263     
  -48639716.335056573        84013134.540856600        1482731621.3257244     
  -20432503.614533782        122172547.07726206        1463205540.2676799     
  -179857626.95222297        23072022.729842678        1533065390.7410924     
  -148558540.62157825        45627943.792628318        1507458970.1351922     
  -113811138.03155519        79678252.386668265        1484764343.0885029     
  -75615419.182143301        125222948.51200497        1464981509.6010103     
  -33971384.073357269        182262032.16859424        1448110469.6727262     
  -240684159.83281708        30500499.482211828        1507434125.9756639     
  -199841089.95668137        60308347.511149392        1486290507.1239176     
  -154400265.08476996        105442045.52601019        1467903098.9096231     
  -104361685.21707973        165901593.52679759        1452271901.3327754     
  -49725350.353616700        241686991.51349565        1439396914.3933718     
 -0.16120035709207683      -0.34468307329217585        1512540227.4044113     
  -9.7422527920345656E-002 -0.35546579416220592        1403160034.1838982     
  -4.6062284023670227E-002 -0.40763699650213658        1291022149.6557355     
  -7.1227593420445101E-003 -0.50121094317026149        1176126573.8199227     
   1.9384128002364692E-002 -0.63623117763211712        1058473306.6764705     
  -9108708.9771534614        61418536.239490248        1484682126.1782410     
  -9606618.4964475930        80806870.635943815        1375988712.5042515     
  -8162263.7678166926        106669419.19215095        1265195751.7492669     
  -4775644.7912506685        139006181.90814304        1152303243.9132683     
   553238.43324805051        177817158.78390765        1037311188.9962679     
  -20432503.614533782        122172547.07726206        1463205540.2676799     
  -19547910.640798889        161513339.50373888        1357464881.1106384     
  -14778789.158779994        213802560.29116294        1250282819.0992315     
  -6125139.1684601605        279040209.43958586        1141659354.2334619     
   6413039.3301430643        357226286.94895583        1031594486.5133405     
  -33971384.073357269        182262032.16859424        1448110469.6727262     
  -29823876.530469581        242119406.24793983        1347588540.0030448     
  -19849576.218940839        321399422.88942230        1246283351.7056441     
  -4048483.1387499273        420102082.09311128        1144194904.7805302     
   17579402.710075021        538227383.85891509        1041323199.2276818     
  -49725350.353616700        241686991.51349565        1439396914.3933718     
  -40434516.165457919        322625070.86855215        1346359689.1814773     
  -23374624.948308200        429460006.98690969        1253197349.5684972     
   1454323.2978661954        562191799.86868596        1159909895.5544443     
   34052328.573038310        720820449.51378381        1066497327.1393110     
  -1594758596.9359014       -27346890.690137744        1442470778.6131988     
  -1517493235.5265188       -17256807.168558896        1429186113.8167989     
  -1440448590.1188581       -7902443.6527267098        1423474773.1451857     
  -1363624660.7129214        716199.85736346245        1425336756.5983615     
  -1287021447.3087080        8599123.3617088795        1434772064.1763275     
  -1998123968.1433122       -52707719.777161479        1357396557.4546678     
  -1899826513.8667390       -33350801.324441075        1348475406.5547650     
  -1802319796.6719682       -16629673.144403458        1346020964.1361048     
  -1705603816.5590065       -2544335.2370597124        1350033230.1986959     
  -1609678573.5278521        8905212.3975998163        1360512204.7425334     
  -2385755522.1593199       -73348403.706764340        1273792235.9278538     
  -2269587733.9970956       -45673178.017358422        1268569574.3310113     
  -2154780703.9967675       -22533812.867587686        1268707005.5718772     
  -2041334432.1583278       -3930308.2574504614        1274204529.6504495     
  -1929248918.4817789        10137335.813054204        1285062146.5667272     
  -2757653258.9839182       -89268942.478945971        1191657814.0327456     
  -2626776895.9176002       -54223937.247326374        1189468617.1455393     
  -2497831312.0932574       -25614862.822278738        1191532897.4524968     
  -2370816507.5108829       -3441719.2038079500        1197850654.9536214     
  -2245732482.1704893        12295493.608074546        1208421889.6489091     
  -3113817178.6171117       -100469336.09370303        1110993291.7693503     
  -2971393999.6282434       -59003079.014329433        1111172534.9983482     
  -2831471620.9614310       -25872823.008473277        1114498639.7779670     
  -2694050042.6166768       -1078568.0761451721        1120971606.1082108     
  -2559129264.5939789        15379685.782661080        1130591433.9890780     
  -1287021447.3087080        8599123.3617088795        1434772064.1763275     
  -1250648625.2857809        4024110.2024397254        1428818574.3759804     
  -1214311451.6012778       -669730.75157451630        1426615632.6303351     
  -1178009926.2552025       -5482399.5003504753        1428163238.9393866     
  -1141744049.2475510       -10413896.043870509        1433461393.3031387     
  -1609678573.5278521        8905212.3975998163        1360512204.7425334     
  -1563998361.4731579        3948014.5300229788        1355440089.2389386     
  -1518406469.1779449       -1303582.5358273387        1353865152.9454620     
  -1472902896.6422236       -6849578.7999798656        1355787395.8620994     
  -1427487643.8659844       -12689974.262408793        1361206817.9888542     
  -1929248918.4817789        10137335.813054204        1285062146.5667272     
  -1874985227.3798401        4580779.9418146610        1280809955.3686488     
  -1820862527.4584446       -1445746.5312365294        1279801574.5361044     
  -1766880818.7175975       -7942243.6061151028        1282037004.0690913     
  -1713040101.1572936       -14908711.282804847        1287516243.9676127     
  -2245732482.1704893        12295493.608074546        1208421889.6489091     
  -2183609223.0058308        5922406.4378120899        1204928172.7651122     
  -2121679626.4427729       -1096222.7377908230        1204424897.4022639     
  -2059943692.4813242       -8760393.9187544584        1206912063.5603645     
  -1998401421.1214824       -17070107.105070472        1212389671.2394140     
  -2559129264.5939789        15379685.782661080        1130591433.9890780     
  -2489870348.3511224        7972894.0180226564        1127794741.4283254     
  -2420857766.1309323       -255011.15549802780        1127735121.5439372     
  -2352091517.9334078       -9304029.7379033566        1130412574.3359170     
  -2283571603.7585449       -19174161.729188204        1135827099.8042617     
  -1141744049.2475510       -10413896.043870509        1433461393.3031387     
  -1084311933.5951953       -9393460.2286807299        1427268504.0963142     
  -1027106547.1217895       -9128788.3433205485        1426474939.2593586     
  -970127889.82733488       -9619880.3877977729        1431080698.7922709     
  -913375961.71182609       -10866736.362097204        1441085782.6950517     
  -1427487643.8659844       -12689974.262408793        1361206817.9888542     
  -1356085505.5745714       -11204736.032817364        1354739282.8610201     
  -1284905222.4440174       -10459015.006096423        1353511332.5285025     
  -1213946794.4743323       -10452811.182268083        1357522966.9913011     
  -1143210221.6655016       -11186124.561295092        1366774186.2494142     
  -1713040101.1572936       -14908711.282804847        1287516243.9676127     
  -1628124339.0112600       -13095590.274146140        1280779749.2732062     
  -1543425558.0080025       -12005739.741406381        1279123099.7995644     
  -1458943758.1475189       -11639159.684585214        1282546295.5466819     
  -1374678939.4298129       -11995850.103680372        1291049336.5145624     
  -1998401421.1214824       -17070107.105070472        1212389671.2394140     
  -1900428433.9052689       -15066022.952676773        1205389903.3328717     
  -1802667553.8137400       -13768962.549242020        1203310241.0725377     
  -1705118780.8469012       -13178925.894772768        1206150684.4584131     
  -1607782115.0047488       -13295912.989257991        1213911233.4904923     
  -2283571603.7585449       -19174161.729188204        1135827099.8042617     
  -2172997790.2565861       -17116034.068390131        1128569745.0400167     
  -2062631209.8612292       -15748683.429592967        1126072756.3474286     
  -1952471862.5724759       -15072109.812810421        1128336133.7264941     
  -1842519748.3903182       -15086313.218015790        1135359877.1772141     
  -913375961.71182609       -10866736.362097204        1441085782.6950517     
  -864440987.63658023       -14969247.925603867        1437318954.0739751     
  -815615923.53214514       -19438126.058478266        1438156456.4254305     
  -766900769.39850950       -24273370.760683984        1443598289.7494242     
  -718295525.23567283       -29474982.032220721        1453644454.0459521     
  -1143210221.6655016       -11186124.561295092        1366774186.2494142     
  -1082524848.4056394       -15457262.505089700        1362234161.0131946     
  -1021962102.2047417       -20137157.312101841        1362167487.1880567     
  -961521983.06280541       -25225808.982317626        1366574164.7740026     
  -901204490.97983301       -30723217.515750855        1375454193.7710366     
  -1374678939.4298129       -11995850.103680372        1291049336.5145624     
  -1302617394.3037581       -16547882.623276651        1285721278.0603430     
  -1230691193.3248351       -21551062.299981177        1284735591.4557564     
  -1158900336.4930317       -27005389.133746982        1288092276.7008018     
  -1087244823.8083527       -32910863.124595463        1295791333.7954819     
  -1607782115.0047488       -13295912.989257991        1213911233.4904923     
  -1524718625.3309426       -18241108.280201733        1207780305.2154233     
  -1441803196.8924208       -23679841.022098124        1205860769.2285364     
  -1359035829.6891837       -29612111.214945793        1208152625.5298264     
  -1276416523.7212358       -36037918.858755708        1214655874.1193001     
  -1842519748.3903182       -15086313.218015790        1135359877.1772141     
  -1748828541.4871817       -20536939.475816488        1128411242.4784384     
  -1655298112.9075065       -26523493.478484273        1125543020.5063884     
  -1561928462.6512644       -33045975.225932837        1126755211.2610707     
  -1468719590.7184718       -40104384.718208492        1132047814.7424848     
  -718295525.23567283       -29474982.032220721        1453644454.0459521     
  -659647385.27375686       -31354545.443534672        1452040365.9407561     
  -600685480.97588992       -32188227.735005587        1456080908.6996529     
  -541409812.34205723       -31976028.906592071        1465766082.3226452     
  -481820379.37227368       -30717948.958346412        1481095886.8097332     
  -901204490.97983301       -30723217.515750855        1375454193.7710366     
  -828395274.06965160       -32357251.937729985        1372826856.0133884     
  -755387041.09174788       -33327899.467294574        1375391362.9697032     
  -682179792.04611969       -33635160.104449064        1383147714.6399746     
  -608773526.93276882       -33279033.849192172        1396095911.0241973     
  -1087244823.8083527       -32910863.124595463        1295791333.7954819     
  -1001568204.6645852       -34687470.971633554        1292006873.4057853     
  -915807317.72132897       -36183186.153707981        1292961471.5799100     
  -829962162.97858489       -37398008.670820355        1298655128.3178518     
  -744032740.43634474       -38331938.522952199        1309087843.6196082     
  -1276416523.7212358       -36037918.858755708        1214655874.1193001     
  -1179166177.0585575       -38345202.545243740        1209580418.1179445     
  -1081946310.8646324       -40754087.794237614        1208791234.5302689     
  -984756925.13944697       -43264574.605700612        1212288323.3562748     
  -887598019.88300502       -45876662.979639232        1220071684.5959477     
  -1468719590.7184718       -40104384.718208492        1132047814.7424848     
  -1361189191.2515736       -43330446.658580482        1125547490.1498637     
  -1253804020.5216534       -47040604.388872564        1122880651.8207812     
  -1146564078.5287161       -51234857.909108758        1124047299.7552371     
  -1039469365.2727516       -55913207.219258785        1129047433.9532366     
  -481820379.37227368       -30717948.958346412        1481095886.8097332     
  -424840182.37478083       -26426196.472779199        1479148958.1405602     
  -365657413.45237380       -14792537.570828781        1482889688.4451568     
  -304272072.60505641        4183027.7474866956        1492318077.7235231     
  -240684159.83281708        30500499.482211828        1507434125.9756639     
  -608773526.93276882       -33279033.849192172        1396095911.0241973     
  -537166968.72890782       -29791879.942295730        1393853202.9503479     
  -463339026.77444863       -18900113.533404261        1397359559.5796254     
  -387289701.06937873       -603734.62247836590        1406614980.9120333     
  -309018991.61370146        25097256.790473536        1421619466.9475698     
  -744032740.43634474       -38331938.522952199        1309087843.6196082     
  -657624376.08509314       -35596749.712431341        1306571303.2710502     
  -568975816.15755272       -25394242.314281076        1309865233.3549802     
  -478087060.65370166       -7724416.3284234107        1318969633.8713973     
  -384958109.57356274        17412728.245055497        1333884504.8203044     
  -887598019.88300502       -45876662.979639232        1220071684.5959477     
  -786212404.44333899       -43840805.783190995        1217303259.1026623     
  -682567781.60168612       -34274923.913450420        1220406709.7712219     
  -576664151.35803664       -17179017.370388806        1229382036.6016278     
  -468501513.71240705        7446913.8459392190        1244229239.5938857     
  -1039469365.2727516       -55913207.219258785        1129047433.9532366     
  -922931053.80363870       -54524048.154550105        1126049070.4451950     
  -804114923.10686386       -45542158.330971330        1128983988.8283496     
  -683020973.18237686       -28967537.748355389        1137852189.1027181     
  -559649204.03023434       -4800186.4068786204        1152653671.2682898     
  -240684159.83281708        30500499.482211828        1507434125.9756639     
  -199841089.95668137        60308347.511149392        1486290507.1239176     
  -154400265.08476996        105442045.52601019        1467903098.9096231     
  -104361685.21707973        165901593.52679759        1452271901.3327754     
  -49725350.353616700        241686991.51349565        1439396914.3933718     
  -309018991.61370146        25097256.790473536        1421619466.9475698     
  -259307711.74966690        55381250.681832135        1404858276.0035169     
  -203146937.81917262        107163558.12805392        1392052694.5983138     
  -140536669.82222715        180444179.12911212        1383202722.7319438     
  -71476907.758805811        275223113.68509334        1378308360.4044173     
  -384958109.57356274        17412728.245055497        1333884504.8203044     
  -322951765.71764749        49200924.200019687        1323666104.0330844     
  -252644188.72459233        108659897.27878088        1318602711.6860960     
  -174035378.59438851        195789647.48137620        1318694327.7793453     
  -87125335.327040285        310590174.80778408        1323940952.3128254     
  -468501513.71240705        7446913.8459392190        1244229239.5938857     
  -390773251.86062968        41767368.065691769        1242713991.2126119     
  -302892017.80102271        109931062.97820711        1247553150.1729805     
  -204857811.53357896        211937998.58351138        1258746716.4749761     
  -96670633.058310598        347788174.88156736        1276294690.1185961     
  -559649204.03023434       -4800186.4068786204        1152653671.2682898     
  -462772170.17859930        33080582.278894305        1162001937.5421119     
  -353890425.04846251        110977055.22634223        1178904010.0589626     
  -233003968.63980418        228889232.43552738        1203359888.8188367     
  -100112800.95263091        386817113.90642899        1235369573.8217328     
  -49725350.353616700        241686991.51349565        1439396914.3933718     
  -40434516.165457919        322625070.86855215        1346359689.1814773     
  -23374624.948308200        429460006.98690969        1253197349.5684972     
   1454323.2978661954        562191799.86868596        1159909895.5544443     
   34052328.573038310        720820449.51378381        1066497327.1393110     
  -71476907.758805811        275223113.68509334        1378308360.4044173     
  -57335471.406263873        376921406.56153709        1296770318.6140587     
  -34218349.317726970        508538651.89129823        1214297805.1539915     
  -2125541.4931800067        670074849.67441654        1130890820.0242140     
   38942952.067350149        861529999.91083217        1046549363.2247025     
  -87125335.327040285        310590174.80778408        1323940952.3128254     
  -70445746.149065197        432354946.40394002        1255309827.4354997     
  -43583842.528099179        588060766.14339912        1184934873.6198235     
  -6539624.4641448259        777707634.02616119        1112816090.8658013     
   40686908.042809069        1001295550.0522381        1038953479.1734263     
  -96670633.058310598        347788174.88156736        1276294690.1185961     
  -79765340.393856227        488925690.39576441        1221978215.6457953     
  -51471104.579426289        668026349.74320781        1165108554.9660051     
  -11787925.615007997        885090152.92393482        1105685708.0792480     
   39284196.499396682        1140117099.9379828        1043709674.9854817     
  -100112800.95263091        386817113.90642899        1235369573.8217328     
  -85294254.140658736        546633638.53695202        1196775483.2449427     
  -57880135.471705884        748435402.69073558        1154818849.1925349     
  -17870444.945783257        992222406.36775613        1109499671.6645150     
   34734817.437123120        1277994649.5680556        1060817950.6608708     
  -3113817178.6171117       -100469336.09370303        1110993291.7693503     
  -2971393999.6282434       -59003079.014329433        1111172534.9983482     
  -2831471620.9614310       -25872823.008473277        1114498639.7779670     
  -2694050042.6166768       -1078568.0761451721        1120971606.1082108     
  -2559129264.5939789        15379685.782661080        1130591433.9890780     
  -3462716640.5689349       -7258245.3221540451        1070585046.9751912     
  -3316305326.8771377       -1957026.5627892017        1048188644.2211639     
  -3169316336.0346727        5269782.6988084316        1034058953.9156933     
  -3021749668.0415506        14422182.462608933        1028195976.0587749     
  -2873605322.8977499        25500172.728646636        1030599710.6504081     
  -3880226815.6122179        65369631.521952152        1014011224.1433938     
  -3715199221.7948370        38894255.588109970        972630732.45785773     
  -3546515473.3540626        24606061.732238054        944636804.11880624     
  -3374175570.2899046        22505049.954326868        930029439.12623692     
  -3198179512.6023545        32591220.254381895        928808637.48015046     
  -4366347703.7469416        117414294.43862748        941271823.27396548     
  -4168075684.3813190        63550767.438380718        884498799.70843041     
  -3963069032.9195848        32136014.091832638        846232190.38730514     
  -3751327749.3617449        23170034.398993254        826471995.31059468     
  -3532851833.7077832        36652828.359871864        825218214.47829413     
  -4921079304.9731226        148875743.42786789        852366844.36690307     
  -4674934714.6366072        72012508.987992764        783792845.97287750     
  -4418977014.7312546        27859639.777582884        738845112.72119129     
  -4153206205.2570648        16417135.796619415        717523644.61184895     
  -3877622286.2140412        37684997.045109510        719828441.64484859     
  -2559129264.5939789        15379685.782661080        1130591433.9890780     
  -2489870348.3511224        7972894.0180226564        1127794741.4283254     
  -2420857766.1309323       -255011.15549802780        1127735121.5439372     
  -2352091517.9334078       -9304029.7379033566        1130412574.3359170     
  -2283571603.7585449       -19174161.729188204        1135827099.8042617     
  -2873605322.8977499        25500172.728646636        1030599710.6504081     
  -2797110781.5204196        15829673.766900897        1024382152.8523161     
  -2720701751.2044182        5874137.9340640306        1021515781.8344771     
  -2644378231.9497461       -4366434.7698698044        1022000597.5968938     
  -2568140223.7563963       -14892044.344882131        1025836600.1395655     
  -3198179512.6023545        32591220.254381895        928808637.48015046     
  -3112694734.3651505        21183397.613157153        919357841.23294139     
  -3027134644.2279382        10026614.638619304        913872345.86987674     
  -2941499242.1907134       -879128.66921138763        912352151.39095557     
  -2855788528.2534838       -11533832.310348749        914797257.79617894     
  -3532851833.7077832        36652828.359871864        825218214.47829413     
  -3436622206.8853068        24034065.556781769        812721806.57019794     
  -3340156445.2014904        12202418.958169937        804804813.65013647     
  -3243454548.6563263        1157888.5640482903        801467235.71810460     
  -3146516517.2498183       -9099525.6255902052        802709072.77410901     
  -3877622286.2140412        37684997.045109510        719828441.64484859     
  -3768893199.0808992        24381677.597777367        704474048.86409223     
  -3659767154.1250792        12401550.892697096        694313185.17525589     
  -3550244151.3465734        1744616.9299144745        689345850.57834113     
  -3440324190.7453833       -7589124.2905976772        689572045.07334828     
  -2283571603.7585449       -19174161.729188204        1135827099.8042617     
  -2172997790.2565861       -17116034.068390131        1128569745.0400167     
  -2062631209.8612292       -15748683.429592967        1126072756.3474286     
  -1952471862.5724759       -15072109.812810421        1128336133.7264941     
  -1842519748.3903182       -15086313.218015790        1135359877.1772141     
  -2568140223.7563963       -14892044.344882131        1025836600.1395655     
  -2444754137.7839565       -11809004.053085923        1017273456.4387807     
  -2321635797.9811225       -9618450.9932929277        1013569022.5749422     
  -2198785204.3478827       -8320385.1654849052        1014723298.5480460     
  -2076202356.8842478       -7914806.5696984529        1020736284.3580985     
  -2855788528.2534838       -11533832.310348749        914797257.79617894     
  -2719309187.6240253       -7341584.7315813303        904857726.58535433     
  -2583158106.2271643       -4243534.5948204994        899875248.97676444     
  -2447335284.0629072       -2239681.9000616074        899849824.97040915     
  -2311840721.1312509       -1330026.6473113298        904781454.56628895     
  -3146516517.2498183       -9099525.6255902052        802709072.77410901     
  -2996662939.7767854       -3713776.1038839817        791322555.47974312     
  -2847198134.5993652        376065.76580572128        784991435.55290091     
  -2698122101.7175469        3169999.9834822416        783715712.99358273     
  -2549434841.1313238        4668026.5491620302        787495387.80178797     
  -3440324190.7453833       -7589124.2905976772        689572045.07334828     
  -3276815394.2422538       -925578.17000913620        676667943.12194085     
  -3113755883.0977225        4240350.0885741711        668917582.30334640     
  -2951145657.3117948        7908660.4851460457        666320962.61756575     
  -2788984716.8844748        10079353.019702077        668878084.06459939     
  -1842519748.3903182       -15086313.218015790        1135359877.1772141     
  -1748828541.4871817       -20536939.475816488        1128411242.4784384     
  -1655298112.9075065       -26523493.478484273        1125543020.5063884     
  -1561928462.6512644       -33045975.225932837        1126755211.2610707     
  -1468719590.7184718       -40104384.718208492        1132047814.7424848     
  -2076202356.8842478       -7914806.5696984529        1020736284.3580985     
  -1972471543.1249187       -13721029.977763534        1012773618.0633874     
  -1868839703.1251636       -19857165.917730212        1008535374.4275423     
  -1765306836.8849597       -26323214.389551640        1008021553.4505585     
  -1661872944.4043329       -33119175.393277705        1011232155.1324389     
  -2311840721.1312509       -1330026.6473113298        904781454.56628895     
  -2199087414.9953480       -7796981.5495179892        895876862.00017428     
  -2086371278.0551271       -14387833.770671725        890340702.02505851     
  -1973692310.3105910       -21102583.310768008        888172974.64093924     
  -1861050511.7617409       -27941230.169814348        889373679.84781539     
  -2549434841.1313238        4668026.5491620302        787495387.80178797     
  -2428676157.0984645       -2764794.1910687685        777720974.28880215     
  -2307892837.6974025       -10115497.037298322        770959003.29894114     
  -2187084882.9281502       -17384081.989557743        767209474.83221292     
  -2066252292.7906942       -24570549.047809482        766472388.88861442     
  -2788984716.8844748        10079353.019702077        668878084.06459939     
  -2661237769.4342761        1375532.0975586176        658305954.92926097     
  -2533404382.0519938       -7040155.7176388502        650390278.24918830     
  -2405484554.7376375       -15167710.425920486        645131054.02437723     
  -2277478287.4912024       -23007132.027277827        642528282.25483263     
  -1468719590.7184718       -40104384.718208492        1132047814.7424848     
  -1361189191.2515736       -43330446.658580482        1125547490.1498637     
  -1253804020.5216534       -47040604.388872564        1122880651.8207812     
  -1146564078.5287161       -51234857.909108758        1124047299.7552371     
  -1039469365.2727516       -55913207.219258785        1129047433.9532366     
  -1661872944.4043329       -33119175.393277705        1011232155.1324389     
  -1544323069.8753495       -35865701.890195429        1002489908.3139014     
  -1426796437.0424304       -38689700.707321942        997510801.71570361     
  -1309293045.9055815       -41591171.844675958        996294835.33785045     
  -1191812896.4647965       -44570115.302249908        998842009.18034220     
  -1861050511.7617409       -27941230.169814348        889373679.84781539     
  -1733682150.8655295       -30268517.831751585        878531829.01776171     
  -1606215044.6244676       -32266654.344175994        871382772.36485136     
  -1478649193.0385563       -33935639.707105756        867926509.88908911     
  -1350984596.1077912       -35275473.920526028        868163041.59046626     
  -2066252292.7906942       -24570549.047809482        766472388.88861442     
  -1929266434.2221014       -26538894.483198762        753673252.26144898     
  -1792059843.2677486       -27771465.299386501        744496563.76822305     
  -1654632519.9276285       -28268261.496349931        738942323.40894938     
  -1516984464.2017417       -28029283.074092150        737010531.18362308     
  -2277478287.4912024       -23007132.027277827        642528282.25483263     
  -2131075919.9450827       -24676831.844595194        627914178.04495311     
  -1984330832.9722829       -25204133.572984815        616852175.92581773     
  -1837243026.5728018       -24589037.212435603        609342275.89743614     
  -1689812500.7466388       -22831542.762942374        605384477.95980024     
  -1039469365.2727516       -55913207.219258785        1129047433.9532366     
  -922931053.80363870       -54524048.154550105        1126049070.4451950     
  -804114923.10686386       -45542158.330971330        1128983988.8283496     
  -683020973.18237686       -28967537.748355389        1137852189.1027181     
  -559649204.03023434       -4800186.4068786204        1152653671.2682898     
  -1191812896.4647965       -44570115.302249908        998842009.18034220     
  -1061713630.6992414       -41633032.558852971        994719278.24532533     
  -930186535.56496382       -33936518.586377084        994737555.56743562     
  -797231611.06196880       -21480573.384838194        998896841.14667785     
  -662848857.19024122       -4265196.9542048872        1007197134.9830374     
  -1350984596.1077912       -35275473.920526028        868163041.59046626     
  -1212445157.8574386       -32326702.041902542        861924288.39302742     
  -1073327880.0973295       -27451798.464089990        858034269.81863809     
  -933632762.82744837       -20650763.187047660        856492985.86730075     
  -793359806.04781771       -11923596.210822046        857300436.53901005     
  -1516984464.2017417       -28029283.074092150        737010531.18362308     
  -1375125635.2782457       -26605056.603760898        727664100.88830698     
  -1233538956.7039526       -26087997.964082956        718874131.58196139     
  -1092224428.4788520       -26478107.155054152        710640623.26459086     
  -951182050.60295153       -27775384.176689684        702963575.93618941     
  -1689812500.7466388       -22831542.762942374        605384477.95980024     
  -1549755062.9616539       -24468096.244372964        591938715.73116016     
  -1410819765.3848248       -29845117.086322486        577257140.85740674     
  -1273006608.0161629       -38962605.288830757        561339753.33854628     
  -1136315590.8556540       -51820560.851847947        544186553.17457747     
  -559649204.03023434       -4800186.4068786204        1152653671.2682898     
  -462772170.17859930        33080582.278894305        1162001937.5421119     
  -353890425.04846251        110977055.22634223        1178904010.0589626     
  -233003968.63980418        228889232.43552738        1203359888.8188367     
  -100112800.95263091        386817113.90642899        1235369573.8217328     
  -662848857.19024122       -4265196.9542048872        1007197134.9830374     
  -547562407.10329437        25900539.935373664        1020757557.5190825     
  -421387796.32284421        92360145.803300619        1042705655.1768386     
  -284325024.84888482        195113620.64959109        1073041427.9563229     
  -136374092.68141910        334160964.47424412        1111764875.8575273     
  -793359806.04781771       -11923596.210822046        857300436.53901005     
  -657281457.21499217        11241853.635745525        873770372.98808610     
  -511431498.27367115        66979337.177306265        899461853.43758965     
  -355809929.22384441        155288854.41388458        934374877.88750362     
  -190416750.06551588        276170405.34546340        978509446.33784473     
  -951182050.60295153       -27775384.176689684        702963575.93618941     
  -791929320.51369190       -10895476.619983107        721040383.94913208     
  -624021530.90093446        34834629.348383933        749172604.84119308     
  -447458681.76467979        109414933.72840530        787360238.61236823     
  -262240773.10493374        212845436.52008122        835603285.26265621     
  -1136315590.8556540       -51820560.851847947        544186553.17457747     
  -951505996.99938905       -40511450.831804335        562567590.40221703     
  -759157894.20462942       -4073977.6834512651        591837909.38766444     
  -559271282.47138643        57491858.593185425        631997510.13092697     
  -351846161.79965383        144186057.99811506        683046392.63200128     
  -100112800.95263091        386817113.90642899        1235369573.8217328     
  -85294254.140658736        546633638.53695202        1196775483.2449427     
  -57880135.471705884        748435402.69073558        1154818849.1925349     
  -17870444.945783257        992222406.36775613        1109499671.6645150     
   34734817.437123120        1277994649.5680556        1060817950.6608708     
  -136374092.68141910        334160964.47424412        1111764875.8575273     
  -127308963.00739697        483148913.78196305        1090191033.5800397     
  -95105831.676692516        709263535.27863717        1070052931.2850165     
  -39764698.689316392        1012504828.9642124        1051350568.9724538     
   38714435.954748988        1392872794.8387465        1034083946.6423246     
  -190416750.06551588        276170405.34546340        978509446.33784473     
  -173395656.22066358        418442593.72305888        986255353.79264855     
  -122694130.91943493        672982886.95524609        1000235284.6879747     
  -38312174.161836982        1039791285.0419992        1020449239.0238327     
   79750214.052143753        1518867787.9833546        1046897216.8002056     
  -262240773.10493374        212845436.52008122        835603285.26265621     
  -223554333.78047678        352514678.36016917        884968443.88273668     
  -140645033.19994581        639593457.72052073        945365909.40140676     
  -13512871.363354027        1074081774.6010807        1016795681.8186845     
   157842151.72932422        1655979629.0019119        1099257761.1345389     
  -351846161.79965383        144186057.99811506        683046392.63200128     
  -277784995.68683356        285365167.69331634        786330303.85032952     
  -148958538.51822922        609095247.57445872        905444805.42532742     
   34633209.706132710        1115376297.6414516        1040389897.3569826     
   272990248.98627394        1804208317.8943865        1191165579.6453011     
  -4921079304.9731226        148875743.42786789        852366844.36690307     
  -4674934714.6366072        72012508.987992764        783792845.97287750     
  -4418977014.7312546        27859639.777582884        738845112.72119129     
  -4153206205.2570648        16417135.796619415        717523644.61184895     
  -3877622286.2140412        37684997.045109510        719828441.64484859     
  -5504964325.2811937       -269624683.41008401        369483677.75618917     
  -5176934372.3320074       -179470995.57803869        398410836.03533316     
  -4852753809.4724283       -102148608.04470253        428158102.96529001     
  -4532422636.7024651       -37657520.810081720        458725478.54605705     
  -4215940854.0221176        14002266.125818014        490112962.77763498     
  -5787633921.1433945       -597760482.91427469       -50640730.660899393     
  -5442879052.7001886       -360138006.94591284        59848001.356558196     
  -5115636074.0050459       -180888496.80443025        148350685.53329721     
  -4805904985.0579634       -60011952.489818096        214867321.86931649     
  -4513685785.8589535        2491625.9978988171        259397910.36461884     
  -5769088092.5597076       -835531655.08470070       -408006380.88435858     
  -5472768755.7411461       -469988525.11561418       -231895658.06344688     
  -5207623808.3290920       -208360026.50157189       -100577139.57478191     
  -4973653250.3235512       -50646159.242573261       -14050825.418373002     
  -4770857081.7245331        3153076.6613597870        27683284.405791953     
  -5449326839.5301447       -982938199.92136407       -702613272.91419280     
  -5266603481.4548817       -509022550.08715892       -476820142.22468632     
  -5128717012.4445877       -184563197.13616347       -318625372.35895646     
  -5035667432.4992476       -9560141.0683772564       -228028963.31701189     
  -4987454741.6188803        15986618.116183758       -205030915.09884164     
  -3877622286.2140412        37684997.045109510        719828441.64484859     
  -3768893199.0808992        24381677.597777367        704474048.86409223     
  -3659767154.1250792        12401550.892697096        694313185.17525589     
  -3550244151.3465734        1744616.9299144745        689345850.57834113     
  -3440324190.7453833       -7589124.2905976772        689572045.07334828     
  -4215940854.0221176        14002266.125818014        490112962.77763498     
  -4096127552.9269991        1734979.6283311844        488491647.89983618     
  -3975713122.5935745       -8528542.7414762974        489964037.83551955     
  -3854697563.0218468       -16788300.983599186        494530132.58467823     
  -3733080874.2118158       -23044295.098047733        502189932.14731908     
  -4513685785.8589535        2491625.9978988171        259397910.36461884     
  -4388787768.7402506       -10539476.931240797        271747873.37466580     
  -4263084450.9676318       -20886244.347315073        285091716.91975349     
  -4136575832.5410862       -28548676.250303030        299429440.99988246     
  -4009261913.4606166       -33526772.640208006        314761045.61505038     
  -4770857081.7245331        3153076.6613597870        27683284.405791953     
  -4646873846.5206633       -12441692.080967665        54242725.288580723     
  -4521881139.2472458       -24671553.924815893        79696222.427969471     
  -4395878959.9042873       -33536508.870201826        104043775.82395054     
  -4268867308.4917803       -39036556.917074203        127285385.47654268     
  -4987454741.6188803        15986618.116183758       -205030915.09884164     
  -4870385786.2682371       -3971665.8208560944       -164023796.35842311     
  -4752103187.4324265       -19884471.474001884       -126222445.63984285     
  -4632606945.1114492       -31751798.843272686       -91626862.943109721     
  -4511897059.3053141       -39573647.928657770       -60237048.268215656     
  -3440324190.7453833       -7589124.2905976772        689572045.07334828     
  -3276815394.2422538       -925578.17000913620        676667943.12194085     
  -3113755883.0977225        4240350.0885741711        668917582.30334640     
  -2951145657.3117948        7908660.4851460457        666320962.61756575     
  -2788984716.8844748        10079353.019702077        668878084.06459939     
  -3733080874.2118158       -23044295.098047733        502189932.14731908     
  -3556322660.4708095       -12868104.930526495        493969034.54740798     
  -3380238283.5707397       -4938037.5661404133        489975645.06375897     
  -3204827743.5116076        745906.99512112141        490209763.69636738     
  -3030091040.2934179        4183728.7532532215        494671390.44524360     
  -4009261913.4606166       -33526772.640208006        314761045.61505038     
  -3821900662.5290236       -20631852.439954996        310961375.63724470     
  -3635437799.9207053       -10731559.983938694        310462980.75914842     
  -3449873325.6356602       -3825895.2721784115        313265860.98075974     
  -3265207239.6738925        85141.695333242416        319370016.30208480     
  -4268867308.4917803       -39036556.917074203        127285385.47654268     
  -4073549400.4168940       -24216820.698256731        127644966.39144443     
  -3879354432.1476235       -13140217.164836645        130379589.38950828     
  -3686282403.6839576       -5806746.3167603016        135489254.47072956     
  -3494333315.0258970       -2216408.1540367603        142973961.63511717     
  -4511897059.3053141       -39573647.928657770       -60237048.268215656     
  -4311268874.1344261       -23623009.705480337       -55980193.189989135     
  -4111988180.2514811       -12164009.108788013       -50274529.045145661     
  -3914054977.6564865       -5196646.1385908127       -43120055.833712295     
  -3717469266.3494377       -2720920.7948806286       -34516773.555660374     
  -2788984716.8844748        10079353.019702077        668878084.06459939     
  -2661237769.4342761        1375532.0975586176        658305954.92926097     
  -2533404382.0519938       -7040155.7176388502        650390278.24918830     
  -2405484554.7376375       -15167710.425920486        645131054.02437723     
  -2277478287.4912024       -23007132.027277827        642528282.25483263     
  -3030091040.2934179        4183728.7532532215        494671390.44524360     
  -2894670302.9108949       -4520366.5264747143        486800825.87672943     
  -2758804603.8218231       -11741256.117694259        482176787.49879843     
  -2622493943.0262070       -17478940.020436049        480799275.31144470     
  -2485738320.5240307       -21733418.234640956        482668289.31467283     
  -3265207239.6738925        85141.695333242416        319370016.30208480     
  -3120426787.4010038       -8113450.4545649290        314619291.70394331     
  -2974842851.6470847       -13633764.334380269        313705167.03169829     
  -2828455432.4121504       -16475799.944137454        316627642.28535002     
  -2681264529.6961994       -16639557.283832788        323386717.46490061     
  -3494333315.0258970       -2216408.1540367603        142973961.63511717     
  -3338507222.9045858       -9403719.6866855621        141761352.41089383     
  -3181519125.5277853       -12717680.367714047        144975416.84788397     
  -3023369022.8954859       -12158290.197076201        152616154.94610226     
  -2864056915.0077081       -7725549.1748367548        164683566.70552683     
  -3717469266.3494377       -2720920.7948806286       -34516773.555660374     
  -3548911609.4216633       -8391174.2228813171       -31772992.002407566     
  -3378833425.4639153       -8993004.2176582813       -24012463.052629326     
  -3207234714.4762120       -4526410.7792392969       -11235186.706310280     
  -3034115476.4585395        5008606.0924092531        6558837.0365367616     
  -2277478287.4912024       -23007132.027277827        642528282.25483263     
  -2131075919.9450827       -24676831.844595194        627914178.04495311     
  -1984330832.9722829       -25204133.572984815        616852175.92581773     
  -1837243026.5728018       -24589037.212435603        609342275.89743614     
  -1689812500.7466388       -22831542.762942374        605384477.95980024     
  -2485738320.5240307       -21733418.234640956        482668289.31467283     
  -2330412483.1742373       -19899812.102203131        472126010.00117046     
  -2175190715.2942567       -18413104.202468872        464087380.91902727     
  -2020073016.8840966       -17273294.535481095        458552402.06824493     
  -1865059387.9437473       -16480383.101169944        455521073.44883138     
  -2681264529.6961994       -16639557.283832788        323386717.46490061     
  -2520010799.2838373       -12201318.223954320        316395009.33520150     
  -2359307927.2377882       -9599273.7184479237        310858499.57746792     
  -2199155913.5580587       -8833423.7673302889        306777188.19171220     
  -2039554758.2446196       -9903768.3705366850        304151075.17793071     
  -2864056915.0077081       -7725549.1748367548        164683566.70552683     
  -2699870868.2738824       -1581350.2098408937        160721176.04704103     
  -2536682468.8028698        1237357.8791084290        157165531.90114579     
  -2374491716.5946531        730575.09205591679        154016634.26783243     
  -2213298611.6492629       -3101698.5710495710        151274483.14711145     
  -3034115476.4585395        5008606.0924092531        6558837.0365367616     
  -2869992690.1443605        11960091.940162539        5104510.1366916560     
  -2707314339.9894886        14096790.590237141        3008477.8900551628     
  -2546080425.9939260        11418702.042613745        270740.29661495279     
  -2386290948.1576509        3925826.2973539829       -3108702.6436368208     
  -1689812500.7466388       -22831542.762942374        605384477.95980024     
  -1549755062.9616539       -24468096.244372964        591938715.73116016     
  -1410819765.3848248       -29845117.086322486        577257140.85740674     
  -1273006608.0161629       -38962605.288830757        561339753.33854628     
  -1136315590.8556540       -51820560.851847947        544186553.17457747     
  -1865059387.9437473       -16480383.101169944        455521073.44883138     
  -1728156955.2090034       -21214672.108730197        442088154.80754018     
  -1591212326.5737901       -25808308.114736080        428178983.89412600     
  -1454225502.0381095       -30261291.119166493        413793560.70858663     
  -1317196481.6019640       -34573621.122060359        398931885.25092107     
  -2039554758.2446196       -9903768.3705366850        304151075.17793071     
  -1903637158.0658844       -17084741.155963659        292089392.25073028     
  -1766513025.8780470       -20243940.577724695        280311017.42438102     
  -1628182361.6811171       -19381366.635840714        268815950.69889277     
  -1488645165.4750953       -14497019.330315948        257604192.07426178     
  -2213298611.6492629       -3101698.5710495710        151274483.14711145     
  -2076195671.5322788       -12078303.386019349        141942428.06072599     
  -1936721863.2975945       -13152014.475309968        133653241.44817914     
  -1794877186.9451790       -6322831.8388377428        126406923.30947113     
  -1650661642.4750385        8409244.5233899355        120203473.64460769     
  -2386290948.1576509        3925826.2973539829       -3108702.6436368208     
  -2245832495.6082110       -6195358.7989633083       -8352737.7624694239     
  -2101838838.8324244       -4532529.8074567318       -11794344.034492575     
  -1954309977.8302829        8914313.2718865871       -13433521.459691381     
  -1803245912.6018114        34145170.439020276       -13270270.038060557     
  -1136315590.8556540       -51820560.851847947        544186553.17457747     
  -951505996.99938905       -40511450.831804335        562567590.40221703     
  -759157894.20462942       -4073977.6834512651        591837909.38766444     
  -559271282.47138643        57491858.593185425        631997510.13092697     
  -351846161.79965383        144186057.99811506        683046392.63200128     
  -1317196481.6019640       -34573621.122060359        398931885.25092107     
  -1117590104.9094267       -14579280.227654397        420914946.08866936     
  -914377486.30172849        17435867.050597966        441386581.76395839     
  -707558625.77888596        61471820.712670743        460346792.27679771     
  -497133523.34088683        117528580.75861022        477795577.62718678     
  -1488645165.4750953       -14497019.330315948        257604192.07426178     
  -1309672597.1470399        3553375.0782029033        278601631.66155672     
  -1131026053.9271538        20517019.126147628        285686939.16613668     
  -952705535.81547165        36393912.813429773        278860114.58799559     
  -774711042.81194675        51184056.140173793        258121157.92713958     
  -1650661642.4750385        8409244.5233899355        120203473.64460769     
  -1527753473.7122405        13886515.085750818        135627647.12089536     
  -1409103597.0809133        5169478.5431911945        124738981.59420148     
  -1294712012.5811265       -17741865.104498386        87537477.064523816     
  -1184578720.2128429       -54847515.857188404        24023133.531870704     
  -1803245912.6018114        34145170.439020276       -13270270.038060557     
  -1771832734.6049867        16420139.795114756       -8007007.5333355395     
  -1748610115.7629972       -28606754.698252439       -41457290.951847099     
  -1733578056.0758862       -100935513.04119885       -113621120.29361990     
  -1726736555.5435977       -200566135.23357487       -224498495.55863121     
  -351846161.79965383        144186057.99811506        683046392.63200128     
  -277784995.68683356        285365167.69331634        786330303.85032952     
  -148958538.51822922        609095247.57445872        905444805.42532742     
   34633209.706132710        1115376297.6414516        1040389897.3569826     
   272990248.98627394        1804208317.8943865        1191165579.6453011     
  -497133523.34088683        117528580.75861022        477795577.62718678     
  -388272228.93417424        223109403.87809834        597048898.70550787     
  -230274403.59671876        492478663.43339914        735455948.09378922     
  -23140047.328539312        925636359.42445350        893016725.79201651     
   233130839.87038663        1522582491.8512683        1069731231.8002015     
  -774711042.81194675        51184056.140173793        258121157.92713958     
  -621554940.24480450        124014996.64391348        386777002.05291647     
  -424891066.87196469        341871839.83330512        537909712.44194257     
  -184719422.69343215        704754585.70835924        711519289.09421647     
   98959992.290807247        1212663234.2690692        907605732.00972569     
  -1184578720.2128429       -54847515.857188404        24023133.531870704     
  -977633129.61874151       -11918054.009293318        155514613.89256111     
  -732808528.34396565        157274776.77418837        312806098.46978933     
  -450104916.38853228        452730976.49318427        495897587.26354742     
  -129522293.75242805        874450545.14776647        704789080.27384472     
  -1726736555.5435977       -200566135.23357487       -224498495.55863121     
  -1456506797.0559804       -184689748.08147734       -96738265.775565282     
  -1154026788.0127134       -61312525.743925750        60145106.177331366     
  -819296528.41385400        169565531.77898967        246151620.30004916     
  -452316018.25934207        507944424.48734677        461281276.59258360     
 </DataArray>
 <DataArray  type="Float64" Name="VM" NumberOfComponents="1" format="ascii">
   5175516703.4483767     
   5098771111.0613317     
   5069101920.0129423     
   5046373610.4438305     
   5008073979.1105118     
   5446066507.5335693     
   5268896830.2544651     
   5109603236.8872890     
   4948584335.2042227     
   4772675241.1814327     
   5513809612.7880440     
   5273062494.8365936     
   5034194710.7630615     
   4790659257.2130795     
   4537231983.6358452     
   5413188287.0652504     
   5136140748.6364040     
   4859414491.9890423     
   4583108163.3991108     
   4307437610.1870804     
   5210700445.5473881     
   4903044546.2422018     
   4613991820.2036228     
   4343051411.6646194     
   4091205513.1166024     
   5008073979.1105118     
   4876683359.6729155     
   4747228957.8148575     
   4619539775.0876684     
   4493452370.7947149     
   4772675241.1814327     
   4641616427.6728268     
   4511708139.2146044     
   4382913356.1250753     
   4255198576.1315246     
   4537231983.6358452     
   4408724835.0355883     
   4281251881.7728972     
   4154871266.6630111     
   4029654013.0473371     
   4307437610.1870804     
   4183448755.7425256     
   4061115044.1855497     
   3940550985.3028979     
   3821908210.5397730     
   4091205513.1166024     
   3973146624.2316842     
   3858192491.6544275     
   3746468227.0010080     
   3638173791.3593760     
   4493452370.7947149     
   4300599196.6370583     
   4106842958.7313476     
   3912172227.4375925     
   3716590457.0681348     
   4255198576.1315246     
   4067508159.0334220     
   3879379407.2665663     
   3690850652.5835843     
   3501992313.7265425     
   4029654013.0473371     
   3849492006.5932055     
   3669696346.4400549     
   3490393732.6306591     
   3311774151.9803228     
   3821908210.5397730     
   3651554457.5039172     
   3482753533.1281261     
   3315754651.5853057     
   3150911878.1494956     
   3638173791.3593760     
   3479673261.8559332     
   3324311895.1484985     
   3172477555.6396389     
   3024705297.6527686     
   3716590457.0681348     
   3545150665.0628200     
   3374602242.1721945     
   3205033008.7526436     
   3036644151.4731550     
   3501992313.7265425     
   3342845117.1966958     
   3185093066.5569096     
   3028865168.5973816     
   2874389910.6731086     
   3311774151.9803228     
   3163663647.5307865     
   3017374748.5603356     
   2873080176.4541416     
   2731039761.4887085     
   3150911878.1494956     
   3012802140.1628032     
   2876844136.1268868     
   2743254517.5041347     
   2612326494.8073497     
   3024705297.6527686     
   2895850322.6863289     
   2769363503.8019915     
   2645502305.2591043     
   2524592270.9038467     
   3036644151.4731550     
   2876004994.2091994     
   2714395200.1932282     
   2551808983.4398170     
   2388262346.2746525     
   2874389910.6731086     
   2713398178.4338126     
   2551862315.8226576     
   2389792784.1104999     
   2227215137.3141584     
   2731039761.4887085     
   2572969728.5673113     
   2415300683.5512214     
   2258157521.5279498     
   2101715021.6723862     
   2612326494.8073497     
   2460396802.6523838     
   2310383718.3514934     
   2162616686.4025993     
   2017542951.9164352     
   2524592270.9038467     
   2381666202.9774070     
   2242701616.1698031     
   2108265761.7149110     
   1979110312.2775331     
   2388262346.2746525     
   2242787891.8352718     
   2099675618.7483044     
   1958920531.8839536     
   1820703749.0051305     
   2227215137.3141584     
   2084730287.8978415     
   1944011911.2819715     
   1805051663.6450782     
   1667927458.9141116     
   2101715021.6723862     
   1961517727.8540955     
   1822344559.3370914     
   1684215864.9401212     
   1547182415.9530177     
   2017542951.9164352     
   1880595661.3645217     
   1744009162.4552114     
   1607904270.2468083     
   1472447485.1603599     
   1979110312.2775331     
   1848132627.4540739     
   1717228719.3132844     
   1586748627.0510578     
   1457199708.2366328     
   1820703749.0051305     
   1780153625.2651448     
   1735969394.3179426     
   1696829554.7417362     
   1681285149.0947444     
   1667927458.9141116     
   1552618193.1632090     
   1428132850.4311745     
   1294840450.0088520     
   1158876665.6760590     
   1547182415.9530177     
   1397413789.6016142     
   1244064807.1862283     
   1084865856.0157716     
   917785081.70986402     
   1472447485.1603599     
   1328320258.8325768     
   1198665717.1509182     
   1087966183.0377057     
   1002121721.5187260     
   1457199708.2366328     
   1348297010.2272561     
   1274386456.9746265     
   1243585855.9662695     
   1262922710.2944391     
   1681285149.0947444     
   1383689038.5798678     
   1129439266.7506251     
   1010294799.9734874     
   1153555359.1618907     
   1158876665.6760590     
   1008370703.8934098     
   985159356.44012690     
   1161498799.8582926     
   1544306823.1568854     
   917785081.70986402     
   963110452.56986475     
   1144861406.3593683     
   1476401451.9474092     
   1957443370.8568122     
   1002121721.5187260     
   1164715620.2335968     
   1425360697.8263924     
   1808644248.5766428     
   2334656553.5632095     
   1262922710.2944391     
   1446656138.2187366     
   1715635884.9928758     
   2110418938.9941781     
   2663416296.2776728     
   5210700445.5473881     
   4903044546.2422018     
   4613991820.2036228     
   4343051411.6646194     
   4091205513.1166024     
   4716929530.0003538     
   4470882460.4916992     
   4240593305.9482293     
   4026050503.0982389     
   3828162781.4928317     
   4289374643.9760337     
   4097163284.2114096     
   3916970487.1613770     
   3749182169.4812598     
   3594677129.8915915     
   3924764897.0501328     
   3779879702.4769449     
   3642681376.7515469     
   3513732980.8123169     
   3393809452.2659292     
   3618842865.7555461     
   3515885848.8139968     
   3416279115.0155849     
   3320351238.6529980     
   3228536601.3352351     
   4091205513.1166024     
   3973146624.2316842     
   3858192491.6544275     
   3746468227.0010080     
   3638173791.3593760     
   3828162781.4928317     
   3724929067.8587685     
   3625008261.3809466     
   3528569693.6462545     
   3435846815.1759567     
   3594677129.8915915     
   3505839638.7730594     
   3420450997.3971071     
   3338711194.5924892     
   3260871901.3188620     
   3393809452.2659292     
   3319101268.7880001     
   3247879012.7552533     
   3180356088.8593059     
   3116784205.5165524     
   3228536601.3352351     
   3167827704.7789869     
   3110513580.7055163     
   3056801467.7432890     
   3006923904.0842109     
   3638173791.3593760     
   3479673261.8559332     
   3324311895.1484985     
   3172477555.6396389     
   3024705297.6527686     
   3435846815.1759567     
   3293546447.1659489     
   3155351485.0014052     
   3021763890.0127277     
   2893438700.3591962     
   3260871901.3188620     
   3135448165.1501679     
   3015143228.3570766     
   2900545283.5371571     
   2792386586.5787163     
   3116784205.5165524     
   3008758600.2512665     
   2906840455.5229154     
   2811658060.7837558     
   2723959209.9258132     
   3006923904.0842109     
   2916509652.5402966     
   2833078104.7745762     
   2757240116.2923117     
   2689690680.9430814     
   3024705297.6527686     
   2895850322.6863289     
   2769363503.8019915     
   2645502305.2591043     
   2524592270.9038467     
   2893438700.3591962     
   2776024203.6559291     
   2662002901.5513988     
   2551754901.1436253     
   2445745898.0617471     
   2792386586.5787163     
   2688249612.1562414     
   2588677918.5847311     
   2494155221.6609464     
   2405253884.5213313     
   2723959209.9258132     
   2634558608.0762062     
   2550936498.8093214     
   2473631921.2789354     
   2403258217.9500661     
   2689690680.9430814     
   2615882877.5693007     
   2548990444.3625970     
   2489543929.3289762     
   2438122270.5719967     
   2524592270.9038467     
   2381666202.9774070     
   2242701616.1698031     
   2108265761.7149110     
   1979110312.2775331     
   2445745898.0617471     
   2318543239.1532102     
   2196658137.6645145     
   2080851156.9112258     
   1972070252.3225904     
   2405253884.5213313     
   2295549711.1962318     
   2192501881.6690416     
   2096965765.4271548     
   2009942365.0181744     
   2403258217.9500661     
   2312096423.7216163     
   2228705007.9621906     
   2153911153.3549113     
   2088621868.5463932     
   2438122270.5719967     
   2365650866.4342809     
   2301703823.0432734     
   2246984007.6025600     
   2202214135.9802704     
   1979110312.2775331     
   1848132627.4540739     
   1717228719.3132844     
   1586748627.0510578     
   1457199708.2366328     
   1972070252.3225904     
   1855688058.9921181     
   1743691035.2292416     
   1636998942.7868204     
   1536740928.1452382     
   2009942365.0181744     
   1913273204.6821053     
   1825373928.7599485     
   1747443006.6286123     
   1680771954.3353610     
   2088621868.5463932     
   2013247652.1045468     
   1950215320.4089234     
   1900604998.2179840     
   1865448423.4919703     
   2202214135.9802704     
   2146721264.6676371     
   2106150115.0829394     
   2081272241.4556968     
   2072769960.3401620     
   1457199708.2366328     
   1348297010.2272561     
   1274386456.9746265     
   1243585855.9662695     
   1262922710.2944391     
   1536740928.1452382     
   1475920056.6212783     
   1447802697.9554980     
   1456350917.1111872     
   1504855043.7123578     
   1680771954.3353610     
   1652258558.6835535     
   1651483764.6859553     
   1680814648.9095399     
   1742859233.9171646     
   1865448423.4919703     
   1854862679.4556234     
   1867276829.0498607     
   1904898801.7631221     
   1970760197.6178653     
   2072769960.3401620     
   2069131867.6295235     
   2084771462.1706049     
   2122319083.7743678     
   2185586728.2447715     
   1262922710.2944391     
   1446656138.2187366     
   1715635884.9928758     
   2110418938.9941781     
   2663416296.2776728     
   1504855043.7123578     
   1613244172.5900810     
   1788845036.9854226     
   2066390224.7113588     
   2476065864.7270341     
   1742859233.9171646     
   1787684326.9176235     
   1884659847.2515631     
   2060684437.9810181     
   2340976457.1368690     
   1970760197.6178653     
   1968933492.9625144     
   2003645379.5876842     
   2093567115.5521176     
   2257356412.8717456     
   2185586728.2447715     
   2156275219.8670545     
   2146542552.1418109     
   2166915937.0898590     
   2228472593.0277863     
   3618842865.7555461     
   3515885848.8139968     
   3416279115.0155849     
   3320351238.6529980     
   3228536601.3352351     
   3409778582.0393915     
   3317373604.8619084     
   3230338413.0836725     
   3149152383.7358084     
   3074398789.1476789     
   3223329898.8963499     
   3142810794.0488100     
   3069834401.1030350     
   3004967422.4441271     
   2948866751.5780692     
   3068800274.4841070     
   3000374722.4395580     
   2941764310.0020380     
   2893530613.0755424     
   2856301548.1331372     
   2956781221.1929140     
   2899071206.0644360     
   2853491138.2547140     
   2820496942.8073330     
   2800585145.6715307     
   3228536601.3352351     
   3167827704.7789869     
   3110513580.7055163     
   3056801467.7432890     
   3006923904.0842109     
   3074398789.1476789     
   3022692842.7166138     
   2975082818.7163386     
   2931775772.0684404     
   2893000718.4466081     
   2948866751.5780692     
   2906131708.3686566     
   2868202566.4944334     
   2835269754.0882339     
   2807540541.8889627     
   2856301548.1331372     
   2822044318.2129607     
   2793283518.1796980     
   2770176785.5053687     
   2752892909.5340672     
   2800585145.6715307     
   2773758799.7068992     
   2753077482.1310825     
   2738654723.8445282     
   2730610311.4685221     
   3006923904.0842109     
   2916509652.5402966     
   2833078104.7745762     
   2757240116.2923117     
   2689690680.9430814     
   2893000718.4466081     
   2818176363.0257092     
   2751153543.1234484     
   2692495247.6065454     
   2642821357.1225700     
   2807540541.8889627     
   2747877289.3344417     
   2696709941.7570477     
   2654514389.7225089     
   2621797280.9738750     
   2752892909.5340672     
   2707370418.3023314     
   2670885793.0544081     
   2643802739.9368930     
   2626496126.1686716     
   2730610311.4685221     
   2697576950.0120921     
   2673975942.8178883     
   2660053426.8124614     
   2656055960.5461979     
   2689690680.9430814     
   2615882877.5693007     
   2548990444.3625970     
   2489543929.3289762     
   2438122270.5719967     
   2642821357.1225700     
   2583309296.5890412     
   2531307197.6496558     
   2487269513.0602264     
   2451673940.4429226     
   2621797280.9738750     
   2575804357.3169022     
   2537750825.9984255     
   2507992801.2961826     
   2486891187.5255637     
   2626496126.1686716     
   2592761463.7569661     
   2567242400.4437008     
   2550192266.8815589     
   2541859212.2634358     
   2656055960.5461979     
   2632907100.9262505     
   2618135837.4328380     
   2611903304.9599457     
   2614362655.5605221     
   2438122270.5719967     
   2365650866.4342809     
   2301703823.0432734     
   2246984007.6025600     
   2202214135.9802704     
   2451673940.4429226     
   2394982713.2905946     
   2347701793.5959787     
   2310398638.3743811     
   2283624230.8536983     
   2486891187.5255637     
   2444881487.9558249     
   2412907693.7920270     
   2391382927.2116218     
   2380686203.1303601     
   2541859212.2634358     
   2512855320.1477876     
   2494323372.0879140     
   2486533367.3532591     
   2489719804.7210817     
   2614362655.5605221     
   2596285525.9989252     
   2589022788.0841804     
   2592729367.7317977     
   2607533134.4750242     
   2202214135.9802704     
   2146721264.6676371     
   2106150115.0829394     
   2081272241.4556968     
   2072769960.3401620     
   2283624230.8536983     
   2243003667.4381747     
   2216270787.1052957     
   2203876293.2641888     
   2206208788.6107316     
   2380686203.1303601     
   2351959476.3163629     
   2336058738.9840603     
   2333233089.7517815     
   2343702784.5548301     
   2489719804.7210817     
   2470205044.8604245     
   2462544280.8115540     
   2466871901.7251024     
   2483321138.0044904     
   2607533134.4750242     
   2594919181.5001836     
   2593337745.6577668     
   2602866020.2151508     
   2623599260.2876792     
   2072769960.3401620     
   2069131867.6295235     
   2084771462.1706049     
   2122319083.7743678     
   2185586728.2447715     
   2206208788.6107316     
   2191753638.1357536     
   2192325760.9253030     
   2209893997.6180987     
   2247377835.5334272     
   2343702784.5548301     
   2319242110.6844935     
   2306345092.7831755     
   2306417224.9803944     
   2321546098.8659549     
   2483321138.0044904     
   2450622102.9758110     
   2426510822.8492503     
   2411932627.6601043     
   2408262987.6156287     
   2623599260.2876792     
   2585112003.1410608     
   2552539182.2546725     
   2526461854.1209431     
   2507686905.4783678     
   2185586728.2447715     
   2156275219.8670545     
   2146542552.1418109     
   2166915937.0898590     
   2228472593.0277863     
   2247377835.5334272     
   2182682396.1641822     
   2134414760.0581789     
   2112245148.6654627     
   2127113378.7421463     
   2321546098.8659549     
   2224805442.8471904     
   2141391353.5785234     
   2079672283.1042948     
   2049824768.6850579     
   2408262987.6156287     
   2282938424.1116724     
   2168119297.8169403     
   2070548535.2698803     
   1998998920.7960656     
   2507686905.4783678     
   2357290884.6435924     
   2215069193.1106138     
   2086005039.8698378     
   1976978936.8321717     
   2956781221.1929140     
   2899071206.0644360     
   2853491138.2547140     
   2820496942.8073330     
   2800585145.6715307     
   2797835741.3288164     
   2756774066.9458866     
   2727976106.5905070     
   2711723609.6216288     
   2708313402.3108511     
   2688737478.3127680     
   2660915188.8713665     
   2645284784.7885118     
   2641977596.2969828     
   2651128080.8429146     
   2634266943.8376207     
   2615460125.0993733     
   2608607026.2299881     
   2613740457.0470934     
   2630893317.8061142     
   2636410736.9791965     
   2621903099.8747916     
   2619005902.3753724     
   2627719144.4809351     
   2648042826.1914783     
   2800585145.6715307     
   2773758799.7068992     
   2753077482.1310825     
   2738654723.8445282     
   2730610311.4685221     
   2708313402.3108511     
   2689057242.4888968     
   2676014747.6867652     
   2669253958.1707888     
   2668845488.8086133     
   2651128080.8429146     
   2637684432.5470691     
   2630457498.7563801     
   2629478448.5422473     
   2634779195.2196660     
   2630893317.8061142     
   2621233478.2829633     
   2617739721.0135489     
   2620419814.6916499     
   2629281638.3324294     
   2648042826.1914783     
   2640001038.6489401     
   2638035581.1925716     
   2642146453.8223753     
   2652333656.5383501     
   2730610311.4685221     
   2697576950.0120921     
   2673975942.8178883     
   2660053426.8124614     
   2656055960.5461979     
   2668845488.8086133     
   2645832686.8549027     
   2632348531.7011385     
   2628537699.1599188     
   2634541815.4967031     
   2634779195.2196660     
   2619320811.7046437     
   2613438169.5193372     
   2617196998.0129204     
   2630660474.0700593     
   2629281638.3324294     
   2618561603.2568927     
   2617455480.0436416     
   2625979764.5371337     
   2644150119.0592957     
   2652333656.5383501     
   2643342163.5383148     
   2644026669.9183979     
   2654387175.6785903     
   2674423680.8189006     
   2656055960.5461979     
   2632907100.9262505     
   2618135837.4328380     
   2611903304.9599457     
   2614362655.5605221     
   2634541815.4967031     
   2619270698.1330957     
   2612430757.8648491     
   2614114034.7935219     
   2624406159.3326998     
   2630660474.0700593     
   2621353091.8010969     
   2620533616.2651663     
   2628243154.2129927     
   2644519290.2424340     
   2644150119.0592957     
   2638715699.4076614     
   2641862011.1159892     
   2653599321.2121992     
   2673936899.4346495     
   2674423680.8189006     
   2670676286.5736241     
   2675663494.3276501     
   2689385304.0809875     
   2711841715.8336239     
   2614362655.5605221     
   2596285525.9989252     
   2589022788.0841804     
   2592729367.7317977     
   2607533134.4750242     
   2624406159.3326998     
   2613795102.4265165     
   2613615006.1634998     
   2623946676.0977216     
   2644854872.4192820     
   2644519290.2424340     
   2639567270.9556675     
   2644757680.5101843     
   2660123890.2817464     
   2685691963.9987998     
   2673936899.4346495     
   2672848736.7061634     
   2681735945.7797976     
   2700606334.3752522     
   2729465872.5238342     
   2711841715.8336239     
   2712871460.7822237     
   2723847151.1739454     
   2744768787.0087962     
   2775636368.2867799     
   2607533134.4750242     
   2594919181.5001836     
   2593337745.6577668     
   2602866020.2151508     
   2623599260.2876792     
   2644854872.4192820     
   2633876063.9179778     
   2633098263.9979658     
   2642559858.2152801     
   2662310885.7321014     
   2685691963.9987998     
   2676063958.5142860     
   2675983593.1584711     
   2685465887.2232366     
   2704531558.7101789     
   2729465872.5238342     
   2721057391.6391125     
   2721701679.2139225     
   2731402016.8801017     
   2750163209.8851562     
   2775636368.2867799     
   2768454752.2714639     
   2769972309.3797045     
   2780189039.6115012     
   2799104942.9668522     
   2623599260.2876792     
   2585112003.1410608     
   2552539182.2546725     
   2526461854.1209431     
   2507686905.4783678     
   2662310885.7321014     
   2616911847.7079382     
   2577197187.0687027     
   2543497540.3835750     
   2516274427.5967507     
   2704531558.7101789     
   2654306260.8673415     
   2609678483.8074083     
   2570795516.7261982     
   2537863524.5441742     
   2750163209.8851562     
   2697202768.3954444     
   2649895775.0982552     
   2608278811.6470666     
   2572403097.5542049     
   2799104942.9668522     
   2745500127.3719382     
   2697747118.7385283     
   2655845917.0666218     
   2619796522.3562241     
   2507686905.4783678     
   2357290884.6435924     
   2215069193.1106138     
   2086005039.8698378     
   1976978936.8321717     
   2516274427.5967507     
   2348343422.5759292     
   2183972943.2187238     
   2026264757.6564176     
   1879786704.5556653     
   2537863524.5441742     
   2357489902.1982365     
   2176858074.0257926     
   1997440452.3104827     
   1821516510.0910475     
   2572403097.5542049     
   2384833983.5977831     
   2194191541.9174843     
   2000854234.5615454     
   1805426371.2758093     
   2619796522.3562241     
   2430344470.3565946     
   2236115956.9005246     
   2037110981.9880140     
   1833329545.6190808     
   2636410736.9791965     
   2621903099.8747916     
   2619005902.3753724     
   2627719144.4809351     
   2648042826.1914783     
   2634266950.2056785     
   2615460132.9234066     
   2608607040.8637176     
   2613740483.5864539     
   2630893361.1141281     
   2688737530.1970263     
   2660915234.0900054     
   2645284833.1477585     
   2641977657.2216377     
   2651128163.4535861     
   2797835890.3849611     
   2756774189.1311479     
   2727976215.1060977     
   2711723717.3571529     
   2708313522.0168829     
   2956781525.1321368     
   2899071450.1194367     
   2853491337.8027344     
   2820497113.1283178     
   2800585302.2845354     
   2648042826.1914783     
   2640001038.6489401     
   2638035581.1925716     
   2642146453.8223753     
   2652333656.5383501     
   2630893361.1141281     
   2621233507.9258838     
   2617739737.9682107     
   2620419819.9700046     
   2629281632.9911809     
   2651128163.4535861     
   2637684489.1869888     
   2630457531.4622660     
   2629478459.4094367     
   2634779186.4216056     
   2708313522.0168829     
   2689057324.8973365     
   2676014795.9274359     
   2669253975.4523420     
   2668845478.4492254     
   2800585302.2845354     
   2773758908.1840262     
   2753077546.6927752     
   2738654748.8141832     
   2730610301.3167520     
   2652333656.5383501     
   2643342163.5383148     
   2644026669.9183979     
   2654387175.6785903     
   2674423680.8189006     
   2629281632.9911809     
   2618561594.6766734     
   2617455467.7423630     
   2625979748.0604787     
   2644150097.9779491     
   2634779186.4216056     
   2619320797.3852415     
   2613438148.6984015     
   2617196969.7498231     
   2630660437.4594240     
   2668845478.4492254     
   2645832669.9548302     
   2632348506.7520289     
   2628537664.6801162     
   2634541770.0271931     
   2730610301.3167520     
   2697576933.7989788     
   2673975918.4867992     
   2660053392.2885518     
   2656055913.7326527     
   2674423680.8189006     
   2670676286.5736241     
   2675663494.3276501     
   2689385304.0809875     
   2711841715.8336239     
   2644150097.9779491     
   2638715683.0807409     
   2641862000.2654757     
   2653599316.5213761     
   2673936901.5441480     
   2630660437.4594240     
   2621353062.9423041     
   2620533596.5298262     
   2628243144.9209766     
   2644519292.6542525     
   2634541770.0271931     
   2619270661.3901238     
   2612430731.8013077     
   2614114021.3303027     
   2624406160.3477149     
   2656055913.7326527     
   2632907061.6429849     
   2618135808.1278734     
   2611903288.1066318     
   2614362653.6452260     
   2711841715.8336239     
   2712871460.7822237     
   2723847151.1739454     
   2744768787.0087962     
   2775636368.2867799     
   2673936901.5441480     
   2672848737.7655888     
   2681735945.9658322     
   2700606333.8697867     
   2729465871.5144234     
   2644519292.6542525     
   2639567271.6014614     
   2644757679.7759824     
   2660123888.5598812     
   2685691961.6888595     
   2624406160.3477149     
   2613795101.2164321     
   2613615003.3655362     
   2623946672.3548250     
   2644854868.3808775     
   2614362653.6452260     
   2596285521.5604262     
   2589022782.0627642     
   2592729361.0744567     
   2607533128.1347375     
   2775636368.2867799     
   2768454752.2714639     
   2769972309.3797045     
   2780189039.6115012     
   2799104942.9668522     
   2729465871.5144234     
   2721057390.8685627     
   2721701678.5331907     
   2731402016.1414895     
   2750163208.9405704     
   2685691961.6888595     
   2676063956.8098874     
   2675983591.7585511     
   2685465885.8282366     
   2704531557.0197759     
   2644854868.3808775     
   2633876061.0198927     
   2633098261.7795134     
   2642559856.2148275     
   2662310883.4858718     
   2607533128.1347375     
   2594919177.0450583     
   2593337742.4556255     
   2602866017.6260128     
   2623599257.6656008     
   2799104942.9668522     
   2745500127.3719382     
   2697747118.7385283     
   2655845917.0666218     
   2619796522.3562241     
   2750163208.9405704     
   2697202767.6974525     
   2649895774.6339002     
   2608278811.4031439     
   2572403097.5189071     
   2704531557.0197759     
   2654306259.6134501     
   2609678482.9637232     
   2570795516.2654719     
   2537863524.4400272     
   2662310883.4858718     
   2616911846.0335870     
   2577197185.9260254     
   2543497539.7302146     
   2516274427.3886676     
   2623599257.6656008     
   2585112001.1741719     
   2552539180.8880582     
   2526461853.2958059     
   2507686905.1297121     
   2619796522.3562241     
   2430344470.3565946     
   2236115956.9005246     
   2037110981.9880140     
   1833329545.6190808     
   2572403097.5189071     
   2384833983.5418992     
   2194191541.8233633     
   2000854234.4057841     
   1805426371.0256834     
   2537863524.4400272     
   2357489902.0615435     
   2176858073.8211598     
   1997440451.9926572     
   1821516509.6004457     
   2516274427.3886676     
   2348343422.3327179     
   2183972942.8880420     
   2026264757.1745849     
   1879786703.8454473     
   2507686905.1297121     
   2357290884.2678757     
   2215069192.6399965     
   2086005039.2266061     
   1976978935.9311278     
   2956781525.1321368     
   2899071450.1194367     
   2853491337.8027344     
   2820497113.1283178     
   2800585302.2845354     
   3068800609.3862314     
   3000374991.2926335     
   2941764523.8981824     
   2893530783.0976481     
   2856301685.7873759     
   3223330268.7725439     
   3142811087.4907045     
   3069834625.4881682     
   3004967585.1510282     
   2948866860.4754229     
   3409778979.3414364     
   3317373913.8439770     
   3230338637.9129190     
   3149152528.4960446     
   3074398858.3406978     
   3618843274.8273034     
   3515886158.1429367     
   3416279326.0180798     
   3320351352.5172267     
   3228536619.4967031     
   2800585302.2845354     
   2773758908.1840262     
   2753077546.6927752     
   2738654748.8141832     
   2730610301.3167520     
   2856301685.7873759     
   2822044410.7621102     
   2793283568.4716063     
   2770176796.4422631     
   2752892884.1119661     
   2948866860.4754229     
   2906131777.2036090     
   2868202597.2650070     
   2835269748.7730851     
   2807540502.4687519     
   3074398858.3406978     
   3022692878.8058100     
   2975082823.3790708     
   2931775746.8812695     
   2893000664.8778210     
   3228536619.4967031     
   3167827698.5062385     
   3110513551.8467135     
   3056801417.9734983     
   3006923834.8633018     
   2730610301.3167520     
   2697576933.7989788     
   2673975918.4867992     
   2660053392.2885518     
   2656055913.7326527     
   2752892884.1119661     
   2707370391.7254257     
   2670885763.2824926     
   2643802704.8504877     
   2626496083.5602126     
   2807540502.4687519     
   2747877254.7097945     
   2696709909.9943829     
   2654514358.7416158     
   2621797248.5258226     
   2893000664.8778210     
   2818176320.9935246     
   2751153510.9250894     
   2692495223.3362441     
   2642821338.6280580     
   3006923834.8633018     
   2916509602.0984969     
   2833078071.7676926     
   2757240099.1445932     
   2689690677.7791038     
   2656055913.7326527     
   2632907061.6429849     
   2618135808.1278734     
   2611903288.1066318     
   2614362653.6452260     
   2626496083.5602126     
   2592761429.8125620     
   2567242376.8091936     
   2550192255.2933316     
   2541859214.5398598     
   2621797248.5258226     
   2575804333.2499876     
   2537750811.0320249     
   2507992796.3015499     
   2486891193.5283384     
   2642821338.6280580     
   2583309285.3778954     
   2531307193.3777189     
   2487269515.5731640     
   2451673949.7963419     
   2689690677.7791038     
   2615882880.3958926     
   2548990451.6554666     
   2489543939.7506652     
   2438122283.0108881     
   2614362653.6452260     
   2596285521.5604262     
   2589022782.0627642     
   2592729361.0744567     
   2607533128.1347375     
   2541859214.5398598     
   2512855319.5601239     
   2494323369.4456735     
   2486533363.4775949     
   2489719800.4422626     
   2486891193.5283384     
   2444881490.7875214     
   2412907694.1450515     
   2391382925.7941685     
   2380686200.6624441     
   2451673949.7963419     
   2394982719.2417197     
   2347701796.7270746     
   2310398639.2844934     
   2283624230.1537251     
   2438122283.0108881     
   2365650875.3600888     
   2301703828.9335542     
   2246984010.9469810     
   2202214137.2747288     
   2607533128.1347375     
   2594919177.0450583     
   2593337742.4556255     
   2602866017.6260128     
   2623599257.6656008     
   2489719800.4422626     
   2470205041.8310199     
   2462544278.5986748     
   2466871899.8818965     
   2483321136.0746107     
   2380686200.6624441     
   2351959474.5414586     
   2336058737.6657910     
   2333233088.6345096     
   2343702783.3704190     
   2283624230.1537251     
   2243003666.8919315     
   2216270786.6760345     
   2203876292.8945298     
   2206208788.2308626     
   2202214137.2747288     
   2146721265.5193031     
   2106150115.6604400     
   2081272241.9145861     
   2072769960.8312085     
   2623599257.6656008     
   2585112001.1741719     
   2552539180.8880582     
   2526461853.2958059     
   2507686905.1297121     
   2483321136.0746107     
   2450622101.5600905     
   2426510821.9067912     
   2411932627.1455221     
   2408262987.4748683     
   2343702783.3704190     
   2319242109.8639078     
   2306345092.2976842     
   2306417224.7969174     
   2321546098.9403949     
   2206208788.2308626     
   2191753637.9603195     
   2192325760.9349837     
   2209893997.7904229     
   2247377835.8331542     
   2072769960.8312085     
   2069131868.1569242     
   2084771462.7199972     
   2122319084.3314466     
   2185586728.7821217     
   2507686905.1297121     
   2357290884.2678757     
   2215069192.6399965     
   2086005039.2266061     
   1976978935.9311278     
   2408262987.4748683     
   2282938423.8847194     
   2168119297.4407182     
   2070548534.6725075     
   1998998919.9019237     
   2321546098.9403949     
   2224805442.7746148     
   2141391353.3019843     
   2079672282.5603223     
   2049824767.8110316     
   2247377835.8331542     
   2182682396.2540879     
   2134414759.8890481     
   2112245148.1848850     
   2127113377.9030712     
   2185586728.7821217     
   2156275220.1296711     
   2146542552.0901606     
   2166915936.6848426     
   2228472592.2392650     
   3618843274.8273034     
   3515886158.1429367     
   3416279326.0180798     
   3320351352.5172267     
   3228536619.4967031     
   3924765342.8657908     
   3779880031.8309355     
   3642681591.5449257     
   3513733082.6736684     
   3393809442.7149911     
   4289375084.3853664     
   4097163598.6375351     
   3916970680.8671446     
   3749182246.7176871     
   3594677094.0584607     
   4716929929.2370634     
   4470882731.5546379     
   4240593459.1186385     
   4026050546.5925465     
   3828162721.8760185     
   5210700774.8420267     
   4903044752.1836910     
   4613991918.7015800     
   4343051415.5059042     
   4091205432.8946471     
   3228536619.4967031     
   3167827698.5062385     
   3110513551.8467135     
   3056801417.9734983     
   3006923834.8633018     
   3393809442.7149911     
   3319101239.6547542     
   3247878966.2605944     
   3180356027.0464716     
   3116784130.2088885     
   3594677094.0584607     
   3505839587.9724579     
   3420450934.2278452     
   3338711121.4965277     
   3260871820.5423985     
   3828162721.8760185     
   3724928997.6055617     
   3625008183.4394469     
   3528569610.8514137     
   3435846730.2186356     
   4091205432.8946471     
   3973146537.4096241     
   3858192401.4775701     
   3746468136.6640878     
   3638173703.9882765     
   3006923834.8633018     
   2916509602.0984969     
   2833078071.7676926     
   2757240099.1445932     
   2689690677.7791038     
   3116784130.2088885     
   3008758546.4425893     
   2906840422.7770004     
   2811658048.5046186     
   2723959217.2894187     
   3260871820.5423985     
   3135448107.3738322     
   3015143193.9011259     
   2900545272.6604724     
   2792386599.4287701     
   3435846730.2186356     
   3293546385.2784023     
   3155351447.0677695     
   3021763876.9555779     
   2893438713.1227074     
   3638173703.9882765     
   3479673196.0901933     
   3324311852.2294059     
   3172477536.9256163     
   3024705304.6414771     
   2689690677.7791038     
   2615882880.3958926     
   2548990451.6554666     
   2489543939.7506652     
   2438122283.0108881     
   2723959217.2894187     
   2634558619.2497897     
   2550936511.8269300     
   2473631934.2821698     
   2403258229.2205262     
   2792386599.4287701     
   2688249628.1620770     
   2588677935.4660668     
   2494155237.1576629     
   2405253896.4074850     
   2893438713.1227074     
   2776024220.3483248     
   2662002919.7422457     
   2551754918.3519711     
   2445745911.7463546     
   3024705304.6414771     
   2895850335.6370378     
   2769363520.3003864     
   2645502322.8038230     
   2524592286.8773189     
   2438122283.0108881     
   2365650875.3600888     
   2301703828.9335542     
   2246984010.9469810     
   2202214137.2747288     
   2403258229.2205262     
   2312096431.9614015     
   2228705013.4992895     
   2153911156.5539222     
   2088621869.8112848     
   2405253896.4074850     
   2295549720.2402911     
   2192501887.9891520     
   2096965769.1894999     
   2009942366.4485123     
   2445745911.7463546     
   2318543250.0455332     
   2196658145.6325979     
   2080851161.8641663     
   1972070254.2251585     
   2524592286.8773189     
   2381666216.2118192     
   2242701626.2756982     
   2108265768.3224709     
   1979110315.0447104     
   2202214137.2747288     
   2146721265.5193031     
   2106150115.6604400     
   2081272241.9145861     
   2072769960.8312085     
   2088621869.8112848     
   2013247653.0214148     
   1950215321.1776249     
   1900604999.0310214     
   1865448424.5378635     
   2009942366.4485123     
   1913273205.7607794     
   1825373929.7284899     
   1747443007.7332582     
   1680771955.8261170     
   1972070254.2251585     
   1855688060.4339707     
   1743691036.4872835     
   1636998944.1571112     
   1536740929.9413204     
   1979110315.0447104     
   1848132629.5527923     
   1717228721.0332186     
   1586748628.7058964     
   1457199710.1611969     
   2072769960.8312085     
   2069131868.1569242     
   2084771462.7199972     
   2122319084.3314466     
   2185586728.7821217     
   1865448424.5378635     
   1854862680.4512930     
   1867276829.9703233     
   1904898802.5849290     
   1970760198.3103547     
   1680771955.8261170     
   1652258560.0766451     
   1651483765.9417918     
   1680814649.9895732     
   1742859234.7810354     
   1536740929.9413204     
   1475920058.3230293     
   1447802699.5063055     
   1456350918.4478977     
   1504855044.7721574     
   1457199710.1611969     
   1348297012.1132662     
   1274386458.7609408     
   1243585857.5602396     
   1262922711.5895150     
   2185586728.7821217     
   2156275220.1296711     
   2146542552.0901606     
   2166915936.6848426     
   2228472592.2392650     
   1970760198.3103547     
   1968933493.3504958     
   2003645379.6394362     
   2093567115.2411256     
   2257356412.1897979     
   1742859234.7810354     
   1787684327.4530180     
   1884659847.4366190     
   2060684437.8059795     
   2340976456.6176829     
   1504855044.7721574     
   1613244173.2994885     
   1788845037.3336766     
   2066390224.7087715     
   2476065864.4135098     
   1262922711.5895150     
   1446656139.1354489     
   1715635885.5326777     
   2110418939.1930819     
   2663416296.2013583     
   5210700774.8420267     
   4903044752.1836910     
   4613991918.7015800     
   4343051415.5059042     
   4091205432.8946471     
   5413188523.7371502     
   5136140900.5841045     
   4859414564.5394268     
   4583108163.7690716     
   4307437547.1649199     
   5513809808.4061146     
   5273062630.2066145     
   5034194786.4586287     
   4790659277.8274918     
   4537231956.4047260     
   5446066696.6705418     
   5268896975.6898155     
   5109603338.6184883     
   4948584396.6180506     
   4772675267.2855406     
   5175516904.4533987     
   5098771283.0676517     
   5069102064.6841297     
   5046373729.7525816     
   5008074074.3743258     
   4091205432.8946471     
   3973146537.4096241     
   3858192401.4775701     
   3746468136.6640878     
   3638173703.9882765     
   4307437547.1649199     
   4183448685.9605560     
   4061114970.6732526     
   3940550911.0567751     
   3821908138.5484390     
   4537231956.4047260     
   4408724798.8759995     
   4281251838.9996095     
   4154871219.6003246     
   4029653964.0634098     
   4772675267.2855406     
   4641616441.2176790     
   4511708141.3021774     
   4382913347.9557123     
   4255198559.0209718     
   5008074074.3743258     
   4876683437.9285736     
   4747229018.4158087     
   4619539817.6465454     
   4493452395.1651287     
   3638173703.9882765     
   3479673196.0901933     
   3324311852.2294059     
   3172477536.9256163     
   3024705304.6414771     
   3821908138.5484390     
   3651554400.7471704     
   3482753492.9380841     
   3315754629.4411983     
   3150911875.7334471     
   4029653964.0634098     
   3849491964.9844770     
   3669696313.3098392     
   3490393709.2151890     
   3311774139.7151904     
   4255198559.0209718     
   4067508139.9969440     
   3879379386.9407630     
   3690850631.6936932     
   3501992293.1425128     
   4493452395.1651287     
   4300599208.4010830     
   4106842957.8908677     
   3912172214.0273995     
   3716590431.1884480     
   3024705304.6414771     
   2895850335.6370378     
   2769363520.3003864     
   2645502322.8038230     
   2524592286.8773189     
   3150911875.7334471     
   3012802143.8103309     
   2876844144.3601952     
   2743254528.7740431     
   2612326507.4599357     
   3311774139.7151904     
   3163663640.7191310     
   3017374746.4678082     
   2873080178.2838936     
   2731039766.3594656     
   3501992293.1425128     
   3342845100.2620454     
   3185093053.0584884     
   3028865158.2602525     
   2874389903.1630454     
   3716590431.1884480     
   3545150639.4988055     
   3374602217.0111656     
   3205032984.0133743     
   3036644127.1427407     
   2524592286.8773189     
   2381666216.2118192     
   2242701626.2756982     
   2108265768.3224709     
   1979110315.0447104     
   2612326507.4599357     
   2460396813.8654175     
   2310383727.5207343     
   2162616692.8910866     
   2017542955.0402260     
   2731039766.3594656     
   2572969734.1360955     
   2415300689.2066245     
   2258157526.6093340     
   2101715025.4487879     
   2874389903.1630454     
   2713398174.6047144     
   2551862315.2276893     
   2389792786.2713532     
   2227215141.7130313     
   3036644127.1427407     
   2876004977.3590813     
   2714395190.6728849     
   2551808981.1049008     
   2388262351.0043979     
   1979110315.0447104     
   1848132629.5527923     
   1717228721.0332186     
   1586748628.7058964     
   1457199710.1611969     
   2017542955.0402260     
   1880595663.8406248     
   1744009164.4695435     
   1607904271.9950004     
   1472447486.8508656     
   2101715025.4487879     
   1961517731.0045645     
   1822344561.9502780     
   1684215867.1057792     
   1547182417.7661350     
   2227215141.7130313     
   2084730291.7509186     
   1944011914.6053972     
   1805051666.4561102     
   1667927461.2336979     
   2388262351.0043979     
   2242787896.2069006     
   2099675622.7372415     
   1958920535.4728627     
   1820703752.1819286     
   1457199710.1611969     
   1348297012.1132662     
   1274386458.7609408     
   1243585857.5602396     
   1262922711.5895150     
   1472447486.8508656     
   1328320260.4066436     
   1198665718.5739088     
   1087966184.2732205     
   1002121722.5320138     
   1547182417.7661350     
   1397413791.1345627     
   1244064808.4190767     
   1084865856.9587057     
   917785082.39912879     
   1667927461.2336979     
   1552618194.9828193     
   1428132851.7377143     
   1294840450.8260217     
   1158876666.0304754     
   1820703752.1819286     
   1780153627.6718838     
   1735969395.9392636     
   1696829555.5959907     
   1681285149.1836393     
   1262922711.5895150     
   1446656139.1354489     
   1715635885.5326777     
   2110418939.1930819     
   2663416296.2013583     
   1002121722.5320138     
   1164715620.9721992     
   1425360698.2637098     
   1808644248.7338140     
   2334656553.4912810     
   917785082.39912879     
   963110453.12305939     
   1144861406.7025669     
   1476401452.0682275     
   1957443370.7870667     
   1158876666.0304754     
   1008370704.2064887     
   985159356.68104625     
   1161498799.9632139     
   1544306823.1049399     
   1681285149.1836393     
   1383689038.6518331     
   1129439266.8515105     
   1010294800.0918735     
   1153555359.1950271     
 </DataArray>
 <DataArray  type="Float64" Name="strain" NumberOfComponents="3" format="ascii">
   8.5907419820638653E-002  -1.0864329672957029E-002  -3.0446573253777309E-002
   8.5231609147570664E-002  -1.7849307330722208E-002  -2.0662205125991706E-002
   8.4555798474503008E-002  -2.2567531098783011E-002  -1.3807099171393611E-002
   8.3879987801435185E-002  -2.5019000977139674E-002  -9.8812553899835232E-003
   8.3204177128367363E-002  -2.5203716965792378E-002  -8.8846737817614985E-003
   9.1973807294067234E-002  -1.4919909587683633E-002  -1.7680272632733418E-002
   8.8862867855576733E-002  -1.9530699779784388E-002  -1.0048809162948369E-002
   8.5751928417086121E-002  -2.2565451077746324E-002  -4.3583410508203357E-003
   8.2640988978595564E-002  -2.4024163481569494E-002  -6.0886829635031781E-004
   7.9530049540104952E-002  -2.3906836991253955E-002   1.1996091004621290E-003
   9.3471760309808916E-002  -1.8975489502410237E-002  -2.1944270482427419E-003
   8.8913958921425840E-002  -2.1212092228846624E-002   2.5934167679767528E-003
   8.4356157533042792E-002  -2.2563371056709608E-002   6.4285320420688907E-003
   7.9798356144659674E-002  -2.3029325985999195E-002   9.3109187740336857E-003
   7.5240554756276612E-002  -2.2609957016715643E-002   1.1240576963871124E-002
   9.0401278867863491E-002  -2.3031069417136840E-002   1.6010963499695316E-002
   8.5384882345118263E-002  -2.2893484677908887E-002   1.7264472666783409E-002
   8.0368485822372909E-002  -2.2561291035672906E-002   1.8553520107274631E-002
   7.5352089299627584E-002  -2.2034488490429067E-002   1.9878105821168442E-002
   7.0335692776882230E-002  -2.1313077042177331E-002   2.1238229808465368E-002
   8.2762362968231085E-002  -2.7086649331863444E-002   3.6935899011080020E-002
   7.8275638126653835E-002  -2.4574877126971095E-002   3.3964358533471461E-002
   7.3788913285076446E-002  -2.2559211014636191E-002   3.2016623144796336E-002
   6.9302188443499183E-002  -2.1039650994858865E-002   3.1092692845054212E-002
   6.4815463601921863E-002  -2.0016197067638963E-002   3.1192567634245161E-002
   8.3204177128367363E-002  -2.5203716965792378E-002  -8.8846737817614985E-003
   8.1153236760664493E-002  -2.4285734215980070E-002  -7.1076982381926834E-003
   7.9102296392961513E-002  -2.3429107878941730E-002  -5.4696394719426777E-003
   7.7051356025258644E-002  -2.2633837954677889E-002  -3.9704974830118978E-003
   7.5000415657555664E-002  -2.1899924443187890E-002  -2.6102722713999826E-003
   7.9530049540104952E-002  -2.3906836991253955E-002   1.1996091004621290E-003
   7.7385688614379833E-002  -2.3027008225802587E-002   2.3505182894408561E-003
   7.5241327688654630E-002  -2.2198213804218409E-002   3.4535031396943638E-003
   7.3096966762929538E-002  -2.1420453726501289E-002   4.5085636512220140E-003
   7.0952605837204308E-002  -2.0693727992651234E-002   5.5156998240245003E-003
   7.5240554756276612E-002  -2.2609957016715643E-002   1.1240576963871124E-002
   7.3093765711122652E-002  -2.1768282235625519E-002   1.1775741867167094E-002
   7.0946976665968692E-002  -2.0967319729495074E-002   1.2353974870330867E-002
   6.8800187620814759E-002  -2.0207069498325129E-002   1.2975275973362732E-002
   6.6653398575660772E-002  -1.9487531542114800E-002   1.3639645176262621E-002
   7.0335692776882230E-002  -2.1313077042177331E-002   2.1238229808465368E-002
   6.8277468050892923E-002  -2.0509556245448132E-002   2.1167972494985497E-002
   6.6219243324903643E-002  -1.9736425654771857E-002   2.1231775719967271E-002
   6.4161018598914377E-002  -1.8993685270148636E-002   2.1429639483410180E-002
   6.2102793872925055E-002  -1.8281335091578310E-002   2.1761563785314443E-002
   6.4815463601921863E-002  -2.0016197067638963E-002   3.1192567634245161E-002
   6.2936795633690645E-002  -1.9250830255270857E-002   3.0527210172896529E-002
   6.1058127665459483E-002  -1.8505531580048543E-002   3.0086905688602977E-002
   5.9179459697228307E-002  -1.7780301041972233E-002   2.9871654181364157E-002
   5.7300791728997102E-002  -1.7075138641041654E-002   2.9881455651180167E-002
   7.5000415657555664E-002  -2.1899924443187890E-002  -2.6102722713999826E-003
   7.1736365976893868E-002  -2.1162627545983081E-002  -2.4258083488383209E-003
   6.8472316296232072E-002  -2.0357207464574228E-002  -2.1785628901911380E-003
   6.5208266615570276E-002  -1.9483664198960492E-002  -1.8685358954584619E-003
   6.1944216934908480E-002  -1.8541997749142669E-002  -1.4957273646406533E-003
   7.0952605837204308E-002  -2.0693727992651234E-002   5.5156998240245003E-003
   6.7771406093847131E-002  -1.9964133998228606E-002   5.5312817312216933E-003
   6.4590206350489954E-002  -1.9177769138793321E-002   5.6497819769422697E-003
   6.1409006607132804E-002  -1.8334633414344825E-002   5.8712005611872703E-003
   5.8227806863775600E-002  -1.7434726824883784E-002   6.1955374839556265E-003
   6.6653398575660772E-002  -1.9487531542114800E-002   1.3639645176262621E-002
   6.3595185572046506E-002  -1.8765640450474130E-002   1.3474992748903791E-002
   6.0536972568432212E-002  -1.7998330813012539E-002   1.3453395462506720E-002
   5.7478759564817947E-002  -1.7185602629729495E-002   1.3574853317071797E-002
   5.4420546561203653E-002  -1.6327455900625398E-002   1.3839366312598994E-002
   6.2102793872925055E-002  -1.8281335091578310E-002   2.1761563785314443E-002
   5.9207704411491993E-002  -1.7567146902719766E-002   2.1405324704207973E-002
   5.6312614950058897E-002  -1.6818892487231694E-002   2.1232277566501426E-002
   5.3417525488625800E-002  -1.6036571845113777E-002   2.1242422372195487E-002
   5.0522436027192738E-002  -1.5220184976366763E-002   2.1435759121289817E-002
   5.7300791728997102E-002  -1.7075138641041654E-002   2.9881455651180167E-002
   5.4608962612183537E-002  -1.6368653354965262E-002   2.9322277597134017E-002
   5.1917133495369971E-002  -1.5639454161450739E-002   2.8986428288926752E-002
   4.9225304378556434E-002  -1.4887541060498583E-002   2.8873907726558012E-002
   4.6533475261742840E-002  -1.4112914052108183E-002   2.8984715910028103E-002
   6.1944216934908480E-002  -1.8541997749142669E-002  -1.4957273646406533E-003
   5.9106571382878892E-002  -1.7604705245685470E-002  -1.3768298137073476E-003
   5.6268925830849303E-002  -1.6744283819154465E-002  -1.0405399415134298E-003
   5.3431280278819659E-002  -1.5960733469549897E-002  -4.8685774805898308E-004
   5.0593634726790127E-002  -1.5254054196871980E-002   2.8421676665635331E-004
   5.8227806863775600E-002  -1.7434726824883784E-002   6.1955374839556265E-003
   5.5594768716664855E-002  -1.6535807723050744E-002   6.1429914285109910E-003
   5.2961730569554111E-002  -1.5695634461485836E-002   6.2822678616433203E-003
   5.0328692422443366E-002  -1.4914207040188927E-002   6.6133667833528642E-003
   4.7695654275332622E-002  -1.4191525459160581E-002   7.1362881936396505E-003
   5.4420546561203653E-002  -1.6327455900625398E-002   1.3839366312598994E-002
   5.1966545986328216E-002  -1.5466910200415740E-002   1.3633501887434257E-002
   4.9512545411452752E-002  -1.4646985103816665E-002   1.3593890118163018E-002
   4.7058544836577273E-002  -1.3867680610827850E-002   1.3720531004785326E-002
   4.4604544261701851E-002  -1.3128996721449404E-002   1.4013424547301367E-002
   5.0522436027192738E-002  -1.5220184976366763E-002   2.1435759121289817E-002
   4.8221903191869045E-002  -1.4398012677780875E-002   2.1094701563063110E-002
   4.5921370356545303E-002  -1.3598335746147654E-002   2.0894326828046057E-002
   4.3620837521221631E-002  -1.2821154181466716E-002   2.0834634916239131E-002
   4.1320304685897855E-002  -1.2066467983738005E-002   2.0915625827642254E-002
   4.6533475261742840E-002  -1.4112914052108183E-002   2.8984715910028103E-002
   4.4360840333287299E-002  -1.3329115155146065E-002   2.8526590455397016E-002
   4.2188205404831730E-002  -1.2549686388478795E-002   2.8183577991292147E-002
   4.0015570476376230E-002  -1.1774627752105565E-002   2.7955678517714119E-002
   3.7842935547920675E-002  -1.1003939246026939E-002   2.7842892034662170E-002
   5.0593634726790127E-002  -1.5254054196871980E-002   2.8421676665635331E-004
   4.7893012259005552E-002  -1.4549298331074878E-002   2.2119570451450965E-004
   4.5192389791220977E-002  -1.3771518202113309E-002   1.3036750147854548E-004
   4.2491767323436402E-002  -1.2920713809988243E-002   1.1732157548405286E-005
   3.9791144855651828E-002  -1.1996885154698766E-002  -1.3471032727596643E-004
   4.7695654275332622E-002  -1.4191525459160581E-002   7.1362881936396505E-003
   4.4989941112262566E-002  -1.3472998500029698E-002   6.9645844447512317E-003
   4.2284227949192482E-002  -1.2704034944425097E-002   6.8105064461858045E-003
   3.9578514786122385E-002  -1.1884634792346672E-002   6.6740541979435908E-003
   3.6872801623052287E-002  -1.1014798043795127E-002   6.5552277000239245E-003
   4.4604544261701851E-002  -1.3128996721449404E-002   1.4013424547301367E-002
   4.1939173294563148E-002  -1.2396698668984851E-002   1.3710450444976485E-002
   3.9273802327424445E-002  -1.1636551686736440E-002   1.3470534984191540E-002
   3.6608431360285770E-002  -1.0848555774705546E-002   1.3293678164946310E-002
   3.3943060393147095E-002  -1.0032710932891487E-002   1.3179879987241239E-002
   4.1320304685897855E-002  -1.2066467983738005E-002   2.0915625827642254E-002
   3.8740708805907409E-002  -1.1320398837939394E-002   2.0458793705190388E-002
   3.6161112925916936E-002  -1.0569068429048228E-002   2.0110453115495378E-002
   3.3581517045926566E-002  -9.8124767570641966E-003   1.9870604058557055E-002
   3.1001921165936017E-002  -9.0506238219880686E-003   1.9739246534375421E-002
   3.7842935547920675E-002  -1.1003939246026939E-002   2.7842892034662170E-002
   3.5394547646295293E-002  -1.0244099006894325E-002   2.7209614225392753E-002
   3.2946159744669995E-002  -9.5015851713594890E-003   2.6730260840097109E-002
   3.0497771843044683E-002  -8.7763977394231599E-003   2.6404831878775237E-002
   2.8049383941419315E-002  -8.0685367110845396E-003   2.6233327341426693E-002
   3.9791144855651828E-002  -1.1996885154698766E-002  -1.3471032727596643E-004
   3.7399564727208068E-002  -1.1125906475025649E-002  -3.6195189972731967E-004
   3.5007984598764141E-002  -1.0433652009749661E-002  -5.1108821585255093E-004
   3.2616404470320270E-002  -9.9201217588708035E-003  -5.8211927565077204E-004
   3.0224824341876455E-002  -9.5853157223888541E-003  -5.7504507912176095E-004
   3.6872801623052287E-002  -1.1014798043795127E-002   6.5552277000239245E-003
   3.4542869607949334E-002  -1.0179673273343459E-002   6.1508386037456564E-003
   3.2212937592846325E-002  -9.4644090555638938E-003   5.7916404778215469E-003
   2.9883005577743343E-002  -8.8690053904580679E-003   5.4776333222525120E-003
   2.7553073562640362E-002  -8.3934622780243995E-003   5.2088171370386904E-003
   3.3943060393147095E-002  -1.0032710932891487E-002   1.3179879987241239E-002
   3.1641862205412818E-002  -9.2334400716605480E-003   1.2657207028860029E-002
   2.9340664017678569E-002  -8.4951661013781266E-003   1.2146810754861598E-002
   2.7039465829944334E-002  -7.8178890220451103E-003   1.1648691165245251E-002
   2.4738267642210071E-002  -7.2016088336605000E-003   1.1162848260012348E-002
   3.1001921165936017E-002  -9.0506238219880686E-003   1.9739246534375421E-002
   2.8696542519598425E-002  -8.2872068699778867E-003   1.9157153375615715E-002
   2.6391163873260827E-002  -7.5259231471925814E-003   1.8554422615266089E-002
   2.4085785226923246E-002  -6.7667726536320416E-003   1.7931054253327527E-002
   2.1780406580585637E-002  -6.0097553892963229E-003   1.7287048289799101E-002
   2.8049383941419315E-002  -8.0685367110845396E-003   2.6233327341426693E-002
   2.5706910550506223E-002  -7.3409736682954474E-003   2.5650677644012077E-002
   2.3364437159593188E-002  -6.5566801930068142E-003   2.5014476059036062E-002
   2.1021963768680069E-002  -5.7156562852191950E-003   2.4324722586498287E-002
   1.8679490377767005E-002  -4.8179019449322569E-003   2.3581417226399171E-002
   3.0224824341876455E-002  -9.5853157223888541E-003  -5.7504507912176095E-004
   2.9612646235231743E-002  -9.1328326586126440E-003  -3.4697034902242407E-004
   2.9000468128587031E-002  -8.2662713258512266E-003  -1.7964826157489400E-003
   2.8388290021942264E-002  -6.9856317241059895E-003  -4.9235818793026409E-003
   2.7776111915297608E-002  -5.2909138533749900E-003  -9.7282681396835269E-003
   2.7553073562640362E-002  -8.3934622780243995E-003   5.2088171370386904E-003
   2.5531990443271757E-002  -7.8702092795304157E-003   5.8771980069367569E-003
   2.3510907323903152E-002  -7.1316759562413679E-003   5.4053558482141106E-003
   2.1489824204534547E-002  -6.1778623081568534E-003   3.7932906608705019E-003
   1.9468741085165941E-002  -5.0087683352786350E-003   1.0410024449054589E-003
   2.4738267642210071E-002  -7.2016088336605000E-003   1.1162848260012348E-002
   2.1845643478323240E-002  -6.6075859004480764E-003   1.2072737325519112E-002
   1.8953019314436437E-002  -5.9970805866308430E-003   1.2379767330610580E-002
   1.6060395150549620E-002  -5.3700928922090496E-003   1.2083938275286629E-002
   1.3167770986662802E-002  -4.7266228171821689E-003   1.1185250159546689E-002
   2.1780406580585637E-002  -6.0097553892963229E-003   1.7287048289799101E-002
   1.8553605340386255E-002  -5.3449625213657925E-003   1.8239647606724405E-002
   1.5326804100186921E-002  -4.8624852170204291E-003   1.9126751831439748E-002
   1.2100002859987507E-002  -4.5623234762605797E-003   1.9948360963945727E-002
   8.8732016197882110E-003  -4.4444772990857584E-003   2.0704475004241760E-002
   1.8679490377767005E-002  -4.8179019449322569E-003   2.3581417226399171E-002
   1.5655876029460780E-002  -4.0823391422836197E-003   2.4377928850552899E-002
   1.2632261681154527E-002  -3.7278898474100430E-003   2.5646309350702445E-002
   9.6086473328483302E-003  -3.7545540603121721E-003   2.7386558726847948E-002
   6.5850329845420497E-003  -4.1623317809893479E-003   2.9598676978989324E-002
   2.7776111915297608E-002  -5.2909138533749900E-003  -9.7282681396835269E-003
   2.3351664542761053E-002  -4.2043715146524718E-003  -4.1919915184969181E-003
   1.8927217170224553E-002  -4.7482585089328455E-003   2.6062879322746868E-003
   1.4502769797687859E-002  -6.9225748362153200E-003   1.0666570212633231E-002
   1.0078322425151498E-002  -1.0727320496499715E-002   1.9988855322575994E-002
   1.9468741085165941E-002  -5.0087683352786350E-003   1.0410024449054589E-003
   1.6234295219441253E-002  -4.6895314141982558E-003   6.7389665942499954E-003
   1.2999849353716508E-002  -6.2852889215081476E-003   1.3554930927632491E-002
   9.7654034879916529E-003  -9.7960408572100865E-003   2.1488895445052947E-002
   6.5309576222669641E-003  -1.5221787221302741E-002   3.0540860146511140E-002
   1.3167770986662802E-002  -4.7266228171821689E-003   1.1185250159546689E-002
   1.0979323982202277E-002  -5.1746913137429296E-003   1.6760336741660775E-002
   8.7908769777418211E-003  -7.8223193340841435E-003   2.3309420862264812E-002
   6.6024299732811501E-003  -1.2669506878205415E-002   3.0832502521358982E-002
   4.4139829688208954E-003  -1.9716253946107098E-002   3.9329581718944295E-002
   8.8732016197882110E-003  -4.4444772990857584E-003   2.0704475004241760E-002
   7.5867508310444240E-003  -5.6598512132881584E-003   2.5872118923735088E-002
   6.3003000423006404E-003  -9.3593497466597925E-003   3.1869757736171823E-002
   5.0138492535567892E-003  -1.5542972899200685E-002   3.8697391441551515E-002
   3.7273984648129588E-003  -2.4210720670910346E-002   4.6355020039874351E-002
   6.5850329845420497E-003  -4.1623317809893479E-003   2.9598676978989324E-002
   6.0565757659674646E-003  -6.1450111128336093E-003   3.4074313140473822E-002
   5.5281185473928518E-003  -1.0896380159235775E-002   3.9235941549354170E-002
   4.9996613288182390E-003  -1.8416438920195927E-002   4.5083562205629757E-002
   4.4712041102435984E-003  -2.8705187395714038E-002   5.1617175109300639E-002
   8.2762362968231085E-002  -2.7086649331863444E-002   3.6935899011080020E-002
   7.8275638126653835E-002  -2.4574877126971095E-002   3.3964358533471461E-002
   7.3788913285076446E-002  -2.2559211014636191E-002   3.2016623144796336E-002
   6.9302188443499183E-002  -2.1039650994858865E-002   3.1092692845054212E-002
   6.4815463601921863E-002  -2.0016197067638963E-002   3.1192567634245161E-002
   7.3359528017048925E-002  -2.3788636881373615E-002   4.0788442811378556E-002
   6.9785678090555137E-002  -2.1899554588667991E-002   3.8328279298070700E-002
   6.6211828164061237E-002  -2.0350944636279067E-002   3.6670060525996834E-002
   6.2637978237567393E-002  -1.9142807024207106E-002   3.5813786495156555E-002
   5.9064128311073577E-002  -1.8275141752451707E-002   3.5759457205550127E-002
   6.4997289420454449E-002  -2.0490624430883786E-002   4.3940479823369669E-002
   6.2114454061344637E-002  -1.9224232050364928E-002   4.2147327026603565E-002
   5.9231618702234791E-002  -1.8142678257922089E-002   4.0934258623371723E-002
   5.6348783343124972E-002  -1.7245963053555267E-002   4.0301274613674110E-002
   5.3465947984015147E-002  -1.6534086437264423E-002   4.0248374997511063E-002
   5.7675647178447545E-002  -1.7192611980393971E-002   4.6392010047053761E-002
   5.5261966039022420E-002  -1.6548909512061859E-002   4.5421501719069904E-002
   5.2848284899597191E-002  -1.5934411879565038E-002   4.4809217436920838E-002
   5.0434603760171982E-002  -1.5349119082903439E-002   4.4555157200607008E-002
   4.8020922620746809E-002  -1.4793031122077152E-002   4.4659321010127775E-002
   5.1394601291028352E-002  -1.3894599529904128E-002   4.8143033482430597E-002
   4.9228214023588401E-002  -1.3873586973758761E-002   4.8150803375469953E-002
   4.7061826756148339E-002  -1.3726145501207945E-002   4.8294936966644414E-002
   4.4895439488708347E-002  -1.3452275112251656E-002   4.8575434255954661E-002
   4.2729052221268354E-002  -1.3051975806889826E-002   4.8992295243400319E-002
   6.4815463601921863E-002  -2.0016197067638963E-002   3.1192567634245161E-002
   6.2936795633690645E-002  -1.9250830255270857E-002   3.0527210172896529E-002
   6.1058127665459483E-002  -1.8505531580048543E-002   3.0086905688602977E-002
   5.9179459697228307E-002  -1.7780301041972233E-002   2.9871654181364157E-002
   5.7300791728997102E-002  -1.7075138641041654E-002   2.9881455651180167E-002
   5.9064128311073577E-002  -1.8275141752451707E-002   3.5759457205550127E-002
   5.7397207510020171E-002  -1.7583681481674690E-002   3.5217945998721745E-002
   5.5730286708966792E-002  -1.6904158872537420E-002   3.4874876149194253E-002
   5.4063365907913448E-002  -1.6236573925040253E-002   3.4730247656967736E-002
   5.2396445106860062E-002  -1.5580926639182646E-002   3.4784060522041998E-002
   5.3465947984015147E-002  -1.6534086437264423E-002   4.0248374997511063E-002
   5.1984162730385641E-002  -1.5916532708078468E-002   3.9838840520708796E-002
   5.0502377476756170E-002  -1.5302786165026346E-002   3.9601135781453543E-002
   4.9020592223126699E-002  -1.4692846808108050E-002   3.9535260779745146E-002
   4.7538806969497180E-002  -1.4086714637323555E-002   3.9641215515583583E-002
   4.8020922620746809E-002  -1.4793031122077152E-002   4.4659321010127775E-002
   4.6697661294787182E-002  -1.4249383934482301E-002   4.4389893738857822E-002
   4.5374399968827583E-002  -1.3701413457515247E-002   4.4265684585380771E-002
   4.4051138642867971E-002  -1.3149119691175944E-002   4.4286693549696741E-002
   4.2727877316908365E-002  -1.2592502635464534E-002   4.4452920631805531E-002
   4.2729052221268354E-002  -1.3051975806889826E-002   4.8992295243400319E-002
   4.1537703203224682E-002  -1.2582235160886079E-002   4.8871105653168684E-002
   4.0346354185181038E-002  -1.2100040750004176E-002   4.8868522560975902E-002
   3.9155005167137366E-002  -1.1605392574243818E-002   4.8984545966822168E-002
   3.7963656149093722E-002  -1.1098290633605401E-002   4.9219175870707343E-002
   5.7300791728997102E-002  -1.7075138641041654E-002   2.9881455651180167E-002
   5.4608962612183537E-002  -1.6368653354965262E-002   2.9322277597134017E-002
   5.1917133495369971E-002  -1.5639454161450739E-002   2.8986428288926752E-002
   4.9225304378556434E-002  -1.4887541060498583E-002   2.8873907726558012E-002
   4.6533475261742840E-002  -1.4112914052108183E-002   2.8984715910028103E-002
   5.2396445106860062E-002  -1.5580926639182646E-002   3.4784060522041998E-002
   4.9925813967116914E-002  -1.4921420864473872E-002   3.4290644457391745E-002
   4.7455182827373696E-002  -1.4242260450422900E-002   3.4016295601043703E-002
   4.4984551687630513E-002  -1.3543445397030042E-002   3.3961013952997700E-002
   4.2513920547887329E-002  -1.2824975704294861E-002   3.4124799513253645E-002
   4.7538806969497180E-002  -1.4086714637323555E-002   3.9641215515583583E-002
   4.5285112269287740E-002  -1.3474188373982773E-002   3.9210502172233638E-002
   4.3031417569078370E-002  -1.2845066739395339E-002   3.8994594499649052E-002
   4.0777722868868937E-002  -1.2199349733561668E-002   3.8993492497830143E-002
   3.8524028168659574E-002  -1.1537037356481400E-002   3.9207196166776634E-002
   4.2727877316908365E-002  -1.2592502635464534E-002   4.4452920631805531E-002
   4.0686857518696183E-002  -1.2026955883491557E-002   4.4081850741659934E-002
   3.8645837720483966E-002  -1.1447873028367583E-002   4.3921324984743153E-002
   3.6604817922271736E-002  -1.0855254070093155E-002   4.3971343361055508E-002
   3.4563798124059561E-002  -1.0249099008667897E-002   4.4231905870596361E-002
   3.7963656149093722E-002  -1.1098290633605401E-002   4.9219175870707343E-002
   3.6131049715342145E-002  -1.0579723393000284E-002   4.8904690165670395E-002
   3.4298443281590513E-002  -1.0050679317339953E-002   4.8796487056325860E-002
   3.2465836847838922E-002  -9.5111584066248402E-003   4.8894566542673643E-002
   3.0633230414087304E-002  -8.9611606608546168E-003   4.9198928624713534E-002
   4.6533475261742840E-002  -1.4112914052108183E-002   2.8984715910028103E-002
   4.4360840333287299E-002  -1.3329115155146065E-002   2.8526590455397016E-002
   4.2188205404831730E-002  -1.2549686388478795E-002   2.8183577991292147E-002
   4.0015570476376230E-002  -1.1774627752105565E-002   2.7955678517714119E-002
   3.7842935547920675E-002  -1.1003939246026939E-002   2.7842892034662170E-002
   4.2513920547887329E-002  -1.2824975704294861E-002   3.4124799513253645E-002
   4.0464111723781837E-002  -1.2097301479490230E-002   3.3701241654324976E-002
   3.8414302899676317E-002  -1.1370872829889744E-002   3.3408223013569910E-002
   3.6364494075570866E-002  -1.0645689755492779E-002   3.3245743590988572E-002
   3.4314685251465332E-002  -9.9217522562997651E-003   3.3213803386581031E-002
   3.8524028168659574E-002  -1.1537037356481400E-002   3.9207196166776634E-002
   3.6612471676551406E-002  -1.0865487803834478E-002   3.8821330458640751E-002
   3.4700915184443328E-002  -1.0192059271300812E-002   3.8581430196326129E-002
   3.2789358692335221E-002  -9.5167517588802177E-003   3.8487495379832273E-002
   3.0877802200227081E-002  -8.8395652665728686E-003   3.8539526009159775E-002
   3.4563798124059561E-002  -1.0249099008667897E-002   4.4231905870596361E-002
   3.2805920191596172E-002  -9.6336741281786847E-003   4.3886856868344398E-002
   3.1048042259132741E-002  -9.0132457127117642E-003   4.3703199539560429E-002
   2.9290164326669366E-002  -8.3878137622674896E-003   4.3680933884245071E-002
   2.7532286394205924E-002  -7.7573782768459443E-003   4.3820059902398047E-002
   3.0633230414087304E-002  -8.9611606608546168E-003   4.9198928624713534E-002
   2.9044457268915969E-002  -8.4018604525228358E-003   4.8897820883435639E-002
   2.7455684123744578E-002  -7.8344321541228001E-003   4.8773531043273421E-002
   2.5866910978573229E-002  -7.2588757656548639E-003   4.8826059104226632E-002
   2.4278137833401880E-002  -6.6751912871189090E-003   4.9055405066295577E-002
   3.7842935547920675E-002  -1.1003939246026939E-002   2.7842892034662170E-002
   3.5394547646295293E-002  -1.0244099006894325E-002   2.7209614225392753E-002
   3.2946159744669995E-002  -9.5015851713594890E-003   2.6730260840097109E-002
   3.0497771843044683E-002  -8.7763977394231599E-003   2.6404831878775237E-002
   2.8049383941419315E-002  -8.0685367110845396E-003   2.6233327341426693E-002
   3.4314685251465332E-002  -9.9217522562997651E-003   3.3213803386581031E-002
   3.2021745937524576E-002  -9.2040171781477831E-003   3.2659174151001724E-002
   2.9728806623583820E-002  -8.4974413668744142E-003   3.2261517666817868E-002
   2.7435867309643092E-002  -7.8020248224789507E-003   3.2020833934030074E-002
   2.5142927995702308E-002  -7.1177675449619615E-003   3.1937122952637287E-002
   3.0877802200227081E-002  -8.8395652665728686E-003   3.8539526009159775E-002
   2.8743359801392948E-002  -8.1639353494013800E-003   3.8069712483989854E-002
   2.6608917402558767E-002  -7.4932975623887704E-003   3.7759920037637854E-002
   2.4474475003724582E-002  -6.8276519055345160E-003   3.7610148670103323E-002
   2.2340032604890397E-002  -6.1669983788393279E-003   3.7620398381386144E-002
   2.7532286394205924E-002  -7.7573782768459443E-003   4.3820059902398047E-002
   2.5559389237900375E-002  -7.1238535206550740E-003   4.3441229224357364E-002
   2.3586492081594773E-002  -6.4891537579033001E-003   4.3225467952556579E-002
   2.1613594925289172E-002  -5.8532789885904161E-003   4.3172776086995046E-002
   1.9640697768983618E-002  -5.2162292127168330E-003   4.3283153627673515E-002
   2.4278137833401880E-002  -6.6751912871189090E-003   4.9055405066295577E-002
   2.2469834247046905E-002  -6.0837716919085461E-003   4.8773724372104144E-002
   2.0661530660691901E-002  -5.4850099534180241E-003   4.8658161411574030E-002
   1.8853227074336912E-002  -4.8789060716460317E-003   4.8708716184705542E-002
   1.7044923487981950E-002  -4.2654600465941162E-003   4.8925388691498650E-002
   2.8049383941419315E-002  -8.0685367110845396E-003   2.6233327341426693E-002
   2.5706910550506223E-002  -7.3409736682954474E-003   2.5650677644012077E-002
   2.3364437159593188E-002  -6.5566801930068142E-003   2.5014476059036062E-002
   2.1021963768680069E-002  -5.7156562852191950E-003   2.4324722586498287E-002
   1.8679490377767005E-002  -4.8179019449322569E-003   2.3581417226399171E-002
   2.5142927995702308E-002  -7.1177675449619615E-003   3.1937122952637287E-002
   2.2785735312509603E-002  -6.4322105399612362E-003   3.1532110982582406E-002
   2.0428542629316940E-002  -5.7328948131141200E-003   3.1151212315530141E-002
   1.8071349946124297E-002  -5.0198203644212791E-003   3.0794426951480103E-002
   1.5714157262931572E-002  -4.2929871938821584E-003   3.0461754890431902E-002
   2.2340032604890397E-002  -6.1669983788393279E-003   3.7620398381386144E-002
   2.0045785819981995E-002  -5.5234474116269139E-003   3.7350052428038072E-002
   1.7751539035073552E-002  -4.9091094332213148E-003   3.7181484968255851E-002
   1.5457292250165115E-002  -4.3239844436230301E-003   3.7114696002039815E-002
   1.3163045465256651E-002  -3.7680724428317824E-003   3.7149685529390103E-002
   1.9640697768983618E-002  -5.2162292127168330E-003   4.3283153627673515E-002
   1.7487062072923290E-002  -4.6146842832924251E-003   4.3104501980378462E-002
   1.5333426376862986E-002  -4.0853240533284541E-003   4.3105294017213747E-002
   1.3179790680802725E-002  -3.6281485228248922E-003   4.3285529738178986E-002
   1.1026154984742409E-002  -3.2431576917816562E-003   4.3645209143274209E-002
   1.7044923487981950E-002  -4.2654600465941162E-003   4.8925388691498650E-002
   1.5109564071333625E-002  -3.7059211549584359E-003   4.8795459639603966E-002
   1.3174204654685287E-002  -3.2615386734358709E-003   4.8922639462403383E-002
   1.1238845238036983E-002  -2.9323126020268236E-003   4.9306928159896402E-002
   9.3034858213886795E-003  -2.7182429407311970E-003   4.9948325732083521E-002
   1.8679490377767005E-002  -4.8179019449322569E-003   2.3581417226399171E-002
   1.5655876029460780E-002  -4.0823391422836197E-003   2.4377928850552899E-002
   1.2632261681154527E-002  -3.7278898474100430E-003   2.5646309350702445E-002
   9.6086473328483302E-003  -3.7545540603121721E-003   2.7386558726847948E-002
   6.5850329845420497E-003  -4.1623317809893479E-003   2.9598676978989324E-002
   1.5714157262931572E-002  -4.2929871938821584E-003   3.0461754890431902E-002
   1.3144344631549537E-002  -3.7780553341439371E-003   3.1245083247062710E-002
   1.0574532000167600E-002  -3.7006848178535445E-003   3.2464146161546414E-002
   8.0047193687856483E-003  -4.0608756450106684E-003   3.4118943633882043E-002
   5.4349067374036275E-003  -4.8586278156159679E-003   3.6209475664070290E-002
   1.3163045465256651E-002  -3.7680724428317824E-003   3.7149685529390103E-002
   1.1010900232655593E-002  -3.4737715260041990E-003   3.7863382782825861E-002
   8.8587550000544316E-003  -3.6734797882966991E-003   3.8976680275970746E-002
   6.7066097674533393E-003  -4.3671972297094942E-003   4.0489578008824544E-002
   4.5544645348521567E-003  -5.5549238502425879E-003   4.2402075981387788E-002
   1.1026154984742409E-002  -3.2431576917816562E-003   4.3645209143274209E-002
   9.2555428327786952E-003  -3.1694877178642666E-003   4.4232827457842593E-002
   7.4849306808149815E-003  -3.6462747587403602E-003   4.5183911693976050E-002
   5.7143185288512713E-003  -4.6735188144080442E-003   4.6498461851675901E-002
   3.9437063768875576E-003  -6.2512198848692080E-003   4.8176477930941153E-002
   9.3034858213886795E-003  -2.7182429407311970E-003   4.9948325732083521E-002
   7.8782724319189923E-003  -2.8652039097247783E-003   5.0353417272111733E-002
   6.4530590424493051E-003  -3.6190697291832441E-003   5.1085840415562300E-002
   5.0278456529795901E-003  -4.9798403991067886E-003   5.2145595162435054E-002
   3.6026322635099306E-003  -6.9475159194957170E-003   5.3532681512730051E-002
   6.5850329845420497E-003  -4.1623317809893479E-003   2.9598676978989324E-002
   6.0565757659674646E-003  -6.1450111128336093E-003   3.4074313140473822E-002
   5.5281185473928518E-003  -1.0896380159235775E-002   3.9235941549354170E-002
   4.9996613288182390E-003  -1.8416438920195927E-002   4.5083562205629757E-002
   4.4712041102435984E-003  -2.8705187395714038E-002   5.1617175109300639E-002
   5.4349067374036275E-003  -4.8586278156159679E-003   3.6209475664070290E-002
   5.4884789581382265E-003  -6.9930163175243587E-003   3.8348632545197658E-002
   5.5420511788728116E-003  -1.1363116138590895E-002   4.0965856057548045E-002
   5.5956233996073829E-003  -1.7968927278815973E-002   4.4061146201120810E-002
   5.6491956203420512E-003  -2.6810449738199349E-002   4.7634502975917092E-002
   4.5544645348521567E-003  -5.5549238502425879E-003   4.2402075981387788E-002
   4.9821405787234402E-003  -7.8410215222149970E-003   4.2737731977556981E-002
   5.4098166225947583E-003  -1.1829852117946238E-002   4.3343528988776997E-002
   5.8374926664659654E-003  -1.7521415637436130E-002   4.4219467015047254E-002
   6.2651687103373044E-003  -2.4915712080684882E-002   4.5365546056367667E-002
   3.9437063768875576E-003  -6.2512198848692080E-003   4.8176477930941153E-002
   4.5375606277230814E-003  -8.6890267269056909E-003   4.7241611437551990E-002
   5.1314148785587474E-003  -1.2296588097301803E-002   4.6368960343041096E-002
   5.7252691293942712E-003  -1.7073903996056232E-002   4.5558524647408137E-002
   6.3191233802299338E-003  -2.3020974423170304E-002   4.4810304350653501E-002
   3.6026322635099306E-003  -6.9475159194957170E-003   5.3532681512730051E-002
   4.1547391051372784E-003  -9.5370319315963847E-003   5.1860270925182972E-002
   4.7068459467646540E-003  -1.2763324076656896E-002   5.0042150120340800E-002
   5.2589527883920156E-003  -1.6626392354676382E-002   4.8078319098204342E-002
   5.8110596300193773E-003  -2.1126236765655726E-002   4.5968777858773624E-002
   5.1394601291028352E-002  -1.3894599529904128E-002   4.8143033482430597E-002
   4.9228214023588401E-002  -1.3873586973758761E-002   4.8150803375469953E-002
   4.7061826756148339E-002  -1.3726145501207945E-002   4.8294936966644414E-002
   4.4895439488708347E-002  -1.3452275112251656E-002   4.8575434255954661E-002
   4.2729052221268354E-002  -1.3051975806889826E-002   4.8992295243400319E-002
   4.5514539081768363E-002  -1.2300453520007304E-002   5.1638494906681598E-002
   4.3508492145346939E-002  -1.2230153923733750E-002   5.1543632480203883E-002
   4.1502445208925612E-002  -1.2062243152127089E-002   5.1633087017628226E-002
   3.9496398272504223E-002  -1.1796721205187037E-002   5.1906858518954185E-002
   3.7490351336082889E-002  -1.1433588082913754E-002   5.2364946984181926E-002
   3.9395847874239026E-002  -1.0706307510110480E-002   5.5197652241596659E-002
   3.7598094534602597E-002  -1.0586720873708835E-002   5.4971339754529863E-002
   3.5800341194966154E-002  -1.0398340803046170E-002   5.4977297497131615E-002
   3.4002587855329724E-002  -1.0141167298122472E-002   5.5215525469401228E-002
   3.2204834515693309E-002  -9.8152003589377090E-003   5.5686023671338736E-002
   3.3038527668440530E-002  -9.1121615002136419E-003   5.8820505487175892E-002
   3.1497021191355258E-002  -8.9432878236838723E-003   5.8433925198448207E-002
   2.9955514714270062E-002  -8.7344384539652827E-003   5.8327568405154816E-002
   2.8414008237184825E-002  -8.4856133910578800E-003   5.8501435107295774E-002
   2.6872501760099591E-002  -8.1968126349615950E-003   5.8955525304871075E-002
   2.6442578464372701E-002  -7.5180154903168317E-003   6.2507054643419269E-002
   2.5205272115604999E-002  -7.2998547736588815E-003   6.1931388811958310E-002
   2.3967965766837240E-002  -7.0705361048844367E-003   6.1683899741697773E-002
   2.2730659418069496E-002  -6.8300594839932997E-003   6.1764587432638005E-002
   2.1493353069301779E-002  -6.5784249109855919E-003   6.2173451884778796E-002
   4.2729052221268354E-002  -1.3051975806889826E-002   4.8992295243400319E-002
   4.1537703203224682E-002  -1.2582235160886079E-002   4.8871105653168684E-002
   4.0346354185181038E-002  -1.2100040750004176E-002   4.8868522560975902E-002
   3.9155005167137366E-002  -1.1605392574243818E-002   4.8984545966822168E-002
   3.7963656149093722E-002  -1.1098290633605401E-002   4.9219175870707343E-002
   3.7490351336082889E-002  -1.1433588082913754E-002   5.2364946984181926E-002
   3.6423098452245437E-002  -1.1016753950706254E-002   5.2213553399620166E-002
   3.5355845568407970E-002  -1.0590128973963241E-002   5.2191745585431937E-002
   3.4288592684570497E-002  -1.0153713152685031E-002   5.2299523541617057E-002
   3.3221339800733080E-002  -9.7075064868715200E-003   5.2536887268175625E-002
   3.2204834515693309E-002  -9.8152003589377090E-003   5.5686023671338736E-002
   3.1272657038396559E-002  -9.4512727405262620E-003   5.5501763172104084E-002
   3.0340479561099837E-002  -9.0802171979224161E-003   5.5458067715577306E-002
   2.9408302083803097E-002  -8.7020337311261887E-003   5.5554937301758471E-002
   2.8476124606506392E-002  -8.3167223401376666E-003   5.5792371930647802E-002
   2.6872501760099591E-002  -8.1968126349615950E-003   5.8955525304871075E-002
   2.6086378961678095E-002  -7.8857915303463533E-003   5.8735734970620436E-002
   2.5300256163256589E-002  -7.5703054218815360E-003   5.8667488951412106E-002
   2.4514133364835086E-002  -7.2503543095673185E-003   5.8750787247246444E-002
   2.3728010566413594E-002  -6.9259381934038827E-003   5.8985629858123043E-002
   2.1493353069301779E-002  -6.5784249109855919E-003   6.2173451884778796E-002
   2.0864264222090034E-002  -6.3203103201664168E-003   6.1915468795169071E-002
   2.0235175374878275E-002  -6.0603936458406144E-003   6.1820009292936545E-002
   1.9606086527666537E-002  -5.7986748880086043E-003   6.1887073378080845E-002
   1.8976997680454771E-002  -5.5351540466699323E-003   6.2116661050602262E-002
   3.7963656149093722E-002  -1.1098290633605401E-002   4.9219175870707343E-002
   3.6131049715342145E-002  -1.0579723393000284E-002   4.8904690165670395E-002
   3.4298443281590513E-002  -1.0050679317339953E-002   4.8796487056325860E-002
   3.2465836847838922E-002  -9.5111584066248402E-003   4.8894566542673643E-002
   3.0633230414087304E-002  -8.9611606608546168E-003   4.9198928624713534E-002
   3.3221339800733080E-002  -9.7075064868715200E-003   5.2536887268175625E-002
   3.1598476986087212E-002  -9.2510427816715757E-003   5.2233563775332531E-002
   2.9975614171441303E-002  -8.7838558422338869E-003   5.2143444925008553E-002
   2.8352751356795436E-002  -8.3059456685585335E-003   5.2266530717203621E-002
   2.6729888542149541E-002  -7.8173122606456369E-003   5.2602821151917944E-002
   2.8476124606506392E-002  -8.3167223401376666E-003   5.5792371930647802E-002
   2.7069927457793061E-002  -7.9223621703428115E-003   5.5500457049180787E-002
   2.5663730309079723E-002  -7.5170323671277031E-003   5.5428668857059819E-002
   2.4257533160366395E-002  -7.1007329304923362E-003   5.5577007354284849E-002
   2.2851336011653053E-002  -6.6734638604366570E-003   5.5945472540855967E-002
   2.3728010566413594E-002  -6.9259381934038827E-003   5.8985629858123043E-002
   2.2545401130459660E-002  -6.5936815590141584E-003   5.8705369987215192E-002
   2.1362791694505688E-002  -6.2502088920215783E-003   5.8652158852480138E-002
   2.0180182258551733E-002  -5.8955201924260287E-003   5.8825996453917721E-002
   1.8997572822597789E-002  -5.5296154602277325E-003   5.9226882791528067E-002
   1.8976997680454771E-002  -5.5351540466699323E-003   6.2116661050602262E-002
   1.8024898004087034E-002  -5.2650009476853388E-003   6.1848302589435855E-002
   1.7072798327719269E-002  -4.9833854169154396E-003   6.1813914911269030E-002
   1.6120698651351531E-002  -4.6903074543597455E-003   6.2013498016101773E-002
   1.5168598974983766E-002  -4.3857670600187526E-003   6.2447051903934236E-002
   3.0633230414087304E-002  -8.9611606608546168E-003   4.9198928624713534E-002
   2.9044457268915969E-002  -8.4018604525228358E-003   4.8897820883435639E-002
   2.7455684123744578E-002  -7.8344321541228001E-003   4.8773531043273421E-002
   2.5866910978573229E-002  -7.2588757656548639E-003   4.8826059104226632E-002
   2.4278137833401880E-002  -6.6751912871189090E-003   4.9055405066295577E-002
   2.6729888542149541E-002  -7.8173122606456369E-003   5.2602821151917944E-002
   2.5320771179715720E-002  -7.3195746275646068E-003   5.2337147286786179E-002
   2.3911653817281879E-002  -6.8143517783849361E-003   5.2253967086013708E-002
   2.2502536454848041E-002  -6.3016437131065348E-003   5.2353280549600770E-002
   2.1093419092414217E-002  -5.7814504317298399E-003   5.2635087677547043E-002
   2.2851336011653053E-002  -6.6734638604366570E-003   5.5945472540855967E-002
   2.1627550195200337E-002  -6.2372888026064055E-003   5.5714589677901133E-002
   2.0403764378747614E-002  -5.7942714026468639E-003   5.5671876242549143E-002
   1.9179978562294916E-002  -5.3444116605583201E-003   5.5817332234800419E-002
   1.7956192745842176E-002  -4.8877095763407152E-003   5.6150957654654249E-002
   1.8997572822597789E-002  -5.5296154602277325E-003   5.9226882791528067E-002
   1.7964794315369823E-002  -5.1550029776480794E-003   5.9030148056780758E-002
   1.6932015808141854E-002  -4.7741910269088403E-003   5.9027258512879863E-002
   1.5899237300913884E-002  -4.3871796080099373E-003   5.9218214159825644E-002
   1.4866458793685922E-002  -3.9939687209515073E-003   5.9603014997617783E-002
   1.5168598974983766E-002  -4.3857670600187526E-003   6.2447051903934236E-002
   1.4332503540224154E-002  -4.0727171526900308E-003   6.2283822423424839E-002
   1.3496408105464541E-002  -3.7541106511709971E-003   6.2320113897005452E-002
   1.2660312670704922E-002  -3.4299475554617938E-003   6.2555926324676422E-002
   1.1824217235945317E-002  -3.1002278655625215E-003   6.2991259706437375E-002
   2.4278137833401880E-002  -6.6751912871189090E-003   4.9055405066295577E-002
   2.2469834247046905E-002  -6.0837716919085461E-003   4.8773724372104144E-002
   2.0661530660691901E-002  -5.4850099534180241E-003   4.8658161411574030E-002
   1.8853227074336912E-002  -4.8789060716460317E-003   4.8708716184705542E-002
   1.7044923487981950E-002  -4.2654600465941162E-003   4.8925388691498650E-002
   2.1093419092414217E-002  -5.7814504317298399E-003   5.2635087677547043E-002
   1.9461043603811554E-002  -5.2567440537741317E-003   5.2415151302031615E-002
   1.7828668115208904E-002  -4.7304966987593844E-003   5.2380953388359242E-002
   1.6196292626606226E-002  -4.2027083666859102E-003   5.2532493936530006E-002
   1.4563917138003563E-002  -3.6733790575530501E-003   5.2869772946543880E-002
   1.7956192745842176E-002  -4.8877095763407152E-003   5.6150957654654249E-002
   1.6519366083173323E-002  -4.4297164156397728E-003   5.5986964431593761E-002
   1.5082539420504498E-002  -3.9759834441012026E-003   5.6028330398557549E-002
   1.3645712757835656E-002  -3.5265106617252372E-003   5.6275055555545968E-002
   1.2208886095166828E-002  -3.0812980685118729E-003   5.6727139902558732E-002
   1.4866458793685922E-002  -3.9939687209515073E-003   5.9603014997617783E-002
   1.3644801685132341E-002  -3.6026887775051086E-003   5.9489163760790296E-002
   1.2423144576578764E-002  -3.2214701894430139E-003   5.9600292442168745E-002
   1.1201487468025174E-002  -2.8503129567648399E-003   5.9936401041753143E-002
   9.9798303594715813E-003  -2.4892170794708623E-003   6.0497489559543746E-002
   1.1824217235945317E-002  -3.1002278655625215E-003   6.2991259706437375E-002
   1.0837350409688473E-002  -2.7756611393707775E-003   6.2921749289621354E-002
   9.8504835834316296E-003  -2.4669569347847142E-003   6.3096839519193093E-002
   8.8636167571747998E-003  -2.1741152518042484E-003   6.3516530395151899E-002
   7.8767499309179423E-003  -1.8971360904297407E-003   6.4180821917498410E-002
   1.7044923487981950E-002  -4.2654600465941162E-003   4.8925388691498650E-002
   1.5109564071333625E-002  -3.7059211549584359E-003   4.8795459639603966E-002
   1.3174204654685287E-002  -3.2615386734358709E-003   4.8922639462403383E-002
   1.1238845238036983E-002  -2.9323126020268236E-003   4.9306928159896402E-002
   9.3034858213886795E-003  -2.7182429407311970E-003   4.9948325732083521E-002
   1.4563917138003563E-002  -3.6733790575530501E-003   5.2869772946543880E-002
   1.2884336141504055E-002  -3.2003819445743376E-003   5.2749807857505382E-002
   1.1204755145004519E-002  -2.8415902009627514E-003   5.2884290734070610E-002
   9.5251741485050251E-003  -2.5970038267183193E-003   5.3273221576239718E-002
   7.8455931520054756E-003  -2.4666228218406250E-003   5.3916600384012026E-002
   1.2208886095166828E-002  -3.0812980685118729E-003   5.6727139902558732E-002
   1.0782422609725804E-002  -2.6948427341901005E-003   5.6618089817122741E-002
   9.3559591242848260E-003  -2.4216417284893821E-003   5.6760826788200297E-002
   7.9294956388438215E-003  -2.2616950514092529E-003   5.7155350815790970E-002
   6.5030321534028240E-003  -2.2150027029502195E-003   5.7801661899895274E-002
   9.9798303594715813E-003  -2.4892170794708623E-003   6.0497489559543746E-002
   8.8038234759988659E-003  -2.1893035238058772E-003   6.0400305518456182E-002
   7.6278165925261201E-003  -2.0016932560160267E-003   6.0552247624792215E-002
   6.4518097090533952E-003  -1.9263862761003565E-003   6.0953315878551267E-002
   5.2758028255806590E-003  -1.9633825840597308E-003   6.1603510279733320E-002
   7.8767499309179423E-003  -1.8971360904297407E-003   6.4180821917498410E-002
   6.9485387403232235E-003  -1.6837643134218760E-003   6.4096454961505955E-002
   6.0203275497284908E-003  -1.5817447835428378E-003   6.4258553243846439E-002
   5.0921163591337512E-003  -1.5910775007916683E-003   6.4667116764519750E-002
   4.1639051685390394E-003  -1.7117624651692420E-003   6.5322145523526109E-002
   9.3034858213886795E-003  -2.7182429407311970E-003   4.9948325732083521E-002
   7.8782724319189923E-003  -2.8652039097247783E-003   5.0353417272111733E-002
   6.4530590424493051E-003  -3.6190697291832441E-003   5.1085840415562300E-002
   5.0278456529795901E-003  -4.9798403991067886E-003   5.2145595162435054E-002
   3.6026322635099306E-003  -6.9475159194957170E-003   5.3532681512730051E-002
   7.8455931520054756E-003  -2.4666228218406250E-003   5.3916600384012026E-002
   6.7217243899760082E-003  -2.6499890779642654E-003   5.3850939617288873E-002
   5.5978556279465408E-003  -3.3466444867219780E-003   5.4060636502023640E-002
   4.4739868659170803E-003  -4.5565890481148244E-003   5.4545691038216632E-002
   3.3501181038876060E-003  -6.2798227621417846E-003   5.5306103225867709E-002
   6.5030321534028240E-003  -2.2150027029502195E-003   5.7801661899895274E-002
   5.6285340668493986E-003  -2.4347742462036415E-003   5.7358864524251346E-002
   4.7540359802959314E-003  -3.0742192442608229E-003   5.7139450848101014E-002
   3.8795378937424851E-003  -4.1333376971221941E-003   5.7143420871444750E-002
   3.0050398071890388E-003  -5.6121296047876856E-003   5.7370774594282442E-002
   5.2758028255806590E-003  -1.9633825840597308E-003   6.1603510279733320E-002
   4.5987014625390645E-003  -2.2195594144429065E-003   6.0877191992998868E-002
   3.9216000994974562E-003  -2.8017940017997789E-003   6.0322283453794215E-002
   3.2444987364558826E-003  -3.7100863461297859E-003   5.9938784662119167E-002
   2.5673973734142534E-003  -4.9444364474337810E-003   5.9726695617974272E-002
   4.1639051685390394E-003  -1.7117624651692420E-003   6.5322145523526109E-002
   3.6322265770450807E-003  -2.0043445826825601E-003   6.4405922023531792E-002
   3.1005479855511497E-003  -2.5293687593385961E-003   6.3609134319103255E-002
   2.5688693940572188E-003  -3.2868349951374817E-003   6.2931782410240139E-002
   2.0371908025632879E-003  -4.2767432900797653E-003   6.2373866296942526E-002
   3.6026322635099306E-003  -6.9475159194957170E-003   5.3532681512730051E-002
   4.1547391051372784E-003  -9.5370319315963847E-003   5.1860270925182972E-002
   4.7068459467646540E-003  -1.2763324076656896E-002   5.0042150120340800E-002
   5.2589527883920156E-003  -1.6626392354676382E-002   4.8078319098204342E-002
   5.8110596300193773E-003  -2.1126236765655726E-002   4.5968777858773624E-002
   3.3501181038876060E-003  -6.2798227621417846E-003   5.5306103225867709E-002
   3.7740508024888403E-003  -8.5475882266328185E-003   5.2952389334885275E-002
   4.1979835010900884E-003  -1.1391128039418247E-002   5.0488037375145511E-002
   4.6219161996913991E-003  -1.4810442200497466E-002   4.7913047346648252E-002
   5.0458488982926264E-003  -1.8805530709870899E-002   4.5227419249391776E-002
   3.0050398071890388E-003  -5.6121296047876856E-003   5.7370774594282442E-002
   3.3358705113007633E-003  -7.5581445216692522E-003   5.4396759184531268E-002
   3.6667012154124670E-003  -1.0018932002179612E-002   5.1347177854558376E-002
   3.9975319195241672E-003  -1.2994492046318553E-002   4.8222030604364786E-002
   4.3283626236358397E-003  -1.6484824654086072E-002   4.5021317433949548E-002
   2.5673973734142534E-003  -4.9444364474337810E-003   5.9726695617974272E-002
   2.8401982315730111E-003  -6.5687008167057970E-003   5.6193380474118725E-002
   3.1129990897317533E-003  -8.6467359649410810E-003   5.2619571558578784E-002
   3.3857999478904806E-003  -1.1178541892139527E-002   4.9005268871354771E-002
   3.6586008060492808E-003  -1.4164118598301245E-002   4.5350472412444554E-002
   2.0371908025632879E-003  -4.2767432900797653E-003   6.2373866296942526E-002
   2.2870339633056097E-003  -5.5792571117422307E-003   5.8342253203648942E-002
   2.5368771240479454E-003  -7.2745399277022449E-003   5.4305218487207096E-002
   2.7867202847903089E-003  -9.3625917379607029E-003   5.0262762147617074E-002
   3.0365634455326584E-003  -1.1843412542516418E-002   4.6214884184879512E-002
   2.6442578464372701E-002  -7.5180154903168317E-003   6.2507054643419269E-002
   2.5205272115604999E-002  -7.2998547736588815E-003   6.1931388811958310E-002
   2.3967965766837240E-002  -7.0705361048844367E-003   6.1683899741697773E-002
   2.2730659418069496E-002  -6.8300594839932997E-003   6.1764587432638005E-002
   2.1493353069301779E-002  -6.5784249109855919E-003   6.2173451884778796E-002
   1.9753469820633002E-002  -5.6385113430021949E-003   6.3449777474123947E-002
   1.8839627627752278E-002  -5.4748908779344851E-003   6.2931472388417564E-002
   1.7925785434871576E-002  -5.3029019006974043E-003   6.2731918853284524E-002
   1.7011943241990870E-002  -5.1225444112912230E-003   6.2851116868724868E-002
   1.6098101049110150E-002  -4.9338184097157955E-003   6.3289066434738694E-002
   1.3116671295818755E-002  -3.7590071956875859E-003   6.4339354773211940E-002
   1.2516868048197821E-002  -3.6499269822099917E-003   6.3875620993312926E-002
   1.1917064800576853E-002  -3.5352676965104898E-003   6.3721213553360107E-002
   1.1317261552955909E-002  -3.4150293385891203E-003   6.3876132453353343E-002
   1.0717458305334958E-002  -3.2892119084458882E-003   6.4340377693292802E-002
   6.5321828899299605E-003  -1.8795030483729908E-003   6.5175786540683428E-002
   6.2369933769415228E-003  -1.8249630864855329E-003   6.4763834626644506E-002
   5.9418038639530973E-003  -1.7676334923235441E-003   6.4651783841924396E-002
   5.6466143509646639E-003  -1.7075142658870305E-003   6.4839634186523304E-002
   5.3514248379762253E-003  -1.6446054071760086E-003   6.5327385660440954E-002
   4.6029666189717489E-009   1.0989416598938817E-009   6.5959072776538508E-002
   3.6139834527770809E-009   8.0923889811401750E-010   6.5596113288412194E-002
   2.6250002796435190E-009   7.1186344319240646E-010   6.5523629718977600E-002
   1.6360171065099571E-009   8.0681505573720891E-010   6.5741622068234654E-002
   6.4703394031528916E-010   1.0940938155457047E-009   6.6250090336183287E-002
   2.1493353069301779E-002  -6.5784249109855919E-003   6.2173451884778796E-002
   2.0864264222090034E-002  -6.3203103201664168E-003   6.1915468795169071E-002
   2.0235175374878275E-002  -6.0603936458406144E-003   6.1820009292936545E-002
   1.9606086527666537E-002  -5.7986748880086043E-003   6.1887073378080845E-002
   1.8976997680454771E-002  -5.5351540466699323E-003   6.2116661050602262E-002
   1.6098101049110150E-002  -4.9338184097157955E-003   6.3289066434738694E-002
   1.5630222932745845E-002  -4.7402323902651089E-003   6.3045956568559741E-002
   1.5162344816381547E-002  -4.5452948472335108E-003   6.2962744576698690E-002
   1.4694466700017235E-002  -4.3490057806207585E-003   6.3039430459155443E-002
   1.4226588583652937E-002  -4.1513651904269699E-003   6.3276014215930210E-002
   1.0717458305334958E-002  -3.2892119084458882E-003   6.4340377693292802E-002
   1.0408165206758996E-002  -3.1601544603638149E-003   6.4111690490619044E-002
   1.0098872108183034E-002  -3.0301960486262339E-003   6.4040275449204015E-002
   9.7895790096070735E-003  -2.8993366732329665E-003   6.4126132569047894E-002
   9.4802859110311027E-003  -2.7675763341840076E-003   6.4369261850150419E-002
   5.3514248379762253E-003  -1.6446054071760086E-003   6.5327385660440954E-002
   5.1980910441294902E-003  -1.5800765304625139E-003   6.5112670561347064E-002
   5.0447572502827645E-003  -1.5150972500189881E-003   6.5052601910452840E-002
   4.8914234564360320E-003  -1.4496675658449811E-003   6.5147179707758213E-002
   4.7380896625893055E-003  -1.3837874779411286E-003   6.5396403953263391E-002
   6.4703394031528916E-010   1.0940938155457047E-009   6.6250090336183287E-002
   4.4485733846633124E-010   1.3994387593196933E-009   6.6048896780743771E-002
   2.4268072620903247E-010   1.5485881882382202E-009   6.5999723960444789E-002
   4.0504118288542390E-011   1.5415426816989264E-009   6.6102571875286384E-002
  -1.6167248789722422E-010   1.3783019725543966E-009   6.6357440525268541E-002
   1.8976997680454771E-002  -5.5351540466699323E-003   6.2116661050602262E-002
   1.8024898004087034E-002  -5.2650009476853388E-003   6.1848302589435855E-002
   1.7072798327719269E-002  -4.9833854169154396E-003   6.1813914911269030E-002
   1.6120698651351531E-002  -4.6903074543597455E-003   6.2013498016101773E-002
   1.5168598974983766E-002  -4.3857670600187526E-003   6.2447051903934236E-002
   1.4226588583652937E-002  -4.1513651904269699E-003   6.3276014215930210E-002
   1.3509473230329944E-002  -3.9487504285113106E-003   6.3022805344812971E-002
   1.2792357877006954E-002  -3.7375388467330711E-003   6.3005594336785709E-002
   1.2075242523683949E-002  -3.5177304450920606E-003   6.3224381191848450E-002
   1.1358127170360957E-002  -3.2893252235882686E-003   6.3679165910000890E-002
   9.4802859110311027E-003  -2.7675763341840076E-003   6.4369261850150419E-002
   9.0001819608431753E-003  -2.6324999093372825E-003   6.4128336957159818E-002
   8.5200780106552444E-003  -2.4916922765507651E-003   6.4125437007349351E-002
   8.0399740604673135E-003  -2.3451534358242664E-003   6.4360562000719046E-002
   7.5598701102793861E-003  -2.1928833871577569E-003   6.4833711937269098E-002
   4.7380896625893055E-003  -1.3837874779411286E-003   6.5396403953263391E-002
   4.4970241956267306E-003  -1.3162493901633099E-003   6.5164897426476423E-002
   4.2559587286641540E-003  -1.2458457063684279E-003   6.5173442922959915E-002
   4.0148932617015782E-003  -1.1725764265564714E-003   6.5422040442714005E-002
   3.7738277947390094E-003  -1.0964415507274256E-003   6.5910689985738416E-002
  -1.6167248789722422E-010   1.3783019725543966E-009   6.6357440525268541E-002
  -6.5319402664520965E-011   1.1290107737593758E-009   6.6132486752762454E-002
   3.1033682568182286E-011   8.6381389541312359E-010   6.6149612083617249E-002
   1.2738676780088554E-010   5.8271123690167848E-010   6.6408816517832717E-002
   2.2373985303358879E-010   2.8570323884480331E-010   6.6910100055409094E-002
   1.5168598974983766E-002  -4.3857670600187526E-003   6.2447051903934236E-002
   1.4332503540224154E-002  -4.0727171526900308E-003   6.2283822423424839E-002
   1.3496408105464541E-002  -3.7541106511709971E-003   6.2320113897005452E-002
   1.2660312670704922E-002  -3.4299475554617938E-003   6.2555926324676422E-002
   1.1824217235945317E-002  -3.1002278655625215E-003   6.2991259706437375E-002
   1.1358127170360957E-002  -3.2893252235882686E-003   6.3679165910000890E-002
   1.0723928413181226E-002  -3.0545378572464921E-003   6.3535388929524289E-002
   1.0089729656001474E-002  -2.8155830210911392E-003   6.3595884350117066E-002
   9.4555308988217256E-003  -2.5724607151222795E-003   6.3860652171779511E-002
   8.8213321416419910E-003  -2.3251709393400377E-003   6.4329692394511584E-002
   7.5598701102793861E-003  -2.1928833871577569E-003   6.4833711937269098E-002
   7.1323194776589174E-003  -2.0363585618030922E-003   6.4707998332448446E-002
   6.7047688450384557E-003  -1.8770553910113855E-003   6.4791308575676859E-002
   6.2772182124179888E-003  -1.7149738747829300E-003   6.5083642666954114E-002
   5.8496675797975253E-003  -1.5501140131176649E-003   6.5585000606280475E-002
   3.7738277947390094E-003  -1.0964415507274256E-003   6.5910689985738416E-002
   3.5576767336572418E-003  -1.0181792663595118E-003   6.5801650632197256E-002
   3.3415256725754638E-003  -9.3852776093169069E-004   6.5906386573684389E-002
   3.1253746114936905E-003  -8.5748703444355357E-004   6.6224897810200023E-002
   2.9092235504119181E-003  -7.7505708689529218E-004   6.6757184341743936E-002
   2.2373985303358879E-010   2.8570323884480331E-010   6.6910100055409094E-002
   1.8117617822666077E-010   2.9083790931139220E-011   6.6816345828770718E-002
   1.3861250341973275E-010  -1.3085174610516503E-010   6.6941118344140016E-002
   9.6048823408634298E-011  -1.9410405921460594E-010   6.7284417601517210E-002
   5.3485153805876706E-011  -1.6067291941368467E-010   6.7846243600901968E-002
   1.1824217235945317E-002  -3.1002278655625215E-003   6.2991259706437375E-002
   1.0837350409688473E-002  -2.7756611393707775E-003   6.2921749289621354E-002
   9.8504835834316296E-003  -2.4669569347847142E-003   6.3096839519193093E-002
   8.8636167571747998E-003  -2.1741152518042484E-003   6.3516530395151899E-002
   7.8767499309179423E-003  -1.8971360904297407E-003   6.4180821917498410E-002
   8.8213321416419910E-003  -2.3251709393400377E-003   6.4329692394511584E-002
   8.0795949749850882E-003  -2.0817458765436947E-003   6.4278051814671444E-002
   7.3378578083281923E-003  -1.8502177095328365E-003   6.4472069907643759E-002
   6.5961206416712964E-003  -1.6305864383073729E-003   6.4911746673428306E-002
   5.8543834750143936E-003  -1.4228520628672969E-003   6.5597082112025307E-002
   5.8496675797975253E-003  -1.5501140131176649E-003   6.5585000606280475E-002
   5.3541180991655071E-003  -1.3878306137166119E-003   6.5555195489236301E-002
   4.8585686185334889E-003  -1.2334784842808477E-003   6.5772107071429387E-002
   4.3630191379014638E-003  -1.0870576248102198E-003   6.6235735352859856E-002
   3.8674696572694525E-003  -9.4856803530501965E-004   6.6946080333527558E-002
   2.9092235504119181E-003  -7.7505708689529218E-004   6.6757184341743936E-002
   2.6609197822297145E-003  -6.9391535088952905E-004   6.6753180313315785E-002
   2.4126160140475039E-003  -6.1673925902891447E-004   6.6996951010550074E-002
   2.1643122458652941E-003  -5.4352881131326108E-004   6.7488496433446704E-002
   1.9160084776830896E-003  -4.7428400774265911E-004   6.8227816582005371E-002
   5.3485153805876706E-011  -1.6067291941368467E-010   6.7846243600901968E-002
   2.4177701507532845E-011  -8.8062612757511260E-011   6.7872006286910369E-002
  -5.1297577297049202E-012  -3.3777064478712759E-011   6.8146601725005806E-002
  -3.4437213497495733E-011   2.1840099173608962E-012   6.8670029915188474E-002
  -6.3744669265286547E-011   1.9819701435608295E-011   6.9442290857458455E-002
   7.8767499309179423E-003  -1.8971360904297407E-003   6.4180821917498410E-002
   6.9485387403232235E-003  -1.6837643134218760E-003   6.4096454961505955E-002
   6.0203275497284908E-003  -1.5817447835428378E-003   6.4258553243846439E-002
   5.0921163591337512E-003  -1.5910775007916683E-003   6.4667116764519750E-002
   4.1639051685390394E-003  -1.7117624651692420E-003   6.5322145523526109E-002
   5.8543834750143936E-003  -1.4228520628672969E-003   6.5597082112025307E-002
   5.1690344134942418E-003  -1.2628232285810115E-003   6.5447131468108322E-002
   4.4836853519740760E-003  -1.1863085808164198E-003   6.5536439844007255E-002
   3.7983362904539138E-003  -1.1933081195735634E-003   6.5865007239722606E-002
   3.1129872289337446E-003  -1.2838218448526506E-003   6.6432833655254264E-002
   3.8674696572694525E-003  -9.4856803530501965E-004   6.6946080333527558E-002
   3.4177765063072608E-003  -8.4188214373998038E-004   6.6758384062292286E-002
   2.9680833553450726E-003  -7.9087237809002953E-004   6.6802740592356663E-002
   2.5183902043828827E-003  -7.9553873835546546E-004   6.7079149923720577E-002
   2.0686970534206928E-003  -8.5588122453583715E-004   6.7587612056384333E-002
   1.9160084776830896E-003  -4.7428400774265911E-004   6.8227816582005371E-002
   1.6947650187622825E-003  -4.2094105889886602E-004   6.8030212744058502E-002
   1.4735215598414694E-003  -3.9543617536401399E-004   6.8057455488894691E-002
   1.2522781009206619E-003  -3.9776935713725300E-004   6.8309544816513912E-002
   1.0310346419998492E-003  -4.2794060421913471E-004   6.8786480726916344E-002
  -6.3744669265286547E-011   1.9819701435608295E-011   6.9442290857458455E-002
  -4.9140691515958679E-011   2.5942026304903720E-011   6.9262617513406566E-002
  -3.4536713766630811E-011   2.7362723198365302E-011   6.9300584533621201E-002
  -1.9932737752026419E-011   2.4080945570936763E-011   6.9556191918102389E-002
  -5.3287582679750756E-012   1.6097567723249995E-011   7.0029439666850046E-002
   4.1639051685390394E-003  -1.7117624651692420E-003   6.5322145523526109E-002
   3.6322265770450807E-003  -2.0043445826825601E-003   6.4405922023531792E-002
   3.1005479855511497E-003  -2.5293687593385961E-003   6.3609134319103255E-002
   2.5688693940572188E-003  -3.2868349951374817E-003   6.2931782410240139E-002
   2.0371908025632879E-003  -4.2767432900797653E-003   6.2373866296942526E-002
   3.1129872289337446E-003  -1.2838218448526506E-003   6.6432833655254264E-002
   2.7041153961505637E-003  -1.5032584352540068E-003   6.5323222081064392E-002
   2.2952435633673968E-003  -1.8970265693779298E-003   6.4339788228730904E-002
   1.8863717305842298E-003  -2.4651262472247457E-003   6.3482532098252983E-002
   1.4774998978010490E-003  -3.2075574687945307E-003   6.2751453689631087E-002
   2.0686970534206928E-003  -8.5588122453583715E-004   6.7587612056384333E-002
   1.7893739056386547E-003  -1.0021722878253148E-003   6.6342722923419223E-002
   1.5100507578566132E-003  -1.2646843794172774E-003   6.5230753438600589E-002
   1.2307276100745890E-003  -1.6434174993120131E-003   6.4251703601928278E-002
   9.5140446229254744E-004  -2.1383716475092407E-003   6.3405573413402111E-002
   1.0310346419998492E-003  -4.2794060421913471E-004   6.8786480726916344E-002
   8.8800210550933883E-004  -5.0108614039658106E-004   6.7464424550595953E-002
   7.4496956901881541E-004  -6.3234218945684012E-004   6.6282029948712351E-002
   6.0193703252829547E-004  -8.2170875139872361E-004   6.5239296921265719E-002
   4.5890449603778159E-004  -1.0691858262242004E-003   6.4336225468255598E-002
  -5.3287582679750756E-012   1.6097567723249995E-011   7.0029439666850046E-002
  -4.2373812791929311E-012   7.0318750822195852E-012   6.8688326962594748E-002
  -3.1460077598577385E-012   5.0387471972612730E-013   6.7493617759066482E-002
  -2.0546325057990700E-012  -3.4862529529888775E-012   6.6445312056265249E-002
  -9.6325725174040144E-013  -4.9387161027425464E-012   6.5543409854191159E-002
   2.0371908025632879E-003  -4.2767432900797653E-003   6.2373866296942526E-002
   2.2870339633056097E-003  -5.5792571117422307E-003   5.8342253203648942E-002
   2.5368771240479454E-003  -7.2745399277022449E-003   5.4305218487207096E-002
   2.7867202847903089E-003  -9.3625917379607029E-003   5.0262762147617074E-002
   3.0365634455326584E-003  -1.1843412542516418E-002   4.6214884184879512E-002
   1.4774998978010490E-003  -3.2075574687945307E-003   6.2751453689631087E-002
   1.7076616437056991E-003  -4.1844428351660024E-003   5.8395503403812776E-002
   1.9378233896103630E-003  -5.4559049474177113E-003   5.4005611911466744E-002
   2.1679851355150374E-003  -7.0219438055500599E-003   4.9581779212593713E-002
   2.3981468814196771E-003  -8.8825594095625071E-003   4.5124005307193960E-002
   9.5140446229254744E-004  -2.1383716475092407E-003   6.3405573413402111E-002
   1.1333652099804019E-003  -2.7896285585898295E-003   5.8823478183475997E-002
   1.3153259576682667E-003  -3.6372699671329417E-003   5.4178922163643409E-002
   1.4972867053561177E-003  -4.6812958731392469E-003   4.9471905353904617E-002
   1.6792474530439999E-003  -5.9217062766085959E-003   4.4702427754259366E-002
   4.5890449603778159E-004  -1.0691858262242004E-003   6.4336225468255598E-002
   5.6414466212970169E-004  -1.3948142820132958E-003   5.9626177542639144E-002
   6.6938482822162960E-004  -1.8186349868479570E-003   5.4825149243737728E-002
   7.7462499431356097E-004  -2.3406479407286299E-003   4.9933140571550259E-002
   8.7986516040547760E-004  -2.9608531436546848E-003   4.4950151526077536E-002
  -9.6325725174040144E-013  -4.9387161027425464E-012   6.5543409854191159E-002
   1.5362017213860213E-013  -5.4373172631017042E-012   6.0803601481302261E-002
   1.2704802487828459E-012  -6.5636385215839255E-012   5.5944293151748536E-002
   2.3873420601505657E-012  -8.3179019227941353E-012   5.0965484865529986E-002
   3.5042246881999972E-012  -1.0700773600547109E-011   4.5867176622647055E-002
   4.6029666189717489E-009   1.0989416598938817E-009   6.5959072776538508E-002
   3.6139834527770809E-009   8.0923889811401750E-010   6.5596113288412194E-002
   2.6250002796435190E-009   7.1186344319240646E-010   6.5523629718977600E-002
   1.6360171065099571E-009   8.0681505573720891E-010   6.5741622068234654E-002
   6.4703394031528916E-010   1.0940938155457047E-009   6.6250090336183287E-002
  -6.5321740738118195E-003   1.8795036925005060E-003   6.5175788532880169E-002
  -6.2369864615971979E-003   1.8249637881350145E-003   6.4763836194479757E-002
  -5.9417988493825728E-003   1.7676344229930890E-003   6.4651785139783355E-002
  -5.6466112371679538E-003   1.7075155970748233E-003   6.4839635368790838E-002
  -5.3514236249533262E-003   1.6446073103800751E-003   6.5327386881502331E-002
  -1.3116663649145920E-002   3.7590062860594353E-003   6.4339359501110735E-002
  -1.2516862070721184E-002   3.6499267670310614E-003   6.3875624659332539E-002
  -1.1917060492296471E-002   3.5352681341227973E-003   6.3721216466270852E-002
  -1.1317258913871737E-002   3.4150303873345372E-003   6.3876134921925315E-002
  -1.0717457335447024E-002   3.2892135266662792E-003   6.4340380026296010E-002
  -1.9753464123035636E-002   5.6385088796182953E-003   6.3449785681230275E-002
  -1.8839623213388498E-002   5.4748897459271015E-003   6.2931478682970762E-002
  -1.7925782303741391E-002   5.3029018452524189E-003   6.2731923698440217E-002
  -1.7011941394094267E-002   5.1225451775942779E-003   6.2851120727638016E-002
  -1.6098100484447132E-002   4.9338197429524555E-003   6.3289069770564407E-002
  -2.6442575495480999E-002   7.5180114731772107E-003   6.2507067073238609E-002
  -2.5205269889599188E-002   7.2998527248232803E-003   6.1931398265394622E-002
  -2.3967964283717336E-002   7.0705355563821792E-003   6.1683906836291380E-002
  -2.2730658677835507E-002   6.8300599678539978E-003   6.1764592785928996E-002
  -2.1493353071953675E-002   6.5784259592386873E-003   6.2173456114307524E-002
   6.4703394031528916E-010   1.0940938155457047E-009   6.6250090336183287E-002
   4.4485733846633124E-010   1.3994387593196933E-009   6.6048896780743771E-002
   2.4268072620903247E-010   1.5485881882382202E-009   6.5999723960444789E-002
   4.0504118288542390E-011   1.5415426816989264E-009   6.6102571875286384E-002
  -1.6167248789722422E-010   1.3783019725543966E-009   6.6357440525268541E-002
  -5.3514236249533262E-003   1.6446073103800751E-003   6.5327386881502331E-002
  -5.1980902152523193E-003   1.5800789570297041E-003   6.5112671349928417E-002
  -5.0447568055513071E-003   1.5150999311445423E-003   6.5052602306969118E-002
  -4.8914233958502933E-003   1.4496702327244995E-003   6.5147179752624490E-002
  -4.7380899861492881E-003   1.3837898617697353E-003   6.5396403686894589E-002
  -1.0717457335447024E-002   3.2892135266662792E-003   6.4340380026296010E-002
  -1.0408164560394298E-002   3.1601565146208016E-003   6.4111692002248005E-002
  -1.0098871785341560E-002   3.0301983137008479E-003   6.4040276220288822E-002
  -9.7895790102888319E-003   2.8993389239064856E-003   6.4126132680418391E-002
  -9.4802862352360972E-003   2.7675783452375813E-003   6.4369261382636697E-002
  -1.6098100484447132E-002   4.9338197429524555E-003   6.3289069770564407E-002
  -1.5630222590568579E-002   4.7402340722119893E-003   6.3045958737702773E-002
  -1.5162344696690045E-002   4.5452966962572332E-003   6.2962745700403958E-002
  -1.4694466802811499E-002   4.3490076150883321E-003   6.3039430658668016E-002
  -1.4226588908932952E-002   4.1513668287053579E-003   6.3276013612494977E-002
  -2.1493353071953675E-002   6.5784259592386873E-003   6.2173456114307524E-002
  -2.0864264305775211E-002   6.3203116298028994E-003   6.1915471556292484E-002
  -2.0235175539596757E-002   6.0603950788134797E-003   6.1820010747314524E-002
  -1.9606086773418289E-002   5.7986763062701716E-003   6.1887073687373423E-002
  -1.8976998007239829E-002   5.5351553121732455E-003   6.2116660376469346E-002
  -1.6167248789722422E-010   1.3783019725543966E-009   6.6357440525268541E-002
  -6.5319402664520965E-011   1.1290107737593758E-009   6.6132486752762454E-002
   3.1033682568182286E-011   8.6381389541312359E-010   6.6149612083617249E-002
   1.2738676780088554E-010   5.8271123690167848E-010   6.6408816517832717E-002
   2.2373985303358879E-010   2.8570323884480331E-010   6.6910100055409094E-002
  -4.7380899861492881E-003   1.3837898617697353E-003   6.5396403686894589E-002
  -4.4970243340186969E-003   1.3162513461325298E-003   6.5164897125827376E-002
  -4.2559586818881247E-003   1.2458472136654547E-003   6.5173442572954432E-002
  -4.0148930297575431E-003   1.1725774643684302E-003   6.5422040028275660E-002
  -3.7738273776269544E-003   1.0964420982417789E-003   6.5910689491791075E-002
  -9.4802862352360972E-003   2.7675783452375813E-003   6.4369261382636697E-002
  -9.0001821224946574E-003   2.6325015632543414E-003   6.4128336432084224E-002
  -8.5200780097532108E-003   2.4916935635170764E-003   6.4125436394559282E-002
  -8.0399738970117606E-003   2.3451543460256807E-003   6.4360561270061900E-002
  -7.5598697842703243E-003   2.1928839107803189E-003   6.4833711058592092E-002
  -1.4226588908932952E-002   4.1513668287053579E-003   6.3276013612494977E-002
  -1.3509473430747255E-002   3.9487517803760697E-003   6.3022804671532970E-002
  -1.2792357952561570E-002   3.7375399133687780E-003   6.3005593548431854E-002
  -1.2075242474375889E-002   3.5177312276830136E-003   6.3224380243191783E-002
  -1.1358126996190196E-002   3.2893257233188034E-003   6.3679164755812478E-002
  -1.8976998007239829E-002   5.5351553121732455E-003   6.2116660376469346E-002
  -1.8024898258776519E-002   5.2650019974979645E-003   6.1848301844173614E-002
  -1.7072798510313219E-002   4.9833862632202713E-003   6.1813914034572204E-002
  -1.6120698761849926E-002   4.6903081093400446E-003   6.2013496947665073E-002
  -1.5168599013386616E-002   4.3857675358575099E-003   6.2447050583452235E-002
   2.2373985303358879E-010   2.8570323884480331E-010   6.6910100055409094E-002
   1.8117617822666077E-010   2.9083790931139220E-011   6.6816345828770718E-002
   1.3861250341973275E-010  -1.3085174610516503E-010   6.6941118344140016E-002
   9.6048823408634298E-011  -1.9410405921460594E-010   6.7284417601517210E-002
   5.3485153805876706E-011  -1.6067291941368467E-010   6.7846243600901968E-002
  -3.7738273776269544E-003   1.0964420982417789E-003   6.5910689491791075E-002
  -3.5576763948325808E-003   1.0181793900018443E-003   6.5801650257869854E-002
  -3.3415254120381880E-003   9.3852761436588605E-004   6.5906386332657163E-002
  -3.1253744292438100E-003   8.5748677133377221E-004   6.6224897716152711E-002
  -2.9092234464494285E-003   7.7505686090573178E-004   6.6757184408356596E-002
  -7.5598697842703243E-003   2.1928839107803189E-003   6.4833711058592092E-002
  -7.1323192094173583E-003   2.0363587509199810E-003   6.4707997653308813E-002
  -6.7047686345644078E-003   1.8770553595838374E-003   6.4791308123434393E-002
  -6.2772180597114469E-003   1.7149737367718777E-003   6.5083642468968694E-002
  -5.8496674848584913E-003   1.5501138824842164E-003   6.5585000689911910E-002
  -1.1358126996190196E-002   3.2893257233188034E-003   6.3679164755812478E-002
  -1.0723928262578158E-002   3.0545381118379650E-003   6.3535388015087402E-002
  -1.0089729528966128E-002   2.8155831048016847E-003   6.3595883716471499E-002
  -9.4555307953540918E-003   2.5724607022099017E-003   6.3860651859964937E-002
  -8.8213320617420606E-003   2.3251709040629509E-003   6.4329692445567799E-002
  -1.5168599013386616E-002   4.3857675358575099E-003   6.2447050583452235E-002
  -1.4332503554314986E-002   4.0727174727561710E-003   6.2283821343205592E-002
  -1.3496408095243360E-002   3.7541108500194209E-003   6.2320113111768660E-002
  -1.2660312636171739E-002   3.4299476676478147E-003   6.2555925889141717E-002
  -1.1824217177100110E-002   3.1002279256413523E-003   6.2991259675324596E-002
   5.3485153805876706E-011  -1.6067291941368467E-010   6.7846243600901968E-002
   2.4177701507532845E-011  -8.8062612757511260E-011   6.7872006286910369E-002
  -5.1297577297049202E-012  -3.3777064478712759E-011   6.8146601725005806E-002
  -3.4437213497495733E-011   2.1840099173608962E-012   6.8670029915188474E-002
  -6.3744669265286547E-011   1.9819701435608295E-011   6.9442290857458455E-002
  -2.9092234464494285E-003   7.7505686090573178E-004   6.6757184408356596E-002
  -2.6609197338333876E-003   6.9391522619721702E-004   6.6753180345981988E-002
  -2.4126160212173450E-003   6.1673921032495693E-004   6.6996951015367207E-002
  -2.1643123086013093E-003   5.4352881328779967E-004   6.7488496416512347E-002
  -1.9160085959852753E-003   4.7428403508686934E-004   6.8227816549417175E-002
  -5.8496674848584913E-003   1.5501138824842164E-003   6.5585000689911910E-002
  -5.3541180506464156E-003   1.3878305404570190E-003   6.5555195516315390E-002
  -4.8585686164343339E-003   1.2334784544261873E-003   6.5772107054151166E-002
  -4.3630191822222478E-003   1.0870576243920856E-003   6.6235735303419085E-002
  -3.8674697480101626E-003   9.4856805035425928E-004   6.6946080264119440E-002
  -8.8213320617420606E-003   2.3251709040629509E-003   6.4329692445567799E-002
  -8.0795949262613877E-003   2.0817458547165574E-003   6.4278051797910005E-002
  -7.3378577907807080E-003   1.8502176985276467E-003   6.4472069841356894E-002
  -6.5961206553000282E-003   1.6305864354961234E-003   6.4911746575908785E-002
  -5.8543835198193546E-003   1.4228520656217047E-003   6.5597082001565374E-002
  -1.1824217177100110E-002   3.1002279256413523E-003   6.2991259675324596E-002
  -1.0837350360678275E-002   2.7756611689765398E-003   6.2921749190766096E-002
  -9.8504835442564699E-003   2.4669569426293558E-003   6.3096839376984959E-002
  -8.8636167278346601E-003   2.1741152466004179E-003   6.3516530233981294E-002
  -7.8767499114128295E-003   1.8971360808889282E-003   6.4180821761755102E-002
  -6.3744669265286547E-011   1.9819701435608295E-011   6.9442290857458455E-002
  -4.9140691515958679E-011   2.5942026304903720E-011   6.9262617513406566E-002
  -3.4536713766630811E-011   2.7362723198365302E-011   6.9300584533621201E-002
  -1.9932737752026419E-011   2.4080945570936763E-011   6.9556191918102389E-002
  -5.3287582679750756E-012   1.6097567723249995E-011   7.0029439666850046E-002
  -1.9160085959852753E-003   4.7428403508686934E-004   6.8227816549417175E-002
  -1.6947651098735278E-003   4.2094109545476321E-004   6.8030212719622507E-002
  -1.4735216237617890E-003   3.9543621412568841E-004   6.8057455468576944E-002
  -1.2522781376500501E-003   3.9776939109802123E-004   6.8309544796280514E-002
  -1.0310346515383026E-003   4.2794062637341312E-004   6.8786480702732800E-002
  -3.8674697480101626E-003   9.4856805035425928E-004   6.6946080264119440E-002
  -3.4177765759081050E-003   8.4188216496811075E-004   6.6758384011586291E-002
  -2.9680834038060405E-003   7.9087240088868138E-004   6.6802740552284717E-002
  -2.5183902317039730E-003   7.9553875811543689E-004   6.7079149886214745E-002
  -2.0686970596019046E-003   8.5588123664925853E-004   6.7587612013376319E-002
  -5.8543835198193546E-003   1.4228520656217047E-003   6.5597082001565374E-002
  -5.1690344472444145E-003   1.2628232344811530E-003   6.5447131389297988E-002
  -4.4836853746694754E-003   1.1863085876517160E-003   6.5536439784744827E-002
  -3.7983363020945293E-003   1.1933081251331266E-003   6.5865007187905833E-002
  -3.1129872295195963E-003   1.2838218469251594E-003   6.6432833598780675E-002
  -7.8767499114128295E-003   1.8971360808889282E-003   6.4180821761755102E-002
  -6.9485387238824511E-003   1.6837643039942507E-003   6.4096454852757612E-002
  -6.0203275363520867E-003   1.5817447744147228E-003   6.4258553165956800E-002
  -5.0921163488217066E-003   1.5910774921500601E-003   6.4667116701352667E-002
  -4.1639051612913439E-003   1.7117624572009493E-003   6.5322145458945435E-002
  -5.3287582679750756E-012   1.6097567723249995E-011   7.0029439666850046E-002
  -4.2373812791929311E-012   7.0318750822195852E-012   6.8688326962594748E-002
  -3.1460077598577385E-012   5.0387471972612730E-013   6.7493617759066482E-002
  -2.0546325057990700E-012  -3.4862529529888775E-012   6.6445312056265249E-002
  -9.6325725174040144E-013  -4.9387161027425464E-012   6.5543409854191159E-002
  -1.0310346515383026E-003   4.2794062637341312E-004   6.8786480702732800E-002
  -8.8800211302456425E-004   5.0108614901622772E-004   6.7464424532804268E-002
  -7.4496957451082244E-004   6.3234218809249398E-004   6.6282029936993198E-002
  -6.0193703599707975E-004   8.2170874360160129E-004   6.5239296915299713E-002
  -4.5890449748334228E-004   1.0691858155439382E-003   6.4336225467723773E-002
  -2.0686970596019046E-003   8.5588123664925853E-004   6.7587612013376319E-002
  -1.7893739102752410E-003   1.0021722910006081E-003   6.6342722891669786E-002
  -1.5100507609485626E-003   1.2646843756806414E-003   6.5230753417471476E-002
  -1.2307276116218925E-003   1.6434174906895596E-003   6.4251703590781389E-002
  -9.5140446229520677E-004   2.1383716360270366E-003   6.3405573411599470E-002
  -3.1129872295195963E-003   1.2838218469251594E-003   6.6432833598780675E-002
  -2.7041153959894461E-003   1.5032584329850301E-003   6.5323222039191664E-002
  -2.2952435624592612E-003   1.8970265632689137E-003   6.4339788200501791E-002
  -1.8863717289290798E-003   2.4651262377774659E-003   6.3482532082710444E-002
  -1.4774998953989258E-003   3.2075574565100240E-003   6.2751453685818137E-002
  -4.1639051612913439E-003   1.7117624572009493E-003   6.5322145458945435E-002
  -3.6322265701671033E-003   2.0043445749692301E-003   6.4405921975369762E-002
  -3.1005479790428836E-003   2.5293687508573526E-003   6.3609134286083668E-002
  -2.5688693879186500E-003   3.2868349848653583E-003   6.2931782391086932E-002
  -2.0371907967944233E-003   4.2767432769930114E-003   6.2373866290379443E-002
  -9.6325725174040144E-013  -4.9387161027425464E-012   6.5543409854191159E-002
   1.5362017213860213E-013  -5.4373172631017042E-012   6.0803601481302261E-002
   1.2704802487828459E-012  -6.5636385215839255E-012   5.5944293151748536E-002
   2.3873420601505657E-012  -8.3179019227941353E-012   5.0965484865529986E-002
   3.5042246881999972E-012  -1.0700773600547109E-011   4.5867176622647055E-002
  -4.5890449748334228E-004   1.0691858155439382E-003   6.4336225467723773E-002
  -5.6414466145384562E-004   1.3948142697479682E-003   5.9626177541850900E-002
  -6.6938482542436631E-004   1.8186349720415995E-003   5.4825149242468230E-002
  -7.7462498939489307E-004   2.3406479224253041E-003   4.9933140569574958E-002
  -8.7986515336540422E-004   2.9608531208988875E-003   4.4950151523171611E-002
  -9.5140446229520677E-004   2.1383716360270366E-003   6.3405573411599470E-002
  -1.1333652081986761E-003   2.7896285449329761E-003   5.8823478181460997E-002
  -1.3153259541021480E-003   3.6372699506466155E-003   5.4178922160966703E-002
  -1.4972867000055986E-003   4.6812958531687321E-003   4.9471905350116682E-002
  -1.6792474459090614E-003   5.9217062524985487E-003   4.4702427748911422E-002
  -1.4774998953989258E-003   3.2075574565100240E-003   6.2751453685818137E-002
  -1.7076616400808588E-003   4.1844428201180117E-003   5.8395503400131943E-002
  -1.9378233847627921E-003   5.4559049292517425E-003   5.4005611907244580E-002
  -2.1679851294447222E-003   7.0219437839122711E-003   4.9581779207156312E-002
  -2.3981468741266585E-003   8.8825593840982098E-003   4.5124005299866210E-002
  -2.0371907967944233E-003   4.2767432769930114E-003   6.2373866290379443E-002
  -2.2870339571003928E-003   5.5792570953031584E-003   5.8342253197864014E-002
  -2.5368771174063519E-003   7.2745399078567030E-003   5.4305218481301543E-002
  -2.7867202777123266E-003   9.3625917146554355E-003   5.0262762140692585E-002
  -3.0365634380182804E-003   1.1843412515697871E-002   4.6214884176036808E-002
  -2.6442575495480999E-002   7.5180114731772107E-003   6.2507067073238609E-002
  -2.5205269889599188E-002   7.2998527248232803E-003   6.1931398265394622E-002
  -2.3967964283717336E-002   7.0705355563821792E-003   6.1683906836291380E-002
  -2.2730658677835507E-002   6.8300599678539978E-003   6.1764592785928996E-002
  -2.1493353071953675E-002   6.5784259592386873E-003   6.2173456114307524E-002
  -3.3038527536836060E-002   9.1121578444305351E-003   5.8820517489702268E-002
  -3.1497021224490114E-002   8.9432858805930104E-003   5.8433934284039812E-002
  -2.9955514912144120E-002   8.7344377642864512E-003   5.8327575112564548E-002
  -2.8414008599798143E-002   8.4856134955107049E-003   5.8501439975276827E-002
  -2.6872502287452200E-002   8.1968130742659240E-003   5.8955528872176449E-002
  -3.9395850017454839E-002   1.0706304215683859E-002   5.5197663556873666E-002
  -3.7598096343198134E-002   1.0586719036362838E-002   5.4971348221010491E-002
  -3.5800342668941519E-002   1.0398339972190709E-002   5.4977303574781353E-002
  -3.4002588994684876E-002   1.0141167023167464E-002   5.5215529618186147E-002
  -3.2204835320428254E-002   9.8152001892931329E-003   5.5686026351224840E-002
  -4.5514542937337234E-002   1.2300450586937156E-002   5.1638505274752312E-002
  -4.3508495245723366E-002   1.2230152192132561E-002   5.1543640076306699E-002
  -4.1502447554109562E-002   1.2062242180094974E-002   5.1633092222941532E-002
  -3.9496399862495674E-002   1.1796720550824280E-002   5.1906861714656923E-002
  -3.7490352170881862E-002   1.1433587304320356E-002   5.2364948551452732E-002
  -5.1394606296483347E-002   1.3894596958190508E-002   4.8143042643338518E-002
  -4.9228217932065749E-002   1.3873585347902395E-002   4.8150809849928422E-002
  -4.7061829567648150E-002   1.3726144387999267E-002   4.8294941057045238E-002
  -4.4895441203230552E-002   1.3452274078480965E-002   4.8575436264689131E-002
  -4.2729052838812953E-002   1.3051974419347578E-002   4.8992295472860048E-002
  -2.1493353071953675E-002   6.5784259592386873E-003   6.2173456114307524E-002
  -2.0864264305775211E-002   6.3203116298028994E-003   6.1915471556292484E-002
  -2.0235175539596757E-002   6.0603950788134797E-003   6.1820010747314524E-002
  -1.9606086773418289E-002   5.7986763062701716E-003   6.1887073687373423E-002
  -1.8976998007239829E-002   5.5351553121732455E-003   6.2116660376469346E-002
  -2.6872502287452200E-002   8.1968130742659240E-003   5.8955528872176449E-002
  -2.6086379430536079E-002   7.8857920495328387E-003   5.8735737200354007E-002
  -2.5300256573619947E-002   7.5703059702926026E-003   5.8667489960970015E-002
  -2.4514133716703829E-002   7.2503548365447871E-003   5.8750787154024306E-002
  -2.3728010859787697E-002   6.9259386482897756E-003   5.8985628779517019E-002
  -3.2204835320428254E-002   9.8152001892931329E-003   5.5686026351224840E-002
  -3.1272657689373075E-002   9.4512724692627781E-003   5.5501764732641450E-002
  -3.0340480058317895E-002   9.0802168617716145E-003   5.5458068229897864E-002
  -2.9408302427262716E-002   8.7020333668194026E-003   5.5554936842993959E-002
  -2.8476124796207536E-002   8.3167219844063889E-003   5.5792370571929886E-002
  -3.7490352170881862E-002   1.1433587304320356E-002   5.2364948551452732E-002
  -3.6423099082286241E-002   1.1016752888992690E-002   5.2213554153154866E-002
  -3.5355845993690592E-002   1.0590127753250682E-002   5.2191745554098098E-002
  -3.4288592905094964E-002   1.0153711897094046E-002   5.2299522754282464E-002
  -3.3221339816499357E-002   9.7075053205229050E-003   5.2536885753707935E-002
  -4.2729052838812953E-002   1.3051974419347578E-002   4.8992295472860048E-002
  -4.1537703609275486E-002   1.2582233308722657E-002   4.8871105461894104E-002
  -4.0346354379738048E-002   1.2100038644729694E-002   4.8868521933570608E-002
  -3.9155005150200609E-002   1.1605390427368648E-002   4.8984544887889739E-002
  -3.7963655920663142E-002   1.1098288656639588E-002   4.9219174324851345E-002
  -1.8976998007239829E-002   5.5351553121732455E-003   6.2116660376469346E-002
  -1.8024898258776519E-002   5.2650019974979645E-003   6.1848301844173614E-002
  -1.7072798510313219E-002   4.9833862632202713E-003   6.1813914034572204E-002
  -1.6120698761849926E-002   4.6903081093400446E-003   6.2013496947665073E-002
  -1.5168599013386616E-002   4.3857675358575099E-003   6.2447050583452235E-002
  -2.3728010859787697E-002   6.9259386482897756E-003   5.8985628779517019E-002
  -2.2545401412745435E-002   6.5936819273259006E-003   5.8705368923977541E-002
  -2.1362791965703141E-002   6.2502091954518141E-003   5.8652157742901778E-002
  -2.0180182518660866E-002   5.8955204526671932E-003   5.8825995236289716E-002
  -1.8997573071618552E-002   5.5296156989725898E-003   5.9226881404141285E-002
  -2.8476124796207536E-002   8.3167219844063889E-003   5.5792370571929886E-002
  -2.7069927698816935E-002   7.9223618571538645E-003   5.5500455801838933E-002
  -2.5663730601426342E-002   7.5170321276832389E-003   5.5428667657981122E-002
  -2.4257533504035721E-002   7.1007327959945066E-003   5.5577006140356211E-002
  -2.2851336406645148E-002   6.6734638620877251E-003   5.5945471248964374E-002
  -3.3221339816499357E-002   9.7075053205229050E-003   5.2536885753707935E-002
  -3.1598477116991097E-002   9.2510417869817313E-003   5.2233562477757775E-002
  -2.9975614417482789E-002   8.7838550599146671E-003   5.2143443779809964E-002
  -2.8352751717974488E-002   8.3059451393216258E-003   5.2266529659864565E-002
  -2.6729889018466190E-002   7.8173120252027772E-003   5.2602820117921334E-002
  -3.7963655920663142E-002   1.1098288656639588E-002   4.9219174324851345E-002
  -3.6131049667267823E-002   1.0579721716809765E-002   4.8904688951734054E-002
  -3.4298443413872517E-002   1.0050677992146262E-002   4.8796486108388576E-002
  -3.2465837160477212E-002   9.5111574826488715E-003   4.8894565794814743E-002
  -3.0633230907081893E-002   8.9611601883179959E-003   4.9198928011012610E-002
  -1.5168599013386616E-002   4.3857675358575099E-003   6.2447050583452235E-002
  -1.4332503554314986E-002   4.0727174727561710E-003   6.2283821343205592E-002
  -1.3496408095243360E-002   3.7541108500194209E-003   6.2320113111768660E-002
  -1.2660312636171739E-002   3.4299476676478147E-003   6.2555925889141717E-002
  -1.1824217177100110E-002   3.1002279256413523E-003   6.2991259675324596E-002
  -1.8997573071618552E-002   5.5296156989725898E-003   5.9226881404141285E-002
  -1.7964794494235211E-002   5.1550032002767032E-003   5.9030146977238435E-002
  -1.6932015916851853E-002   4.7741912224886773E-003   5.9027257778149128E-002
  -1.5899237339468502E-002   4.3871797656087341E-003   5.9218213806873449E-002
  -1.4866458762085130E-002   3.9939688296366516E-003   5.9603015063411591E-002
  -2.2851336406645148E-002   6.6734638620877251E-003   5.5945471248964374E-002
  -2.1627550491946250E-002   6.2372889277975130E-003   5.5714588715948199E-002
  -2.0403764577247345E-002   5.7942715949578227E-003   5.5671875629749443E-002
  -1.9179978662548461E-002   5.3444118635693760E-003   5.5817331990368077E-002
  -1.7956192747849570E-002   4.8877097336318398E-003   5.6150957797804213E-002
  -2.6729889018466190E-002   7.8173120252027772E-003   5.2602820117921334E-002
  -2.5320771547448037E-002   7.3195746553180174E-003   5.2337146559335010E-002
  -2.3911654076429853E-002   6.8143519674271347E-003   5.2253966666569909E-002
  -2.2502536605411669E-002   6.3016439615301567E-003   5.2353280439625810E-002
  -2.1093419134393485E-002   5.7814506376269170E-003   5.2635087878503010E-002
  -3.0633230907081893E-002   8.9611601883179959E-003   4.9198928011012610E-002
  -2.9044457660740611E-002   8.4018603828389660E-003   4.8897820507398992E-002
  -2.7455684414399356E-002   7.8344323398961274E-003   4.8773530888610167E-002
  -2.5866911168058074E-002   7.2588760594907743E-003   4.8826059154646398E-002
  -2.4278137921716819E-002   6.6751915416222163E-003   4.9055405305507671E-002
  -1.1824217177100110E-002   3.1002279256413523E-003   6.2991259675324596E-002
  -1.0837350360678275E-002   2.7756611689765398E-003   6.2921749190766096E-002
  -9.8504835442564699E-003   2.4669569426293558E-003   6.3096839376984959E-002
  -8.8636167278346601E-003   2.1741152466004179E-003   6.3516530233981294E-002
  -7.8767499114128295E-003   1.8971360808889282E-003   6.4180821761755102E-002
  -1.4866458762085130E-002   3.9939688296366516E-003   5.9603015063411591E-002
  -1.3644801641472210E-002   3.6026888380527589E-003   5.9489163760580166E-002
  -1.2423144520859325E-002   3.2214702143371632E-003   5.9600292395353804E-002
  -1.1201487400246417E-002   2.8503129584897813E-003   5.9936400967732228E-002
  -9.9798302796335198E-003   2.4892170705106409E-003   6.0497489477715216E-002
  -1.7956192747849570E-002   4.8877097336318398E-003   5.6150957797804213E-002
  -1.6519366056218253E-002   4.4297165071290334E-003   5.5986964514250698E-002
  -1.5082539364586943E-002   3.9759834860448456E-003   5.6028330435129434E-002
  -1.3645712672955647E-002   3.5265106703792522E-003   5.6275055560440247E-002
  -1.2208885981324318E-002   3.0812980601325202E-003   5.6727139890183020E-002
  -2.1093419134393485E-002   5.7814506376269170E-003   5.2635087878503010E-002
  -1.9461043604916406E-002   5.2567441762053913E-003   5.2415151451777595E-002
  -1.7828668075439352E-002   4.7304967577525350E-003   5.2380953496311652E-002
  -1.6196292545962280E-002   4.2027083822688913E-003   5.2532494012105246E-002
  -1.4563917016485222E-002   3.6733790497543717E-003   5.2869772999157731E-002
  -2.4278137921716819E-002   6.6751915416222163E-003   4.9055405305507671E-002
  -2.2469834287566659E-002   6.0837718452815270E-003   4.8773724573160759E-002
  -2.0661530653416527E-002   5.4850100294603910E-003   4.8658161578900516E-002
  -1.8853227019266387E-002   4.8789060941584333E-003   4.8708716322726942E-002
  -1.7044923385116234E-002   4.2654600393761122E-003   4.8925388804640257E-002
  -7.8767499114128295E-003   1.8971360808889282E-003   6.4180821761755102E-002
  -6.9485387238824511E-003   1.6837643039942507E-003   6.4096454852757612E-002
  -6.0203275363520867E-003   1.5817447744147228E-003   6.4258553165956800E-002
  -5.0921163488217066E-003   1.5910774921500601E-003   6.4667116701352667E-002
  -4.1639051612913439E-003   1.7117624572009493E-003   6.5322145458945435E-002
  -9.9798302796335198E-003   2.4892170705106409E-003   6.0497489477715216E-002
  -8.8038234124369862E-003   2.1893035112729442E-003   6.0400305461181747E-002
  -7.6278165452404560E-003   2.0016932416488387E-003   6.0552247581783764E-002
  -6.4518096780439207E-003   1.9263862616389210E-003   6.0953315839521446E-002
  -5.2758028108473923E-003   1.9633825712430664E-003   6.1603510234394698E-002
  -1.2208885981324318E-002   3.0812980601325202E-003   5.6727139890183020E-002
  -1.0782422519522728E-002   2.6948427185516100E-003   5.6618089808412181E-002
  -9.3559590577211409E-003   2.4216417088830794E-003   5.6760826778715814E-002
  -7.9294955959195775E-003   2.2616950311281185E-003   5.7155350801093886E-002
  -6.5030321341179899E-003   2.2150026852854054E-003   5.7801661875546528E-002
  -1.4563917016485222E-002   3.6733790497543717E-003   5.2869772999157731E-002
  -1.2884336045139696E-002   3.2003819258301786E-003   5.2749807894448705E-002
  -1.1204755073794185E-002   2.8415901761175907E-003   5.2884290756752952E-002
  -9.5251741024486667E-003   2.5970038006170367E-003   5.3273221586070542E-002
  -7.8455931311031471E-003   2.4666227993276890E-003   5.3916600382401716E-002
  -1.7044923385116234E-002   4.2654600393761122E-003   4.8925388804640257E-002
  -1.5109563989287894E-002   3.7059211331090247E-003   4.8795459719291778E-002
  -1.3174204593459540E-002   3.2615386433514637E-003   4.8922639515895150E-002
  -1.1238845197631173E-002   2.9323125701059619E-003   4.9306928194451122E-002
  -9.3034858018028466E-003   2.7182429133698616E-003   4.9948325754959222E-002
  -4.1639051612913439E-003   1.7117624572009493E-003   6.5322145458945435E-002
  -3.6322265701671033E-003   2.0043445749692301E-003   6.4405921975369762E-002
  -3.1005479790428836E-003   2.5293687508573526E-003   6.3609134286083668E-002
  -2.5688693879186500E-003   3.2868349848653583E-003   6.2931782391086932E-002
  -2.0371907967944233E-003   4.2767432769930114E-003   6.2373866290379443E-002
  -5.2758028108473923E-003   1.9633825712430664E-003   6.1603510234394698E-002
  -4.5987014492369430E-003   2.2195594034455368E-003   6.0877191960152399E-002
  -3.9216000876264798E-003   2.8017939912300949E-003   6.0322283432593604E-002
  -3.2444987260160131E-003   3.7100863345963381E-003   5.9938784651717564E-002
  -2.5673973644055638E-003   4.9444364335455848E-003   5.9726695617524750E-002
  -6.5030321341179899E-003   2.2150026852854054E-003   5.7801661875546528E-002
  -5.6285340496275565E-003   2.4347742319218990E-003   5.7358864508100321E-002
  -4.7540359651371093E-003   3.0742192316026429E-003   5.7139450839730821E-002
  -3.8795378806466899E-003   4.1333376843282130E-003   5.7143420870438291E-002
  -3.0050397961562583E-003   5.6121295900982693E-003   5.7370774600222441E-002
  -7.8455931311031471E-003   2.4666227993276890E-003   5.3916600382401716E-002
  -6.7217243713389536E-003   2.6499890603980114E-003   5.3850939619213181E-002
  -5.5978556115747480E-003   3.3466444719752325E-003   5.4060636507495825E-002
  -4.4739868518105397E-003   4.5565890340597513E-003   5.4545691047248962E-002
  -3.3501180920463467E-003   6.2798227466510093E-003   5.5306103238472501E-002
  -9.3034858018028466E-003   2.7182429133698616E-003   4.9948325754959222E-002
  -7.8782724143711264E-003   2.8652038888745679E-003   5.0353417293491520E-002
  -6.4530590269394200E-003   3.6190697123480164E-003   5.1085840435888374E-002
  -5.0278456395077067E-003   4.9798403837911440E-003   5.2145595182149590E-002
  -3.6026322520759935E-003   6.9475159032036382E-003   5.3532681532275084E-002
  -2.0371907967944233E-003   4.2767432769930114E-003   6.2373866290379443E-002
  -2.2870339571003928E-003   5.5792570953031584E-003   5.8342253197864014E-002
  -2.5368771174063519E-003   7.2745399078567030E-003   5.4305218481301543E-002
  -2.7867202777123266E-003   9.3625917146554355E-003   5.0262762140692585E-002
  -3.0365634380182804E-003   1.1843412515697871E-002   4.6214884176036808E-002
  -2.5673973644055638E-003   4.9444364335455848E-003   5.9726695617524750E-002
  -2.8401982229120833E-003   6.5687007997236035E-003   5.6193380473275878E-002
  -3.1129990814186079E-003   8.6467359447769399E-003   5.2619571556672962E-002
  -3.3857999399250832E-003   1.1178541868706177E-002   4.9005268867715945E-002
  -3.6586007984316590E-003   1.4164118571510453E-002   4.5350472406403775E-002
  -3.0050397961562583E-003   5.6121295900982693E-003   5.7370774600222441E-002
  -3.3358705011707866E-003   7.5581445041443263E-003   5.4396759188871657E-002
  -3.6667012061853159E-003   1.0018931981697149E-002   5.1347177856859022E-002
  -3.9975319111998867E-003   1.2994492022756744E-002   4.8222030604184729E-002
  -4.3283626162143735E-003   1.6484824627323258E-002   4.5021317430848473E-002
  -3.3501180920463467E-003   6.2798227466510093E-003   5.5306103238472501E-002
  -3.7740507918764257E-003   8.5475882085653543E-003   5.2952389344651130E-002
  -4.1979834917064774E-003   1.1391128018617261E-002   5.0488037381860217E-002
  -4.6219161915364735E-003   1.4810442176807288E-002   4.7913047350100740E-002
  -5.0458488913666354E-003   1.8805530683136062E-002   4.5227419249370876E-002
  -3.6026322520759935E-003   6.9475159032036382E-003   5.3532681532275084E-002
  -4.1547390950290725E-003   9.5370319129858272E-003   5.1860270940614184E-002
  -4.7068459379821098E-003   1.2763324055537456E-002   5.0042150131676510E-002
  -5.2589527809351680E-003   1.6626392330858185E-002   4.8078319105462314E-002
  -5.8110596238882262E-003   2.1126236738948645E-002   4.5968777861971066E-002
  -5.1394606296483347E-002   1.3894596958190508E-002   4.8143042643338518E-002
  -4.9228217932065749E-002   1.3873585347902395E-002   4.8150809849928422E-002
  -4.7061829567648150E-002   1.3726144387999267E-002   4.8294941057045238E-002
  -4.4895441203230552E-002   1.3452274078480965E-002   4.8575436264689131E-002
  -4.2729052838812953E-002   1.3051974419347578E-002   4.8992295472860048E-002
  -5.7675652782871484E-002   1.7192612447475442E-002   4.6392018702258286E-002
  -5.5261970315138353E-002   1.6548909525005873E-002   4.5421507916250436E-002
  -5.2848287847405251E-002   1.5934411391820169E-002   4.4809221336346711E-002
  -5.0434605379672218E-002   1.5349118047917901E-002   4.4555158962546915E-002
  -4.8020922911939060E-002   1.4793029493299525E-002   4.4659320794851021E-002
  -6.4997295084480058E-002   2.0490627936760292E-002   4.3940486379547061E-002
  -6.2114458307854503E-002   1.9224233702109350E-002   4.2147331739840505E-002
  -5.9231621531228899E-002   1.8142678395640946E-002   4.0934261511814937E-002
  -5.6348784754603379E-002   1.7245962017354972E-002   4.0301275695470269E-002
  -5.3465947977977824E-002   1.6534084567251472E-002   4.0248374290806521E-002
  -7.3359533201308835E-002   2.3788643426045170E-002   4.0788445675205169E-002
  -6.9785681910213879E-002   2.1899557879212939E-002   3.8328281320698654E-002
  -6.6211830619118908E-002   2.0350945399461799E-002   3.6670061583449889E-002
  -6.2637979328024049E-002   1.9142805986791946E-002   3.5813786463459105E-002
  -5.9064128036929078E-002   1.8275139641203447E-002   3.5759455960726078E-002
  -8.2762367133358050E-002   2.7086658915330075E-002   3.6935896589232464E-002
  -7.8275641122216744E-002   2.4574882056316250E-002   3.3964356658824690E-002
  -7.3788915111075493E-002   2.2559212403282652E-002   3.2016621551251623E-002
  -6.9302189099934186E-002   2.1039649956228985E-002   3.1092691266513456E-002
  -6.4815463088792907E-002   2.0016194715155367E-002   3.1192565804610106E-002
  -4.2729052838812953E-002   1.3051974419347578E-002   4.8992295472860048E-002
  -4.1537703609275486E-002   1.2582233308722657E-002   4.8871105461894104E-002
  -4.0346354379738048E-002   1.2100038644729694E-002   4.8868521933570608E-002
  -3.9155005150200609E-002   1.1605390427368648E-002   4.8984544887889739E-002
  -3.7963655920663142E-002   1.1098288656639588E-002   4.9219174324851345E-002
  -4.8020922911939060E-002   1.4793029493299525E-002   4.4659320794851021E-002
  -4.6697661394174833E-002   1.4249381803717112E-002   4.4389893290267032E-002
  -4.5374399876410627E-002   1.3701411054923160E-002   4.4265683879494006E-002
  -4.4051138358646422E-002   1.3149117246917568E-002   4.4286692562532065E-002
  -4.2727876840882188E-002   1.2592500379700611E-002   4.4452919339381169E-002
  -5.3465947977977824E-002   1.6534084567251472E-002   4.0248374290806521E-002
  -5.1984162560818295E-002   1.5916530298711706E-002   3.9838839786760796E-002
  -5.0502377143658739E-002   1.5302783465116682E-002   3.9601134987694658E-002
  -4.9020591726499169E-002   1.4692844066466711E-002   3.9535259893608073E-002
  -4.7538806309339654E-002   1.4086712102761606E-002   3.9641214504501088E-002
  -5.9064128036929078E-002   1.8275139641203447E-002   3.5759455960726078E-002
  -5.7397207109205692E-002   1.7583678793706231E-002   3.5217944951375244E-002
  -5.5730286181482354E-002   1.6904155875310287E-002   3.4874875258172580E-002
  -5.4063365253759016E-002   1.6236570886015770E-002   3.4730246881117866E-002
  -5.2396444326035685E-002   1.5580923825822587E-002   3.4784059820211391E-002
  -6.4815463088792907E-002   2.0016194715155367E-002   3.1192565804610106E-002
  -6.2936795039337204E-002   1.9250827288700784E-002   3.0527208784110665E-002
  -6.1058126989881473E-002   1.8505528285503683E-002   3.0086904690927757E-002
  -5.9179458940425797E-002   1.7780297705564777E-002   2.9871653525061451E-002
  -5.7300790890970066E-002   1.7075135548883624E-002   2.9881455286511760E-002
  -3.7963655920663142E-002   1.1098288656639588E-002   4.9219174324851345E-002
  -3.6131049667267823E-002   1.0579721716809765E-002   4.8904688951734054E-002
  -3.4298443413872517E-002   1.0050677992146262E-002   4.8796486108388576E-002
  -3.2465837160477212E-002   9.5111574826488715E-003   4.8894565794814743E-002
  -3.0633230907081893E-002   8.9611601883179959E-003   4.9198928011012610E-002
  -4.2727876840882188E-002   1.2592500379700611E-002   4.4452919339381169E-002
  -4.0686857276133852E-002   1.2026953954701686E-002   4.4081849779013832E-002
  -3.8645837711385578E-002   1.1447871473350732E-002   4.3921324311580828E-002
  -3.6604818146637283E-002   1.0855252935647996E-002   4.3971342937081992E-002
  -3.4563798581888974E-002   1.0249098341592933E-002   4.4231905655517600E-002
  -4.7538806309339654E-002   1.4086712102761606E-002   3.9641214504501088E-002
  -4.5285111870075855E-002   1.3474186192593773E-002   3.9210501485365354E-002
  -4.3031417430811972E-002   1.2845064954555480E-002   3.8994594122326462E-002
  -4.0777722991548145E-002   1.2199348388646843E-002   3.8993492415384398E-002
  -3.8524028552284290E-002   1.1537036494867731E-002   3.9207196364539190E-002
  -5.2396444326035685E-002   1.5580923825822587E-002   3.4784059820211391E-002
  -4.9925813449093671E-002   1.4921418430485861E-002   3.4290644070788870E-002
  -4.7455182572151783E-002   1.4242258435760255E-002   3.4016295540625706E-002
  -4.4984551695209860E-002   1.3543443841645773E-002   3.3961014229721920E-002
  -4.2513920818267874E-002   1.2824974648142654E-002   3.4124800138077477E-002
  -5.7300790890970066E-002   1.7075135548883624E-002   2.9881455286511760E-002
  -5.4608962013187518E-002   1.6368650668377782E-002   2.9322277535284103E-002
  -5.1917133135404914E-002   1.5639451916964850E-002   2.8986428566478345E-002
  -4.9225304257622310E-002   1.4887539294644741E-002   2.8873908380094515E-002
  -4.6533475379839762E-002   1.4112912801417410E-002   2.8984716976132641E-002
  -3.0633230907081893E-002   8.9611601883179959E-003   4.9198928011012610E-002
  -2.9044457660740611E-002   8.4018603828389660E-003   4.8897820507398992E-002
  -2.7455684414399356E-002   7.8344323398961274E-003   4.8773530888610167E-002
  -2.5866911168058074E-002   7.2588760594907743E-003   4.8826059154646398E-002
  -2.4278137921716819E-002   6.6751915416222163E-003   4.9055405305507671E-002
  -3.4563798581888974E-002   1.0249098341592933E-002   4.4231905655517600E-002
  -3.2805920568859830E-002   9.6336738826618695E-003   4.3886856782746786E-002
  -3.1048042555830740E-002   9.0132457503303148E-003   4.3703199558526834E-002
  -2.9290164542801568E-002   8.3878139445989382E-003   4.3680933982857537E-002
  -2.7532286529772493E-002   7.7573784654670352E-003   4.3820060055739019E-002
  -3.8524028552284290E-002   1.1537036494867731E-002   3.9207196364539190E-002
  -3.6612472008841539E-002   1.0865487382484773E-002   3.8821330686674219E-002
  -3.4700915465398760E-002   1.0192059160764440E-002   3.8581430421085867E-002
  -3.2789358921956009E-002   9.5167518297068227E-003   3.8487495567774033E-002
  -3.0877802378513279E-002   8.8395653893117987E-003   3.8539526126738666E-002
  -4.2513920818267874E-002   1.2824974648142654E-002   3.4124800138077477E-002
  -4.0464111980685731E-002   1.2097300882307843E-002   3.3701242219181429E-002
  -3.8414303143103554E-002   1.1370872571198707E-002   3.3408223476287448E-002
  -3.6364494305521383E-002   1.0645689714814791E-002   3.3245743909395893E-002
  -3.4314685467939185E-002   9.9217523131566454E-003   3.3213803518506627E-002
  -4.6533475379839762E-002   1.4112912801417410E-002   2.8984716976132641E-002
  -4.4360840484392400E-002   1.3329114382130691E-002   2.8526591380267974E-002
  -4.2188205588945038E-002   1.2549685981632655E-002   2.8183578724131492E-002
  -4.0015570693497690E-002   1.1774627599922847E-002   2.7955679007723014E-002
  -3.7842935798050314E-002   1.1003939237001381E-002   2.7842892231042748E-002
  -2.4278137921716819E-002   6.6751915416222163E-003   4.9055405305507671E-002
  -2.2469834287566659E-002   6.0837718452815270E-003   4.8773724573160759E-002
  -2.0661530653416527E-002   5.4850100294603910E-003   4.8658161578900516E-002
  -1.8853227019266387E-002   4.8789060941584333E-003   4.8708716322726942E-002
  -1.7044923385116234E-002   4.2654600393761122E-003   4.8925388804640257E-002
  -2.7532286529772493E-002   7.7573784654670352E-003   4.3820060055739019E-002
  -2.5559389321804848E-002   7.1238536512068240E-003   4.3441229360269062E-002
  -2.3586492113837232E-002   6.4891538400901200E-003   4.3225468074347156E-002
  -2.1613594905869647E-002   5.8532790321166421E-003   4.3172776197973523E-002
  -1.9640697697902026E-002   5.2162292272864841E-003   4.3283153731148161E-002
  -3.0877802378513279E-002   8.8395653893117987E-003   3.8539526126738666E-002
  -2.8743359925266734E-002   8.1639354571317879E-003   3.8069712590769675E-002
  -2.6608917472020249E-002   7.4932976507194049E-003   3.7759920135810227E-002
  -2.4474475018773742E-002   6.8276519700743513E-003   3.7610148761860529E-002
  -2.2340032565527225E-002   6.1669984151968560E-003   3.7620398468920208E-002
  -3.4314685467939185E-002   9.9217523131566454E-003   3.3213803518506627E-002
  -3.2021746097952365E-002   9.2040172630571959E-003   3.2659174264662791E-002
  -2.9728806727965545E-002   8.4974414613489674E-003   3.2261517763289664E-002
  -2.7435867357978726E-002   7.8020249080323102E-003   3.2020834014387808E-002
  -2.5142927987991899E-002   7.1177676031071724E-003   3.1937123017957002E-002
  -3.7842935798050314E-002   1.1003939237001381E-002   2.7842892231042748E-002
  -3.5394547839861734E-002   1.0244099068982160E-002   2.7209614381947966E-002
  -3.2946159881673126E-002   9.5015852719783356E-003   2.6730260956785434E-002
  -3.0497771923484518E-002   8.7763978459900818E-003   2.6404831955555569E-002
  -2.8049383965295938E-002   8.0685367910174888E-003   2.6233327378258009E-002
  -1.7044923385116234E-002   4.2654600393761122E-003   4.8925388804640257E-002
  -1.5109563989287894E-002   3.7059211331090247E-003   4.8795459719291778E-002
  -1.3174204593459540E-002   3.2615386433514637E-003   4.8922639515895150E-002
  -1.1238845197631173E-002   2.9323125701059619E-003   4.9306928194451122E-002
  -9.3034858018028466E-003   2.7182429133698616E-003   4.9948325754959222E-002
  -1.9640697697902026E-002   5.2162292272864841E-003   4.3283153731148161E-002
  -1.7487062015526425E-002   4.6146842775153241E-003   4.3104502057297434E-002
  -1.5333426333150844E-002   4.0853240347185349E-003   4.3105294074588879E-002
  -1.3179790650775288E-002   3.6281484988958737E-003   4.3285529783022705E-002
  -1.1026154968399662E-002   3.2431576700477915E-003   4.3645209182598288E-002
  -2.2340032565527225E-002   6.1669984151968560E-003   3.7620398468920208E-002
  -2.0045785787414463E-002   5.5234474219221508E-003   3.7350052497031189E-002
  -1.7751539009301709E-002   4.9091094260851481E-003   3.7181485025474317E-002
  -1.5457292231188902E-002   4.3239844276864482E-003   3.7114696054249698E-002
  -1.3163045453076186E-002   3.7680724267253884E-003   3.7149685583357100E-002
  -2.5142927987991899E-002   7.1177676031071724E-003   3.1937123017957002E-002
  -2.2785735304951957E-002   6.4322105663285473E-003   3.1532111038493300E-002
  -2.0428542621912127E-002   5.7328948174517128E-003   3.1151212368551662E-002
  -1.8071349938872265E-002   5.0198203564766914E-003   3.0794427008132272E-002
  -1.5714157255832410E-002   4.2929871834032629E-003   3.0461754957234875E-002
  -2.8049383965295938E-002   8.0685367910174888E-003   2.6233327378258009E-002
  -2.5706910568139035E-002   7.3409737107353878E-003   2.5650677681683609E-002
  -2.3364437170982133E-002   6.5566802088187492E-003   2.5014476103820960E-002
  -2.1021963773825231E-002   5.7156562852669693E-003   2.4324722644670338E-002
  -1.8679490376668328E-002   4.8179019400808043E-003   2.3581417304231689E-002
  -9.3034858018028466E-003   2.7182429133698616E-003   4.9948325754959222E-002
  -7.8782724143711264E-003   2.8652038888745679E-003   5.0353417293491520E-002
  -6.4530590269394200E-003   3.6190697123480164E-003   5.1085840435888374E-002
  -5.0278456395077067E-003   4.9798403837911440E-003   5.2145595182149590E-002
  -3.6026322520759935E-003   6.9475159032036382E-003   5.3532681532275084E-002
  -1.1026154968399662E-002   3.2431576700477915E-003   4.3645209182598288E-002
  -9.2555428180651073E-003   3.1694877011060330E-003   4.4232827492493576E-002
  -7.4849306677305730E-003   3.6462747450025645E-003   4.5183911724329673E-002
  -5.7143185173960352E-003   4.6735188017376084E-003   4.6498461878107328E-002
  -3.9437063670615391E-003   6.2512198713111644E-003   4.8176477953826180E-002
  -1.3163045453076186E-002   3.7680724267253884E-003   3.7149685583357100E-002
  -1.1010900221761932E-002   3.4737715133373870E-003   3.7863382829483733E-002
  -8.8587549904477168E-003   3.6734797776567935E-003   3.8976680315628884E-002
  -6.7066097591334962E-003   4.3671972196839652E-003   4.0489578041791825E-002
  -4.5544645278192478E-003   5.5549238394186351E-003   4.2402076007973272E-002
  -1.5714157255832410E-002   4.2929871834032629E-003   3.0461754957234875E-002
  -1.3144344625461615E-002   3.7780553255687410E-003   3.1245083304462393E-002
  -1.0574531995090827E-002   3.7006848103110709E-003   3.2464146209785036E-002
  -8.0047193647200237E-003   4.0608756376301538E-003   3.4118943673202624E-002
  -5.4349067343493016E-003   4.8586278075260225E-003   3.6209475694715103E-002
  -1.8679490376668328E-002   4.8179019400808043E-003   2.3581417304231689E-002
  -1.5655876029164129E-002   4.0823391378002061E-003   2.4377928917429403E-002
  -1.2632261681659901E-002   3.7278898429656260E-003   2.5646309406798795E-002
  -9.6086473341557010E-003   3.7545540555766893E-003   2.7386558772340169E-002
  -6.5850329866514734E-003   4.1623317756335210E-003   2.9598677014053387E-002
  -3.6026322520759935E-003   6.9475159032036382E-003   5.3532681532275084E-002
  -4.1547390950290725E-003   9.5370319129858272E-003   5.1860270940614184E-002
  -4.7068459379821098E-003   1.2763324055537456E-002   5.0042150131676510E-002
  -5.2589527809351680E-003   1.6626392330858185E-002   4.8078319105462314E-002
  -5.8110596238882262E-003   2.1126236738948645E-002   4.5968777861971066E-002
  -3.9437063670615391E-003   6.2512198713111644E-003   4.8176477953826180E-002
  -4.5375606190330986E-003   8.6890267114030362E-003   4.7241611455135057E-002
  -5.1314148710047275E-003   1.2296588079694082E-002   4.6368960355684052E-002
  -5.7252691229763356E-003   1.7073903976183455E-002   4.5558524655472998E-002
  -6.3191233749479159E-003   2.3020974400872030E-002   4.4810304354500730E-002
  -4.5544645278192478E-003   5.5549238394186351E-003   4.2402076007973272E-002
  -4.9821405722930215E-003   7.8410215098209668E-003   4.2737731997681438E-002
  -5.4098166167668126E-003   1.1829852103851277E-002   4.3343529003145573E-002
  -5.8374926612406123E-003   1.7521415621509173E-002   4.4219467024366084E-002
  -6.2651687057143773E-003   2.4915712062795192E-002   4.5365546061342243E-002
  -5.4349067343493016E-003   4.8586278075260225E-003   3.6209475694715103E-002
  -5.4884789548087926E-003   6.9930163082385366E-003   3.8348632568251925E-002
  -5.5420511752683676E-003   1.1363116128008409E-002   4.0965856074060961E-002
  -5.5956233957279704E-003   1.7968927266834779E-002   4.4061146212142993E-002
  -5.6491956161874891E-003   2.6810449724718577E-002   4.7634502982496690E-002
  -6.5850329866514734E-003   4.1623317756335210E-003   2.9598677014053387E-002
  -6.0565757665804743E-003   6.1450111066561064E-003   3.4074313166847614E-002
  -5.5281185465094473E-003   1.0896380152165458E-002   3.9235941568430854E-002
  -4.9996613264383788E-003   1.8416438912160195E-002   4.5083562218802581E-002
  -4.4712041063673658E-003   2.8705187386641740E-002   5.1617175117963043E-002
  -8.2762367133358050E-002   2.7086658915330075E-002   3.6935896589232464E-002
  -7.8275641122216744E-002   2.4574882056316250E-002   3.3964356658824690E-002
  -7.3788915111075493E-002   2.2559212403282652E-002   3.2016621551251623E-002
  -6.9302189099934186E-002   2.1039649956228985E-002   3.1092691266513456E-002
  -6.4815463088792907E-002   2.0016194715155367E-002   3.1192565804610106E-002
  -9.0401282004302808E-002   2.3031076902904568E-002   1.6010959369434863E-002
  -8.5384884560976593E-002   2.2893488602026058E-002   1.7264469561531104E-002
  -8.0368487117650295E-002   2.2561292246617098E-002   1.8553517795162566E-002
  -7.5352089674324010E-002   2.2034487836677628E-002   1.9878104070329139E-002
  -7.0335692230997726E-002   2.1313075372207557E-002   2.1238228387030850E-002
  -9.3471762937818531E-002   1.8975494890479061E-002  -2.1944316619723070E-003
  -8.8913960843606907E-002   2.1212095147735727E-002   2.5934133921175218E-003
  -8.4356158749395282E-002   2.2563372089951392E-002   6.4285297064428787E-003
  -7.9798356655183644E-002   2.3029325717126185E-002   9.3109172810037152E-003
  -7.5240554560972048E-002   2.2609956029259748E-002   1.1240576115800149E-002
  -9.1973809933904957E-002   1.4919912878053526E-002  -1.7680276504988872E-002
  -8.8862869970107700E-002   1.9530701693445493E-002  -1.0048811849416032E-002
  -8.5751930006310345E-002   2.2565451933285928E-002  -4.3583427149072162E-003
  -8.2640990042512977E-002   2.4024163597574866E-002  -6.0886910146283005E-004
  -7.9530050078715678E-002   2.3906836686311994E-002   1.1996089909176513E-003
  -8.5907422992562266E-002   1.0864330865627991E-002  -3.0446575159615019E-002
  -8.5231611940478902E-002   1.7849308239155093E-002  -2.0662206163069741E-002
  -8.4555800888395649E-002   2.2567531776620214E-002  -1.3807099468888112E-002
  -8.3879989836312230E-002   2.5019001478023280E-002  -9.8812550770705151E-003
  -8.3204178784228922E-002   2.5203717343364129E-002  -8.8846729876164710E-003
  -6.4815463088792907E-002   2.0016194715155367E-002   3.1192565804610106E-002
  -6.2936795039337204E-002   1.9250827288700784E-002   3.0527208784110665E-002
  -6.1058126989881473E-002   1.8505528285503683E-002   3.0086904690927757E-002
  -5.9179458940425797E-002   1.7780297705564777E-002   2.9871653525061451E-002
  -5.7300790890970066E-002   1.7075135548883624E-002   2.9881455286511760E-002
  -7.0335692230997726E-002   2.1313075372207557E-002   2.1238228387030850E-002
  -6.8277467446924978E-002   2.0509554091773852E-002   2.1167971408992903E-002
  -6.6219242662852201E-002   1.9736423233943270E-002   2.1231774972872514E-002
  -6.4161017878779453E-002   1.8993682798715914E-002   2.1429639078669391E-002
  -6.2102793094706690E-002   1.8281332786091620E-002   2.1761563726383826E-002
  -7.5240554560972048E-002   2.2609956029259748E-002   1.1240576115800149E-002
  -7.3093765427681312E-002   2.1768280894847239E-002   1.1775741179568852E-002
  -7.0946976294390618E-002   2.0967318182382906E-002   1.2353974399855985E-002
  -6.8800187161099924E-002   2.0207067891867048E-002   1.2975275776661573E-002
  -6.6653398027809244E-002   1.9487530023299615E-002   1.3639645309985515E-002
  -7.9530050078715678E-002   2.3906836686311994E-002   1.1996089909176513E-003
  -7.7385688981606207E-002   2.3027007697920522E-002   2.3505180958384980E-003
  -7.5241327884496681E-002   2.2198213130822628E-002   3.4535029718786771E-003
  -7.3096966787387113E-002   2.1420452985018074E-002   4.5085636190378567E-003
  -7.0952605690277643E-002   2.0693727260507666E-002   5.5157000373168494E-003
  -8.3204178784228922E-002   2.5203717343364129E-002  -8.8846729876164710E-003
  -8.1153238108699677E-002   2.4285734500993583E-002  -7.1076978421983350E-003
  -7.9102297433170432E-002   2.3429108079262101E-002  -5.4696393110598568E-003
  -7.7051356757641132E-002   2.2633838078169370E-002  -3.9704973942014214E-003
  -7.5000416082111943E-002   2.1899924497715606E-002  -2.6102720916226785E-003
  -5.7300790890970066E-002   1.7075135548883624E-002   2.9881455286511760E-002
  -5.4608962013187518E-002   1.6368650668377782E-002   2.9322277535284103E-002
  -5.1917133135404914E-002   1.5639451916964850E-002   2.8986428566478345E-002
  -4.9225304257622310E-002   1.4887539294644741E-002   2.8873908380094515E-002
  -4.6533475379839762E-002   1.4112912801417410E-002   2.8984716976132641E-002
  -6.2102793094706690E-002   1.8281332786091620E-002   2.1761563726383826E-002
  -5.9207703816527527E-002   1.7567144886845271E-002   2.1405324830387679E-002
  -5.6312614538348300E-002   1.6818890791751362E-002   2.1232277952762890E-002
  -5.3417525260169074E-002   1.6036570500810060E-002   2.1242423093509252E-002
  -5.0522435981989897E-002   1.5220184014021310E-002   2.1435760252627223E-002
  -6.6653398027809244E-002   1.9487530023299615E-002   1.3639645309985515E-002
  -6.3595185113283950E-002   1.8765639105312537E-002   1.3474992944280603E-002
  -6.0536972198758726E-002   1.7998329666537881E-002   1.3453395832896432E-002
  -5.7478759284233447E-002   1.7185601706975327E-002   1.3574853975832923E-002
  -5.4420546369708209E-002   1.6327455226625015E-002   1.3839367373090342E-002
  -7.0952605690277643E-002   2.0693727260507666E-002   5.5157000373168494E-003
  -6.7771405903456955E-002   1.9964133323780192E-002   5.5312818769625918E-003
  -6.4590206116636212E-002   1.9177768541324174E-002   5.6497822068786920E-003
  -6.1409006329815496E-002   1.8334632913140452E-002   5.8712010270649479E-003
  -5.8227806542994767E-002   1.7434726439228873E-002   6.1955383375217436E-003
  -7.5000416082111943E-002   2.1899924497715606E-002  -2.6102720916226785E-003
  -7.1736366187046374E-002   2.1162627542247459E-002  -2.4258083715661960E-003
  -6.8472316291980750E-002   2.0357207416110940E-002  -2.1785629252896455E-003
  -6.5208266396915154E-002   1.9483664119305917E-002  -1.8685357527941995E-003
  -6.1944216501849558E-002   1.8541997651832509E-002  -1.4957268540786162E-003
  -4.6533475379839762E-002   1.4112912801417410E-002   2.8984716976132641E-002
  -4.4360840484392400E-002   1.3329114382130691E-002   2.8526591380267974E-002
  -4.2188205588945038E-002   1.2549685981632655E-002   2.8183578724131492E-002
  -4.0015570693497690E-002   1.1774627599922847E-002   2.7955679007723014E-002
  -3.7842935798050314E-002   1.1003939237001381E-002   2.7842892231042748E-002
  -5.0522435981989897E-002   1.5220184014021310E-002   2.1435760252627223E-002
  -4.8221903215882544E-002   1.4398012072446564E-002   2.1094702454658276E-002
  -4.5921370449775241E-002   1.3598335417147542E-002   2.0894327458281264E-002
  -4.3620837683667937E-002   1.2821154048123767E-002   2.0834635263495938E-002
  -4.1320304917560641E-002   1.2066467965376138E-002   2.0915625870302490E-002
  -5.4420546369708209E-002   1.6327455226625015E-002   1.3839367373090342E-002
  -5.1966545871077241E-002   1.5466909762762271E-002   1.3633502640504211E-002
  -4.9512545372446183E-002   1.4646984852662422E-002   1.3593890571373592E-002
  -4.7058544873815153E-002   1.3867680496325129E-002   1.3720531165698501E-002
  -4.4604544375184157E-002   1.3128996693750450E-002   1.4013424423479026E-002
  -5.8227806542994767E-002   1.7434726439228873E-002   6.1955383375217436E-003
  -5.5594768449976344E-002   1.6535807453078172E-002   6.1429919378053997E-003
  -5.2961730356957858E-002   1.5695634288177027E-002   6.2822680634083052E-003
  -5.0328692263939379E-002   1.4914206944526158E-002   6.6133667143310976E-003
  -4.7695654170920955E-002   1.4191525422124596E-002   7.1362878905728289E-003
  -6.1944216501849558E-002   1.8541997651832509E-002  -1.4957268540786162E-003
  -5.9106570952579984E-002   1.7604705143393629E-002  -1.3768296534376612E-003
  -5.6268925403310299E-002   1.6744283723691938E-002  -1.0405400656139374E-003
  -5.3431279854040670E-002   1.5960733392727071E-002  -4.8685809060677876E-004
  -5.0593634304771040E-002   1.5254054150499519E-002   2.8421627158325968E-004
  -3.7842935798050314E-002   1.1003939237001381E-002   2.7842892231042748E-002
  -3.5394547839861734E-002   1.0244099068982160E-002   2.7209614381947966E-002
  -3.2946159881673126E-002   9.5015852719783356E-003   2.6730260956785434E-002
  -3.0497771923484518E-002   8.7763978459900818E-003   2.6404831955555569E-002
  -2.8049383965295938E-002   8.0685367910174888E-003   2.6233327378258009E-002
  -4.1320304917560641E-002   1.2066467965376138E-002   2.0915625870302490E-002
  -3.8740708992392944E-002   1.1320398880834470E-002   2.0458793766717387E-002
  -3.6161113067225262E-002   1.0569068506430135E-002   2.0110453173157850E-002
  -3.3581517142057538E-002   9.8124768421624653E-003   1.9870604089623947E-002
  -3.1001921216889938E-002   9.0506238880325718E-003   1.9739246516116027E-002
  -4.4604544375184157E-002   1.3128996693750450E-002   1.4013424423479026E-002
  -4.1939173396944182E-002   1.2396698692686614E-002   1.3710450404525398E-002
  -3.9273802418704234E-002   1.1636551740881476E-002   1.3470534981690277E-002
  -3.6608431440464329E-002   1.0848555838334790E-002   1.3293678154974196E-002
  -3.3943060462224312E-002   1.0032710985047488E-002   1.3179879924376997E-002
  -4.7695654170920955E-002   1.4191525422124596E-002   7.1362878905728289E-003
  -4.4989941053515503E-002   1.3472998504538730E-002   6.9645842953717785E-003
  -4.2284227936110044E-002   1.2704034975332824E-002   6.8105063823829838E-003
  -3.9578514818704502E-002   1.1884634834507532E-002   6.6740541516060719E-003
  -3.6872801701299134E-002   1.1014798082062155E-002   6.5552276030414955E-003
  -5.0593634304771040E-002   1.5254054150499519E-002   2.8421627158325968E-004
  -4.7893011962106824E-002   1.4549298316391179E-002   2.2119543925663843E-004
  -4.5192389619442663E-002   1.3771518209784728E-002   1.3036737523572373E-004
  -4.2491767276778503E-002   1.2920713830679859E-002   1.1732079519981287E-005
  -3.9791144934114286E-002   1.1996885179077488E-002  -1.3471044789092890E-004
  -2.8049383965295938E-002   8.0685367910174888E-003   2.6233327378258009E-002
  -2.5706910568139035E-002   7.3409737107353878E-003   2.5650677681683609E-002
  -2.3364437170982133E-002   6.5566802088187492E-003   2.5014476103820960E-002
  -2.1021963773825231E-002   5.7156562852669693E-003   2.4324722644670338E-002
  -1.8679490376668328E-002   4.8179019400808043E-003   2.3581417304231689E-002
  -3.1001921216889938E-002   9.0506238880325718E-003   1.9739246516116027E-002
  -2.8696542559606408E-002   8.2872069075661803E-003   1.9157153374993408E-002
  -2.6391163902322823E-002   7.5259231642900160E-003   1.8554422635412127E-002
  -2.4085785245039328E-002   6.7667726582044396E-003   1.7931054297372087E-002
  -2.1780406587755763E-002   6.0097553893088129E-003   1.7287048360873247E-002
  -3.3943060462224312E-002   1.0032710985047488E-002   1.3179879924376997E-002
  -3.1641862261984920E-002   9.2334401043966952E-003   1.2657206997531645E-002
  -2.9340664061745493E-002   8.4951661197614908E-003   1.2146810755056511E-002
  -2.7039465861506080E-002   7.8178890311415734E-003   1.1648691196952020E-002
  -2.4738267661266675E-002   7.2016088385368771E-003   1.1162848323218011E-002
  -3.6872801701299134E-002   1.1014798082062155E-002   6.5552276030414955E-003
  -3.4542869675274548E-002   1.0179673301227737E-002   6.1508385492981266E-003
  -3.2212937649250026E-002   9.4644090752328061E-003   5.7916404627544292E-003
  -2.9883005623225462E-002   8.8690054040785980E-003   5.4776333434104155E-003
  -2.7553073597200925E-002   8.3934622877650245E-003   5.2088171912663336E-003
  -3.9791144934114286E-002   1.1996885179077488E-002  -1.3471044789092890E-004
  -3.7399564799475371E-002   1.1125906498058336E-002  -3.6195196970700838E-004
  -3.5007984664836456E-002   1.0433652030704510E-002  -5.1108824149467824E-004
  -3.2616404530197485E-002   9.9201217770161915E-003  -5.8211926325329316E-004
  -3.0224824395558625E-002   9.5853157369927278E-003  -5.7504503498262416E-004
  -1.8679490376668328E-002   4.8179019400808043E-003   2.3581417304231689E-002
  -1.5655876029164129E-002   4.0823391378002061E-003   2.4377928917429403E-002
  -1.2632261681659901E-002   3.7278898429656260E-003   2.5646309406798795E-002
  -9.6086473341557010E-003   3.7545540555766893E-003   2.7386558772340169E-002
  -6.5850329866514734E-003   4.1623317756335210E-003   2.9598677014053387E-002
  -2.1780406587755763E-002   6.0097553893088129E-003   1.7287048360873247E-002
  -1.8553605347352176E-002   5.3449625207528939E-003   1.8239647663842340E-002
  -1.5326804106948463E-002   4.8624852156852749E-003   1.9126751876438197E-002
  -1.2100002866544786E-002   4.5623234741056090E-003   1.9948360998661235E-002
  -8.8732016261411639E-003   4.4444772960146040E-003   2.0704475030511427E-002
  -2.4738267661266675E-002   7.2016088385368771E-003   1.1162848323218011E-002
  -2.1845643494508349E-002   6.6075859037052487E-003   1.2072737372000791E-002
  -1.8953019327749968E-002   5.9970805884048961E-003   1.2379767363865923E-002
  -1.6060395160991676E-002   5.3700928926345218E-003   1.2083938298813143E-002
  -1.3167770994233316E-002   4.7266228163959645E-003   1.1185250176842715E-002
  -2.7553073597200925E-002   8.3934622877650245E-003   5.2088171912663336E-003
  -2.5531990470632759E-002   7.8702092866570483E-003   5.8771980419054654E-003
  -2.3510907344064511E-002   7.1316759611244201E-003   5.4053558690820638E-003
  -2.1489824217496283E-002   6.1778623111639931E-003   3.7932906727960319E-003
  -1.9468741090928107E-002   5.0087683367777414E-003   1.0410024530477305E-003
  -3.0224824395558625E-002   9.5853157369927278E-003  -5.7504503498262416E-004
  -2.9612646275725352E-002   9.1328326696101803E-003  -3.4697032644454007E-004
  -2.9000468155892023E-002   8.2662713338441107E-003  -1.7964826079133744E-003
  -2.8388290036058778E-002   6.9856317296927845E-003  -4.9235818793901959E-003
  -2.7776111916225421E-002   5.2909138571584080E-003  -9.7282681408740190E-003
  -6.5850329866514734E-003   4.1623317756335210E-003   2.9598677014053387E-002
  -6.0565757665804743E-003   6.1450111066561064E-003   3.4074313166847614E-002
  -5.5281185465094473E-003   1.0896380152165458E-002   3.9235941568430854E-002
  -4.9996613264383788E-003   1.8416438912160195E-002   4.5083562218802581E-002
  -4.4712041063673658E-003   2.8705187386641740E-002   5.1617175117963043E-002
  -8.8732016261411639E-003   4.4444772960146040E-003   2.0704475030511427E-002
  -7.5867508349600626E-003   5.6598512093058440E-003   2.5872118943905342E-002
  -6.3003000437789752E-003   9.3593497418735794E-003   3.1869757750730865E-002
  -5.0138492525979225E-003   1.5542972893716922E-002   3.8697391450987384E-002
  -3.7273984614165645E-003   2.4210720664835872E-002   4.6355020044675399E-002
  -1.3167770994233316E-002   4.7266228163959645E-003   1.1185250176842715E-002
  -1.0979323987299644E-002   5.1746913119559146E-003   1.6760336755626382E-002
  -8.7908769803659373E-003   7.8223193315815759E-003   2.3309420872484179E-002
  -6.6024299734323312E-003   1.2669506875273146E-002   3.0832502527416046E-002
  -4.4139829664985586E-003   1.9716253943030448E-002   3.9329581720421447E-002
  -1.9468741090928107E-002   5.0087683367777414E-003   1.0410024530477305E-003
  -1.6234295223599225E-002   4.6895314146054856E-003   6.7389666020109817E-003
  -1.2999849356270370E-002   6.2852889212896348E-003   1.3554930933690871E-002
  -9.7654034889414591E-003   9.7960408568290667E-003   2.1488895448087054E-002
  -6.5309576216126333E-003   1.5221787221224914E-002   3.0540860145199938E-002
  -2.7776111916225421E-002   5.2909138571584080E-003  -9.7282681408740190E-003
  -2.3351664543858952E-002   4.2043715172552787E-003  -4.1919915169411626E-003
  -1.8927217171492261E-002   4.7482585109981379E-003   2.6062879343510259E-003
  -1.4502769799125848E-002   6.9225748383857644E-003   1.0666570213002130E-002
  -1.0078322426759101E-002   1.0727320499419157E-002   1.9988855319011956E-002
 </DataArray>
 </PointData>
 </Piece>
 </UnstructuredGrid>
 </VTKFile>
